<?xml version="1.0"?>
<VTKFile type="UnstructuredGrid" version="0.1" byte_order="LittleEndian">
<UnstructuredGrid>
<Piece NumberOfPoints="29137" NumberOfCells="10222">
<Points>
<DataArray type="Float64" NumberOfComponents="3" format="ascii">
-0.5 -0.5 0 -0.4606846942148074 -0.47495635599240238 0 -0.47841963495131828 -0.46076903595573421 0 -0.5 -0.5 0 -0.47841963495131828 -0.46076903595573421 0 -0.5 -0.4362640087040317 0 -0.5 -0.5 0 -0.4606846942148074 -0.47495635599240238 0 -0.44263431785462781 -0.49999999999999961 0 -0.4606846942148074 -0.47495635599240238 0 -0.44907516603801478 -0.46105656159713232 0 -0.43239078184826918 -0.4765392468759283 0 -0.4606846942148074 -0.47495635599240238 0 -0.44263431785462781 -0.49999999999999961 0 -0.43239078184826918 -0.4765392468759283 0 -0.44263431785462781 -0.49999999999999961 0 -0.43239078184826918 -0.4765392468759283 0 -0.44774818270822381 -0.44611357173477029 0 -0.44907516603801478 -0.46105656159713232 0 -0.46029361270921959 -0.45206944964175061 0 -0.44774818270822381 -0.44611357173477029 0 -0.4537567913193124 -0.4316690308025411 0 -0.43990320969141927 -0.43564749176138112 0 -0.44774818270822381 -0.44611357173477029 0 -0.43990320969141927 -0.43564749176138112 0 -0.43696023539587209 -0.44499307334991739 0 -0.44774818270822381 -0.44611357173477029 0 -0.43554382460262359 -0.45590141028137271 0 -0.43696023539587209 -0.44499307334991739 0 -0.44907516603801478 -0.46105656159713232 0 -0.43239078184826918 -0.4765392468759283 0 -0.43554382460262359 -0.45590141028137271 0 -0.44774818270822381 -0.44611357173477029 0 -0.44907516603801478 -0.46105656159713232 0 -0.43554382460262359 -0.45590141028137271 0 -0.4606846942148074 -0.47495635599240238 0 -0.46029361270921959 -0.45206944964175061 0 -0.47841963495131828 -0.46076903595573421 0 -0.4606846942148074 -0.47495635599240238 0 -0.44907516603801478 -0.46105656159713232 0 -0.46029361270921959 -0.45206944964175061 0 -0.44774818270822381 -0.44611357173477029 0 -0.46029361270921959 -0.45206944964175061 0 -0.4537567913193124 -0.4316690308025411 0 -0.46029361270921959 -0.45206944964175061 0 -0.46975730027778201 -0.44190584235115787 0 -0.4537567913193124 -0.4316690308025411 0 -0.46975730027778201 -0.44190584235115787 0 -0.47841963495131828 -0.46076903595573421 0 -0.5 -0.4362640087040317 0 -0.46029361270921959 -0.45206944964175061 0 -0.46975730027778201 -0.44190584235115787 0 -0.47841963495131828 -0.46076903595573421 0 -0.5 -0.4362640087040317 0 -0.4774479055992894 -0.39476208359281789 0 -0.50000000000000711 -0.35667056638494898 0 -0.5 -0.4362640087040317 0 -0.4699149498912466 -0.41461340409965791 0 -0.4774479055992894 -0.39476208359281789 0 -0.46975730027778201 -0.44190584235115787 0 -0.5 -0.4362640087040317 0 -0.46730223929621317 -0.42812009735560169 0 -0.5 -0.4362640087040317 0 -0.4699149498912466 -0.41461340409965791 0 -0.46730223929621317 -0.42812009735560169 0 -0.4699149498912466 -0.41461340409965791 0 -0.4774479055992894 -0.39476208359281789 0 -0.46556621117060748 -0.40072575637817481 0 -0.4774479055992894 -0.39476208359281789 0 -0.46283572826181252 -0.39014548226829299 0 -0.4774479055992894 -0.39476208359281789 0 -0.46283572826181252 -0.39014548226829299 0 -0.48141786413091209 -0.37340802432662362 0 -0.46283572826181252 -0.39014548226829299 0 -0.48141786413091209 -0.37340802432662362 0 -0.46283572826181252 -0.39014548226829299 0 -0.48141786413091209 -0.37340802432662362 0 -0.47404614740477019 -0.37186123407992983 0 -0.46283572826181252 -0.39014548226829299 0 -0.46106922110715559 -0.38958736836906172 0 -0.47404614740477019 -0.37186123407992983 0 -0.46348729166808639 -0.37576334891521329 0 -0.45832738962730241 -0.38740294259565078 0 -0.45782484934247081 -0.36297365966535572 0 -0.46348729166808639 -0.37576334891521329 0 -0.46106922110715559 -0.38958736836906172 0 -0.47404614740477019 -0.37186123407992983 0 -0.46106922110715559 -0.38958736836906172 0 -0.47404614740477019 -0.37186123407992983 0 -0.45832738962730241 -0.38740294259565078 0 -0.45782484934247081 -0.36297365966535572 0 -0.45832738962730241 -0.38740294259565078 0 -0.45081146418215468 -0.38221798807870189 0 -0.45271483144369917 -0.37328769795421501 0 -0.46348729166808639 -0.37576334891521329 0 -0.46106922110715559 -0.38958736836906172 0 -0.45832738962730241 -0.38740294259565078 0 -0.46283572826181252 -0.39014548226829299 0 -0.46106922110715559 -0.38958736836906172 0 -0.46106922110715559 -0.38958736836906172 0 -0.45644959517205358 -0.39589765385678938 0 -0.44641482846402603 -0.39487671261133273 0 -0.46283572826181252 -0.39014548226829299 0 -0.46106922110715559 -0.38958736836906172 0 -0.45644959517205358 -0.39589765385678938 0 -0.46283572826181252 -0.39014548226829299 0 -0.45644959517205358 -0.39589765385678938 0 -0.46106922110715559 -0.38958736836906172 0 -0.45644959517205358 -0.39589765385678938 0 -0.46283572826181252 -0.39014548226829299 0 -0.45644959517205358 -0.39589765385678938 0 -0.46556621117060748 -0.40072575637817481 0 -0.4774479055992894 -0.39476208359281789 0 -0.46283572826181252 -0.39014548226829299 0 -0.46556621117060748 -0.40072575637817481 0 -0.45644959517205358 -0.39589765385678938 0 -0.4577490691997364 -0.40736937434801401 0 -0.4471029387664478 -0.40866493655535768 0 -0.45644959517205358 -0.39589765385678938 0 -0.46556621117060748 -0.40072575637817481 0 -0.4577490691997364 -0.40736937434801401 0 -0.44641482846402603 -0.39487671261133273 0 -0.43806649226582822 -0.38231983896642829 0 -0.43220865306735962 -0.39971971050548089 0 -0.45644959517205358 -0.39589765385678938 0 -0.4471029387664478 -0.40866493655535768 0 -0.44428018070773351 -0.40685899135890319 0 -0.45644959517205358 -0.39589765385678938 0 -0.44641482846402603 -0.39487671261133273 0 -0.44428018070773351 -0.40685899135890319 0 -0.45644959517205358 -0.39589765385678938 0 -0.44428018070773351 -0.40685899135890319 0 -0.45644959517205358 -0.39589765385678938 0 -0.4471029387664478 -0.40866493655535768 0 -0.44641482846402603 -0.39487671261133273 0 -0.44428018070773351 -0.40685899135890319 0 -0.43220865306735962 -0.39971971050548089 0 -0.46106922110715559 -0.38958736836906172 0 -0.45832738962730241 -0.38740294259565078 0 -0.43806649226582822 -0.38231983896642829 0 -0.46106922110715559 -0.38958736836906172 0 -0.44641482846402603 -0.39487671261133273 0 -0.43806649226582822 -0.38231983896642829 0 -0.45832738962730241 -0.38740294259565078 0 -0.43806649226582822 -0.38231983896642829 0 -0.45081146418215468 -0.38221798807870189 0 -0.46106922110715559 -0.38958736836906172 0 -0.43806649226582822 -0.38231983896642829 0 -0.44178258858949071 -0.38085699793472227 0 -0.43806649226582822 -0.38231983896642829 0 -0.45081146418215468 -0.38221798807870189 0 -0.44178258858949071 -0.38085699793472227 0 -0.43806649226582822 -0.38231983896642829 0 -0.44125992715722712 -0.37704264225458328 0 -0.44178258858949071 -0.38085699793472227 0 -0.43806649226582822 -0.38231983896642829 0 -0.43806649226582822 -0.38231983896642829 0 -0.44125992715722712 -0.37704264225458328 0 -0.43653992034091449 -0.37485146965091359 0 -0.44178258858949071 -0.38085699793472227 0 -0.44125992715722712 -0.37704264225458328 0 -0.44656110190926351 -0.37788530139230581 0 -0.44125992715722712 -0.37704264225458328 0 -0.44656110190926351 -0.37788530139230581 0 -0.44453936890232137 -0.37315928133165099 0 -0.45081146418215468 -0.38221798807870189 0 -0.44656110190926351 -0.37788530139230581 0 -0.45271483144369917 -0.37328769795421501 0 -0.44178258858949071 -0.38085699793472227 0 -0.45081146418215468 -0.38221798807870189 0 -0.44656110190926351 -0.37788530139230581 0 -0.46975730027778201 -0.44190584235115787 0 -0.4537567913193124 -0.4316690308025411 0 -0.46975730027778201 -0.44190584235115787 0 -0.4537567913193124 -0.4316690308025411 0 -0.46730223929621317 -0.42812009735560169 0 -0.4537567913193124 -0.4316690308025411 0 -0.46730223929621317 -0.42812009735560169 0 -0.45559704513896643 -0.41864484373584981 0 -0.4699149498912466 -0.41461340409965791 0 -0.46730223929621317 -0.42812009735560169 0 -0.45559704513896643 -0.41864484373584981 0 -0.4699149498912466 -0.41461340409965791 0 -0.46556621117060748 -0.40072575637817481 0 -0.4577490691997364 -0.40736937434801401 0 -0.4699149498912466 -0.41461340409965791 0 -0.4577490691997364 -0.40736937434801401 0 -0.45559704513896643 -0.41864484373584981 0 -0.4577490691997364 -0.40736937434801401 0 -0.45559704513896643 -0.41864484373584981 0 -0.4471029387664478 -0.40866493655535768 0 -0.45559704513896643 -0.41864484373584981 0 -0.4471029387664478 -0.40866493655535768 0 -0.43767781915887172 -0.42153939788952771 0 -0.4471029387664478 -0.40866493655535768 0 -0.44428018070773351 -0.40685899135890319 0 -0.43767781915887172 -0.42153939788952771 0 -0.44428018070773351 -0.40685899135890319 0 -0.43211076624341249 -0.41782032886101628 0 -0.44428018070773351 -0.40685899135890319 0 -0.43767781915887172 -0.42153939788952771 0 -0.43211076624341249 -0.41782032886101628 0 -0.4471029387664478 -0.40866493655535768 0 -0.43767781915887172 -0.42153939788952771 0 -0.4537567913193124 -0.4316690308025411 0 -0.43767781915887172 -0.42153939788952771 0 -0.43990320969141927 -0.43564749176138112 0 -0.4537567913193124 -0.4316690308025411 0 -0.43767781915887172 -0.42153939788952771 0 -0.4537567913193124 -0.4316690308025411 0 -0.45559704513896643 -0.41864484373584981 0 -0.43767781915887172 -0.42153939788952771 0 -0.43990320969141927 -0.43564749176138112 0 -0.42977278871618452 -0.42892313823348488 0 -0.43155283391876509 -0.43970097062362318 0 -0.42977278871618452 -0.42892313823348488 0 -0.43155283391876509 -0.43970097062362318 0 -0.42261879556371329 -0.43926725840517739 0 -0.42977278871618452 -0.42892313823348488 0 -0.41850157840159141 -0.4300785111672607 0 -0.42261879556371329 -0.43926725840517739 0 -0.42977278871618452 -0.42892313823348488 0 -0.43211076624341249 -0.41782032886101628 0 -0.41850157840159141 -0.4300785111672607 0 -0.43211076624341249 -0.41782032886101628 0 -0.41850157840159141 -0.4300785111672607 0 -0.43767781915887172 -0.42153939788952771 0 -0.42977278871618452 -0.42892313823348488 0 -0.43211076624341249 -0.41782032886101628 0 -0.43767781915887172 -0.42153939788952771 0 -0.43990320969141927 -0.43564749176138112 0 -0.42977278871618452 -0.42892313823348488 0 -0.43211076624341249 -0.41782032886101628 0 -0.41606903657152788 -0.40755714510909641 0 -0.43220865306735962 -0.39971971050548089 0 -0.44428018070773351 -0.40685899135890319 0 -0.43211076624341249 -0.41782032886101628 0 -0.43220865306735962 -0.39971971050548089 0 -0.43211076624341249 -0.41782032886101628 0 -0.41606903657152788 -0.40755714510909641 0 -0.43767781915887172 -0.42153939788952771 0 -0.43211076624341249 -0.41782032886101628 0 -0.43211076624341249 -0.41782032886101628 0 -0.41606903657152788 -0.40755714510909641 0 -0.41343953824860519 -0.41923321122444129 0 -0.41606903657152788 -0.40755714510909641 0 -0.41343953824860519 -0.41923321122444129 0 -0.39997622435904051 -0.41707738069554912 0 -0.41343953824860519 -0.41923321122444129 0 -0.40936481950166792 -0.42770664344089732 0 -0.39997622435904051 -0.41707738069554912 0 -0.43211076624341249 -0.41782032886101628 0 -0.41343953824860519 -0.41923321122444129 0 -0.41850157840159141 -0.4300785111672607 0 -0.41850157840159141 -0.4300785111672607 0 -0.40489239055976789 -0.44233669347350241 0 -0.42261879556371329 -0.43926725840517739 0 -0.41343953824860519 -0.41923321122444129 0 -0.40936481950166792 -0.42770664344089732 0 -0.41850157840159141 -0.4300785111672607 0 -0.41850157840159141 -0.4300785111672607 0 -0.40489239055976789 -0.44233669347350241 0 -0.40936481950166792 -0.42770664344089732 0 -0.41850157840159141 -0.4300785111672607 0 -0.40921911221168961 -0.43755172273657522 0 -0.41850157840159141 -0.4300785111672607 0 -0.40489239055976789 -0.44233669347350241 0 -0.40921911221168961 -0.43755172273657522 0 -0.40936481950166792 -0.42770664344089732 0 -0.40568764428741289 -0.4345923913806598 0 -0.40921911221168961 -0.43755172273657522 0 -0.43806649226582822 -0.38231983896642829 0 -0.43061782145744298 -0.37338712110185979 0 -0.41051598302596393 -0.37361547448256649 0 -0.43806649226582822 -0.38231983896642829 0 -0.41051598302596393 -0.37361547448256649 0 -0.43806649226582822 -0.38231983896642829 0 -0.41904689958273428 -0.3898069001618063 0 -0.41051598302596393 -0.37361547448256649 0 -0.43806649226582822 -0.38231983896642829 0 -0.43220865306735962 -0.39971971050548089 0 -0.41904689958273428 -0.3898069001618063 0 -0.43806649226582822 -0.38231983896642829 0 -0.41904689958273428 -0.3898069001618063 0 -0.43806649226582822 -0.38231983896642829 0 -0.43061782145744298 -0.37338712110185979 0 -0.43653992034091449 -0.37485146965091359 0 -0.41606903657152788 -0.40755714510909641 0 -0.43220865306735962 -0.39971971050548089 0 -0.41904689958273428 -0.3898069001618063 0 -0.41904689958273428 -0.3898069001618063 0 -0.40474569097533358 -0.38859983269831538 0 -0.40002730689963961 -0.3972939613571822 0 -0.41606903657152788 -0.40755714510909641 0 -0.40002730689963961 -0.3972939613571822 0 -0.41904689958273428 -0.3898069001618063 0 -0.40002730689963961 -0.3972939613571822 0 -0.41606903657152788 -0.40755714510909641 0 -0.41904689958273428 -0.3898069001618063 0 -0.40002730689963961 -0.3972939613571822 0 -0.41904689958273428 -0.3898069001618063 0 -0.40474569097533358 -0.38859983269831538 0 -0.41051598302596393 -0.37361547448256649 0 -0.3966293915446103 -0.38660011017907231 0 -0.39426480443066853 -0.39956237001043809 0 -0.38861513910838352 -0.38223674000457192 0 -0.3966293915446103 -0.38660011017907231 0 -0.38861513910838352 -0.38223674000457192 0 -0.41051598302596393 -0.37361547448256649 0 -0.40474569097533358 -0.38859983269831538 0 -0.3966293915446103 -0.38660011017907231 0 -0.39750887382371941 -0.3956827173109479 0 -0.40474569097533358 -0.38859983269831538 0 -0.3966293915446103 -0.38660011017907231 0 -0.41051598302596393 -0.37361547448256649 0 -0.40002730689963961 -0.3972939613571822 0 -0.39426480443066853 -0.39956237001043809 0 -0.39997622435904051 -0.41707738069554912 0 -0.39426480443066853 -0.39956237001043809 0 -0.38861513910838352 -0.38223674000457192 0 -0.3966293915446103 -0.38660011017907231 0 -0.39750887382371941 -0.3956827173109479 0 -0.39426480443066853 -0.39956237001043809 0 -0.40002730689963961 -0.3972939613571822 0 -0.39426480443066853 -0.39956237001043809 0 -0.39750887382371941 -0.3956827173109479 0 -0.40002730689963961 -0.3972939613571822 0 -0.39426480443066853 -0.39956237001043809 0 -0.40474569097533358 -0.38859983269831538 0 -0.39750887382371941 -0.3956827173109479 0 -0.40002730689963961 -0.3972939613571822 0 -0.39750887382371941 -0.3956827173109479 0 -0.40002730689963961 -0.3972939613571822 0 -0.39426480443066853 -0.39956237001043809 0 -0.37914093745418881 -0.39190958430218181 0 -0.37150037801664881 -0.40852358471567879 0 -0.39426480443066853 -0.39956237001043809 0 -0.37914093745418881 -0.39190958430218181 0 -0.38861513910838352 -0.38223674000457192 0 -0.39426480443066853 -0.39956237001043809 0 -0.37150037801664881 -0.40852358471567879 0 -0.37914093745418881 -0.39190958430218181 0 -0.37520975007962171 -0.3770241084801258 0 -0.38861513910838352 -0.38223674000457192 0 -0.40936481950166792 -0.42770664344089732 0 -0.40568764428741289 -0.4345923913806598 0 -0.39997622435904051 -0.41707738069554912 0 -0.39231925306725302 -0.42613140601726579 0 -0.40568764428741289 -0.4345923913806598 0 -0.39997622435904051 -0.41707738069554912 0 -0.40568764428741289 -0.4345923913806598 0 -0.39997622435904051 -0.41707738069554912 0 -0.39231925306725302 -0.42613140601726579 0 -0.40568764428741289 -0.4345923913806598 0 -0.39704668865204568 -0.43886459737553002 0 -0.40568764428741289 -0.4345923913806598 0 -0.39704668865204568 -0.43886459737553002 0 -0.40921911221168961 -0.43755172273657522 0 -0.39426480443066853 -0.39956237001043809 0 -0.39997622435904051 -0.41707738069554912 0 -0.41606903657152788 -0.40755714510909641 0 -0.40002730689963961 -0.3972939613571822 0 -0.39997622435904051 -0.41707738069554912 0 -0.39426480443066853 -0.39956237001043809 0 -0.39997622435904051 -0.41707738069554912 0 -0.38613439368882929 -0.41476648061569799 0 -0.39231925306725302 -0.42613140601726579 0 -0.39997622435904051 -0.41707738069554912 0 -0.38613439368882929 -0.41476648061569799 0 -0.38613439368882929 -0.41476648061569799 0 -0.37289132012733728 -0.42817469839822708 0 -0.37150037801664881 -0.40852358471567879 0 -0.39426480443066853 -0.39956237001043809 0 -0.38613439368882929 -0.41476648061569799 0 -0.37150037801664881 -0.40852358471567879 0 -0.39704668865204568 -0.43886459737553002 0 -0.37289132012733728 -0.42817469839822708 0 -0.39231925306725302 -0.42613140601726579 0 -0.38613439368882929 -0.41476648061569799 0 -0.37289132012733728 -0.42817469839822708 0 -0.39704668865204568 -0.43886459737553002 0 -0.37453263049326452 -0.44129288421847479 0 -0.37289132012733728 -0.42817469839822708 0 -0.39231925306725302 -0.42613140601726579 0 -0.39704668865204568 -0.43886459737553002 0 -0.37289132012733728 -0.42817469839822708 0 -0.39704668865204568 -0.43886459737553002 0 -0.37453263049326452 -0.44129288421847479 0 -0.38898895311731041 -0.44672829339635428 0 -0.38318280981519171 -0.46189112990661357 0 -0.37453263049326452 -0.44129288421847479 0 -0.38898895311731041 -0.44672829339635428 0 -0.39704668865204568 -0.43886459737553002 0 -0.37453263049326452 -0.44129288421847479 0 -0.38898895311731041 -0.44672829339635428 0 -0.40489239055976789 -0.44233669347350241 0 -0.38318280981519171 -0.46189112990661357 0 -0.38898895311731041 -0.44672829339635428 0 -0.39704668865204568 -0.43886459737553002 0 -0.40489239055976789 -0.44233669347350241 0 -0.40489239055976789 -0.44233669347350241 0 -0.38318280981519171 -0.46189112990661357 0 -0.39704668865204568 -0.43886459737553002 0 -0.40489239055976789 -0.44233669347350241 0 -0.39704668865204568 -0.43886459737553002 0 -0.40489239055976789 -0.44233669347350241 0 -0.40921911221168961 -0.43755172273657522 0 -0.39704668865204568 -0.43886459737553002 0 -0.40921911221168961 -0.43755172273657522 0 -0.40489239055976789 -0.44233669347350241 0 -0.40412781267760373 -0.46109027697713573 0 -0.38318280981519171 -0.46189112990661357 0 -0.40412781267760373 -0.46109027697713573 0 -0.38318280981519171 -0.46189112990661357 0 -0.39940323844221981 -0.47829159003997263 0 -0.38318280981519171 -0.46189112990661357 0 -0.37953923126986661 -0.49072278316986301 0 -0.39940323844221981 -0.47829159003997263 0 -0.37953923126986661 -0.49072278316986301 0 -0.39760523346912002 -0.50000000000000011 0 -0.37953923126986661 -0.49072278316986301 0 -0.39760523346912002 -0.50000000000000011 0 -0.36923954871200448 -0.5 0 -0.39760523346912002 -0.50000000000000011 0 -0.39940323844221981 -0.47829159003997263 0 -0.41367438972300241 -0.48466287581179301 0 -0.37953923126986661 -0.49072278316986301 0 -0.39760523346912002 -0.50000000000000011 0 -0.39940323844221981 -0.47829159003997263 0 -0.41367438972300241 -0.48466287581179301 0 -0.43239078184826918 -0.4765392468759283 0 -0.41885291919352918 -0.46848354214306431 0 -0.40412781267760373 -0.46109027697713573 0 -0.39940323844221981 -0.47829159003997263 0 -0.41885291919352918 -0.46848354214306431 0 -0.39940323844221981 -0.47829159003997263 0 -0.41367438972300241 -0.48466287581179301 0 -0.41885291919352918 -0.46848354214306431 0 -0.39760523346912002 -0.50000000000000011 0 -0.42011977566187392 -0.5 0 -0.41367438972300241 -0.48466287581179301 0 -0.42011977566187392 -0.5 0 -0.41367438972300241 -0.48466287581179301 0 -0.43239078184826918 -0.4765392468759283 0 -0.44263431785462781 -0.49999999999999961 0 -0.42011977566187392 -0.5 0 -0.43239078184826918 -0.4765392468759283 0 -0.43239078184826918 -0.4765392468759283 0 -0.42214724584191049 -0.45307849375185733 0 -0.43239078184826918 -0.4765392468759283 0 -0.43554382460262359 -0.45590141028137271 0 -0.42214724584191049 -0.45307849375185733 0 -0.43239078184826918 -0.4765392468759283 0 -0.42214724584191049 -0.45307849375185733 0 -0.41885291919352918 -0.46848354214306431 0 -0.43554382460262359 -0.45590141028137271 0 -0.43005312605832818 -0.44760192234843948 0 -0.43696023539587209 -0.44499307334991739 0 -0.43005312605832818 -0.44760192234843948 0 -0.43696023539587209 -0.44499307334991739 0 -0.43155283391876509 -0.43970097062362318 0 -0.43990320969141927 -0.43564749176138112 0 -0.43696023539587209 -0.44499307334991739 0 -0.43155283391876509 -0.43970097062362318 0 -0.43155283391876509 -0.43970097062362318 0 -0.42503003773419251 -0.44487529203973342 0 -0.42261879556371329 -0.43926725840517739 0 -0.43005312605832818 -0.44760192234843948 0 -0.43155283391876509 -0.43970097062362318 0 -0.42503003773419251 -0.44487529203973342 0 -0.42503003773419251 -0.44487529203973342 0 -0.42261879556371329 -0.43926725840517739 0 -0.42021810758119699 -0.44911905187743473 0 -0.43554382460262359 -0.45590141028137271 0 -0.43005312605832818 -0.44760192234843948 0 -0.42021810758119699 -0.44911905187743473 0 -0.43554382460262359 -0.45590141028137271 0 -0.42214724584191049 -0.45307849375185733 0 -0.42021810758119699 -0.44911905187743473 0 -0.43005312605832818 -0.44760192234843948 0 -0.42503003773419251 -0.44487529203973342 0 -0.42021810758119699 -0.44911905187743473 0 -0.43554382460262359 -0.45590141028137271 0 -0.42021810758119699 -0.44911905187743473 0 -0.40489239055976789 -0.44233669347350241 0 -0.42261879556371329 -0.43926725840517739 0 -0.42021810758119699 -0.44911905187743473 0 -0.42214724584191049 -0.45307849375185733 0 -0.42021810758119699 -0.44911905187743473 0 -0.41404769517080198 -0.45482161164459928 0 -0.40489239055976789 -0.44233669347350241 0 -0.40412781267760373 -0.46109027697713573 0 -0.41404769517080198 -0.45482161164459928 0 -0.40489239055976789 -0.44233669347350241 0 -0.42021810758119699 -0.44911905187743473 0 -0.41404769517080198 -0.45482161164459928 0 -0.40489239055976789 -0.44233669347350241 0 -0.42021810758119699 -0.44911905187743473 0 -0.40412781267760373 -0.46109027697713573 0 -0.41404769517080198 -0.45482161164459928 0 -0.41885291919352918 -0.46848354214306431 0 -0.42214724584191049 -0.45307849375185733 0 -0.41404769517080198 -0.45482161164459928 0 -0.41885291919352918 -0.46848354214306431 0 -0.44313374448004539 -0.25282540670650688 0 -0.44882037003203851 -0.25688571818448769 0 -0.43176049337605321 -0.27994321174504339 0 -0.44882037003203851 -0.25688571818448769 0 -0.4469126690508734 -0.2732800139064831 0 -0.43176049337605321 -0.27994321174504339 0 -0.44882037003203851 -0.25688571818448769 0 -0.43176049337605321 -0.27994321174504339 0 -0.4469126690508734 -0.2732800139064831 0 -0.44468949159635091 -0.28454964333529681 0 -0.43176049337605321 -0.27994321174504339 0 -0.4496986503334251 -0.27939357963669131 0 -0.4469126690508734 -0.2732800139064831 0 -0.44468949159635091 -0.28454964333529681 0 -0.4496986503334251 -0.27939357963669131 0 -0.4469126690508734 -0.2732800139064831 0 -0.45598843838184061 -0.27370280061659252 0 -0.45613815103884348 -0.28098057110898023 0 -0.46387705511633359 -0.26535993232730332 0 -0.4469126690508734 -0.2732800139064831 0 -0.46387705511633359 -0.26535993232730332 0 -0.45613815103884348 -0.28098057110898023 0 -0.45598843838184061 -0.27370280061659252 0 -0.46387705511633359 -0.26535993232730332 0 -0.4469126690508734 -0.2732800139064831 0 -0.45598843838184061 -0.27370280061659252 0 -0.46387705511633359 -0.26535993232730332 0 -0.4496986503334251 -0.27939357963669131 0 -0.45613815103884348 -0.28098057110898023 0 -0.45598843838184061 -0.27370280061659252 0 -0.45613815103884348 -0.28098057110898023 0 -0.45598843838184061 -0.27370280061659252 0 -0.46534045550681002 -0.27600845890798542 0 -0.47160736683766352 -0.27847086052369679 0 -0.4645010543734916 -0.28441205632951722 0 -0.45613815103884348 -0.28098057110898023 0 -0.46534045550681002 -0.27600845890798542 0 -0.4645010543734916 -0.28441205632951722 0 -0.45613815103884348 -0.28098057110898023 0 -0.46534045550681002 -0.27600845890798542 0 -0.46387705511633359 -0.26535993232730332 0 -0.46534045550681002 -0.27600845890798542 0 -0.46387705511633359 -0.26535993232730332 0 -0.47260649648616793 -0.27020637599244651 0 -0.44882037003203851 -0.25688571818448769 0 -0.4469126690508734 -0.2732800139064831 0 -0.46387705511633359 -0.26535993232730332 0 -0.46387705511633359 -0.26535993232730332 0 -0.46304993761288332 -0.2504409761330959 0 -0.47362207861513728 -0.2456900293966606 0 -0.44882037003203851 -0.25688571818448769 0 -0.46387705511633359 -0.26535993232730332 0 -0.46304993761288332 -0.2504409761330959 0 -0.46387705511633359 -0.26535993232730332 0 -0.47362207861513728 -0.2456900293966606 0 -0.46387705511633359 -0.26535993232730332 0 -0.48193852755816652 -0.25692765929205058 0 -0.47260649648616793 -0.27020637599244651 0 -0.46387705511633359 -0.26535993232730332 0 -0.48193852755816652 -0.25692765929205058 0 -0.47362207861513728 -0.2456900293966606 0 -0.46387705511633359 -0.26535993232730332 0 -0.48193852755816652 -0.25692765929205058 0 -0.48193852755816652 -0.25692765929205058 0 -0.49999999999999911 -0.2484953862567976 0 -0.48193852755816652 -0.25692765929205058 0 -0.5 -0.27779991267175402 0 -0.49999999999999911 -0.2484953862567976 0 -0.5 -0.27779991267175402 0 -0.48026907741186559 -0.27426496891119623 0 -0.47751077561147021 -0.28643201240274963 0 -0.48193852755816652 -0.25692765929205058 0 -0.5 -0.27779991267175402 0 -0.48026907741186559 -0.27426496891119623 0 -0.48193852755816652 -0.25692765929205058 0 -0.48026907741186559 -0.27426496891119623 0 -0.47260649648616793 -0.27020637599244651 0 -0.48026907741186559 -0.27426496891119623 0 -0.47260649648616793 -0.27020637599244651 0 -0.47160736683766352 -0.27847086052369679 0 -0.46534045550681002 -0.27600845890798542 0 -0.47260649648616793 -0.27020637599244651 0 -0.47160736683766352 -0.27847086052369679 0 -0.48026907741186559 -0.27426496891119623 0 -0.47160736683766352 -0.27847086052369679 0 -0.47751077561147021 -0.28643201240274963 0 -0.47160736683766352 -0.27847086052369679 0 -0.47751077561147021 -0.28643201240274963 0 -0.4645010543734916 -0.28441205632951722 0 -0.46975828343464182 -0.29511910662215601 0 -0.47751077561147021 -0.28643201240274963 0 -0.4645010543734916 -0.28441205632951722 0 -0.46975828343464182 -0.29511910662215601 0 -0.47751077561147021 -0.28643201240274963 0 -0.48283739673558179 -0.30023552216080579 0 -0.5 -0.27779991267175402 0 -0.5 -0.30710443908671048 0 -0.48283739673558179 -0.30023552216080579 0 -0.5 -0.27779991267175402 0 -0.47751077561147021 -0.28643201240274963 0 -0.48283739673558179 -0.30023552216080579 0 -0.5 -0.30710443908671048 0 -0.48283739673558179 -0.30023552216080579 0 -0.48743818964145191 -0.31704305012307699 0 -0.48283739673558179 -0.30023552216080579 0 -0.47484008266483668 -0.31375022127381269 0 -0.48743818964145191 -0.31704305012307699 0 -0.46975828343464182 -0.29511910662215601 0 -0.48283739673558179 -0.30023552216080579 0 -0.46923466769304428 -0.30428462965171388 0 -0.48283739673558179 -0.30023552216080579 0 -0.46923466769304428 -0.30428462965171388 0 -0.47484008266483668 -0.31375022127381269 0 -0.46923466769304428 -0.30428462965171388 0 -0.46766274874063962 -0.31074755167822399 0 -0.47484008266483668 -0.31375022127381269 0 -0.46975828343464182 -0.29511910662215601 0 -0.4609116817155654 -0.31147821653228891 0 -0.4645010543734916 -0.28441205632951722 0 -0.45673023004824159 -0.30976247392202039 0 -0.4609116817155654 -0.31147821653228891 0 -0.4645010543734916 -0.28441205632951722 0 -0.4609116817155654 -0.31147821653228891 0 -0.4645010543734916 -0.28441205632951722 0 -0.46923466769304428 -0.30428462965171388 0 -0.46766274874063962 -0.31074755167822399 0 -0.4609116817155654 -0.31147821653228891 0 -0.46975828343464182 -0.29511910662215601 0 -0.46923466769304428 -0.30428462965171388 0 -0.4609116817155654 -0.31147821653228891 0 -0.45613815103884348 -0.28098057110898023 0 -0.45673023004824159 -0.30976247392202039 0 -0.45613815103884348 -0.28098057110898023 0 -0.45673023004824159 -0.30976247392202039 0 -0.4645010543734916 -0.28441205632951722 0 -0.45613815103884348 -0.28098057110898023 0 -0.45673023004824159 -0.30976247392202039 0 -0.45408651523183879 -0.29100814551381882 0 -0.45613815103884348 -0.28098057110898023 0 -0.44555351214763522 -0.28988116584082041 0 -0.44832161663236392 -0.2967579033081616 0 -0.45613815103884348 -0.28098057110898023 0 -0.45408651523183879 -0.29100814551381882 0 -0.44832161663236392 -0.2967579033081616 0 -0.45613815103884348 -0.28098057110898023 0 -0.44832161663236392 -0.2967579033081616 0 -0.45613815103884348 -0.28098057110898023 0 -0.44555351214763522 -0.28988116584082041 0 -0.44468949159635091 -0.28454964333529681 0 -0.4496986503334251 -0.27939357963669131 0 -0.45613815103884348 -0.28098057110898023 0 -0.44468949159635091 -0.28454964333529681 0 -0.44555351214763522 -0.28988116584082041 0 -0.44468949159635091 -0.28454964333529681 0 -0.43729932351734419 -0.29088766456399601 0 -0.44468949159635091 -0.28454964333529681 0 -0.43729932351734419 -0.29088766456399601 0 -0.43176049337605321 -0.27994321174504339 0 -0.44131897795327379 -0.29623004688766719 0 -0.43629537259915119 -0.29926540739242108 0 -0.43729932351734419 -0.29088766456399601 0 -0.44555351214763522 -0.28988116584082041 0 -0.44131897795327379 -0.29623004688766719 0 -0.43729932351734419 -0.29088766456399601 0 -0.44555351214763522 -0.28988116584082041 0 -0.44832161663236392 -0.2967579033081616 0 -0.44131897795327379 -0.29623004688766719 0 -0.44832161663236392 -0.2967579033081616 0 -0.4482376502681974 -0.31895592022618369 0 -0.4405050822258848 -0.3125352355073433 0 -0.45673023004824159 -0.30976247392202039 0 -0.45408651523183879 -0.29100814551381882 0 -0.4482376502681974 -0.31895592022618369 0 -0.44832161663236392 -0.2967579033081616 0 -0.44131897795327379 -0.29623004688766719 0 -0.43979346279560011 -0.30275624216402769 0 -0.44131897795327379 -0.29623004688766719 0 -0.43979346279560011 -0.30275624216402769 0 -0.43629537259915119 -0.29926540739242108 0 -0.44832161663236392 -0.2967579033081616 0 -0.43979346279560011 -0.30275624216402769 0 -0.4405050822258848 -0.3125352355073433 0 -0.45408651523183879 -0.29100814551381882 0 -0.44832161663236392 -0.2967579033081616 0 -0.4482376502681974 -0.31895592022618369 0 -0.45408651523183879 -0.29100814551381882 0 -0.4482376502681974 -0.31895592022618369 0 -0.44832161663236392 -0.2967579033081616 0 -0.4405050822258848 -0.3125352355073433 0 -0.43979346279560011 -0.30275624216402769 0 -0.4405050822258848 -0.3125352355073433 0 -0.43254489950226832 -0.30856438048894941 0 -0.4482376502681974 -0.31895592022618369 0 -0.4405050822258848 -0.3125352355073433 0 -0.43865304060111471 -0.31851185846360153 0 -0.4405050822258848 -0.3125352355073433 0 -0.43865304060111471 -0.31851185846360153 0 -0.43464522018854451 -0.31431809416987122 0 -0.4482376502681974 -0.31895592022618369 0 -0.43865304060111471 -0.31851185846360153 0 -0.43664714155951267 -0.32795729589717182 0 -0.4482376502681974 -0.31895592022618369 0 -0.44238878530455589 -0.34690369493854872 0 -0.4482376502681974 -0.31895592022618369 0 -0.44238878530455589 -0.34690369493854872 0 -0.43664714155951267 -0.32795729589717182 0 -0.4482376502681974 -0.31895592022618369 0 -0.45732230905763921 -0.33854437673506071 0 -0.44238878530455589 -0.34690369493854872 0 -0.45732230905763921 -0.33854437673506071 0 -0.47042497192186988 -0.33618701299664261 0 -0.47028959851322638 -0.35293343318574771 0 -0.45732230905763921 -0.33854437673506071 0 -0.46760213722229921 -0.3234136245922814 0 -0.47042497192186988 -0.33618701299664261 0 -0.45673023004824159 -0.30976247392202039 0 -0.4609116817155654 -0.31147821653228891 0 -0.45732230905763921 -0.33854437673506071 0 -0.45673023004824159 -0.30976247392202039 0 -0.4482376502681974 -0.31895592022618369 0 -0.45732230905763921 -0.33854437673506071 0 -0.4609116817155654 -0.31147821653228891 0 -0.45732230905763921 -0.33854437673506071 0 -0.46760213722229921 -0.3234136245922814 0 -0.4609116817155654 -0.31147821653228891 0 -0.45732230905763921 -0.33854437673506071 0 -0.45673023004824159 -0.30976247392202039 0 -0.45732230905763921 -0.33854437673506071 0 -0.4609116817155654 -0.31147821653228891 0 -0.46760213722229921 -0.3234136245922814 0 -0.46750060873926191 -0.31539342867506071 0 -0.46766274874063962 -0.31074755167822399 0 -0.4609116817155654 -0.31147821653228891 0 -0.46750060873926191 -0.31539342867506071 0 -0.46766274874063962 -0.31074755167822399 0 -0.46750060873926191 -0.31539342867506071 0 -0.47484008266483668 -0.31375022127381269 0 -0.46760213722229921 -0.3234136245922814 0 -0.46750060873926191 -0.31539342867506071 0 -0.47484008266483668 -0.31375022127381269 0 -0.46760213722229921 -0.3234136245922814 0 -0.47484008266483668 -0.31375022127381269 0 -0.47951346880683959 -0.32771610259238881 0 -0.47484008266483668 -0.31375022127381269 0 -0.47951346880683959 -0.32771610259238881 0 -0.48743818964145191 -0.31704305012307699 0 -0.47951346880683959 -0.32771610259238881 0 -0.48743818964145191 -0.31704305012307699 0 -0.50000000000000044 -0.33640896550166671 0 -0.5 -0.30710443908671048 0 -0.48743818964145191 -0.31704305012307699 0 -0.50000000000000044 -0.33640896550166671 0 -0.47951346880683959 -0.32771610259238881 0 -0.50000000000000044 -0.33640896550166671 0 -0.48145022258886438 -0.3414761228134488 0 -0.48145022258886438 -0.3414761228134488 0 -0.47042497192186988 -0.33618701299664261 0 -0.47028959851322638 -0.35293343318574771 0 -0.47951346880683959 -0.32771610259238881 0 -0.48145022258886438 -0.3414761228134488 0 -0.47042497192186988 -0.33618701299664261 0 -0.46760213722229921 -0.3234136245922814 0 -0.47951346880683959 -0.32771610259238881 0 -0.47042497192186988 -0.33618701299664261 0 -0.4774479055992894 -0.39476208359281789 0 -0.50000000000000711 -0.35667056638494898 0 -0.48141786413091209 -0.37340802432662362 0 -0.48145022258886438 -0.3414761228134488 0 -0.47028959851322638 -0.35293343318574771 0 -0.48702307370238551 -0.35413509979079832 0 -0.50000000000000044 -0.33640896550166671 0 -0.48145022258886438 -0.3414761228134488 0 -0.48702307370238551 -0.35413509979079832 0 -0.50000000000000044 -0.33640896550166671 0 -0.48702307370238551 -0.35413509979079832 0 -0.50000000000000711 -0.35667056638494898 0 -0.50000000000000044 -0.33640896550166671 0 -0.48702307370238551 -0.35413509979079832 0 -0.48702307370238551 -0.35413509979079832 0 -0.50000000000000711 -0.35667056638494898 0 -0.48141786413091209 -0.37340802432662362 0 -0.50000000000000711 -0.35667056638494898 0 -0.48141786413091209 -0.37340802432662362 0 -0.48702307370238551 -0.35413509979079832 0 -0.48141786413091209 -0.37340802432662362 0 -0.47404614740477019 -0.37186123407992983 0 -0.47028959851322638 -0.35293343318574771 0 -0.48702307370238551 -0.35413509979079832 0 -0.47404614740477019 -0.37186123407992983 0 -0.47028959851322638 -0.35293343318574771 0 -0.47404614740477019 -0.37186123407992983 0 -0.4664119717321385 -0.36588291896156161 0 -0.48702307370238551 -0.35413509979079832 0 -0.47404614740477019 -0.37186123407992983 0 -0.45782484934247081 -0.36297365966535572 0 -0.45501857025066922 -0.35591603734463789 0 -0.45271483144369917 -0.37328769795421501 0 -0.45832738962730241 -0.38740294259565078 0 -0.45782484934247081 -0.36297365966535572 0 -0.45271483144369917 -0.37328769795421501 0 -0.45501857025066922 -0.35591603734463789 0 -0.45271483144369917 -0.37328769795421501 0 -0.46348729166808639 -0.37576334891521329 0 -0.45782484934247081 -0.36297365966535572 0 -0.4664119717321385 -0.36588291896156161 0 -0.46348729166808639 -0.37576334891521329 0 -0.47404614740477019 -0.37186123407992983 0 -0.4664119717321385 -0.36588291896156161 0 -0.47028959851322638 -0.35293343318574771 0 -0.45782484934247081 -0.36297365966535572 0 -0.4664119717321385 -0.36588291896156161 0 -0.45732230905763921 -0.33854437673506071 0 -0.45501857025066922 -0.35591603734463789 0 -0.45732230905763921 -0.33854437673506071 0 -0.47028959851322638 -0.35293343318574771 0 -0.45782484934247081 -0.36297365966535572 0 -0.45732230905763921 -0.33854437673506071 0 -0.45782484934247081 -0.36297365966535572 0 -0.45732230905763921 -0.33854437673506071 0 -0.45782484934247081 -0.36297365966535572 0 -0.45501857025066922 -0.35591603734463789 0 -0.45732230905763921 -0.33854437673506071 0 -0.45501857025066922 -0.35591603734463789 0 -0.44799339891414258 -0.35333255636636418 0 -0.44799339891414258 -0.35333255636636418 0 -0.44238878530455589 -0.34690369493854872 0 -0.44494661382665912 -0.3628188206651497 0 -0.45501857025066922 -0.35591603734463789 0 -0.44799339891414258 -0.35333255636636418 0 -0.44962147041203132 -0.36257912931203551 0 -0.45732230905763921 -0.33854437673506071 0 -0.44799339891414258 -0.35333255636636418 0 -0.44238878530455589 -0.34690369493854872 0 -0.44238878530455589 -0.34690369493854872 0 -0.43653992034091449 -0.37485146965091359 0 -0.44238878530455589 -0.34690369493854872 0 -0.44494661382665912 -0.3628188206651497 0 -0.43653992034091449 -0.37485146965091359 0 -0.45501857025066922 -0.35591603734463789 0 -0.45271483144369917 -0.37328769795421501 0 -0.44962147041203132 -0.36257912931203551 0 -0.44238878530455589 -0.34690369493854872 0 -0.43653992034091449 -0.37485146965091359 0 -0.43484071437145011 -0.36005016204994039 0 -0.44494661382665912 -0.3628188206651497 0 -0.44453936890232137 -0.37315928133165099 0 -0.43653992034091449 -0.37485146965091359 0 -0.44125992715722712 -0.37704264225458328 0 -0.44453936890232137 -0.37315928133165099 0 -0.43653992034091449 -0.37485146965091359 0 -0.44453936890232137 -0.37315928133165099 0 -0.44809066301074357 -0.36754752164278992 0 -0.45271483144369917 -0.37328769795421501 0 -0.44494661382665912 -0.3628188206651497 0 -0.44453936890232137 -0.37315928133165099 0 -0.44809066301074357 -0.36754752164278992 0 -0.44809066301074357 -0.36754752164278992 0 -0.45271483144369917 -0.37328769795421501 0 -0.44962147041203132 -0.36257912931203551 0 -0.44656110190926351 -0.37788530139230581 0 -0.44453936890232137 -0.37315928133165099 0 -0.45271483144369917 -0.37328769795421501 0 -0.44799339891414258 -0.35333255636636418 0 -0.44494661382665912 -0.3628188206651497 0 -0.44962147041203132 -0.36257912931203551 0 -0.44494661382665912 -0.3628188206651497 0 -0.44809066301074357 -0.36754752164278992 0 -0.44962147041203132 -0.36257912931203551 0 -0.43061782145744298 -0.37338712110185979 0 -0.43484071437145011 -0.36005016204994039 0 -0.42981633038288691 -0.34505836250844002 0 -0.43061782145744298 -0.37338712110185979 0 -0.43653992034091449 -0.37485146965091359 0 -0.43484071437145011 -0.36005016204994039 0 -0.43061782145744298 -0.37338712110185979 0 -0.42981633038288691 -0.34505836250844002 0 -0.42015589671468861 -0.35787719062274592 0 -0.43061782145744298 -0.37338712110185979 0 -0.42981633038288691 -0.34505836250844002 0 -0.44238878530455589 -0.34690369493854872 0 -0.43484071437145011 -0.36005016204994039 0 -0.42981633038288691 -0.34505836250844002 0 -0.42981633038288691 -0.34505836250844002 0 -0.42015589671468861 -0.35787719062274592 0 -0.42107182797179532 -0.34327867686439451 0 -0.42015589671468861 -0.35787719062274592 0 -0.40870153383003649 -0.35367979152701789 0 -0.42107182797179532 -0.34327867686439451 0 -0.40870153383003649 -0.35367979152701789 0 -0.41152285689694379 -0.34182966956698679 0 -0.42107182797179532 -0.34327867686439451 0 -0.43061782145744298 -0.37338712110185979 0 -0.42015589671468861 -0.35787719062274592 0 -0.41051598302596393 -0.37361547448256649 0 -0.42015589671468861 -0.35787719062274592 0 -0.40870153383003649 -0.35367979152701789 0 -0.41051598302596393 -0.37361547448256649 0 -0.38861513910838352 -0.38223674000457192 0 -0.41051598302596393 -0.37361547448256649 0 -0.38296547378609908 -0.36491110999870557 0 -0.41051598302596393 -0.37361547448256649 0 -0.38296547378609908 -0.36491110999870557 0 -0.40870153383003649 -0.35367979152701789 0 -0.41051598302596393 -0.37361547448256649 0 -0.39479416402055301 -0.3581951602098154 0 -0.41051598302596393 -0.37361547448256649 0 -0.38296547378609908 -0.36491110999870557 0 -0.39479416402055301 -0.3581951602098154 0 -0.38861513910838352 -0.38223674000457192 0 -0.38296547378609908 -0.36491110999870557 0 -0.37520975007962171 -0.3770241084801258 0 -0.38861513910838352 -0.38223674000457192 0 -0.38296547378609908 -0.36491110999870557 0 -0.38296547378609908 -0.36491110999870557 0 -0.38128025429388379 -0.3597431066329792 0 -0.39479416402055301 -0.3581951602098154 0 -0.38296547378609908 -0.36491110999870557 0 -0.37582117691473871 -0.36265392616926279 0 -0.38296547378609908 -0.36491110999870557 0 -0.38128025429388379 -0.3597431066329792 0 -0.37582117691473871 -0.36265392616926279 0 -0.38296547378609908 -0.36491110999870557 0 -0.38128025429388379 -0.3597431066329792 0 -0.37520975007962171 -0.3770241084801258 0 -0.38296547378609908 -0.36491110999870557 0 -0.37582117691473871 -0.36265392616926279 0 -0.37582117691473871 -0.36265392616926279 0 -0.38072619835971983 -0.34891926312192828 0 -0.3962905996596352 -0.34467544961351798 0 -0.37582117691473871 -0.36265392616926279 0 -0.3962905996596352 -0.34467544961351798 0 -0.38128025429388379 -0.3597431066329792 0 -0.37582117691473871 -0.36265392616926279 0 -0.3962905996596352 -0.34467544961351798 0 -0.38072619835971983 -0.34891926312192828 0 -0.38989220837231431 -0.3365308255556394 0 -0.36591209149968318 -0.34654797369633128 0 -0.37582117691473871 -0.36265392616926279 0 -0.38072619835971983 -0.34891926312192828 0 -0.37156018834713089 -0.36130770068822132 0 -0.38072619835971983 -0.34891926312192828 0 -0.37156018834713089 -0.36130770068822132 0 -0.38128025429388379 -0.3597431066329792 0 -0.3962905996596352 -0.34467544961351798 0 -0.39479416402055301 -0.3581951602098154 0 -0.40870153383003649 -0.35367979152701789 0 -0.3962905996596352 -0.34467544961351798 0 -0.39479416402055301 -0.3581951602098154 0 -0.40870153383003649 -0.35367979152701789 0 -0.3962905996596352 -0.34467544961351798 0 -0.41152285689694379 -0.34182966956698679 0 -0.40337938891654102 -0.329197543085546 0 -0.39688999817708692 -0.34116341166389691 0 -0.4167600224045297 -0.32669697305777079 0 -0.3962905996596352 -0.34467544961351798 0 -0.39688999817708692 -0.34116341166389691 0 -0.4167600224045297 -0.32669697305777079 0 -0.40337938891654102 -0.329197543085546 0 -0.39688999817708692 -0.34116341166389691 0 -0.38989220837231431 -0.3365308255556394 0 -0.3962905996596352 -0.34467544961351798 0 -0.39688999817708692 -0.34116341166389691 0 -0.38989220837231431 -0.3365308255556394 0 -0.39688999817708692 -0.34116341166389691 0 -0.38989220837231431 -0.3365308255556394 0 -0.38072619835971983 -0.34891926312192828 0 -0.3962905996596352 -0.34467544961351798 0 -0.38989220837231431 -0.3365308255556394 0 -0.38989220837231431 -0.3365308255556394 0 -0.36495052935389599 -0.32001925848077101 0 -0.38072619835971983 -0.34891926312192828 0 -0.38989220837231431 -0.3365308255556394 0 -0.38989220837231431 -0.3365308255556394 0 -0.38331437327385498 -0.31520657016406711 0 -0.36495052935389599 -0.32001925848077101 0 -0.40337938891654102 -0.329197543085546 0 -0.38989220837231431 -0.3365308255556394 0 -0.40528981877133369 -0.31571998912447419 0 -0.38989220837231431 -0.3365308255556394 0 -0.38331437327385498 -0.31520657016406711 0 -0.40528981877133369 -0.31571998912447419 0 -0.38989220837231431 -0.3365308255556394 0 -0.40528981877133369 -0.31571998912447419 0 -0.40528981877133369 -0.31571998912447419 0 -0.41584962998029618 -0.31788027016534898 0 -0.4167600224045297 -0.32669697305777079 0 -0.41584962998029618 -0.31788027016534898 0 -0.42228140323674351 -0.31747933077177393 0 -0.42153357626712318 -0.31190103564342703 0 -0.41584962998029618 -0.31788027016534898 0 -0.4167600224045297 -0.32669697305777079 0 -0.42228140323674351 -0.31747933077177393 0 -0.4167600224045297 -0.32669697305777079 0 -0.4241367133241728 -0.32538520817483418 0 -0.42228589653741189 -0.3275873325551954 0 -0.40528981877133369 -0.31571998912447419 0 -0.4167600224045297 -0.32669697305777079 0 -0.40337938891654102 -0.329197543085546 0 -0.40528981877133369 -0.31571998912447419 0 -0.4167600224045297 -0.32669697305777079 0 -0.3962905996596352 -0.34467544961351798 0 -0.4167600224045297 -0.32669697305777079 0 -0.41152285689694379 -0.34182966956698679 0 -0.3962905996596352 -0.34467544961351798 0 -0.4167600224045297 -0.32669697305777079 0 -0.42107182797179532 -0.34327867686439451 0 -0.41786218071115577 -0.33516242332170471 0 -0.42309250896870709 -0.33725022387310249 0 -0.41152285689694379 -0.34182966956698679 0 -0.42107182797179532 -0.34327867686439451 0 -0.41786218071115577 -0.33516242332170471 0 -0.4167600224045297 -0.32669697305777079 0 -0.41152285689694379 -0.34182966956698679 0 -0.41786218071115577 -0.33516242332170471 0 -0.4167600224045297 -0.32669697305777079 0 -0.41786218071115577 -0.33516242332170471 0 -0.4199003193726531 -0.33060146525204442 0 -0.41786218071115577 -0.33516242332170471 0 -0.42171138516380402 -0.33201955656553922 0 -0.42309250896870709 -0.33725022387310249 0 -0.41786218071115577 -0.33516242332170471 0 -0.42171138516380402 -0.33201955656553922 0 -0.4199003193726531 -0.33060146525204442 0 -0.42171138516380402 -0.33201955656553922 0 -0.4199003193726531 -0.33060146525204442 0 -0.42228589653741189 -0.3275873325551954 0 -0.4167600224045297 -0.32669697305777079 0 -0.4199003193726531 -0.33060146525204442 0 -0.42228589653741189 -0.3275873325551954 0 -0.42981633038288691 -0.34505836250844002 0 -0.42840061325562262 -0.31647293829530743 0 -0.42981633038288691 -0.34505836250844002 0 -0.42521886751067439 -0.32931607218243358 0 -0.42309250896870709 -0.33725022387310249 0 -0.42171138516380402 -0.33201955656553922 0 -0.42521886751067439 -0.32931607218243358 0 -0.42228589653741189 -0.3275873325551954 0 -0.42981633038288691 -0.34505836250844002 0 -0.42521886751067439 -0.32931607218243358 0 -0.42840061325562262 -0.31647293829530743 0 -0.44238878530455589 -0.34690369493854872 0 -0.42981633038288691 -0.34505836250844002 0 -0.43664714155951267 -0.32795729589717182 0 -0.42981633038288691 -0.34505836250844002 0 -0.43664714155951267 -0.32795729589717182 0 -0.42840061325562262 -0.31647293829530743 0 -0.42171138516380402 -0.33201955656553922 0 -0.42521886751067439 -0.32931607218243358 0 -0.42309250896870709 -0.33725022387310249 0 -0.42981633038288691 -0.34505836250844002 0 -0.42107182797179532 -0.34327867686439451 0 -0.42309250896870709 -0.33725022387310249 0 -0.43664714155951267 -0.32795729589717182 0 -0.43419422198530139 -0.31869258447211968 0 -0.42840061325562262 -0.31647293829530743 0 -0.43865304060111471 -0.31851185846360153 0 -0.43664714155951267 -0.32795729589717182 0 -0.43419422198530139 -0.31869258447211968 0 -0.43211319602262438 -0.31380722105729397 0 -0.42840061325562262 -0.31647293829530743 0 -0.43254489950226832 -0.30856438048894941 0 -0.43865304060111471 -0.31851185846360153 0 -0.43419422198530139 -0.31869258447211968 0 -0.43464522018854451 -0.31431809416987122 0 -0.43419422198530139 -0.31869258447211968 0 -0.43464522018854451 -0.31431809416987122 0 -0.43224782509135401 -0.31561680565533551 0 -0.43464522018854451 -0.31431809416987122 0 -0.43211319602262438 -0.31380722105729397 0 -0.43224782509135401 -0.31561680565533551 0 -0.43211319602262438 -0.31380722105729397 0 -0.43224782509135401 -0.31561680565533551 0 -0.42840061325562262 -0.31647293829530743 0 -0.43419422198530139 -0.31869258447211968 0 -0.43224782509135401 -0.31561680565533551 0 -0.42840061325562262 -0.31647293829530743 0 -0.4167600224045297 -0.32669697305777079 0 -0.42840061325562262 -0.31647293829530743 0 -0.42228140323674351 -0.31747933077177393 0 -0.42840061325562262 -0.31647293829530743 0 -0.42738905447280751 -0.31352595727781019 0 -0.4267262802312014 -0.30947721860588751 0 -0.42840061325562262 -0.31647293829530743 0 -0.42738905447280751 -0.31352595727781019 0 -0.42563078025861389 -0.31504464449848318 0 -0.42738905447280751 -0.31352595727781019 0 -0.42562392352135009 -0.31326867158646787 0 -0.42563078025861389 -0.31504464449848318 0 -0.42419334955930921 -0.3140119360798142 0 -0.42228140323674351 -0.31747933077177393 0 -0.42153357626712318 -0.31190103564342703 0 -0.42840061325562262 -0.31647293829530743 0 -0.42563078025861389 -0.31504464449848318 0 -0.42228140323674351 -0.31747933077177393 0 -0.42562392352135009 -0.31326867158646787 0 -0.42419334955930921 -0.3140119360798142 0 -0.4246055626250112 -0.31170811018759781 0 -0.42562392352135009 -0.31326867158646787 0 -0.42419334955930921 -0.3140119360798142 0 -0.42563078025861389 -0.31504464449848318 0 -0.42419334955930921 -0.3140119360798142 0 -0.42563078025861389 -0.31504464449848318 0 -0.42228140323674351 -0.31747933077177393 0 -0.42419334955930921 -0.3140119360798142 0 -0.4246055626250112 -0.31170811018759781 0 -0.42153357626712318 -0.31190103564342703 0 -0.4167600224045297 -0.32669697305777079 0 -0.42840061325562262 -0.31647293829530743 0 -0.42521886751067439 -0.32931607218243358 0 -0.4264743988894073 -0.3211822176849044 0 -0.4241367133241728 -0.32538520817483418 0 -0.4167600224045297 -0.32669697305777079 0 -0.4264743988894073 -0.3211822176849044 0 -0.4241367133241728 -0.32538520817483418 0 -0.42521886751067439 -0.32931607218243358 0 -0.42840061325562262 -0.31647293829530743 0 -0.4264743988894073 -0.3211822176849044 0 -0.4167600224045297 -0.32669697305777079 0 -0.42840061325562262 -0.31647293829530743 0 -0.4264743988894073 -0.3211822176849044 0 -0.42521886751067439 -0.32931607218243358 0 -0.4241367133241728 -0.32538520817483418 0 -0.42228589653741189 -0.3275873325551954 0 -0.42449225411357211 -0.30420008010137922 0 -0.4267262802312014 -0.30947721860588751 0 -0.42821334823377449 -0.28840084532159987 0 -0.42840061325562262 -0.31647293829530743 0 -0.43232824433426859 -0.29893898067810742 0 -0.42821334823377449 -0.28840084532159987 0 -0.42840061325562262 -0.31647293829530743 0 -0.42821334823377449 -0.28840084532159987 0 -0.42449225411357211 -0.30420008010137922 0 -0.42199903422606372 -0.30321794152113812 0 -0.42821334823377449 -0.28840084532159987 0 -0.42840061325562262 -0.31647293829530743 0 -0.43254489950226832 -0.30856438048894941 0 -0.43232824433426859 -0.29893898067810742 0 -0.42840061325562262 -0.31647293829530743 0 -0.4267262802312014 -0.30947721860588751 0 -0.42821334823377449 -0.28840084532159987 0 -0.42199903422606372 -0.30321794152113812 0 -0.42821334823377449 -0.28840084532159987 0 -0.41622327754922023 -0.30094273367010382 0 -0.42449225411357211 -0.30420008010137922 0 -0.42199903422606372 -0.30321794152113812 0 -0.42199903422606372 -0.30321794152113812 0 -0.42300606050085571 -0.30759187926573162 0 -0.42153357626712318 -0.31190103564342703 0 -0.42449225411357211 -0.30420008010137922 0 -0.42199903422606372 -0.30321794152113812 0 -0.42300606050085571 -0.30759187926573162 0 -0.42449225411357211 -0.30420008010137922 0 -0.42450928878487892 -0.30949315277972989 0 -0.4267262802312014 -0.30947721860588751 0 -0.42449225411357211 -0.30420008010137922 0 -0.42300606050085571 -0.30759187926573162 0 -0.42450928878487892 -0.30949315277972989 0 -0.42300606050085571 -0.30759187926573162 0 -0.42450928878487892 -0.30949315277972989 0 -0.42153357626712318 -0.31190103564342703 0 -0.42450928878487892 -0.30949315277972989 0 -0.4246055626250112 -0.31170811018759781 0 -0.42153357626712318 -0.31190103564342703 0 -0.42450928878487892 -0.30949315277972989 0 -0.4246055626250112 -0.31170811018759781 0 -0.4267262802312014 -0.30947721860588751 0 -0.42562392352135009 -0.31326867158646787 0 -0.4246055626250112 -0.31170811018759781 0 -0.4267262802312014 -0.30947721860588751 0 -0.42738905447280751 -0.31352595727781019 0 -0.42562392352135009 -0.31326867158646787 0 -0.4267262802312014 -0.30947721860588751 0 -0.4405050822258848 -0.3125352355073433 0 -0.43464522018854451 -0.31431809416987122 0 -0.43254489950226832 -0.30856438048894941 0 -0.43464522018854451 -0.31431809416987122 0 -0.43211319602262438 -0.31380722105729397 0 -0.43254489950226832 -0.30856438048894941 0 -0.43979346279560011 -0.30275624216402769 0 -0.43254489950226832 -0.30856438048894941 0 -0.43629537259915119 -0.29926540739242108 0 -0.43254489950226832 -0.30856438048894941 0 -0.43232824433426859 -0.29893898067810742 0 -0.43629537259915119 -0.29926540739242108 0 -0.42811351770288958 -0.28487232816218772 0 -0.41622327754922023 -0.30094273367010382 0 -0.43232824433426859 -0.29893898067810742 0 -0.43629537259915119 -0.29926540739242108 0 -0.43729932351734419 -0.29088766456399601 0 -0.43232824433426859 -0.29893898067810742 0 -0.43729932351734419 -0.29088766456399601 0 -0.42821334823377449 -0.28840084532159987 0 -0.42811351770288958 -0.28487232816218772 0 -0.42821334823377449 -0.28840084532159987 0 -0.41622327754922023 -0.30094273367010382 0 -0.43729932351734419 -0.29088766456399601 0 -0.42821334823377449 -0.28840084532159987 0 -0.43176049337605321 -0.27994321174504339 0 -0.42821334823377449 -0.28840084532159987 0 -0.43176049337605321 -0.27994321174504339 0 -0.42811351770288958 -0.28487232816218772 0 -0.43176049337605321 -0.27994321174504339 0 -0.42811351770288958 -0.28487232816218772 0 -0.42821334823377449 -0.28840084532159987 0 -0.43176049337605321 -0.27994321174504339 0 -0.42811351770288958 -0.28487232816218772 0 -0.42821334823377449 -0.28840084532159987 0 -0.42199903422606372 -0.30321794152113812 0 -0.42821334823377449 -0.28840084532159987 0 -0.41297770778239268 -0.28766950674351821 0 -0.41622327754922023 -0.30094273367010382 0 -0.39533404837497582 -0.29271396973864627 0 -0.42811351770288958 -0.28487232816218772 0 -0.41297770778239268 -0.28766950674351821 0 -0.41622327754922023 -0.30094273367010382 0 -0.42811351770288958 -0.28487232816218772 0 -0.41297770778239268 -0.28766950674351821 0 -0.41540845751805999 -0.27625446342375659 0 -0.40528981877133369 -0.31571998912447419 0 -0.41584962998029618 -0.31788027016534898 0 -0.41622327754922023 -0.30094273367010382 0 -0.41584962998029618 -0.31788027016534898 0 -0.42199903422606372 -0.30321794152113812 0 -0.41622327754922023 -0.30094273367010382 0 -0.42199903422606372 -0.30321794152113812 0 -0.41622327754922023 -0.30094273367010382 0 -0.41584962998029618 -0.31788027016534898 0 -0.42199903422606372 -0.30321794152113812 0 -0.42153357626712318 -0.31190103564342703 0 -0.41584962998029618 -0.31788027016534898 0 -0.42199903422606372 -0.30321794152113812 0 -0.40528981877133369 -0.31571998912447419 0 -0.41622327754922023 -0.30094273367010382 0 -0.40528981877133369 -0.31571998912447419 0 -0.41622327754922023 -0.30094273367010382 0 -0.40286253175243741 -0.30311321743690822 0 -0.38331437327385498 -0.31520657016406711 0 -0.40528981877133369 -0.31571998912447419 0 -0.3901613115895623 -0.30124200899616732 0 -0.41622327754922023 -0.30094273367010382 0 -0.40286253175243741 -0.30311321743690822 0 -0.39533404837497582 -0.29271396973864627 0 -0.40528981877133369 -0.31571998912447419 0 -0.40286253175243741 -0.30311321743690822 0 -0.3901613115895623 -0.30124200899616732 0 -0.40286253175243741 -0.30311321743690822 0 -0.3901613115895623 -0.30124200899616732 0 -0.39533404837497582 -0.29271396973864627 0 -0.40528981877133369 -0.31571998912447419 0 -0.3901613115895623 -0.30124200899616732 0 -0.38331437327385498 -0.31520657016406711 0 -0.3901613115895623 -0.30124200899616732 0 -0.37875111781931231 -0.30117489881361781 0 -0.38331437327385498 -0.31520657016406711 0 -0.37875111781931231 -0.30117489881361781 0 -0.37024649825637979 -0.30680379653957113 0 -0.39533404837497582 -0.29271396973864627 0 -0.37444481920073192 -0.28448520580718728 0 -0.3901613115895623 -0.30124200899616732 0 -0.37503280440779202 -0.28676402886785918 0 -0.39533404837497582 -0.29271396973864627 0 -0.37503280440779202 -0.28676402886785918 0 -0.39533404837497582 -0.29271396973864627 0 -0.37444481920073192 -0.28448520580718728 0 -0.39533404837497582 -0.29271396973864627 0 -0.38728175493047312 -0.27133024006446282 0 -0.37444481920073192 -0.28448520580718728 0 -0.3901613115895623 -0.30124200899616732 0 -0.37875111781931231 -0.30117489881361781 0 -0.37503280440779202 -0.28676402886785918 0 -0.37875111781931231 -0.30117489881361781 0 -0.37503280440779202 -0.28676402886785918 0 -0.3901613115895623 -0.30124200899616732 0 -0.37503280440779202 -0.28676402886785918 0 -0.41297770778239268 -0.28766950674351821 0 -0.39533404837497582 -0.29271396973864627 0 -0.40285068337628482 -0.27896101632535769 0 -0.41622327754922023 -0.30094273367010382 0 -0.39533404837497582 -0.29271396973864627 0 -0.39533404837497582 -0.29271396973864627 0 -0.40285068337628482 -0.27896101632535769 0 -0.38728175493047312 -0.27133024006446282 0 -0.40325144827552251 -0.2668369016564045 0 -0.38728175493047312 -0.27133024006446282 0 -0.39260422239941373 -0.26083381134920969 0 -0.40285068337628482 -0.27896101632535769 0 -0.40325144827552251 -0.2668369016564045 0 -0.38728175493047312 -0.27133024006446282 0 -0.38728175493047312 -0.27133024006446282 0 -0.36812006193390528 -0.2599726797440608 0 -0.37444481920073192 -0.28448520580718728 0 -0.38728175493047312 -0.27133024006446282 0 -0.38126767478425849 -0.25407857661963051 0 -0.36812006193390528 -0.2599726797440608 0 -0.38728175493047312 -0.27133024006446282 0 -0.38126767478425849 -0.25407857661963051 0 -0.39260422239941373 -0.26083381134920969 0 -0.40325144827552251 -0.2668369016564045 0 -0.39861601160740101 -0.25108952705634102 0 -0.39260422239941373 -0.26083381134920969 0 -0.38126767478425849 -0.25407857661963051 0 -0.39861601160740101 -0.25108952705634102 0 -0.39260422239941373 -0.26083381134920969 0 -0.40325144827552251 -0.2668369016564045 0 -0.39861601160740101 -0.25108952705634102 0 -0.41200971311640833 -0.25501453429736459 0 -0.41200971311640833 -0.25501453429736459 0 -0.41679916010932089 -0.26426205916589102 0 -0.4243063970095361 -0.25208011803610397 0 -0.40325144827552251 -0.2668369016564045 0 -0.41200971311640833 -0.25501453429736459 0 -0.41679916010932089 -0.26426205916589102 0 -0.40325144827552251 -0.2668369016564045 0 -0.41679916010932089 -0.26426205916589102 0 -0.41540845751805999 -0.27625446342375659 0 -0.40285068337628482 -0.27896101632535769 0 -0.40325144827552251 -0.2668369016564045 0 -0.41540845751805999 -0.27625446342375659 0 -0.41297770778239268 -0.28766950674351821 0 -0.40285068337628482 -0.27896101632535769 0 -0.41540845751805999 -0.27625446342375659 0 -0.41679916010932089 -0.26426205916589102 0 -0.41540845751805999 -0.27625446342375659 0 -0.42760594241290911 -0.26693204371694401 0 -0.42811351770288958 -0.28487232816218772 0 -0.41540845751805999 -0.27625446342375659 0 -0.42760594241290911 -0.26693204371694401 0 -0.42811351770288958 -0.28487232816218772 0 -0.42760594241290911 -0.26693204371694401 0 -0.43176049337605321 -0.27994321174504339 0 -0.42811351770288958 -0.28487232816218772 0 -0.42760594241290911 -0.26693204371694401 0 -0.44313374448004539 -0.25282540670650688 0 -0.43176049337605321 -0.27994321174504339 0 -0.44313374448004539 -0.25282540670650688 0 -0.42760594241290911 -0.26693204371694401 0 -0.43176049337605321 -0.27994321174504339 0 -0.44313374448004539 -0.25282540670650688 0 -0.42760594241290911 -0.26693204371694401 0 -0.4243063970095361 -0.25208011803610397 0 -0.41679916010932089 -0.26426205916589102 0 -0.42760594241290911 -0.26693204371694401 0 -0.4243063970095361 -0.25208011803610397 0 -0.32549377471586421 -0.26345975815930472 0 -0.31990404369703929 -0.25362272624222421 0 -0.33493939195371653 -0.24839463644786239 0 -0.31990404369703929 -0.25362272624222421 0 -0.31229548809362701 -0.26197468411870473 0 -0.31160380809715849 -0.25026392663385499 0 -0.32549377471586421 -0.26345975815930472 0 -0.31990404369703929 -0.25362272624222421 0 -0.31229548809362701 -0.26197468411870473 0 -0.32105094556113672 -0.28107386587075178 0 -0.31229548809362701 -0.26197468411870473 0 -0.32549377471586421 -0.26345975815930472 0 -0.32105094556113672 -0.28107386587075178 0 -0.31229548809362701 -0.26197468411870473 0 -0.31484092840625161 -0.27033963831899932 0 -0.32105094556113672 -0.28107386587075178 0 -0.31229548809362701 -0.26197468411870473 0 -0.32549377471586421 -0.26345975815930472 0 -0.32105094556113672 -0.28107386587075178 0 -0.33740702746452622 -0.27374139916767032 0 -0.31484092840625161 -0.27033963831899932 0 -0.31397337966441358 -0.27790849716514687 0 -0.32105094556113672 -0.28107386587075178 0 -0.31397337966441358 -0.27790849716514687 0 -0.31238355006392088 -0.2769270964746986 0 -0.31484092840625161 -0.27033963831899932 0 -0.31397337966441358 -0.27790849716514687 0 -0.31238355006392088 -0.2769270964746986 0 -0.31484092840625161 -0.27033963831899932 0 -0.31238355006392088 -0.2769270964746986 0 -0.32105094556113672 -0.28107386587075178 0 -0.33740702746452622 -0.27374139916767032 0 -0.33495327401992853 -0.28680745375748962 0 -0.32105094556113672 -0.28107386587075178 0 -0.33740702746452622 -0.27374139916767032 0 -0.33740702746452622 -0.27374139916767032 0 -0.35486357200645929 -0.26746207511914177 0 -0.33493939195371653 -0.24839463644786239 0 -0.32549377471586421 -0.26345975815930472 0 -0.33740702746452622 -0.27374139916767032 0 -0.33493939195371653 -0.24839463644786239 0 -0.35013116589001492 -0.25114475686595727 0 -0.35564531840799829 -0.26556513410284222 0 -0.35486357200645929 -0.26746207511914177 0 -0.35013116589001492 -0.25114475686595727 0 -0.35564531840799829 -0.26556513410284222 0 -0.36420427315936832 -0.24479646501453009 0 -0.35486357200645929 -0.26746207511914177 0 -0.33493939195371653 -0.24839463644786239 0 -0.35013116589001492 -0.25114475686595727 0 -0.35486357200645929 -0.26746207511914177 0 -0.33493939195371653 -0.24839463644786239 0 -0.38126767478425849 -0.25407857661963051 0 -0.36812006193390528 -0.2599726797440608 0 -0.36420427315936832 -0.24479646501453009 0 -0.35564531840799829 -0.26556513410284222 0 -0.36420427315936832 -0.24479646501453009 0 -0.36812006193390528 -0.2599726797440608 0 -0.36420427315936832 -0.24479646501453009 0 -0.35564531840799829 -0.26556513410284222 0 -0.36812006193390528 -0.2599726797440608 0 -0.36420427315936832 -0.24479646501453009 0 -0.35564531840799829 -0.26556513410284222 0 -0.36812006193390528 -0.2599726797440608 0 -0.36544395054762768 -0.27071279112489388 0 -0.35564531840799829 -0.26556513410284222 0 -0.36812006193390528 -0.2599726797440608 0 -0.38126767478425849 -0.25407857661963051 0 -0.36812006193390528 -0.2599726797440608 0 -0.35315322082961131 -0.27609793908432723 0 -0.35486357200645929 -0.26746207511914177 0 -0.37139705865159289 -0.28328462047829628 0 -0.36812006193390528 -0.2599726797440608 0 -0.37444481920073192 -0.28448520580718728 0 -0.35486357200645929 -0.26746207511914177 0 -0.37139705865159289 -0.28328462047829628 0 -0.36812006193390528 -0.2599726797440608 0 -0.36544395054762768 -0.27071279112489388 0 -0.37444481920073192 -0.28448520580718728 0 -0.35315322082961131 -0.27609793908432723 0 -0.37139705865159289 -0.28328462047829628 0 -0.36544395054762768 -0.27071279112489388 0 -0.35486357200645929 -0.26746207511914177 0 -0.37139705865159289 -0.28328462047829628 0 -0.36544395054762768 -0.27071279112489388 0 -0.37444481920073192 -0.28448520580718728 0 -0.37139705865159289 -0.28328462047829628 0 -0.33740702746452622 -0.27374139916767032 0 -0.35486357200645929 -0.26746207511914177 0 -0.35315322082961131 -0.27609793908432723 0 -0.35486357200645929 -0.26746207511914177 0 -0.34743621117096679 -0.28548488326252158 0 -0.35486357200645929 -0.26746207511914177 0 -0.34743621117096679 -0.28548488326252158 0 -0.33740702746452622 -0.27374139916767032 0 -0.35486357200645929 -0.26746207511914177 0 -0.34743621117096679 -0.28548488326252158 0 -0.35564531840799829 -0.26556513410284222 0 -0.36544395054762768 -0.27071279112489388 0 -0.35486357200645929 -0.26746207511914177 0 -0.35564531840799829 -0.26556513410284222 0 -0.35486357200645929 -0.26746207511914177 0 -0.34743621117096679 -0.28548488326252158 0 -0.35151066170101991 -0.29426886047183859 0 -0.34000885033547762 -0.30350769140590289 0 -0.35151066170101991 -0.29426886047183859 0 -0.35927569828904699 -0.28702817620272048 0 -0.35932188700858769 -0.30105469101620991 0 -0.34743621117096679 -0.28548488326252158 0 -0.35151066170101991 -0.29426886047183859 0 -0.35927569828904699 -0.28702817620272048 0 -0.35315322082961131 -0.27609793908432723 0 -0.34743621117096679 -0.28548488326252158 0 -0.35927569828904699 -0.28702817620272048 0 -0.35315322082961131 -0.27609793908432723 0 -0.35927569828904699 -0.28702817620272048 0 -0.37139705865159289 -0.28328462047829628 0 -0.35927569828904699 -0.28702817620272048 0 -0.36868805482243611 -0.29452184523536468 0 -0.37139705865159289 -0.28328462047829628 0 -0.35927569828904699 -0.28702817620272048 0 -0.36868805482243611 -0.29452184523536468 0 -0.35932188700858769 -0.30105469101620991 0 -0.37875111781931231 -0.30117489881361781 0 -0.37503280440779202 -0.28676402886785918 0 -0.36868805482243611 -0.29452184523536468 0 -0.37503280440779202 -0.28676402886785918 0 -0.36868805482243611 -0.29452184523536468 0 -0.37139705865159289 -0.28328462047829628 0 -0.37503280440779202 -0.28676402886785918 0 -0.37444481920073192 -0.28448520580718728 0 -0.37503280440779202 -0.28676402886785918 0 -0.37139705865159289 -0.28328462047829628 0 -0.37503280440779202 -0.28676402886785918 0 -0.37444481920073192 -0.28448520580718728 0 -0.37139705865159289 -0.28328462047829628 0 -0.37444481920073192 -0.28448520580718728 0 -0.37139705865159289 -0.28328462047829628 0 -0.37024649825637979 -0.30680379653957113 0 -0.35932188700858769 -0.30105469101620991 0 -0.36495052935389599 -0.32001925848077101 0 -0.37875111781931231 -0.30117489881361781 0 -0.36868805482243611 -0.29452184523536468 0 -0.37024649825637979 -0.30680379653957113 0 -0.36868805482243611 -0.29452184523536468 0 -0.37024649825637979 -0.30680379653957113 0 -0.35932188700858769 -0.30105469101620991 0 -0.34000885033547762 -0.30350769140590289 0 -0.36495052935389599 -0.32001925848077101 0 -0.33741541499776972 -0.30980077296730391 0 -0.34000885033547762 -0.30350769140590289 0 -0.36495052935389599 -0.32001925848077101 0 -0.35151066170101991 -0.29426886047183859 0 -0.35932188700858769 -0.30105469101620991 0 -0.34000885033547762 -0.30350769140590289 0 -0.35932188700858769 -0.30105469101620991 0 -0.34000885033547762 -0.30350769140590289 0 -0.36495052935389599 -0.32001925848077101 0 -0.32755587183637169 -0.29526373198287958 0 -0.31933048016984561 -0.3125702542105302 0 -0.33853646768419859 -0.31921683741702178 0 -0.32755587183637169 -0.29526373198287958 0 -0.33853646768419859 -0.31921683741702178 0 -0.33741541499776972 -0.30980077296730391 0 -0.32755587183637169 -0.29526373198287958 0 -0.33853646768419859 -0.31921683741702178 0 -0.33741541499776972 -0.30980077296730391 0 -0.34000885033547762 -0.30350769140590289 0 -0.33741541499776972 -0.30980077296730391 0 -0.34000885033547762 -0.30350769140590289 0 -0.32755587183637169 -0.29526373198287958 0 -0.34000885033547762 -0.30350769140590289 0 -0.32755587183637169 -0.29526373198287958 0 -0.34000885033547762 -0.30350769140590289 0 -0.33495327401992853 -0.28680745375748962 0 -0.32755587183637169 -0.29526373198287958 0 -0.34743621117096679 -0.28548488326252158 0 -0.34000885033547762 -0.30350769140590289 0 -0.34743621117096679 -0.28548488326252158 0 -0.34000885033547762 -0.30350769140590289 0 -0.33495327401992853 -0.28680745375748962 0 -0.33740702746452622 -0.27374139916767032 0 -0.34743621117096679 -0.28548488326252158 0 -0.33495327401992853 -0.28680745375748962 0 -0.32105094556113672 -0.28107386587075178 0 -0.33495327401992853 -0.28680745375748962 0 -0.32755587183637169 -0.29526373198287958 0 -0.32105094556113672 -0.28107386587075178 0 -0.32755587183637169 -0.29526373198287958 0 -0.31397337966441358 -0.27790849716514687 0 -0.32105094556113672 -0.28107386587075178 0 -0.31214931778345079 -0.28506448475299068 0 -0.32105094556113672 -0.28107386587075178 0 -0.32755587183637169 -0.29526373198287958 0 -0.31214931778345079 -0.28506448475299068 0 -0.32105094556113672 -0.28107386587075178 0 -0.31214931778345079 -0.28506448475299068 0 -0.32755587183637169 -0.29526373198287958 0 -0.31541833707931888 -0.29686231166383598 0 -0.31214931778345079 -0.28506448475299068 0 -0.32755587183637169 -0.29526373198287958 0 -0.31214931778345079 -0.28506448475299068 0 -0.32755587183637169 -0.29526373198287958 0 -0.31541833707931888 -0.29686231166383598 0 -0.31933048016984561 -0.3125702542105302 0 -0.31933048016984561 -0.3125702542105302 0 -0.32381034401068343 -0.32821094720354799 0 -0.33853646768419859 -0.31921683741702178 0 -0.31933048016984561 -0.3125702542105302 0 -0.32381034401068343 -0.32821094720354799 0 -0.31014519408270552 -0.32636463107101599 0 -0.32381034401068343 -0.32821094720354799 0 -0.31749617605638081 -0.34422660558608631 0 -0.31014519408270552 -0.32636463107101599 0 -0.32381034401068343 -0.32821094720354799 0 -0.33530917437123531 -0.33682221351671809 0 -0.31749617605638081 -0.34422660558608631 0 -0.33530917437123531 -0.33682221351671809 0 -0.33853646768419859 -0.31921683741702178 0 -0.34951706353202511 -0.34316994285116442 0 -0.32381034401068343 -0.32821094720354799 0 -0.33530917437123531 -0.33682221351671809 0 -0.33853646768419859 -0.31921683741702178 0 -0.33853646768419859 -0.31921683741702178 0 -0.35149587226746759 -0.32776939812620159 0 -0.36495052935389599 -0.32001925848077101 0 -0.33741541499776972 -0.30980077296730391 0 -0.33853646768419859 -0.31921683741702178 0 -0.36495052935389599 -0.32001925848077101 0 -0.38331437327385498 -0.31520657016406711 0 -0.37024649825637979 -0.30680379653957113 0 -0.36495052935389599 -0.32001925848077101 0 -0.35149587226746759 -0.32776939812620159 0 -0.36495052935389599 -0.32001925848077101 0 -0.36435355300507721 -0.33480747974202157 0 -0.36435355300507721 -0.33480747974202157 0 -0.34951706353202511 -0.34316994285116442 0 -0.36591209149968318 -0.34654797369633128 0 -0.38989220837231431 -0.3365308255556394 0 -0.36495052935389599 -0.32001925848077101 0 -0.36435355300507721 -0.33480747974202157 0 -0.38989220837231431 -0.3365308255556394 0 -0.36435355300507721 -0.33480747974202157 0 -0.36591209149968318 -0.34654797369633128 0 -0.33853646768419859 -0.31921683741702178 0 -0.35149587226746759 -0.32776939812620159 0 -0.34951706353202511 -0.34316994285116442 0 -0.33853646768419859 -0.31921683741702178 0 -0.34951706353202511 -0.34316994285116442 0 -0.35149587226746759 -0.32776939812620159 0 -0.36435355300507721 -0.33480747974202157 0 -0.34951706353202511 -0.34316994285116442 0 -0.34452818220175457 -0.35276715313715801 0 -0.37156018834713089 -0.36130770068822132 0 -0.34951706353202511 -0.34316994285116442 0 -0.34452818220175457 -0.35276715313715801 0 -0.36591209149968318 -0.34654797369633128 0 -0.34452818220175457 -0.35276715313715801 0 -0.36591209149968318 -0.34654797369633128 0 -0.37156018834713089 -0.36130770068822132 0 -0.38072619835971983 -0.34891926312192828 0 -0.36591209149968318 -0.34654797369633128 0 -0.37156018834713089 -0.36130770068822132 0 -0.37520975007962171 -0.3770241084801258 0 -0.37582117691473871 -0.36265392616926279 0 -0.36080762902171692 -0.37584045918376202 0 -0.37582117691473871 -0.36265392616926279 0 -0.36080762902171692 -0.37584045918376202 0 -0.37582117691473871 -0.36265392616926279 0 -0.37156018834713089 -0.36130770068822132 0 -0.36080762902171692 -0.37584045918376202 0 -0.37582117691473871 -0.36265392616926279 0 -0.37156018834713089 -0.36130770068822132 0 -0.37156018834713089 -0.36130770068822132 0 -0.36080762902171692 -0.37584045918376202 0 -0.34452818220175457 -0.35276715313715801 0 -0.37156018834713089 -0.36130770068822132 0 -0.36080762902171692 -0.37584045918376202 0 -0.34452818220175457 -0.35276715313715801 0 -0.34192060078971842 -0.37189244615799011 0 -0.36080762902171692 -0.37584045918376202 0 -0.34452818220175457 -0.35276715313715801 0 -0.34192060078971842 -0.37189244615799011 0 -0.33251904822391759 -0.36326249695678392 0 -0.33292047680497161 -0.37296409933421049 0 -0.33251904822391759 -0.36326249695678392 0 -0.3246626737243824 -0.3676016564686303 0 -0.34192060078971842 -0.37189244615799011 0 -0.33292047680497161 -0.37296409933421049 0 -0.33251904822391759 -0.36326249695678392 0 -0.33530917437123531 -0.33682221351671809 0 -0.34951706353202511 -0.34316994285116442 0 -0.34452818220175457 -0.35276715313715801 0 -0.33530917437123531 -0.33682221351671809 0 -0.34452818220175457 -0.35276715313715801 0 -0.31749617605638081 -0.34422660558608631 0 -0.34452818220175457 -0.35276715313715801 0 -0.33251904822391759 -0.36326249695678392 0 -0.32059460549959379 -0.35405403269193853 0 -0.34452818220175457 -0.35276715313715801 0 -0.31749617605638081 -0.34422660558608631 0 -0.32059460549959379 -0.35405403269193853 0 -0.30480752787700738 -0.34680512443992589 0 -0.34452818220175457 -0.35276715313715801 0 -0.32059460549959379 -0.35405403269193853 0 -0.31749617605638081 -0.34422660558608631 0 -0.32059460549959379 -0.35405403269193853 0 -0.31749617605638081 -0.34422660558608631 0 -0.30480752787700738 -0.34680512443992589 0 -0.32059460549959379 -0.35405403269193853 0 -0.31571843911014608 -0.36685896359018222 0 -0.3084593211862508 -0.35924580353986979 0 -0.33292047680497161 -0.37296409933421049 0 -0.3246626737243824 -0.3676016564686303 0 -0.32495884104542089 -0.37586922638778858 0 -0.31571843911014608 -0.36685896359018222 0 -0.3246626737243824 -0.3676016564686303 0 -0.32495884104542089 -0.37586922638778858 0 -0.32059460549959379 -0.35405403269193853 0 -0.31571843911014608 -0.36685896359018222 0 -0.3246626737243824 -0.3676016564686303 0 -0.33251904822391759 -0.36326249695678392 0 -0.32059460549959379 -0.35405403269193853 0 -0.3246626737243824 -0.3676016564686303 0 -0.31571843911014608 -0.36685896359018222 0 -0.30412440520852663 -0.36975461592710868 0 -0.31504031574216251 -0.38253443981472862 0 -0.30412440520852663 -0.36975461592710868 0 -0.3084593211862508 -0.35924580353986979 0 -0.2970516282359803 -0.35875628105019353 0 -0.30412440520852663 -0.36975461592710868 0 -0.2970516282359803 -0.35875628105019353 0 -0.2910743207671958 -0.37113609544855608 0 -0.30412440520852663 -0.36975461592710868 0 -0.2910743207671958 -0.37113609544855608 0 -0.30071526190494341 -0.38239487254454141 0 -0.31571843911014608 -0.36685896359018222 0 -0.30412440520852663 -0.36975461592710868 0 -0.3084593211862508 -0.35924580353986979 0 -0.32059460549959379 -0.35405403269193853 0 -0.3084593211862508 -0.35924580353986979 0 -0.30480752787700738 -0.34680512443992589 0 -0.30480752787700738 -0.34680512443992589 0 -0.2970516282359803 -0.35875628105019353 0 -0.29359749511425459 -0.3498611545986467 0 -0.3084593211862508 -0.35924580353986979 0 -0.30480752787700738 -0.34680512443992589 0 -0.2970516282359803 -0.35875628105019353 0 -0.30480752787700738 -0.34680512443992589 0 -0.29359749511425459 -0.3498611545986467 0 -0.28902045025442108 -0.33955621618791348 0 -0.2970516282359803 -0.35875628105019353 0 -0.29359749511425459 -0.3498611545986467 0 -0.28351037408960961 -0.35432699671655388 0 -0.29359749511425459 -0.3498611545986467 0 -0.28351037408960961 -0.35432699671655388 0 -0.28902045025442108 -0.33955621618791348 0 -0.28351037408960961 -0.35432699671655388 0 -0.27513293066132422 -0.34526956668745468 0 -0.28902045025442108 -0.33955621618791348 0 -0.28351037408960961 -0.35432699671655388 0 -0.28902045025442108 -0.33955621618791348 0 -0.28351037408960961 -0.35432699671655388 0 -0.2910743207671958 -0.37113609544855608 0 -0.2758861868966303 -0.37223524305541461 0 -0.2970516282359803 -0.35875628105019353 0 -0.28351037408960961 -0.35432699671655388 0 -0.2910743207671958 -0.37113609544855608 0 -0.28351037408960961 -0.35432699671655388 0 -0.2758861868966303 -0.37223524305541461 0 -0.26440159447370842 -0.35661514584630211 0 -0.2758861868966303 -0.37223524305541461 0 -0.26247411513346652 -0.37149476770310408 0 -0.26440159447370842 -0.35661514584630211 0 -0.26247411513346652 -0.37149476770310408 0 -0.24947320939602319 -0.37487240337524902 0 -0.24989586565320229 -0.35819635653220411 0 -0.26247411513346652 -0.37149476770310408 0 -0.26440159447370842 -0.35661514584630211 0 -0.24989586565320229 -0.35819635653220411 0 -0.26440159447370842 -0.35661514584630211 0 -0.25053870451287102 -0.34047563698912348 0 -0.24989586565320229 -0.35819635653220411 0 -0.26440159447370842 -0.35661514584630211 0 -0.26481489283133319 -0.34322811060714509 0 -0.25053870451287102 -0.34047563698912348 0 -0.26440159447370842 -0.35661514584630211 0 -0.27513293066132422 -0.34526956668745468 0 -0.26481489283133319 -0.34322811060714509 0 -0.28351037408960961 -0.35432699671655388 0 -0.26440159447370842 -0.35661514584630211 0 -0.27513293066132422 -0.34526956668745468 0 -0.27463920148584192 -0.33068628500290981 0 -0.25881423306067652 -0.32568651197080473 0 -0.27391734165754877 -0.33262136407935888 0 -0.27463920148584192 -0.33068628500290981 0 -0.29046416991100721 -0.33568605803501511 0 -0.27391734165754877 -0.33262136407935888 0 -0.27463920148584192 -0.33068628500290981 0 -0.25881423306067652 -0.32568651197080473 0 -0.27513293066132422 -0.34526956668745468 0 -0.27391734165754877 -0.33262136407935888 0 -0.28902045025442108 -0.33955621618791348 0 -0.27391734165754877 -0.33262136407935888 0 -0.25881423306067652 -0.32568651197080473 0 -0.27513293066132422 -0.34526956668745468 0 -0.27391734165754877 -0.33262136407935888 0 -0.26481489283133319 -0.34322811060714509 0 -0.27391734165754877 -0.33262136407935888 0 -0.26481489283133319 -0.34322811060714509 0 -0.25973702523370268 -0.33535550302309919 0 -0.26481489283133319 -0.34322811060714509 0 -0.25973702523370268 -0.33535550302309919 0 -0.25053870451287102 -0.34047563698912348 0 -0.27391734165754877 -0.33262136407935888 0 -0.25973702523370268 -0.33535550302309919 0 -0.25881423306067652 -0.32568651197080473 0 -0.25973702523370268 -0.33535550302309919 0 -0.25229887266720991 -0.32910931860687193 0 -0.25881423306067652 -0.32568651197080473 0 -0.25973702523370268 -0.33535550302309919 0 -0.25229887266720991 -0.32910931860687193 0 -0.25053870451287102 -0.34047563698912348 0 -0.27463920148584192 -0.33068628500290981 0 -0.25881423306067652 -0.32568651197080473 0 -0.26331529022806932 -0.31819353223359981 0 -0.26331529022806932 -0.31819353223359981 0 -0.2537754909048211 -0.30881070777534553 0 -0.24785359096487741 -0.32222358419156288 0 -0.2537754909048211 -0.30881070777534553 0 -0.24785359096487741 -0.32222358419156288 0 -0.25881423306067652 -0.32568651197080473 0 -0.24785359096487741 -0.32222358419156288 0 -0.25229887266720991 -0.32910931860687193 0 -0.25881423306067652 -0.32568651197080473 0 -0.24785359096487741 -0.32222358419156288 0 -0.25881423306067652 -0.32568651197080473 0 -0.26331529022806932 -0.31819353223359981 0 -0.24785359096487741 -0.32222358419156288 0 -0.26331529022806932 -0.31819353223359981 0 -0.27350725436155598 -0.31599512038272393 0 -0.26697257397758239 -0.30988052633589153 0 -0.27463920148584192 -0.33068628500290981 0 -0.26331529022806932 -0.31819353223359981 0 -0.27350725436155598 -0.31599512038272393 0 -0.27463920148584192 -0.33068628500290981 0 -0.27350725436155598 -0.31599512038272393 0 -0.28459549789868499 -0.31813707094573029 0 -0.27350725436155598 -0.31599512038272393 0 -0.28459549789868499 -0.31813707094573029 0 -0.27955215632000358 -0.30936237107245629 0 -0.29046416991100721 -0.33568605803501511 0 -0.29962480026561028 -0.31112929031990022 0 -0.28459549789868499 -0.31813707094573029 0 -0.29046416991100721 -0.33568605803501511 0 -0.29962480026561028 -0.31112929031990022 0 -0.27391734165754877 -0.33262136407935888 0 -0.28902045025442108 -0.33955621618791348 0 -0.29046416991100721 -0.33568605803501511 0 -0.27463920148584192 -0.33068628500290981 0 -0.28459549789868499 -0.31813707094573029 0 -0.29046416991100721 -0.33568605803501511 0 -0.27463920148584192 -0.33068628500290981 0 -0.29046416991100721 -0.33568605803501511 0 -0.30480752787700738 -0.34680512443992589 0 -0.28902045025442108 -0.33955621618791348 0 -0.29046416991100721 -0.33568605803501511 0 -0.27391734165754877 -0.33262136407935888 0 -0.28902045025442108 -0.33955621618791348 0 -0.28902045025442108 -0.33955621618791348 0 -0.29046416991100721 -0.33568605803501511 0 -0.30480752787700738 -0.34680512443992589 0 -0.28902045025442108 -0.33955621618791348 0 -0.31749617605638081 -0.34422660558608631 0 -0.29046416991100721 -0.33568605803501511 0 -0.31014519408270552 -0.32636463107101599 0 -0.31749617605638081 -0.34422660558608631 0 -0.30480752787700738 -0.34680512443992589 0 -0.29046416991100721 -0.33568605803501511 0 -0.31749617605638081 -0.34422660558608631 0 -0.29046416991100721 -0.33568605803501511 0 -0.31933048016984561 -0.3125702542105302 0 -0.31014519408270552 -0.32636463107101599 0 -0.29962480026561028 -0.31112929031990022 0 -0.29046416991100721 -0.33568605803501511 0 -0.31014519408270552 -0.32636463107101599 0 -0.29962480026561028 -0.31112929031990022 0 -0.31541833707931888 -0.29686231166383598 0 -0.31933048016984561 -0.3125702542105302 0 -0.29962480026561028 -0.31112929031990022 0 -0.31541833707931888 -0.29686231166383598 0 -0.29962480026561028 -0.31112929031990022 0 -0.30878543062021352 -0.28657252260478527 0 -0.29962480026561028 -0.31112929031990022 0 -0.30878543062021352 -0.28657252260478527 0 -0.29962480026561028 -0.31112929031990022 0 -0.30878543062021352 -0.28657252260478527 0 -0.29319841815545672 -0.2935602138240781 0 -0.31541833707931888 -0.29686231166383598 0 -0.31214931778345079 -0.28506448475299068 0 -0.30878543062021352 -0.28657252260478527 0 -0.30990277986512321 -0.28357726083766061 0 -0.30878543062021352 -0.28657252260478527 0 -0.30098639528775828 -0.28246848376582601 0 -0.31397337966441358 -0.27790849716514687 0 -0.31214931778345079 -0.28506448475299068 0 -0.30990277986512321 -0.28357726083766061 0 -0.31214931778345079 -0.28506448475299068 0 -0.30990277986512321 -0.28357726083766061 0 -0.31214931778345079 -0.28506448475299068 0 -0.30990277986512321 -0.28357726083766061 0 -0.30878543062021352 -0.28657252260478527 0 -0.30990277986512321 -0.28357726083766061 0 -0.30878543062021352 -0.28657252260478527 0 -0.31214931778345079 -0.28506448475299068 0 -0.30878543062021352 -0.28657252260478527 0 -0.30878543062021352 -0.28657252260478527 0 -0.30098639528775828 -0.28246848376582601 0 -0.29664576900957063 -0.28700265940135627 0 -0.30878543062021352 -0.28657252260478527 0 -0.29319841815545672 -0.2935602138240781 0 -0.29664576900957063 -0.28700265940135627 0 -0.30098639528775828 -0.28246848376582601 0 -0.29549551520997031 -0.28378343792114169 0 -0.29427123464281379 -0.27943760995738531 0 -0.30098639528775828 -0.28246848376582601 0 -0.29549551520997031 -0.28378343792114169 0 -0.29664576900957063 -0.28700265940135627 0 -0.30878543062021352 -0.28657252260478527 0 -0.29319841815545672 -0.2935602138240781 0 -0.29319841815545672 -0.2935602138240781 0 -0.29664576900957063 -0.28700265940135627 0 -0.28864733865941278 -0.28984880015593828 0 -0.29664576900957063 -0.28700265940135627 0 -0.2911003340827546 -0.28406120111688182 0 -0.28864733865941278 -0.28984880015593828 0 -0.29549551520997031 -0.28378343792114169 0 -0.2911003340827546 -0.28406120111688182 0 -0.29427123464281379 -0.27943760995738531 0 -0.29549551520997031 -0.28378343792114169 0 -0.29664576900957063 -0.28700265940135627 0 -0.2911003340827546 -0.28406120111688182 0 -0.2835232823793476 -0.28499308682620222 0 -0.28864733865941278 -0.28984880015593828 0 -0.27720294353917557 -0.28839710578191269 0 -0.2835232823793476 -0.28499308682620222 0 -0.28006914510144021 -0.28005623870221868 0 -0.28801886459541282 -0.27930161243926749 0 -0.2911003340827546 -0.28406120111688182 0 -0.2835232823793476 -0.28499308682620222 0 -0.28801886459541282 -0.27930161243926749 0 -0.2911003340827546 -0.28406120111688182 0 -0.2835232823793476 -0.28499308682620222 0 -0.28864733865941278 -0.28984880015593828 0 -0.29319841815545672 -0.2935602138240781 0 -0.28864733865941278 -0.28984880015593828 0 -0.27761140569069992 -0.30054790504337098 0 -0.29962480026561028 -0.31112929031990022 0 -0.29319841815545672 -0.2935602138240781 0 -0.28899320403772871 -0.30505824166831003 0 -0.29319841815545672 -0.2935602138240781 0 -0.28899320403772871 -0.30505824166831003 0 -0.27761140569069992 -0.30054790504337098 0 -0.29319841815545672 -0.2935602138240781 0 -0.27761140569069992 -0.30054790504337098 0 -0.28459549789868499 -0.31813707094573029 0 -0.29962480026561028 -0.31112929031990022 0 -0.28899320403772871 -0.30505824166831003 0 -0.28899320403772871 -0.30505824166831003 0 -0.27955215632000358 -0.30936237107245629 0 -0.27761140569069992 -0.30054790504337098 0 -0.28459549789868499 -0.31813707094573029 0 -0.28899320403772871 -0.30505824166831003 0 -0.27955215632000358 -0.30936237107245629 0 -0.27955215632000358 -0.30936237107245629 0 -0.27761140569069992 -0.30054790504337098 0 -0.27305341961134838 -0.30707351732214633 0 -0.27350725436155598 -0.31599512038272393 0 -0.27955215632000358 -0.30936237107245629 0 -0.27305341961134838 -0.30707351732214633 0 -0.27761140569069992 -0.30054790504337098 0 -0.27121141478211691 -0.29932975396564171 0 -0.27305341961134838 -0.30707351732214633 0 -0.27121141478211691 -0.29932975396564171 0 -0.26697257397758239 -0.30988052633589153 0 -0.27305341961134838 -0.30707351732214633 0 -0.27350725436155598 -0.31599512038272393 0 -0.26697257397758239 -0.30988052633589153 0 -0.27305341961134838 -0.30707351732214633 0 -0.26331529022806932 -0.31819353223359981 0 -0.26697257397758239 -0.30988052633589153 0 -0.2537754909048211 -0.30881070777534553 0 -0.27121141478211691 -0.29932975396564171 0 -0.2537754909048211 -0.30881070777534553 0 -0.27121141478211691 -0.29932975396564171 0 -0.26697257397758239 -0.30988052633589153 0 -0.2537754909048211 -0.30881070777534553 0 -0.2537754909048211 -0.30881070777534553 0 -0.26558259746956969 -0.28206806389548678 0 -0.2537754909048211 -0.30881070777534553 0 -0.26558259746956969 -0.28206806389548678 0 -0.24406352110844759 -0.28193155111247048 0 -0.27121141478211691 -0.29932975396564171 0 -0.2537754909048211 -0.30881070777534553 0 -0.26558259746956969 -0.28206806389548678 0 -0.28864733865941278 -0.28984880015593828 0 -0.27761140569069992 -0.30054790504337098 0 -0.27121141478211691 -0.29932975396564171 0 -0.28864733865941278 -0.28984880015593828 0 -0.27121141478211691 -0.29932975396564171 0 -0.27720294353917557 -0.28839710578191269 0 -0.27121141478211691 -0.29932975396564171 0 -0.26558259746956969 -0.28206806389548678 0 -0.27720294353917557 -0.28839710578191269 0 -0.28864733865941278 -0.28984880015593828 0 -0.27121141478211691 -0.29932975396564171 0 -0.26558259746956969 -0.28206806389548678 0 -0.27720294353917557 -0.28839710578191269 0 -0.28006914510144021 -0.28005623870221868 0 -0.2835232823793476 -0.28499308682620222 0 -0.27720294353917557 -0.28839710578191269 0 -0.28006914510144021 -0.28005623870221868 0 -0.26558259746956969 -0.28206806389548678 0 -0.27859472115573919 -0.26285110559437469 0 -0.27738970403431801 -0.25532542001562802 0 -0.26558259746956969 -0.28206806389548678 0 -0.27737296345388179 -0.27453615473546672 0 -0.27859472115573919 -0.26285110559437469 0 -0.26558259746956969 -0.28206806389548678 0 -0.25474425159214009 -0.26941427729143691 0 -0.27738970403431801 -0.25532542001562802 0 -0.26558259746956969 -0.28206806389548678 0 -0.28006914510144021 -0.28005623870221868 0 -0.27737296345388179 -0.27453615473546672 0 -0.28006914510144021 -0.28005623870221868 0 -0.27737296345388179 -0.27453615473546672 0 -0.28524539008877808 -0.27316921074978662 0 -0.26558259746956969 -0.28206806389548678 0 -0.27738970403431801 -0.25532542001562802 0 -0.27737296345388179 -0.27453615473546672 0 -0.27859472115573919 -0.26285110559437469 0 -0.28524539008877808 -0.27316921074978662 0 -0.26558259746956969 -0.28206806389548678 0 -0.25474425159214009 -0.26941427729143691 0 -0.24406352110844759 -0.28193155111247048 0 -0.25580498916708688 -0.25446821000594683 0 -0.27738970403431801 -0.25532542001562802 0 -0.25716779966087988 -0.24332951444333839 0 -0.25474425159214009 -0.26941427729143691 0 -0.25580498916708688 -0.25446821000594683 0 -0.27738970403431801 -0.25532542001562802 0 -0.25474425159214009 -0.26941427729143691 0 -0.25580498916708688 -0.25446821000594683 0 -0.24091999437204001 -0.26426787094528692 0 -0.27738970403431801 -0.25532542001562802 0 -0.29244040476621058 -0.2551797250251836 0 -0.29001259199056301 -0.2470899886560215 0 -0.27738970403431801 -0.25532542001562802 0 -0.29488662704911939 -0.26612625824516323 0 -0.27738970403431801 -0.25532542001562802 0 -0.29244040476621058 -0.2551797250251836 0 -0.29488662704911939 -0.26612625824516323 0 -0.27859472115573919 -0.26285110559437469 0 -0.27738970403431801 -0.25532542001562802 0 -0.29488662704911939 -0.26612625824516323 0 -0.29244040476621058 -0.2551797250251836 0 -0.29001259199056301 -0.2470899886560215 0 -0.29682166380256941 -0.24828486218979359 0 -0.29244040476621058 -0.2551797250251836 0 -0.30125617742336469 -0.25577182020881872 0 -0.29682166380256941 -0.24828486218979359 0 -0.29244040476621058 -0.2551797250251836 0 -0.29488662704911939 -0.26612625824516323 0 -0.30125617742336469 -0.25577182020881872 0 -0.27859472115573919 -0.26285110559437469 0 -0.29424875051043148 -0.27321418321601731 0 -0.27859472115573919 -0.26285110559437469 0 -0.28524539008877808 -0.27316921074978662 0 -0.29424875051043148 -0.27321418321601731 0 -0.27859472115573919 -0.26285110559437469 0 -0.29488662704911939 -0.26612625824516323 0 -0.29424875051043148 -0.27321418321601731 0 -0.28006914510144021 -0.28005623870221868 0 -0.28524539008877808 -0.27316921074978662 0 -0.28801886459541282 -0.27930161243926749 0 -0.28524539008877808 -0.27316921074978662 0 -0.28801886459541282 -0.27930161243926749 0 -0.29424875051043148 -0.27321418321601731 0 -0.30098639528775828 -0.28246848376582601 0 -0.29427123464281379 -0.27943760995738531 0 -0.29424875051043148 -0.27321418321601731 0 -0.2911003340827546 -0.28406120111688182 0 -0.28801886459541282 -0.27930161243926749 0 -0.29427123464281379 -0.27943760995738531 0 -0.28801886459541282 -0.27930161243926749 0 -0.29427123464281379 -0.27943760995738531 0 -0.29424875051043148 -0.27321418321601731 0 -0.29488662704911939 -0.26612625824516323 0 -0.31238355006392088 -0.2769270964746986 0 -0.30990277986512321 -0.28357726083766061 0 -0.29424875051043148 -0.27321418321601731 0 -0.31238355006392088 -0.2769270964746986 0 -0.30990277986512321 -0.28357726083766061 0 -0.29424875051043148 -0.27321418321601731 0 -0.29488662704911939 -0.26612625824516323 0 -0.31238355006392088 -0.2769270964746986 0 -0.30713255420725671 -0.26622789947327691 0 -0.30990277986512321 -0.28357726083766061 0 -0.30098639528775828 -0.28246848376582601 0 -0.29424875051043148 -0.27321418321601731 0 -0.29488662704911939 -0.26612625824516323 0 -0.29424875051043148 -0.27321418321601731 0 -0.31238355006392088 -0.2769270964746986 0 -0.30990277986512321 -0.28357726083766061 0 -0.31238355006392088 -0.2769270964746986 0 -0.31397337966441358 -0.27790849716514687 0 -0.30990277986512321 -0.28357726083766061 0 -0.31238355006392088 -0.2769270964746986 0 -0.31484092840625161 -0.27033963831899932 0 -0.31238355006392088 -0.2769270964746986 0 -0.30713255420725671 -0.26622789947327691 0 -0.31484092840625161 -0.27033963831899932 0 -0.30713255420725671 -0.26622789947327691 0 -0.31229548809362701 -0.26197468411870473 0 -0.31229548809362701 -0.26197468411870473 0 -0.31160380809715849 -0.25026392663385499 0 -0.30354003062611729 -0.24287550236665759 0 -0.31229548809362701 -0.26197468411870473 0 -0.30354003062611729 -0.24287550236665759 0 -0.30713255420725671 -0.26622789947327691 0 -0.31229548809362701 -0.26197468411870473 0 -0.30125617742336469 -0.25577182020881872 0 -0.31229548809362701 -0.26197468411870473 0 -0.30125617742336469 -0.25577182020881872 0 -0.30354003062611729 -0.24287550236665759 0 -0.29488662704911939 -0.26612625824516323 0 -0.30713255420725671 -0.26622789947327691 0 -0.30125617742336469 -0.25577182020881872 0 -0.33433915261546898 -0.45661323482429661 0 -0.31627285129873012 -0.45823435996606499 0 -0.33887304018467163 -0.46983996315289528 0 -0.33433915261546898 -0.45661323482429661 0 -0.33887304018467163 -0.46983996315289528 0 -0.34545787178369253 -0.46019236759137272 0 -0.32950451417570198 -0.44614945790436361 0 -0.35201857233448319 -0.44372117106141917 0 -0.33433915261546898 -0.45661323482429661 0 -0.32950451417570198 -0.44614945790436361 0 -0.35201857233448319 -0.44372117106141917 0 -0.32950451417570198 -0.44614945790436361 0 -0.35201857233448319 -0.44372117106141917 0 -0.33813835696533079 -0.43381223664893859 0 -0.33433915261546898 -0.45661323482429661 0 -0.32950451417570198 -0.44614945790436361 0 -0.30699045601692088 -0.44857774474730921 0 -0.32950451417570198 -0.44614945790436361 0 -0.32229438974850849 -0.42789351820905103 0 -0.30699045601692088 -0.44857774474730921 0 -0.32229438974850849 -0.42789351820905103 0 -0.30699045601692088 -0.44857774474730921 0 -0.33433915261546898 -0.45661323482429661 0 -0.30506423438123093 -0.45118115413043669 0 -0.30699045601692088 -0.44857774474730921 0 -0.32950451417570198 -0.44614945790436361 0 -0.30699045601692088 -0.44857774474730921 0 -0.31627285129873012 -0.45823435996606499 0 -0.32058945193929339 -0.47363226933585079 0 -0.33887304018467163 -0.46983996315289528 0 -0.31627285129873012 -0.45823435996606499 0 -0.33887304018467163 -0.46983996315289528 0 -0.33433915261546898 -0.45661323482429661 0 -0.30506423438123093 -0.45118115413043669 0 -0.33433915261546898 -0.45661323482429661 0 -0.31627285129873012 -0.45823435996606499 0 -0.30506423438123093 -0.45118115413043669 0 -0.31627285129873012 -0.45823435996606499 0 -0.32058945193929339 -0.47363226933585079 0 -0.30833944083654541 -0.4709517541195325 0 -0.32673008798161318 -0.47970083484265902 0 -0.32058945193929339 -0.47363226933585079 0 -0.30883664126636878 -0.48830559726974909 0 -0.32058945193929339 -0.47363226933585079 0 -0.30883664126636878 -0.48830559726974909 0 -0.30833944083654541 -0.4709517541195325 0 -0.3386212185361191 -0.48702550961213981 0 -0.31211620027684772 -0.49270187710487068 0 -0.30883664126636878 -0.48830559726974909 0 -0.31890241219891008 -0.5 0 -0.3386212185361191 -0.48702550961213981 0 -0.31211620027684772 -0.49270187710487068 0 -0.32673008798161318 -0.47970083484265902 0 -0.3386212185361191 -0.48702550961213981 0 -0.30883664126636878 -0.48830559726974909 0 -0.3386212185361191 -0.48702550961213981 0 -0.30883664126636878 -0.48830559726974909 0 -0.31890241219891008 -0.5 0 -0.34087386395488889 -0.50000000000000355 0 -0.3386212185361191 -0.48702550961213981 0 -0.32673008798161318 -0.47970083484265902 0 -0.3386212185361191 -0.48702550961213981 0 -0.33887304018467163 -0.46983996315289528 0 -0.32673008798161318 -0.47970083484265902 0 -0.32058945193929339 -0.47363226933585079 0 -0.33887304018467163 -0.46983996315289528 0 -0.33887304018467163 -0.46983996315289528 0 -0.3614732290706143 -0.48144556633972357 0 -0.33887304018467163 -0.46983996315289528 0 -0.3614732290706143 -0.48144556633972357 0 -0.35689908392057418 -0.46254497723707683 0 -0.3386212185361191 -0.48702550961213981 0 -0.33887304018467163 -0.46983996315289528 0 -0.3614732290706143 -0.48144556633972357 0 -0.34087386395488889 -0.50000000000000355 0 -0.3386212185361191 -0.48702550961213981 0 -0.3614732290706143 -0.48144556633972357 0 -0.34087386395488889 -0.50000000000000355 0 -0.36923954871200448 -0.5 0 -0.3614732290706143 -0.48144556633972357 0 -0.34087386395488889 -0.50000000000000355 0 -0.3614732290706143 -0.48144556633972357 0 -0.37953923126986661 -0.49072278316986301 0 -0.3614732290706143 -0.48144556633972357 0 -0.37953923126986661 -0.49072278316986301 0 -0.36923954871200448 -0.5 0 -0.3614732290706143 -0.48144556633972357 0 -0.38318280981519171 -0.46189112990661357 0 -0.3614732290706143 -0.48144556633972357 0 -0.38318280981519171 -0.46189112990661357 0 -0.37953923126986661 -0.49072278316986301 0 -0.3614732290706143 -0.48144556633972357 0 -0.38318280981519171 -0.46189112990661357 0 -0.35689908392057418 -0.46254497723707683 0 -0.37453263049326452 -0.44129288421847479 0 -0.38318280981519171 -0.46189112990661357 0 -0.3614732290706143 -0.48144556633972357 0 -0.35689908392057418 -0.46254497723707683 0 -0.33887304018467163 -0.46983996315289528 0 -0.35689908392057418 -0.46254497723707683 0 -0.34545787178369253 -0.46019236759137272 0 -0.35689908392057418 -0.46254497723707683 0 -0.34545787178369253 -0.46019236759137272 0 -0.35201857233448319 -0.44372117106141917 0 -0.33433915261546898 -0.45661323482429661 0 -0.34545787178369253 -0.46019236759137272 0 -0.35201857233448319 -0.44372117106141917 0 -0.35201857233448319 -0.44372117106141917 0 -0.37453263049326452 -0.44129288421847479 0 -0.37289132012733728 -0.42817469839822708 0 -0.35201857233448319 -0.44372117106141917 0 -0.37453263049326452 -0.44129288421847479 0 -0.35689908392057418 -0.46254497723707683 0 -0.35201857233448319 -0.44372117106141917 0 -0.37453263049326452 -0.44129288421847479 0 -0.37289132012733728 -0.42817469839822708 0 -0.34873595160262988 -0.4174847994209217 0 -0.37150037801664881 -0.40852358471567879 0 -0.34873595160262988 -0.4174847994209217 0 -0.37289132012733728 -0.42817469839822708 0 -0.37150037801664881 -0.40852358471567879 0 -0.34873595160262988 -0.4174847994209217 0 -0.37150037801664881 -0.40852358471567879 0 -0.34873595160262988 -0.4174847994209217 0 -0.35702084395402911 -0.40513598055709521 0 -0.34873595160262988 -0.4174847994209217 0 -0.35702084395402911 -0.40513598055709521 0 -0.33461825148473401 -0.41123704592884741 0 -0.35201857233448319 -0.44372117106141917 0 -0.37289132012733728 -0.42817469839822708 0 -0.34873595160262988 -0.4174847994209217 0 -0.35201857233448319 -0.44372117106141917 0 -0.34873595160262988 -0.4174847994209217 0 -0.33813835696533079 -0.43381223664893859 0 -0.37520975007962171 -0.3770241084801258 0 -0.36080762902171692 -0.37584045918376202 0 -0.36611461563562181 -0.39220111830009402 0 -0.37914093745418881 -0.39190958430218181 0 -0.37520975007962171 -0.3770241084801258 0 -0.36611461563562181 -0.39220111830009402 0 -0.37914093745418881 -0.39190958430218181 0 -0.37150037801664881 -0.40852358471567879 0 -0.36611461563562181 -0.39220111830009402 0 -0.37150037801664881 -0.40852358471567879 0 -0.36611461563562181 -0.39220111830009402 0 -0.35702084395402911 -0.40513598055709521 0 -0.34771294025322358 -0.39353875255630327 0 -0.35702084395402911 -0.40513598055709521 0 -0.33461825148473401 -0.41123704592884741 0 -0.36611461563562181 -0.39220111830009402 0 -0.34771294025322358 -0.39353875255630327 0 -0.35702084395402911 -0.40513598055709521 0 -0.36080762902171692 -0.37584045918376202 0 -0.36611461563562181 -0.39220111830009402 0 -0.34771294025322358 -0.39353875255630327 0 -0.34192060078971842 -0.37189244615799011 0 -0.36080762902171692 -0.37584045918376202 0 -0.34405647250971588 -0.38171065412234062 0 -0.36080762902171692 -0.37584045918376202 0 -0.34257914756856378 -0.39185069701687841 0 -0.36080762902171692 -0.37584045918376202 0 -0.34771294025322358 -0.39353875255630327 0 -0.36080762902171692 -0.37584045918376202 0 -0.34405647250971588 -0.38171065412234062 0 -0.34257914756856378 -0.39185069701687841 0 -0.36080762902171692 -0.37584045918376202 0 -0.34771294025322358 -0.39353875255630327 0 -0.34257914756856378 -0.39185069701687841 0 -0.33525545485426528 -0.38230038301714309 0 -0.3269626797166148 -0.38506440610720699 0 -0.32495884104542089 -0.37586922638778858 0 -0.33292047680497161 -0.37296409933421049 0 -0.33525545485426528 -0.38230038301714309 0 -0.32495884104542089 -0.37586922638778858 0 -0.34192060078971842 -0.37189244615799011 0 -0.34405647250971588 -0.38171065412234062 0 -0.33525545485426528 -0.38230038301714309 0 -0.34192060078971842 -0.37189244615799011 0 -0.33292047680497161 -0.37296409933421049 0 -0.33525545485426528 -0.38230038301714309 0 -0.34405647250971588 -0.38171065412234062 0 -0.33525545485426528 -0.38230038301714309 0 -0.33892417472291908 -0.38690434679076641 0 -0.33892417472291908 -0.38690434679076641 0 -0.33380562395913171 -0.39175565300670362 0 -0.34257914756856378 -0.39185069701687841 0 -0.33525545485426528 -0.38230038301714309 0 -0.33892417472291908 -0.38690434679076641 0 -0.33380562395913171 -0.39175565300670362 0 -0.34405647250971588 -0.38171065412234062 0 -0.33892417472291908 -0.38690434679076641 0 -0.34257914756856378 -0.39185069701687841 0 -0.33380562395913171 -0.39175565300670362 0 -0.32369867981630063 -0.39341210073421917 0 -0.3269626797166148 -0.38506440610720699 0 -0.33525545485426528 -0.38230038301714309 0 -0.33380562395913171 -0.39175565300670362 0 -0.3269626797166148 -0.38506440610720699 0 -0.34771294025322358 -0.39353875255630327 0 -0.33461825148473401 -0.41123704592884741 0 -0.33380562395913171 -0.39175565300670362 0 -0.32369867981630063 -0.39341210073421917 0 -0.33461825148473401 -0.41123704592884741 0 -0.34771294025322358 -0.39353875255630327 0 -0.34257914756856378 -0.39185069701687841 0 -0.33461825148473401 -0.41123704592884741 0 -0.33380562395913171 -0.39175565300670362 0 -0.34257914756856378 -0.39185069701687841 0 -0.33461825148473401 -0.41123704592884741 0 -0.32369867981630063 -0.39341210073421917 0 -0.31504031574216251 -0.38253443981472862 0 -0.30988815987610557 -0.400292804663195 0 -0.32369867981630063 -0.39341210073421917 0 -0.33461825148473401 -0.41123704592884741 0 -0.30988815987610557 -0.400292804663195 0 -0.33461825148473401 -0.41123704592884741 0 -0.30988815987610557 -0.400292804663195 0 -0.31571843911014608 -0.36685896359018222 0 -0.31504031574216251 -0.38253443981472862 0 -0.32495884104542089 -0.37586922638778858 0 -0.32369867981630063 -0.39341210073421917 0 -0.3269626797166148 -0.38506440610720699 0 -0.31504031574216251 -0.38253443981472862 0 -0.3269626797166148 -0.38506440610720699 0 -0.31504031574216251 -0.38253443981472862 0 -0.32495884104542089 -0.37586922638778858 0 -0.34873595160262988 -0.4174847994209217 0 -0.32229438974850849 -0.42789351820905103 0 -0.32950451417570198 -0.44614945790436361 0 -0.33813835696533079 -0.43381223664893859 0 -0.32229438974850849 -0.42789351820905103 0 -0.34873595160262988 -0.4174847994209217 0 -0.33813835696533079 -0.43381223664893859 0 -0.32229438974850849 -0.42789351820905103 0 -0.34873595160262988 -0.4174847994209217 0 -0.33461825148473401 -0.41123704592884741 0 -0.33461825148473401 -0.41123704592884741 0 -0.32229438974850849 -0.42789351820905103 0 -0.34873595160262988 -0.4174847994209217 0 -0.33461825148473401 -0.41123704592884741 0 -0.32229438974850849 -0.42789351820905103 0 -0.33461825148473401 -0.41123704592884741 0 -0.32229438974850849 -0.42789351820905103 0 -0.30988815987610557 -0.400292804663195 0 -0.32229438974850849 -0.42789351820905103 0 -0.29967469302480321 -0.43679776008284382 0 -0.32229438974850849 -0.42789351820905103 0 -0.29967469302480321 -0.43679776008284382 0 -0.30045652662913103 -0.41889565121537631 0 -0.30045652662913103 -0.41889565121537631 0 -0.28401626368224492 -0.40924508082614452 0 -0.30988815987610557 -0.400292804663195 0 -0.32229438974850849 -0.42789351820905103 0 -0.30045652662913103 -0.41889565121537631 0 -0.30988815987610557 -0.400292804663195 0 -0.30045652662913103 -0.41889565121537631 0 -0.28401626368224492 -0.40924508082614452 0 -0.28192411786016702 -0.42648419442833879 0 -0.29967469302480321 -0.43679776008284382 0 -0.28192411786016702 -0.42648419442833879 0 -0.27656825311619793 -0.44589360837389869 0 -0.29967469302480321 -0.43679776008284382 0 -0.30045652662913103 -0.41889565121537631 0 -0.28192411786016702 -0.42648419442833879 0 -0.31504031574216251 -0.38253443981472862 0 -0.30071526190494341 -0.38239487254454141 0 -0.30988815987610557 -0.400292804663195 0 -0.30412440520852663 -0.36975461592710868 0 -0.31504031574216251 -0.38253443981472862 0 -0.30071526190494341 -0.38239487254454141 0 -0.30988815987610557 -0.400292804663195 0 -0.28515806826748491 -0.38934856339752472 0 -0.30071526190494341 -0.38239487254454141 0 -0.30988815987610557 -0.400292804663195 0 -0.28515806826748491 -0.38934856339752472 0 -0.28401626368224492 -0.40924508082614452 0 -0.30988815987610557 -0.400292804663195 0 -0.28515806826748491 -0.38934856339752472 0 -0.2910743207671958 -0.37113609544855608 0 -0.2758861868966303 -0.37223524305541461 0 -0.28515806826748491 -0.38934856339752472 0 -0.2910743207671958 -0.37113609544855608 0 -0.30071526190494341 -0.38239487254454141 0 -0.28515806826748491 -0.38934856339752472 0 -0.2758861868966303 -0.37223524305541461 0 -0.28515806826748491 -0.38934856339752472 0 -0.26674473653913411 -0.39205874210069669 0 -0.2758861868966303 -0.37223524305541461 0 -0.26247411513346652 -0.37149476770310408 0 -0.26674473653913411 -0.39205874210069669 0 -0.28401626368224492 -0.40924508082614452 0 -0.26674473653913411 -0.39205874210069669 0 -0.28401626368224492 -0.40924508082614452 0 -0.28515806826748491 -0.38934856339752472 0 -0.26674473653913411 -0.39205874210069669 0 -0.28401626368224492 -0.40924508082614452 0 -0.26674473653913411 -0.39205874210069669 0 -0.26674204525620299 -0.40933318499568738 0 -0.26674473653913411 -0.39205874210069669 0 -0.26674204525620299 -0.40933318499568738 0 -0.24947797135783711 -0.40873473950355083 0 -0.26674473653913411 -0.39205874210069669 0 -0.25079594947703659 -0.39092329875930848 0 -0.24947797135783711 -0.40873473950355083 0 -0.26674473653913411 -0.39205874210069669 0 -0.24947320939602319 -0.37487240337524902 0 -0.26247411513346652 -0.37149476770310408 0 -0.26674473653913411 -0.39205874210069669 0 -0.24947320939602319 -0.37487240337524902 0 -0.26674473653913411 -0.39205874210069669 0 -0.25079594947703659 -0.39092329875930848 0 -0.24947320939602319 -0.37487240337524902 0 -0.28192411786016702 -0.42648419442833879 0 -0.26326648382946621 -0.42721837073009422 0 -0.27656825311619793 -0.44589360837389869 0 -0.26326648382946621 -0.42721837073009422 0 -0.27656825311619793 -0.44589360837389869 0 -0.28192411786016702 -0.42648419442833879 0 -0.26674204525620299 -0.40933318499568738 0 -0.26326648382946621 -0.42721837073009422 0 -0.28401626368224492 -0.40924508082614452 0 -0.28192411786016702 -0.42648419442833879 0 -0.26674204525620299 -0.40933318499568738 0 -0.26326648382946621 -0.42721837073009422 0 -0.24947797135783711 -0.40873473950355083 0 -0.26674204525620299 -0.40933318499568738 0 -0.26326648382946621 -0.42721837073009422 0 -0.24947797135783711 -0.40873473950355083 0 -0.26326648382946621 -0.42721837073009422 0 -0.25884693719382551 -0.44260534579630928 0 -0.2452598711571829 -0.43074100232206619 0 -0.26326648382946621 -0.42721837073009422 0 -0.24947797135783711 -0.40873473950355083 0 -0.2452598711571829 -0.43074100232206619 0 -0.25884693719382551 -0.44260534579630928 0 -0.24818974440555039 -0.45706480614297762 0 -0.2452598711571829 -0.43074100232206619 0 -0.26237899876087339 -0.45147920725843621 0 -0.25884693719382551 -0.44260534579630928 0 -0.24818974440555039 -0.45706480614297762 0 -0.26408842068014199 -0.47106964236610988 0 -0.24405052127743329 -0.47356460296263619 0 -0.24818974440555039 -0.45706480614297762 0 -0.26237899876087339 -0.45147920725843621 0 -0.26408842068014199 -0.47106964236610988 0 -0.24818974440555039 -0.45706480614297762 0 -0.26408842068014199 -0.47106964236610988 0 -0.24818974440555039 -0.45706480614297762 0 -0.26237899876087339 -0.45147920725843621 0 -0.24818974440555039 -0.45706480614297762 0 -0.26237899876087339 -0.45147920725843621 0 -0.27424980263704513 -0.4604255072117594 0 -0.26408842068014199 -0.47106964236610988 0 -0.26326648382946621 -0.42721837073009422 0 -0.25884693719382551 -0.44260534579630928 0 -0.27656825311619793 -0.44589360837389869 0 -0.25884693719382551 -0.44260534579630928 0 -0.27656825311619793 -0.44589360837389869 0 -0.26237899876087339 -0.45147920725843621 0 -0.25884693719382551 -0.44260534579630928 0 -0.27656825311619793 -0.44589360837389869 0 -0.26237899876087339 -0.45147920725843621 0 -0.27656825311619793 -0.44589360837389869 0 -0.26237899876087339 -0.45147920725843621 0 -0.27424980263704513 -0.4604255072117594 0 -0.27656825311619793 -0.44589360837389869 0 -0.27656825311619793 -0.44589360837389869 0 -0.29222175316483961 -0.4501706449064059 0 -0.29689938186813192 -0.44966613238555059 0 -0.27656825311619793 -0.44589360837389869 0 -0.29689938186813192 -0.44966613238555059 0 -0.29967469302480321 -0.43679776008284382 0 -0.27656825311619793 -0.44589360837389869 0 -0.29967469302480321 -0.43679776008284382 0 -0.27656825311619793 -0.44589360837389869 0 -0.29689938186813192 -0.44966613238555059 0 -0.29222175316483961 -0.4501706449064059 0 -0.29689938186813192 -0.44966613238555059 0 -0.29222175316483961 -0.4501706449064059 0 -0.29315240813739502 -0.46728073459343428 0 -0.29689938186813192 -0.44966613238555059 0 -0.27656825311619793 -0.44589360837389869 0 -0.29222175316483961 -0.4501706449064059 0 -0.29315240813739502 -0.46728073459343428 0 -0.27424980263704513 -0.4604255072117594 0 -0.27656825311619793 -0.44589360837389869 0 -0.29315240813739502 -0.46728073459343428 0 -0.27656825311619793 -0.44589360837389869 0 -0.29315240813739502 -0.46728073459343428 0 -0.29315240813739502 -0.46728073459343428 0 -0.30506423438123093 -0.45118115413043669 0 -0.29689938186813192 -0.44966613238555059 0 -0.29315240813739502 -0.46728073459343428 0 -0.3058794406493382 -0.46231836888698519 0 -0.30506423438123093 -0.45118115413043669 0 -0.29315240813739502 -0.46728073459343428 0 -0.30506423438123093 -0.45118115413043669 0 -0.29315240813739502 -0.46728073459343428 0 -0.3058794406493382 -0.46231836888698519 0 -0.30833944083654541 -0.4709517541195325 0 -0.31627285129873012 -0.45823435996606499 0 -0.3058794406493382 -0.46231836888698519 0 -0.30833944083654541 -0.4709517541195325 0 -0.31627285129873012 -0.45823435996606499 0 -0.3058794406493382 -0.46231836888698519 0 -0.30506423438123093 -0.45118115413043669 0 -0.32229438974850849 -0.42789351820905103 0 -0.29967469302480321 -0.43679776008284382 0 -0.30699045601692088 -0.44857774474730921 0 -0.30506423438123093 -0.45118115413043669 0 -0.30699045601692088 -0.44857774474730921 0 -0.29967469302480321 -0.43679776008284382 0 -0.30699045601692088 -0.44857774474730921 0 -0.29689938186813192 -0.44966613238555059 0 -0.30699045601692088 -0.44857774474730921 0 -0.29689938186813192 -0.44966613238555059 0 -0.30506423438123093 -0.45118115413043669 0 -0.30699045601692088 -0.44857774474730921 0 -0.29689938186813192 -0.44966613238555059 0 -0.30506423438123093 -0.45118115413043669 0 -0.29689938186813192 -0.44966613238555059 0 -0.31890241219891008 -0.5 0 -0.29693096044293149 -0.49999999999999961 0 -0.31211620027684772 -0.49270187710487068 0 -0.29693096044293149 -0.49999999999999961 0 -0.31211620027684772 -0.49270187710487068 0 -0.30883664126636878 -0.48830559726974909 0 -0.31211620027684772 -0.49270187710487068 0 -0.30883664126636878 -0.48830559726974909 0 -0.29315240813739502 -0.46728073459343428 0 -0.30883664126636878 -0.48830559726974909 0 -0.29315240813739502 -0.46728073459343428 0 -0.30883664126636878 -0.48830559726974909 0 -0.30833944083654541 -0.4709517541195325 0 -0.29315240813739502 -0.46728073459343428 0 -0.27998709695474738 -0.48507447858922648 0 -0.29315240813739502 -0.46728073459343428 0 -0.28482660279306338 -0.48933750561715039 0 -0.27998709695474738 -0.48507447858922648 0 -0.27424980263704513 -0.4604255072117594 0 -0.29315240813739502 -0.46728073459343428 0 -0.27998709695474738 -0.48507447858922648 0 -0.29315240813739502 -0.46728073459343428 0 -0.30883664126636878 -0.48830559726974909 0 -0.28482660279306338 -0.48933750561715039 0 -0.29693096044293149 -0.49999999999999961 0 -0.30883664126636878 -0.48830559726974909 0 -0.28482660279306338 -0.48933750561715039 0 -0.30883664126636878 -0.48830559726974909 0 -0.28482660279306338 -0.48933750561715039 0 -0.29693096044293149 -0.49999999999999961 0 -0.28482660279306338 -0.48933750561715039 0 -0.26894393852883902 -0.49999999999998679 0 -0.28482660279306338 -0.48933750561715039 0 -0.27998709695474738 -0.48507447858922648 0 -0.29693096044293149 -0.49999999999999961 0 -0.28482660279306338 -0.48933750561715039 0 -0.27998709695474738 -0.48507447858922648 0 -0.27657041259474002 -0.48969234184920363 0 -0.26387847358950589 -0.48381609930760022 0 -0.28482660279306338 -0.48933750561715039 0 -0.27657041259474002 -0.48969234184920363 0 -0.26894393852883902 -0.49999999999998679 0 -0.28482660279306338 -0.48933750561715039 0 -0.27998709695474738 -0.48507447858922648 0 -0.27657041259474002 -0.48969234184920363 0 -0.28482660279306338 -0.48933750561715039 0 -0.27657041259474002 -0.48969234184920363 0 -0.27998709695474738 -0.48507447858922648 0 -0.27657041259474002 -0.48969234184920363 0 -0.27657041259474002 -0.48969234184920363 0 -0.26894393852883902 -0.49999999999998679 0 -0.27998709695474738 -0.48507447858922648 0 -0.26408842068014199 -0.47106964236610988 0 -0.27424980263704513 -0.4604255072117594 0 -0.27998709695474738 -0.48507447858922648 0 -0.26408842068014199 -0.47106964236610988 0 -0.27998709695474738 -0.48507447858922648 0 -0.26408842068014199 -0.47106964236610988 0 -0.26387847358950589 -0.48381609930760022 0 -0.26408842068014199 -0.47106964236610988 0 -0.25218811237614558 -0.48131675387545148 0 -0.24405052127743329 -0.47356460296263619 0 -0.26408842068014199 -0.47106964236610988 0 -0.26387847358950589 -0.48381609930760022 0 -0.25218811237614558 -0.48131675387545148 0 -0.27657041259474002 -0.48969234184920363 0 -0.26387847358950589 -0.48381609930760022 0 -0.24668534120793881 -0.49097674856354478 0 -0.27657041259474002 -0.48969234184920363 0 -0.24668534120793881 -0.49097674856354478 0 -0.27657041259474002 -0.48969234184920363 0 -0.26894393852883902 -0.49999999999998679 0 -0.24668534120793881 -0.49097674856354478 0 -0.26894393852883902 -0.49999999999998679 0 -0.24461675523382589 -0.5 0 -0.24668534120793881 -0.49097674856354478 0 -0.26387847358950589 -0.48381609930760022 0 -0.25218811237614558 -0.48131675387545148 0 -0.24668534120793881 -0.49097674856354478 0 -0.24461675523382589 -0.5 0 -0.24668534120793881 -0.49097674856354478 0 -0.22028957193881291 -0.5 0 -0.24668534120793881 -0.49097674856354478 0 -0.2435687123305981 -0.48208943984301272 0 -0.23135087446087491 -0.48249965397041827 0 -0.25218811237614558 -0.48131675387545148 0 -0.24668534120793881 -0.49097674856354478 0 -0.2435687123305981 -0.48208943984301272 0 -0.25218811237614558 -0.48131675387545148 0 -0.2435687123305981 -0.48208943984301272 0 -0.24405052127743329 -0.47356460296263619 0 -0.2435687123305981 -0.48208943984301272 0 -0.24405052127743329 -0.47356460296263619 0 -0.23135087446087491 -0.48249965397041827 0 -0.23135087446087491 -0.48249965397041827 0 -0.2168002698211377 -0.49226115527788472 0 -0.21426637526066281 -0.47703556244250028 0 -0.24405052127743329 -0.47356460296263619 0 -0.23135087446087491 -0.48249965397041827 0 -0.22576551032468159 -0.46589210416246257 0 -0.23135087446087491 -0.48249965397041827 0 -0.22576551032468159 -0.46589210416246257 0 -0.21426637526066281 -0.47703556244250028 0 -0.24668534120793881 -0.49097674856354478 0 -0.22028957193881291 -0.5 0 -0.2168002698211377 -0.49226115527788472 0 -0.24668534120793881 -0.49097674856354478 0 -0.23135087446087491 -0.48249965397041827 0 -0.2168002698211377 -0.49226115527788472 0 -0.24668534120793881 -0.49097674856354478 0 -0.2168002698211377 -0.49226115527788472 0 -0.24818974440555039 -0.45706480614297762 0 -0.2278933842277765 -0.43918613528347572 0 -0.2452598711571829 -0.43074100232206619 0 -0.24818974440555039 -0.45706480614297762 0 -0.2278933842277765 -0.43918613528347572 0 -0.24818974440555039 -0.45706480614297762 0 -0.22576551032468159 -0.46589210416246257 0 -0.24405052127743329 -0.47356460296263619 0 -0.24818974440555039 -0.45706480614297762 0 -0.22576551032468159 -0.46589210416246257 0 -0.24818974440555039 -0.45706480614297762 0 -0.22576551032468159 -0.46589210416246257 0 -0.2278933842277765 -0.43918613528347572 0 -0.22576551032468159 -0.46589210416246257 0 -0.2278933842277765 -0.43918613528347572 0 -0.20845510067697831 -0.45856944259275362 0 -0.2278933842277765 -0.43918613528347572 0 -0.20845510067697831 -0.45856944259275362 0 -0.20034464845516081 -0.44132938292033619 0 -0.22576551032468159 -0.46589210416246257 0 -0.20845510067697831 -0.45856944259275362 0 -0.21426637526066281 -0.47703556244250028 0 -0.20845510067697831 -0.45856944259275362 0 -0.18897587252381309 -0.45896926302375463 0 -0.199369091417407 -0.47365644713518812 0 -0.18897587252381309 -0.45896926302375463 0 -0.20034464845516081 -0.44132938292033619 0 -0.18110472871812211 -0.43220251814889549 0 -0.20845510067697831 -0.45856944259275362 0 -0.18897587252381309 -0.45896926302375463 0 -0.20034464845516081 -0.44132938292033619 0 -0.20403292294619749 -0.4872547595493536 0 -0.2168002698211377 -0.49226115527788472 0 -0.19596238864379989 -0.5 0 -0.22028957193881291 -0.5 0 -0.2168002698211377 -0.49226115527788472 0 -0.19596238864379989 -0.5 0 -0.20403292294619749 -0.4872547595493536 0 -0.2168002698211377 -0.49226115527788472 0 -0.21426637526066281 -0.47703556244250028 0 -0.20845510067697831 -0.45856944259275362 0 -0.21426637526066281 -0.47703556244250028 0 -0.199369091417407 -0.47365644713518812 0 -0.20403292294619749 -0.4872547595493536 0 -0.21426637526066281 -0.47703556244250028 0 -0.199369091417407 -0.47365644713518812 0 -0.18897587252381309 -0.45896926302375463 0 -0.199369091417407 -0.47365644713518812 0 -0.1855707762647851 -0.47592504670610192 0 -0.20403292294619749 -0.4872547595493536 0 -0.199369091417407 -0.47365644713518812 0 -0.19460897638781979 -0.48333753544987751 0 -0.199369091417407 -0.47365644713518812 0 -0.19460897638781979 -0.48333753544987751 0 -0.1855707762647851 -0.47592504670610192 0 -0.19460897638781979 -0.48333753544987751 0 -0.18437326677241389 -0.48572121594812789 0 -0.1855707762647851 -0.47592504670610192 0 -0.19460897638781979 -0.48333753544987751 0 -0.19596238864379989 -0.5 0 -0.18437326677241389 -0.48572121594812789 0 -0.20403292294619749 -0.4872547595493536 0 -0.19460897638781979 -0.48333753544987751 0 -0.19596238864379989 -0.5 0 -0.19596238864379989 -0.5 0 -0.17641325213987219 -0.49072350117940561 0 -0.17163520534878701 -0.49999999999999861 0 -0.19596238864379989 -0.5 0 -0.18437326677241389 -0.48572121594812789 0 -0.17641325213987219 -0.49072350117940561 0 -0.18437326677241389 -0.48572121594812789 0 -0.17641325213987219 -0.49072350117940561 0 -0.17547571870339651 -0.48190756371313159 0 -0.17641325213987219 -0.49072350117940561 0 -0.16451959322971729 -0.48723494596052669 0 -0.17547571870339651 -0.48190756371313159 0 -0.17641325213987219 -0.49072350117940561 0 -0.17163520534878701 -0.49999999999999861 0 -0.16451959322971729 -0.48723494596052669 0 -0.17163520534878701 -0.49999999999999861 0 -0.16451959322971729 -0.48723494596052669 0 -0.14333306021018741 -0.5 0 -0.17163520534878701 -0.49999999999999861 0 -0.16451959322971729 -0.48723494596052669 0 -0.16451959322971729 -0.48723494596052669 0 -0.1706217317838602 -0.47195825496653138 0 -0.15332912077431471 -0.46715979525948059 0 -0.16451959322971729 -0.48723494596052669 0 -0.15332912077431471 -0.46715979525948059 0 -0.16451959322971729 -0.48723494596052669 0 -0.1706217317838602 -0.47195825496653138 0 -0.17547571870339651 -0.48190756371313159 0 -0.18897587252381309 -0.45896926302375463 0 -0.1706217317838602 -0.47195825496653138 0 -0.1855707762647851 -0.47592504670610192 0 -0.1706217317838602 -0.47195825496653138 0 -0.17547571870339651 -0.48190756371313159 0 -0.1855707762647851 -0.47592504670610192 0 -0.18437326677241389 -0.48572121594812789 0 -0.17547571870339651 -0.48190756371313159 0 -0.1855707762647851 -0.47592504670610192 0 -0.18897587252381309 -0.45896926302375463 0 -0.1706217317838602 -0.47195825496653138 0 -0.16536619892562859 -0.45038203863070292 0 -0.18897587252381309 -0.45896926302375463 0 -0.16536619892562859 -0.45038203863070292 0 -0.18110472871812211 -0.43220251814889549 0 -0.1706217317838602 -0.47195825496653138 0 -0.16536619892562859 -0.45038203863070292 0 -0.15332912077431471 -0.46715979525948059 0 -0.15332912077431471 -0.46715979525948059 0 -0.1421386483189099 -0.4470846445584355 0 -0.13338366994242351 -0.4587204609827244 0 -0.15332912077431471 -0.46715979525948059 0 -0.1421386483189099 -0.4470846445584355 0 -0.16536619892562859 -0.45038203863070292 0 -0.15332912077431471 -0.46715979525948059 0 -0.1421386483189099 -0.4470846445584355 0 -0.16536619892562859 -0.45038203863070292 0 -0.1421386483189099 -0.4470846445584355 0 -0.1560270914347518 -0.42491775582711971 0 -0.1421386483189099 -0.4470846445584355 0 -0.13094817586350499 -0.4270094938573904 0 -0.1223948712200001 -0.44528036425593093 0 -0.1421386483189099 -0.4470846445584355 0 -0.13338366994242351 -0.4587204609827244 0 -0.1223948712200001 -0.44528036425593093 0 -0.13338366994242351 -0.4587204609827244 0 -0.13307938006694139 -0.4712703239386119 0 -0.1159763293319514 -0.46280717690116269 0 -0.15332912077431471 -0.46715979525948059 0 -0.13338366994242351 -0.4587204609827244 0 -0.13307938006694139 -0.4712703239386119 0 -0.13307938006694139 -0.4712703239386119 0 -0.1300406290563427 -0.48092086363538961 0 -0.1193696636052141 -0.47712421428575708 0 -0.13307938006694139 -0.4712703239386119 0 -0.1300406290563427 -0.48092086363538961 0 -0.14318345997154491 -0.47947936379549388 0 -0.1300406290563427 -0.48092086363538961 0 -0.13525244094477359 -0.49039556025746273 0 -0.14318345997154491 -0.47947936379549388 0 -0.13525244094477359 -0.49039556025746273 0 -0.14333306021018741 -0.5 0 -0.1150309150715879 -0.5 0 -0.1300406290563427 -0.48092086363538961 0 -0.13525244094477359 -0.49039556025746273 0 -0.1199259291219735 -0.48550419604762379 0 -0.16451959322971729 -0.48723494596052669 0 -0.13525244094477359 -0.49039556025746273 0 -0.14318345997154491 -0.47947936379549388 0 -0.16451959322971729 -0.48723494596052669 0 -0.13525244094477359 -0.49039556025746273 0 -0.16451959322971729 -0.48723494596052669 0 -0.13525244094477359 -0.49039556025746273 0 -0.14333306021018741 -0.5 0 -0.16451959322971729 -0.48723494596052669 0 -0.15332912077431471 -0.46715979525948059 0 -0.14318345997154491 -0.47947936379549388 0 -0.15332912077431471 -0.46715979525948059 0 -0.13307938006694139 -0.4712703239386119 0 -0.14318345997154491 -0.47947936379549388 0 -0.13737206822152959 -0.39071804562645263 0 -0.15644223514010611 -0.40718806732226781 0 -0.16330607937771199 -0.39136436314852818 0 -0.13737206822152959 -0.39071804562645263 0 -0.13916322136148049 -0.41113604687429101 0 -0.15644223514010611 -0.40718806732226781 0 -0.13737206822152959 -0.39071804562645263 0 -0.16330607937771199 -0.39136436314852818 0 -0.15498643303496229 -0.37450174809655878 0 -0.13737206822152959 -0.39071804562645263 0 -0.15498643303496229 -0.37450174809655878 0 -0.13737206822152959 -0.39071804562645263 0 -0.14364930944700299 -0.36869289394387728 0 -0.15498643303496229 -0.37450174809655878 0 -0.13737206822152959 -0.39071804562645263 0 -0.11737904366768 -0.39283460350804611 0 -0.1212262449702025 -0.38088565413672348 0 -0.13737206822152959 -0.39071804562645263 0 -0.14364930944700299 -0.36869289394387728 0 -0.1212262449702025 -0.38088565413672348 0 -0.13737206822152959 -0.39071804562645263 0 -0.13916322136148049 -0.41113604687429101 0 -0.1196267513718729 -0.40705490141683559 0 -0.13737206822152959 -0.39071804562645263 0 -0.1196267513718729 -0.40705490141683559 0 -0.13916322136148049 -0.41113604687429101 0 -0.13094817586350499 -0.4270094938573904 0 -0.1196267513718729 -0.40705490141683559 0 -0.13094817586350499 -0.4270094938573904 0 -0.1196267513718729 -0.40705490141683559 0 -0.1421386483189099 -0.4470846445584355 0 -0.13094817586350499 -0.4270094938573904 0 -0.1421386483189099 -0.4470846445584355 0 -0.13094817586350499 -0.4270094938573904 0 -0.1560270914347518 -0.42491775582711971 0 -0.13916322136148049 -0.41113604687429101 0 -0.1560270914347518 -0.42491775582711971 0 -0.15644223514010611 -0.40718806732226781 0 -0.13916322136148049 -0.41113604687429101 0 -0.13094817586350499 -0.4270094938573904 0 -0.1560270914347518 -0.42491775582711971 0 -0.1560270914347518 -0.42491775582711971 0 -0.15644223514010611 -0.40718806732226781 0 -0.17143549069957201 -0.41777972838437177 0 -0.15644223514010611 -0.40718806732226781 0 -0.17143549069957201 -0.41777972838437177 0 -0.17340871840019831 -0.40461057488990843 0 -0.1560270914347518 -0.42491775582711971 0 -0.17143549069957201 -0.41777972838437177 0 -0.18110472871812211 -0.43220251814889549 0 -0.16536619892562859 -0.45038203863070292 0 -0.1560270914347518 -0.42491775582711971 0 -0.18110472871812211 -0.43220251814889549 0 -0.1862809741105014 -0.40311250728795001 0 -0.17340871840019831 -0.40461057488990843 0 -0.1900107283117512 -0.41553005347275601 0 -0.17143549069957201 -0.41777972838437177 0 -0.18110472871812211 -0.43220251814889549 0 -0.1900107283117512 -0.41553005347275601 0 -0.17143549069957201 -0.41777972838437177 0 -0.17340871840019831 -0.40461057488990843 0 -0.1900107283117512 -0.41553005347275601 0 -0.18496439736663511 -0.39177113588938461 0 -0.17340871840019831 -0.40461057488990843 0 -0.16330607937771199 -0.39136436314852818 0 -0.1862809741105014 -0.40311250728795001 0 -0.18496439736663511 -0.39177113588938461 0 -0.17340871840019831 -0.40461057488990843 0 -0.15644223514010611 -0.40718806732226781 0 -0.17340871840019831 -0.40461057488990843 0 -0.16330607937771199 -0.39136436314852818 0 -0.16330607937771199 -0.39136436314852818 0 -0.17266262410284081 -0.37939660706659728 0 -0.15498643303496229 -0.37450174809655878 0 -0.18496439736663511 -0.39177113588938461 0 -0.16330607937771199 -0.39136436314852818 0 -0.17266262410284081 -0.37939660706659728 0 -0.17266262410284081 -0.37939660706659728 0 -0.18396716925753939 -0.38046592565017179 0 -0.17896449868347741 -0.37014229812621008 0 -0.18496439736663511 -0.39177113588938461 0 -0.17266262410284081 -0.37939660706659728 0 -0.18396716925753939 -0.38046592565017179 0 -0.18496439736663511 -0.39177113588938461 0 -0.18396716925753939 -0.38046592565017179 0 -0.19220527294328901 -0.3851817986658112 0 -0.2041611601499867 -0.38499796970596339 0 -0.19883259989157839 -0.36545901616736681 0 -0.18396716925753939 -0.38046592565017179 0 -0.19220527294328901 -0.3851817986658112 0 -0.1900184583815808 -0.37346513241912332 0 -0.19220527294328901 -0.3851817986658112 0 -0.2049014389230259 -0.3877124501379336 0 -0.1900184583815808 -0.37346513241912332 0 -0.2041611601499867 -0.38499796970596339 0 -0.2049014389230259 -0.3877124501379336 0 -0.1900184583815808 -0.37346513241912332 0 -0.2049014389230259 -0.3877124501379336 0 -0.1900184583815808 -0.37346513241912332 0 -0.19220527294328901 -0.3851817986658112 0 -0.19655169486381699 -0.39106541568115138 0 -0.2049014389230259 -0.3877124501379336 0 -0.18496439736663511 -0.39177113588938461 0 -0.19220527294328901 -0.3851817986658112 0 -0.19655169486381699 -0.39106541568115138 0 -0.1862809741105014 -0.40311250728795001 0 -0.1973644089661058 -0.39907654292868228 0 -0.1900107283117512 -0.41553005347275601 0 -0.18496439736663511 -0.39177113588938461 0 -0.1973644089661058 -0.39907654292868228 0 -0.19655169486381699 -0.39106541568115138 0 -0.1862809741105014 -0.40311250728795001 0 -0.18496439736663511 -0.39177113588938461 0 -0.1973644089661058 -0.39907654292868228 0 -0.1973644089661058 -0.39907654292868228 0 -0.19655169486381699 -0.39106541568115138 0 -0.2049014389230259 -0.3877124501379336 0 -0.20948972040839439 -0.40453692324456009 0 -0.2049014389230259 -0.3877124501379336 0 -0.20948972040839439 -0.40453692324456009 0 -0.21154838805416609 -0.39065738026177899 0 -0.2049014389230259 -0.3877124501379336 0 -0.1973644089661058 -0.39907654292868228 0 -0.20948972040839439 -0.40453692324456009 0 -0.2049014389230259 -0.3877124501379336 0 -0.20948972040839439 -0.40453692324456009 0 -0.21930210725371921 -0.39136487572516893 0 -0.22236741223237461 -0.40388918857283451 0 -0.20948972040839439 -0.40453692324456009 0 -0.21154838805416609 -0.39065738026177899 0 -0.21930210725371921 -0.39136487572516893 0 -0.2095338177151769 -0.37598855382380469 0 -0.2041611601499867 -0.38499796970596339 0 -0.19883259989157839 -0.36545901616736681 0 -0.21324056440456429 -0.38172975237142348 0 -0.21930210725371921 -0.39136487572516893 0 -0.22190094641458119 -0.37176747705046193 0 -0.21154838805416609 -0.39065738026177899 0 -0.21324056440456429 -0.38172975237142348 0 -0.21930210725371921 -0.39136487572516893 0 -0.21324056440456429 -0.38172975237142348 0 -0.2095338177151769 -0.37598855382380469 0 -0.22190094641458119 -0.37176747705046193 0 -0.21324056440456429 -0.38172975237142348 0 -0.2095338177151769 -0.37598855382380469 0 -0.2041611601499867 -0.38499796970596339 0 -0.21154838805416609 -0.39065738026177899 0 -0.21324056440456429 -0.38172975237142348 0 -0.2041611601499867 -0.38499796970596339 0 -0.2041611601499867 -0.38499796970596339 0 -0.2049014389230259 -0.3877124501379336 0 -0.21154838805416609 -0.39065738026177899 0 -0.2041611601499867 -0.38499796970596339 0 -0.2049014389230259 -0.3877124501379336 0 -0.20034464845516081 -0.44132938292033619 0 -0.18110472871812211 -0.43220251814889549 0 -0.19476428238376001 -0.42759235474148938 0 -0.20034464845516081 -0.44132938292033619 0 -0.19476428238376001 -0.42759235474148938 0 -0.2075970240500056 -0.4213074644239701 0 -0.18110472871812211 -0.43220251814889549 0 -0.19476428238376001 -0.42759235474148938 0 -0.1900107283117512 -0.41553005347275601 0 -0.19476428238376001 -0.42759235474148938 0 -0.1900107283117512 -0.41553005347275601 0 -0.2075970240500056 -0.4213074644239701 0 -0.20948972040839439 -0.40453692324456009 0 -0.1900107283117512 -0.41553005347275601 0 -0.2075970240500056 -0.4213074644239701 0 -0.1973644089661058 -0.39907654292868228 0 -0.20948972040839439 -0.40453692324456009 0 -0.1900107283117512 -0.41553005347275601 0 -0.20948972040839439 -0.40453692324456009 0 -0.2075970240500056 -0.4213074644239701 0 -0.22236741223237461 -0.40388918857283451 0 -0.2278933842277765 -0.43918613528347572 0 -0.20034464845516081 -0.44132938292033619 0 -0.2075970240500056 -0.4213074644239701 0 -0.2278933842277765 -0.43918613528347572 0 -0.2075970240500056 -0.4213074644239701 0 -0.2278933842277765 -0.43918613528347572 0 -0.2075970240500056 -0.4213074644239701 0 -0.23126332970038521 -0.41559011464496898 0 -0.2075970240500056 -0.4213074644239701 0 -0.23126332970038521 -0.41559011464496898 0 -0.22236741223237461 -0.40388918857283451 0 -0.23126332970038521 -0.41559011464496898 0 -0.24947797135783711 -0.40873473950355083 0 -0.2452598711571829 -0.43074100232206619 0 -0.2278933842277765 -0.43918613528347572 0 -0.23126332970038521 -0.41559011464496898 0 -0.2452598711571829 -0.43074100232206619 0 -0.21930210725371921 -0.39136487572516893 0 -0.2356894588862079 -0.39025110827700737 0 -0.22190094641458119 -0.37176747705046193 0 -0.2356894588862079 -0.39025110827700737 0 -0.22687131346060141 -0.37312671474238118 0 -0.22190094641458119 -0.37176747705046193 0 -0.2356894588862079 -0.39025110827700737 0 -0.22190094641458119 -0.37176747705046193 0 -0.23126332970038521 -0.41559011464496898 0 -0.22236741223237461 -0.40388918857283451 0 -0.2356894588862079 -0.39025110827700737 0 -0.21930210725371921 -0.39136487572516893 0 -0.22236741223237461 -0.40388918857283451 0 -0.2356894588862079 -0.39025110827700737 0 -0.24947797135783711 -0.40873473950355083 0 -0.2356894588862079 -0.39025110827700737 0 -0.23126332970038521 -0.41559011464496898 0 -0.24947797135783711 -0.40873473950355083 0 -0.2356894588862079 -0.39025110827700737 0 -0.25079594947703659 -0.39092329875930848 0 -0.24947797135783711 -0.40873473950355083 0 -0.2356894588862079 -0.39025110827700737 0 -0.25079594947703659 -0.39092329875930848 0 -0.2356894588862079 -0.39025110827700737 0 -0.24947320939602319 -0.37487240337524902 0 -0.2356894588862079 -0.39025110827700737 0 -0.24947320939602319 -0.37487240337524902 0 -0.22687131346060141 -0.37312671474238118 0 -0.24947320939602319 -0.37487240337524902 0 -0.23220168225291229 -0.35768606464980118 0 -0.24989586565320229 -0.35819635653220411 0 -0.24947320939602319 -0.37487240337524902 0 -0.23220168225291229 -0.35768606464980118 0 -0.24947320939602319 -0.37487240337524902 0 -0.22687131346060141 -0.37312671474238118 0 -0.23220168225291229 -0.35768606464980118 0 -0.22687131346060141 -0.37312671474238118 0 -0.22113966286545839 -0.35972365487726532 0 -0.23220168225291229 -0.35768606464980118 0 -0.22687131346060141 -0.37312671474238118 0 -0.22113966286545839 -0.35972365487726532 0 -0.22190094641458119 -0.37176747705046193 0 -0.22687131346060141 -0.37312671474238118 0 -0.22190094641458119 -0.37176747705046193 0 -0.22113966286545839 -0.35972365487726532 0 -0.23220168225291229 -0.35768606464980118 0 -0.2149301551098014 -0.34049972592435351 0 -0.23220168225291229 -0.35768606464980118 0 -0.22918041573533479 -0.34435485045172409 0 -0.2149301551098014 -0.34049972592435351 0 -0.23220168225291229 -0.35768606464980118 0 -0.2149301551098014 -0.34049972592435351 0 -0.23220168225291229 -0.35768606464980118 0 -0.22918041573533479 -0.34435485045172409 0 -0.24028588815023291 -0.34803412062964489 0 -0.25053870451287102 -0.34047563698912348 0 -0.24028588815023291 -0.34803412062964489 0 -0.24989586565320229 -0.35819635653220411 0 -0.23220168225291229 -0.35768606464980118 0 -0.24028588815023291 -0.34803412062964489 0 -0.24989586565320229 -0.35819635653220411 0 -0.25053870451287102 -0.34047563698912348 0 -0.24523687525237389 -0.33371963179056929 0 -0.24172329595044531 -0.33939032590976659 0 -0.25053870451287102 -0.34047563698912348 0 -0.24028588815023291 -0.34803412062964489 0 -0.24172329595044531 -0.33939032590976659 0 -0.25229887266720991 -0.32910931860687193 0 -0.25053870451287102 -0.34047563698912348 0 -0.24523687525237389 -0.33371963179056929 0 -0.25229887266720991 -0.32910931860687193 0 -0.24523687525237389 -0.33371963179056929 0 -0.24348043950167891 -0.32791353247676852 0 -0.24523687525237389 -0.33371963179056929 0 -0.2380544629149374 -0.33107318227784321 0 -0.24348043950167891 -0.32791353247676852 0 -0.24523687525237389 -0.33371963179056929 0 -0.2380544629149374 -0.33107318227784321 0 -0.24172329595044531 -0.33939032590976659 0 -0.22918041573533479 -0.34435485045172409 0 -0.24028588815023291 -0.34803412062964489 0 -0.23372795068939139 -0.33810171918329268 0 -0.24028588815023291 -0.34803412062964489 0 -0.24172329595044531 -0.33939032590976659 0 -0.23372795068939139 -0.33810171918329268 0 -0.2380544629149374 -0.33107318227784321 0 -0.24172329595044531 -0.33939032590976659 0 -0.23372795068939139 -0.33810171918329268 0 -0.2537754909048211 -0.30881070777534553 0 -0.2392558104124908 -0.31670592577745288 0 -0.2537754909048211 -0.30881070777534553 0 -0.24785359096487741 -0.32222358419156288 0 -0.2392558104124908 -0.31670592577745288 0 -0.24785359096487741 -0.32222358419156288 0 -0.2392558104124908 -0.31670592577745288 0 -0.25229887266720991 -0.32910931860687193 0 -0.2471239573562434 -0.32387617635302718 0 -0.24348043950167891 -0.32791353247676852 0 -0.24785359096487741 -0.32222358419156288 0 -0.2471239573562434 -0.32387617635302718 0 -0.23590667910704369 -0.31844905231769582 0 -0.24785359096487741 -0.32222358419156288 0 -0.2471239573562434 -0.32387617635302718 0 -0.25229887266720991 -0.32910931860687193 0 -0.24785359096487741 -0.32222358419156288 0 -0.2471239573562434 -0.32387617635302718 0 -0.2471239573562434 -0.32387617635302718 0 -0.24348043950167891 -0.32791353247676852 0 -0.23590667910704369 -0.31844905231769582 0 -0.2380544629149374 -0.33107318227784321 0 -0.24348043950167891 -0.32791353247676852 0 -0.23590667910704369 -0.31844905231769582 0 -0.2380544629149374 -0.33107318227784321 0 -0.23590667910704369 -0.31844905231769582 0 -0.2297561561926465 -0.33095179830333482 0 -0.24785359096487741 -0.32222358419156288 0 -0.23590667910704369 -0.31844905231769582 0 -0.24785359096487741 -0.32222358419156288 0 -0.2392558104124908 -0.31670592577745288 0 -0.23590667910704369 -0.31844905231769582 0 -0.2392558104124908 -0.31670592577745288 0 -0.23590667910704369 -0.31844905231769582 0 -0.2392558104124908 -0.31670592577745288 0 -0.23590667910704369 -0.31844905231769582 0 -0.21641725972044201 -0.30621921236959859 0 -0.23590667910704369 -0.31844905231769582 0 -0.2168134499086623 -0.32890917837335348 0 -0.23590667910704369 -0.31844905231769582 0 -0.2297561561926465 -0.33095179830333482 0 -0.2168134499086623 -0.32890917837335348 0 -0.23590667910704369 -0.31844905231769582 0 -0.2168134499086623 -0.32890917837335348 0 -0.21641725972044201 -0.30621921236959859 0 -0.22918041573533479 -0.34435485045172409 0 -0.23372795068939139 -0.33810171918329268 0 -0.22475640247433609 -0.33745262187152808 0 -0.2380544629149374 -0.33107318227784321 0 -0.23372795068939139 -0.33810171918329268 0 -0.2297561561926465 -0.33095179830333482 0 -0.23372795068939139 -0.33810171918329268 0 -0.2297561561926465 -0.33095179830333482 0 -0.22475640247433609 -0.33745262187152808 0 -0.2297561561926465 -0.33095179830333482 0 -0.22475640247433609 -0.33745262187152808 0 -0.2168134499086623 -0.32890917837335348 0 -0.22475640247433609 -0.33745262187152808 0 -0.2149301551098014 -0.34049972592435351 0 -0.2168134499086623 -0.32890917837335348 0 -0.22918041573533479 -0.34435485045172409 0 -0.22475640247433609 -0.33745262187152808 0 -0.2149301551098014 -0.34049972592435351 0 -0.2149301551098014 -0.34049972592435351 0 -0.2168134499086623 -0.32890917837335348 0 -0.19768748776421549 -0.3393091069881915 0 -0.2168134499086623 -0.32890917837335348 0 -0.19869497797624869 -0.32494716354760089 0 -0.19768748776421549 -0.3393091069881915 0 -0.2168134499086623 -0.32890917837335348 0 -0.19768748776421549 -0.3393091069881915 0 -0.2168134499086623 -0.32890917837335348 0 -0.20045626076221479 -0.31269341891503483 0 -0.21641725972044201 -0.30621921236959859 0 -0.2168134499086623 -0.32890917837335348 0 -0.20045626076221479 -0.31269341891503483 0 -0.19869497797624869 -0.32494716354760089 0 -0.20045626076221479 -0.31269341891503483 0 -0.19869497797624869 -0.32494716354760089 0 -0.1951522088088915 -0.31968064307969751 0 -0.18755467661801581 -0.32410472754759972 0 -0.1916641373477645 -0.32241628172267728 0 -0.1872014213441677 -0.31457040930221541 0 -0.19869497797624869 -0.32494716354760089 0 -0.19039632326574371 -0.3266743522066502 0 -0.1916641373477645 -0.32241628172267728 0 -0.19039632326574371 -0.3266743522066502 0 -0.19001283364221691 -0.32424239341674238 0 -0.1916641373477645 -0.32241628172267728 0 -0.19039632326574371 -0.3266743522066502 0 -0.18825159114698009 -0.32666019843306582 0 -0.18825159114698009 -0.32666019843306582 0 -0.18755467661801581 -0.32410472754759972 0 -0.19039632326574371 -0.3266743522066502 0 -0.19001283364221691 -0.32424239341674238 0 -0.18755467661801581 -0.32410472754759972 0 -0.19039632326574371 -0.3266743522066502 0 -0.18825159114698009 -0.32666019843306582 0 -0.18755467661801581 -0.32410472754759972 0 -0.19001283364221691 -0.32424239341674238 0 -0.18755467661801581 -0.32410472754759972 0 -0.1916641373477645 -0.32241628172267728 0 -0.19869497797624869 -0.32494716354760089 0 -0.1916641373477645 -0.32241628172267728 0 -0.1951522088088915 -0.31968064307969751 0 -0.20045626076221479 -0.31269341891503483 0 -0.1951522088088915 -0.31968064307969751 0 -0.1872014213441677 -0.31457040930221541 0 -0.1916641373477645 -0.32241628172267728 0 -0.1951522088088915 -0.31968064307969751 0 -0.1872014213441677 -0.31457040930221541 0 -0.19869497797624869 -0.32494716354760089 0 -0.19039632326574371 -0.3266743522066502 0 -0.19768748776421549 -0.3393091069881915 0 -0.18825159114698009 -0.32666019843306582 0 -0.19247421731905881 -0.34214387368228011 0 -0.18825159114698009 -0.32666019843306582 0 -0.19768748776421549 -0.3393091069881915 0 -0.19039632326574371 -0.3266743522066502 0 -0.18825159114698009 -0.32666019843306582 0 -0.19768748776421549 -0.3393091069881915 0 -0.18825159114698009 -0.32666019843306582 0 -0.19768748776421549 -0.3393091069881915 0 -0.19247421731905881 -0.34214387368228011 0 -0.19768748776421549 -0.3393091069881915 0 -0.19247421731905881 -0.34214387368228011 0 -0.19247421731905881 -0.34214387368228011 0 -0.19883259989157839 -0.36545901616736681 0 -0.19247421731905881 -0.34214387368228011 0 -0.19883259989157839 -0.36545901616736681 0 -0.17913409066002639 -0.35227071082410361 0 -0.19768748776421549 -0.3393091069881915 0 -0.19247421731905881 -0.34214387368228011 0 -0.20979421708939841 -0.35553829201932668 0 -0.19247421731905881 -0.34214387368228011 0 -0.19883259989157839 -0.36545901616736681 0 -0.20979421708939841 -0.35553829201932668 0 -0.2041611601499867 -0.38499796970596339 0 -0.19883259989157839 -0.36545901616736681 0 -0.1900184583815808 -0.37346513241912332 0 -0.19883259989157839 -0.36545901616736681 0 -0.1900184583815808 -0.37346513241912332 0 -0.17557344382703111 -0.35909837492849112 0 -0.22190094641458119 -0.37176747705046193 0 -0.19883259989157839 -0.36545901616736681 0 -0.22113966286545839 -0.35972365487726532 0 -0.22190094641458119 -0.37176747705046193 0 -0.20979421708939841 -0.35553829201932668 0 -0.2095338177151769 -0.37598855382380469 0 -0.22190094641458119 -0.37176747705046193 0 -0.19883259989157839 -0.36545901616736681 0 -0.22190094641458119 -0.37176747705046193 0 -0.20979421708939841 -0.35553829201932668 0 -0.22190094641458119 -0.37176747705046193 0 -0.19883259989157839 -0.36545901616736681 0 -0.20979421708939841 -0.35553829201932668 0 -0.2149301551098014 -0.34049972592435351 0 -0.19768748776421549 -0.3393091069881915 0 -0.20979421708939841 -0.35553829201932668 0 -0.19768748776421549 -0.3393091069881915 0 -0.20979421708939841 -0.35553829201932668 0 -0.22113966286545839 -0.35972365487726532 0 -0.2149301551098014 -0.34049972592435351 0 -0.20979421708939841 -0.35553829201932668 0 -0.22987111126696719 -0.25713253802920211 0 -0.21676030625241591 -0.25015325724963899 0 -0.23777646763563109 -0.24660419077810361 0 -0.22987111126696719 -0.25713253802920211 0 -0.22402767680778199 -0.26750483314377871 0 -0.21676030625241591 -0.25015325724963899 0 -0.22987111126696719 -0.25713253802920211 0 -0.24091999437204001 -0.26426787094528692 0 -0.22402767680778199 -0.26750483314377871 0 -0.24802376513885799 -0.25056218103589212 0 -0.24091999437204001 -0.26426787094528692 0 -0.23777646763563109 -0.24660419077810361 0 -0.22987111126696719 -0.25713253802920211 0 -0.24091999437204001 -0.26426787094528692 0 -0.23777646763563109 -0.24660419077810361 0 -0.24091999437204001 -0.26426787094528692 0 -0.23777646763563109 -0.24660419077810361 0 -0.25580498916708688 -0.25446821000594683 0 -0.24802376513885799 -0.25056218103589212 0 -0.24091999437204001 -0.26426787094528692 0 -0.24091999437204001 -0.26426787094528692 0 -0.24406352110844759 -0.28193155111247048 0 -0.25474425159214009 -0.26941427729143691 0 -0.24091999437204001 -0.26426787094528692 0 -0.24406352110844759 -0.28193155111247048 0 -0.24091999437204001 -0.26426787094528692 0 -0.22402767680778199 -0.26750483314377871 0 -0.24406352110844759 -0.28193155111247048 0 -0.22402767680778199 -0.26750483314377871 0 -0.22276347052140549 -0.2855025453707411 0 -0.24406352110844759 -0.28193155111247048 0 -0.22276347052140549 -0.2855025453707411 0 -0.24406352110844759 -0.28193155111247048 0 -0.2353090146771909 -0.29972278664706081 0 -0.2537754909048211 -0.30881070777534553 0 -0.24406352110844759 -0.28193155111247048 0 -0.2353090146771909 -0.29972278664706081 0 -0.2537754909048211 -0.30881070777534553 0 -0.2392558104124908 -0.31670592577745288 0 -0.2353090146771909 -0.29972278664706081 0 -0.2392558104124908 -0.31670592577745288 0 -0.21641725972044201 -0.30621921236959859 0 -0.22276347052140549 -0.2855025453707411 0 -0.2353090146771909 -0.29972278664706081 0 -0.21641725972044201 -0.30621921236959859 0 -0.2392558104124908 -0.31670592577745288 0 -0.2353090146771909 -0.29972278664706081 0 -0.21641725972044201 -0.30621921236959859 0 -0.21641725972044201 -0.30621921236959859 0 -0.1935787090283928 -0.29573249896174508 0 -0.20045626076221479 -0.31269341891503483 0 -0.21641725972044201 -0.30621921236959859 0 -0.1935787090283928 -0.29573249896174508 0 -0.21641725972044201 -0.30621921236959859 0 -0.1935787090283928 -0.29573249896174508 0 -0.20920217878925951 -0.29071545671661991 0 -0.20045626076221479 -0.31269341891503483 0 -0.1935787090283928 -0.29573249896174508 0 -0.1872014213441677 -0.31457040930221541 0 -0.1935787090283928 -0.29573249896174508 0 -0.20920217878925951 -0.29071545671661991 0 -0.20404927588679769 -0.27540757016439482 0 -0.1935787090283928 -0.29573249896174508 0 -0.20404927588679769 -0.27540757016439482 0 -0.18557438226123371 -0.27285613203336451 0 -0.22276347052140549 -0.2855025453707411 0 -0.21641725972044201 -0.30621921236959859 0 -0.20920217878925951 -0.29071545671661991 0 -0.22276347052140549 -0.2855025453707411 0 -0.20920217878925951 -0.29071545671661991 0 -0.20404927588679769 -0.27540757016439482 0 -0.22402767680778199 -0.26750483314377871 0 -0.22276347052140549 -0.2855025453707411 0 -0.20404927588679769 -0.27540757016439482 0 -0.20404927588679769 -0.27540757016439482 0 -0.1957441448692005 -0.25370232372117441 0 -0.18557438226123371 -0.27285613203336451 0 -0.20404927588679769 -0.27540757016439482 0 -0.1957441448692005 -0.25370232372117441 0 -0.1957441448692005 -0.25370232372117441 0 -0.21676030625241591 -0.25015325724963899 0 -0.22402767680778199 -0.26750483314377871 0 -0.20404927588679769 -0.27540757016439482 0 -0.21676030625241591 -0.25015325724963899 0 -0.20404927588679769 -0.27540757016439482 0 -0.1957441448692005 -0.25370232372117441 0 -0.21676030625241591 -0.25015325724963899 0 -0.16085149376788621 -0.25959475744722882 0 -0.1782978193185433 -0.25664854058420161 0 -0.1710361861281241 -0.2704000732147796 0 -0.16085149376788621 -0.25959475744722882 0 -0.1782978193185433 -0.25664854058420161 0 -0.16818652220814589 -0.242690561488875 0 -0.16085149376788621 -0.25959475744722882 0 -0.1782978193185433 -0.25664854058420161 0 -0.16085149376788621 -0.25959475744722882 0 -0.14950339401945839 -0.24981374083537469 0 -0.16818652220814589 -0.242690561488875 0 -0.1957441448692005 -0.25370232372117441 0 -0.1782978193185433 -0.25664854058420161 0 -0.18557438226123371 -0.27285613203336451 0 -0.1957441448692005 -0.25370232372117441 0 -0.1782978193185433 -0.25664854058420161 0 -0.1957441448692005 -0.25370232372117441 0 -0.1782978193185433 -0.25664854058420161 0 -0.18473471383680221 -0.24292955162704369 0 -0.1782978193185433 -0.25664854058420161 0 -0.18557438226123371 -0.27285613203336451 0 -0.1710361861281241 -0.2704000732147796 0 -0.18557438226123371 -0.27285613203336451 0 -0.1710361861281241 -0.2704000732147796 0 -0.17074015833634351 -0.28524578555389157 0 -0.16085149376788621 -0.25959475744722882 0 -0.1710361861281241 -0.2704000732147796 0 -0.14818576458999311 -0.28209692902830918 0 -0.1710361861281241 -0.2704000732147796 0 -0.17074015833634351 -0.28524578555389157 0 -0.14818576458999311 -0.28209692902830918 0 -0.15755440758337691 -0.29303549249544181 0 -0.17074015833634351 -0.28524578555389157 0 -0.14818576458999311 -0.28209692902830918 0 -0.15755440758337691 -0.29303549249544181 0 -0.17074015833634351 -0.28524578555389157 0 -0.16830342079916641 -0.29991948763399251 0 -0.1935787090283928 -0.29573249896174508 0 -0.18557438226123371 -0.27285613203336451 0 -0.17074015833634351 -0.28524578555389157 0 -0.1935787090283928 -0.29573249896174508 0 -0.17074015833634351 -0.28524578555389157 0 -0.17953246813955101 -0.30163394173844937 0 -0.1935787090283928 -0.29573249896174508 0 -0.17074015833634351 -0.28524578555389157 0 -0.17074015833634351 -0.28524578555389157 0 -0.17953246813955101 -0.30163394173844937 0 -0.16830342079916641 -0.29991948763399251 0 -0.1935787090283928 -0.29573249896174508 0 -0.17953246813955101 -0.30163394173844937 0 -0.1872014213441677 -0.31457040930221541 0 -0.17953246813955101 -0.30163394173844937 0 -0.1872014213441677 -0.31457040930221541 0 -0.1778386311896844 -0.31270152724040229 0 -0.16830342079916641 -0.29991948763399251 0 -0.1778386311896844 -0.31270152724040229 0 -0.17953246813955101 -0.30163394173844937 0 -0.16830342079916641 -0.29991948763399251 0 -0.1778386311896844 -0.31270152724040229 0 -0.16830342079916641 -0.29991948763399251 0 -0.15499855577681859 -0.30212914804600483 0 -0.16352080354682769 -0.31608604142467789 0 -0.16830342079916641 -0.29991948763399251 0 -0.1778386311896844 -0.31270152724040229 0 -0.16352080354682769 -0.31608604142467789 0 -0.15755440758337691 -0.29303549249544181 0 -0.16830342079916641 -0.29991948763399251 0 -0.15499855577681859 -0.30212914804600483 0 -0.15499855577681859 -0.30212914804600483 0 -0.13966776551345261 -0.30668851600254371 0 -0.16352080354682769 -0.31608604142467789 0 -0.13966776551345261 -0.30668851600254371 0 -0.16352080354682769 -0.31608604142467789 0 -0.15755440758337691 -0.29303549249544181 0 -0.15499855577681859 -0.30212914804600483 0 -0.14554413841456301 -0.29578611221501078 0 -0.15499855577681859 -0.30212914804600483 0 -0.13966776551345261 -0.30668851600254371 0 -0.14554413841456301 -0.29578611221501078 0 -0.13966776551345261 -0.30668851600254371 0 -0.11892609485569371 -0.29851679477227128 0 -0.1192152875931273 -0.30304554367836412 0 -0.13966776551345261 -0.30668851600254371 0 -0.11892609485569371 -0.29851679477227128 0 -0.1363188919924111 -0.3200564878828378 0 -0.1192152875931273 -0.30304554367836412 0 -0.13966776551345261 -0.30668851600254371 0 -0.1363188919924111 -0.3200564878828378 0 -0.1192152875931273 -0.30304554367836412 0 -0.13966776551345261 -0.30668851600254371 0 -0.13412241555074461 -0.29099670581740228 0 -0.14554413841456301 -0.29578611221501078 0 -0.13966776551345261 -0.30668851600254371 0 -0.13412241555074461 -0.29099670581740228 0 -0.11892609485569371 -0.29851679477227128 0 -0.13412241555074461 -0.29099670581740228 0 -0.14818576458999311 -0.28209692902830918 0 -0.11975503438470871 -0.27394780203842001 0 -0.13412241555074461 -0.29099670581740228 0 -0.14818576458999311 -0.28209692902830918 0 -0.14554413841456301 -0.29578611221501078 0 -0.15755440758337691 -0.29303549249544181 0 -0.14818576458999311 -0.28209692902830918 0 -0.14554413841456301 -0.29578611221501078 0 -0.16085149376788621 -0.25959475744722882 0 -0.14818576458999311 -0.28209692902830918 0 -0.14010516941159021 -0.26273298278463858 0 -0.14818576458999311 -0.28209692902830918 0 -0.11975503438470871 -0.27394780203842001 0 -0.14818576458999311 -0.28209692902830918 0 -0.14010516941159021 -0.26273298278463858 0 -0.11975503438470871 -0.27394780203842001 0 -0.14010516941159021 -0.26273298278463858 0 -0.1202568717247048 -0.25592831442403741 0 -0.11975503438470871 -0.27394780203842001 0 -0.14010516941159021 -0.26273298278463858 0 -0.1202568717247048 -0.25592831442403741 0 -0.135224960833768 -0.24789050302248111 0 -0.14010516941159021 -0.26273298278463858 0 -0.14950339401945839 -0.24981374083537469 0 -0.135224960833768 -0.24789050302248111 0 -0.16085149376788621 -0.25959475744722882 0 -0.14010516941159021 -0.26273298278463858 0 -0.14950339401945839 -0.24981374083537469 0 -0.17052610079097841 -0.35407837629178551 0 -0.15342249639169489 -0.33706743208731149 0 -0.16607237392380431 -0.35650013375103251 0 -0.17052610079097841 -0.35407837629178551 0 -0.15342249639169489 -0.33706743208731149 0 -0.16607237392380431 -0.35650013375103251 0 -0.17052610079097841 -0.35407837629178551 0 -0.1737200564769423 -0.3572550284580247 0 -0.16607237392380431 -0.35650013375103251 0 -0.1737200564769423 -0.3572550284580247 0 -0.16607237392380431 -0.35650013375103251 0 -0.17052610079097841 -0.35407837629178551 0 -0.1737200564769423 -0.3572550284580247 0 -0.15498643303496229 -0.37450174809655878 0 -0.17266262410284081 -0.37939660706659728 0 -0.1737200564769423 -0.3572550284580247 0 -0.15498643303496229 -0.37450174809655878 0 -0.16607237392380431 -0.35650013375103251 0 -0.1737200564769423 -0.3572550284580247 0 -0.15498643303496229 -0.37450174809655878 0 -0.17896449868347741 -0.37014229812621008 0 -0.1737200564769423 -0.3572550284580247 0 -0.17557344382703111 -0.35909837492849112 0 -0.17266262410284081 -0.37939660706659728 0 -0.17896449868347741 -0.37014229812621008 0 -0.1737200564769423 -0.3572550284580247 0 -0.19883259989157839 -0.36545901616736681 0 -0.17557344382703111 -0.35909837492849112 0 -0.1900184583815808 -0.37346513241912332 0 -0.17896449868347741 -0.37014229812621008 0 -0.17557344382703111 -0.35909837492849112 0 -0.18396716925753939 -0.38046592565017179 0 -0.1900184583815808 -0.37346513241912332 0 -0.17896449868347741 -0.37014229812621008 0 -0.1900184583815808 -0.37346513241912332 0 -0.17557344382703111 -0.35909837492849112 0 -0.19247421731905881 -0.34214387368228011 0 -0.17052610079097841 -0.35407837629178551 0 -0.19247421731905881 -0.34214387368228011 0 -0.17052610079097841 -0.35407837629178551 0 -0.17949176295556299 -0.34129858177521138 0 -0.19883259989157839 -0.36545901616736681 0 -0.17913409066002639 -0.35227071082410361 0 -0.17557344382703111 -0.35909837492849112 0 -0.19247421731905881 -0.34214387368228011 0 -0.17052610079097841 -0.35407837629178551 0 -0.17913409066002639 -0.35227071082410361 0 -0.17052610079097841 -0.35407837629178551 0 -0.1735919775583559 -0.33703139506980939 0 -0.17949176295556299 -0.34129858177521138 0 -0.17913409066002639 -0.35227071082410361 0 -0.1737200564769423 -0.3572550284580247 0 -0.17557344382703111 -0.35909837492849112 0 -0.17052610079097841 -0.35407837629178551 0 -0.17913409066002639 -0.35227071082410361 0 -0.1737200564769423 -0.3572550284580247 0 -0.17913409066002639 -0.35227071082410361 0 -0.1737200564769423 -0.3572550284580247 0 -0.17052610079097841 -0.35407837629178551 0 -0.1737200564769423 -0.3572550284580247 0 -0.1737200564769423 -0.3572550284580247 0 -0.17557344382703111 -0.35909837492849112 0 -0.19247421731905881 -0.34214387368228011 0 -0.18137475615385859 -0.33194068205697042 0 -0.17949176295556299 -0.34129858177521138 0 -0.18825159114698009 -0.32666019843306582 0 -0.19247421731905881 -0.34214387368228011 0 -0.18137475615385859 -0.33194068205697042 0 -0.18825159114698009 -0.32666019843306582 0 -0.18137475615385859 -0.33194068205697042 0 -0.1729618032883426 -0.32777355395915281 0 -0.18137475615385859 -0.33194068205697042 0 -0.1735919775583559 -0.33703139506980939 0 -0.1729618032883426 -0.32777355395915281 0 -0.18137475615385859 -0.33194068205697042 0 -0.1735919775583559 -0.33703139506980939 0 -0.17949176295556299 -0.34129858177521138 0 -0.18825159114698009 -0.32666019843306582 0 -0.1729618032883426 -0.32777355395915281 0 -0.16352080354682769 -0.31608604142467789 0 -0.18825159114698009 -0.32666019843306582 0 -0.16352080354682769 -0.31608604142467789 0 -0.18825159114698009 -0.32666019843306582 0 -0.1778386311896844 -0.31270152724040229 0 -0.16352080354682769 -0.31608604142467789 0 -0.18825159114698009 -0.32666019843306582 0 -0.1778386311896844 -0.31270152724040229 0 -0.18755467661801581 -0.32410472754759972 0 -0.1872014213441677 -0.31457040930221541 0 -0.1778386311896844 -0.31270152724040229 0 -0.18825159114698009 -0.32666019843306582 0 -0.18755467661801581 -0.32410472754759972 0 -0.1778386311896844 -0.31270152724040229 0 -0.16352080354682769 -0.31608604142467789 0 -0.16378596846462529 -0.3328454337856161 0 -0.15060895978548161 -0.32279243752539788 0 -0.1729618032883426 -0.32777355395915281 0 -0.16352080354682769 -0.31608604142467789 0 -0.16378596846462529 -0.3328454337856161 0 -0.17052610079097841 -0.35407837629178551 0 -0.16378596846462529 -0.3328454337856161 0 -0.15342249639169489 -0.33706743208731149 0 -0.17052610079097841 -0.35407837629178551 0 -0.1735919775583559 -0.33703139506980939 0 -0.16378596846462529 -0.3328454337856161 0 -0.1735919775583559 -0.33703139506980939 0 -0.1729618032883426 -0.32777355395915281 0 -0.16378596846462529 -0.3328454337856161 0 -0.15342249639169489 -0.33706743208731149 0 -0.1363188919924111 -0.3200564878828378 0 -0.13422554443389881 -0.33476751208996153 0 -0.15342249639169489 -0.33706743208731149 0 -0.13422554443389881 -0.33476751208996153 0 -0.13718722434087241 -0.34860096178114552 0 -0.15342249639169489 -0.33706743208731149 0 -0.1363188919924111 -0.3200564878828378 0 -0.16378596846462529 -0.3328454337856161 0 -0.15342249639169489 -0.33706743208731149 0 -0.15060895978548161 -0.32279243752539788 0 -0.13966776551345261 -0.30668851600254371 0 -0.16352080354682769 -0.31608604142467789 0 -0.15060895978548161 -0.32279243752539788 0 -0.13966776551345261 -0.30668851600254371 0 -0.15060895978548161 -0.32279243752539788 0 -0.1363188919924111 -0.3200564878828378 0 -0.15342249639169489 -0.33706743208731149 0 -0.15060895978548161 -0.32279243752539788 0 -0.1363188919924111 -0.3200564878828378 0 -0.1363188919924111 -0.3200564878828378 0 -0.12570378327742721 -0.32535011107520367 0 -0.11826878404916789 -0.31349540909849738 0 -0.1363188919924111 -0.3200564878828378 0 -0.12570378327742721 -0.32535011107520367 0 -0.13422554443389881 -0.33476751208996153 0 -0.13422554443389881 -0.33476751208996153 0 -0.12877147424745261 -0.3439231436745524 0 -0.13718722434087241 -0.34860096178114552 0 -0.12570378327742721 -0.32535011107520367 0 -0.13422554443389881 -0.33476751208996153 0 -0.12315312457590349 -0.33456291464857268 0 -0.13422554443389881 -0.33476751208996153 0 -0.12877147424745261 -0.3439231436745524 0 -0.12315312457590349 -0.33456291464857268 0 -0.12913671333905469 -0.35631668084676532 0 -0.13718722434087241 -0.34860096178114552 0 -0.14364930944700299 -0.36869289394387728 0 -0.12877147424745261 -0.3439231436745524 0 -0.12913671333905469 -0.35631668084676532 0 -0.13718722434087241 -0.34860096178114552 0 -0.12877147424745261 -0.3439231436745524 0 -0.12913671333905469 -0.35631668084676532 0 -0.1201547645475337 -0.34536764900631722 0 -0.16607237392380431 -0.35650013375103251 0 -0.15342249639169489 -0.33706743208731149 0 -0.13718722434087241 -0.34860096178114552 0 -0.16607237392380431 -0.35650013375103251 0 -0.13718722434087241 -0.34860096178114552 0 -0.14364930944700299 -0.36869289394387728 0 -0.16607237392380431 -0.35650013375103251 0 -0.13718722434087241 -0.34860096178114552 0 -0.16607237392380431 -0.35650013375103251 0 -0.14364930944700299 -0.36869289394387728 0 -0.15498643303496229 -0.37450174809655878 0 -0.16607237392380431 -0.35650013375103251 0 -0.14364930944700299 -0.36869289394387728 0 -0.12913671333905469 -0.35631668084676532 0 -0.1212262449702025 -0.38088565413672348 0 -0.12913671333905469 -0.35631668084676532 0 -0.14364930944700299 -0.36869289394387728 0 -0.1212262449702025 -0.38088565413672348 0 -0.14364930944700299 -0.36869289394387728 0 -0.1212262449702025 -0.38088565413672348 0 -0.1091711321070202 -0.37313504540493958 0 -0.1119566424133193 -0.35852935951468301 0 -0.1159443258153485 -0.38375774923682437 0 -0.1119566424133193 -0.35852935951468301 0 -0.1212262449702025 -0.38088565413672348 0 -0.1159443258153485 -0.38375774923682437 0 -0.1119566424133193 -0.35852935951468301 0 -0.1159443258153485 -0.38375774923682437 0 -0.12913671333905469 -0.35631668084676532 0 -0.1119566424133193 -0.35852935951468301 0 -0.1212262449702025 -0.38088565413672348 0 -0.1091711321070202 -0.37313504540493958 0 -0.1048079358530266 -0.37324496299284637 0 -0.1035656380328092 -0.36521313479892381 0 -0.1048079358530266 -0.37324496299284637 0 -0.1035656380328092 -0.36521313479892381 0 -0.097538504935182319 -0.36707420681466479 0 -0.1031970357384013 -0.35941533423127969 0 -0.1035656380328092 -0.36521313479892381 0 -0.1119566424133193 -0.35852935951468301 0 -0.1091711321070202 -0.37313504540493958 0 -0.1035656380328092 -0.36521313479892381 0 -0.1119566424133193 -0.35852935951468301 0 -0.1035656380328092 -0.36521313479892381 0 -0.097404030054173613 -0.36439961941954357 0 -0.097538504935182319 -0.36707420681466479 0 -0.1031970357384013 -0.35941533423127969 0 -0.1035656380328092 -0.36521313479892381 0 -0.097404030054173613 -0.36439961941954357 0 -0.097404030054173613 -0.36439961941954357 0 -0.097538504935182319 -0.36707420681466479 0 -0.09211187317307501 -0.36692153279657119 0 -0.097538504935182319 -0.36707420681466479 0 -0.095002256630961873 -0.37151383163952639 0 -0.098397578081671697 -0.37533673842527637 0 -0.097538504935182319 -0.36707420681466479 0 -0.095002256630961873 -0.37151383163952639 0 -0.09211187317307501 -0.36692153279657119 0 -0.095002256630961873 -0.37151383163952639 0 -0.090675144586911227 -0.37387850245525273 0 -0.098397578081671697 -0.37533673842527637 0 -0.099861832453303323 -0.34951922319196832 0 -0.1119566424133193 -0.35852935951468301 0 -0.1079689590112905 -0.33330096979254148 0 -0.097404030054173613 -0.36439961941954357 0 -0.099861832453303323 -0.34951922319196832 0 -0.087426114337260386 -0.3409857655421567 0 -0.1031970357384013 -0.35941533423127969 0 -0.097404030054173613 -0.36439961941954357 0 -0.099861832453303323 -0.34951922319196832 0 -0.1031970357384013 -0.35941533423127969 0 -0.099861832453303323 -0.34951922319196832 0 -0.1119566424133193 -0.35852935951468301 0 -0.12913671333905469 -0.35631668084676532 0 -0.1119566424133193 -0.35852935951468301 0 -0.1201547645475337 -0.34536764900631722 0 -0.1119566424133193 -0.35852935951468301 0 -0.1079689590112905 -0.33330096979254148 0 -0.1119566424133193 -0.35852935951468301 0 -0.1201547645475337 -0.34536764900631722 0 -0.1079689590112905 -0.33330096979254148 0 -0.12877147424745261 -0.3439231436745524 0 -0.1201547645475337 -0.34536764900631722 0 -0.12315312457590349 -0.33456291464857268 0 -0.12315312457590349 -0.33456291464857268 0 -0.1165525713357545 -0.32386823165614892 0 -0.1079689590112905 -0.33330096979254148 0 -0.1201547645475337 -0.34536764900631722 0 -0.12315312457590349 -0.33456291464857268 0 -0.1079689590112905 -0.33330096979254148 0 -0.1165525713357545 -0.32386823165614892 0 -0.1059155419169362 -0.31619446705178927 0 -0.1079689590112905 -0.33330096979254148 0 -0.12570378327742721 -0.32535011107520367 0 -0.11826878404916789 -0.31349540909849738 0 -0.1165525713357545 -0.32386823165614892 0 -0.12570378327742721 -0.32535011107520367 0 -0.12315312457590349 -0.33456291464857268 0 -0.1165525713357545 -0.32386823165614892 0 -0.11826878404916789 -0.31349540909849738 0 -0.1165525713357545 -0.32386823165614892 0 -0.1059155419169362 -0.31619446705178927 0 -0.1059155419169362 -0.31619446705178927 0 -0.1079689590112905 -0.33330096979254148 0 -0.095459421384075316 -0.32867311237327718 0 -0.1059155419169362 -0.31619446705178927 0 -0.094135881965314347 -0.31446633699643772 0 -0.095459421384075316 -0.32867311237327718 0 -0.1059155419169362 -0.31619446705178927 0 -0.094135881965314347 -0.31446633699643772 0 -0.10238571259408789 -0.30912811739746798 0 -0.099861832453303323 -0.34951922319196832 0 -0.095459421384075316 -0.32867311237327718 0 -0.087426114337260386 -0.3409857655421567 0 -0.099861832453303323 -0.34951922319196832 0 -0.1079689590112905 -0.33330096979254148 0 -0.095459421384075316 -0.32867311237327718 0 -0.095459421384075316 -0.32867311237327718 0 -0.087426114337260386 -0.3409857655421567 0 -0.077448198620347131 -0.31757191166476978 0 -0.087426114337260386 -0.3409857655421567 0 -0.077448198620347131 -0.31757191166476978 0 -0.094135881965314347 -0.31446633699643772 0 -0.095459421384075316 -0.32867311237327718 0 -0.077448198620347131 -0.31757191166476978 0 -0.094135881965314347 -0.31446633699643772 0 -0.077448198620347131 -0.31757191166476978 0 -0.084399722966652588 -0.30707722919049019 0 -0.087426114337260386 -0.3409857655421567 0 -0.065716351338001758 -0.3235301846139168 0 -0.077448198620347131 -0.31757191166476978 0 -0.065716351338001758 -0.3235301846139168 0 -0.077448198620347131 -0.31757191166476978 0 -0.061604359262261238 -0.29713719426195639 0 -0.065716351338001758 -0.3235301846139168 0 -0.069828343413742264 -0.34992317496587722 0 -0.087426114337260386 -0.3409857655421567 0 -0.065716351338001758 -0.3235301846139168 0 -0.069828343413742264 -0.34992317496587722 0 -0.065716351338001758 -0.3235301846139168 0 -0.069828343413742264 -0.34992317496587722 0 -0.059359346827864853 -0.3380374138569836 0 -0.069828343413742264 -0.34992317496587722 0 -0.083677543077431193 -0.36643044418400839 0 -0.073940335489482756 -0.3763161653178374 0 -0.069828343413742264 -0.34992317496587722 0 -0.073940335489482756 -0.3763161653178374 0 -0.069828343413742264 -0.34992317496587722 0 -0.052398662179926302 -0.37264140844437948 0 -0.073940335489482756 -0.3763161653178374 0 -0.083677543077431193 -0.36643044418400839 0 -0.090675144586911227 -0.37387850245525273 0 -0.084925632632925657 -0.38320371309299672 0 -0.083677543077431193 -0.36643044418400839 0 -0.090675144586911227 -0.37387850245525273 0 -0.09211187317307501 -0.36692153279657119 0 -0.095002256630961873 -0.37151383163952639 0 -0.090675144586911227 -0.37387850245525273 0 -0.09211187317307501 -0.36692153279657119 0 -0.097404030054173613 -0.36439961941954357 0 -0.09211187317307501 -0.36692153279657119 0 -0.088373759753789749 -0.35823259226643089 0 -0.083677543077431193 -0.36643044418400839 0 -0.09211187317307501 -0.36692153279657119 0 -0.088373759753789749 -0.35823259226643089 0 -0.087426114337260386 -0.3409857655421567 0 -0.069828343413742264 -0.34992317496587722 0 -0.082598008720764227 -0.3532729409978097 0 -0.087426114337260386 -0.3409857655421567 0 -0.088373759753789749 -0.35823259226643089 0 -0.082598008720764227 -0.3532729409978097 0 -0.069828343413742264 -0.34992317496587722 0 -0.083677543077431193 -0.36643044418400839 0 -0.082598008720764227 -0.3532729409978097 0 -0.097404030054173613 -0.36439961941954357 0 -0.087426114337260386 -0.3409857655421567 0 -0.088373759753789749 -0.35823259226643089 0 -0.097404030054173613 -0.36439961941954357 0 -0.087426114337260386 -0.3409857655421567 0 -0.083677543077431193 -0.36643044418400839 0 -0.088373759753789749 -0.35823259226643089 0 -0.082598008720764227 -0.3532729409978097 0 -0.1057356655064912 -0.25584069738494769 0 -0.11975503438470871 -0.27394780203842001 0 -0.095281085456190656 -0.26693281099448563 0 -0.1057356655064912 -0.25584069738494769 0 -0.095281085456190656 -0.26693281099448563 0 -0.085089238344277854 -0.25629026112103548 0 -0.1057356655064912 -0.25584069738494769 0 -0.085089238344277854 -0.25629026112103548 0 -0.093273054064364258 -0.24403616892205371 0 -0.1057356655064912 -0.25584069738494769 0 -0.1202568717247048 -0.25592831442403741 0 -0.11975503438470871 -0.27394780203842001 0 -0.1202568717247048 -0.25592831442403741 0 -0.11975503438470871 -0.27394780203842001 0 -0.11975503438470871 -0.27394780203842001 0 -0.095281085456190656 -0.26693281099448563 0 -0.097708192634136493 -0.27849952643424891 0 -0.11975503438470871 -0.27394780203842001 0 -0.095281085456190656 -0.26693281099448563 0 -0.11975503438470871 -0.27394780203842001 0 -0.097708192634136493 -0.27849952643424891 0 -0.107330577092345 -0.2838547202656963 0 -0.095281085456190656 -0.26693281099448563 0 -0.097708192634136493 -0.27849952643424891 0 -0.088974849713274573 -0.27959113012357972 0 -0.11581472748007759 -0.29729099058040948 0 -0.106411556092596 -0.29770244811954849 0 -0.091961689446702563 -0.28789346515827541 0 -0.107330577092345 -0.2838547202656963 0 -0.11581472748007759 -0.29729099058040948 0 -0.091961689446702563 -0.28789346515827541 0 -0.11581472748007759 -0.29729099058040948 0 -0.091961689446702563 -0.28789346515827541 0 -0.097708192634136493 -0.27849952643424891 0 -0.107330577092345 -0.2838547202656963 0 -0.091961689446702563 -0.28789346515827541 0 -0.106411556092596 -0.29770244811954849 0 -0.100388747423294 -0.300945444243779 0 -0.091961689446702563 -0.28789346515827541 0 -0.100388747423294 -0.300945444243779 0 -0.092749199135170102 -0.29672797193034661 0 -0.091961689446702563 -0.28789346515827541 0 -0.11975503438470871 -0.27394780203842001 0 -0.11581472748007759 -0.29729099058040948 0 -0.11892609485569371 -0.29851679477227128 0 -0.11975503438470871 -0.27394780203842001 0 -0.11892609485569371 -0.29851679477227128 0 -0.13412241555074461 -0.29099670581740228 0 -0.11975503438470871 -0.27394780203842001 0 -0.11892609485569371 -0.29851679477227128 0 -0.11975503438470871 -0.27394780203842001 0 -0.107330577092345 -0.2838547202656963 0 -0.11581472748007759 -0.29729099058040948 0 -0.11134808329355241 -0.30052690405235538 0 -0.11581472748007759 -0.29729099058040948 0 -0.106411556092596 -0.29770244811954849 0 -0.1363188919924111 -0.3200564878828378 0 -0.11826878404916789 -0.31349540909849738 0 -0.1192152875931273 -0.30304554367836412 0 -0.11134808329355241 -0.30052690405235538 0 -0.114063370530729 -0.30220795621159779 0 -0.1091026790708071 -0.30490622129786588 0 -0.114063370530729 -0.30220795621159779 0 -0.11581472748007759 -0.29729099058040948 0 -0.1192152875931273 -0.30304554367836412 0 -0.11134808329355241 -0.30052690405235538 0 -0.114063370530729 -0.30220795621159779 0 -0.11581472748007759 -0.29729099058040948 0 -0.11581472748007759 -0.29729099058040948 0 -0.11892609485569371 -0.29851679477227128 0 -0.1192152875931273 -0.30304554367836412 0 -0.11581472748007759 -0.29729099058040948 0 -0.11892609485569371 -0.29851679477227128 0 -0.11826878404916789 -0.31349540909849738 0 -0.114063370530729 -0.30220795621159779 0 -0.1192152875931273 -0.30304554367836412 0 -0.11826878404916789 -0.31349540909849738 0 -0.114063370530729 -0.30220795621159779 0 -0.1091026790708071 -0.30490622129786588 0 -0.11826878404916789 -0.31349540909849738 0 -0.1059155419169362 -0.31619446705178927 0 -0.1091026790708071 -0.30490622129786588 0 -0.094135881965314347 -0.31446633699643772 0 -0.100388747423294 -0.300945444243779 0 -0.092749199135170102 -0.29672797193034661 0 -0.1059155419169362 -0.31619446705178927 0 -0.10238571259408789 -0.30912811739746798 0 -0.1091026790708071 -0.30490622129786588 0 -0.10238571259408789 -0.30912811739746798 0 -0.1091026790708071 -0.30490622129786588 0 -0.100388747423294 -0.300945444243779 0 -0.1091026790708071 -0.30490622129786588 0 -0.106411556092596 -0.29770244811954849 0 -0.100388747423294 -0.300945444243779 0 -0.11134808329355241 -0.30052690405235538 0 -0.1091026790708071 -0.30490622129786588 0 -0.106411556092596 -0.29770244811954849 0 -0.094135881965314347 -0.31446633699643772 0 -0.10238571259408789 -0.30912811739746798 0 -0.100388747423294 -0.300945444243779 0 -0.094135881965314347 -0.31446633699643772 0 -0.084399722966652588 -0.30707722919049019 0 -0.084686387664885829 -0.29303206167577539 0 -0.094135881965314347 -0.31446633699643772 0 -0.084686387664885829 -0.29303206167577539 0 -0.092749199135170102 -0.29672797193034661 0 -0.094135881965314347 -0.31446633699643772 0 -0.084686387664885829 -0.29303206167577539 0 -0.08114585568360437 -0.29991433148452279 0 -0.084399722966652588 -0.30707722919049019 0 -0.084686387664885829 -0.29303206167577539 0 -0.08114585568360437 -0.29991433148452279 0 -0.077742447112638835 -0.30298416893599689 0 -0.076329897534725133 -0.29501858797021457 0 -0.08114585568360437 -0.29991433148452279 0 -0.084399722966652588 -0.30707722919049019 0 -0.077742447112638835 -0.30298416893599689 0 -0.077448198620347131 -0.31757191166476978 0 -0.084399722966652588 -0.30707722919049019 0 -0.077742447112638835 -0.30298416893599689 0 -0.077448198620347131 -0.31757191166476978 0 -0.067470282903433904 -0.29415805778738291 0 -0.061604359262261238 -0.29713719426195639 0 -0.077448198620347131 -0.31757191166476978 0 -0.067470282903433904 -0.29415805778738291 0 -0.077448198620347131 -0.31757191166476978 0 -0.077742447112638835 -0.30298416893599689 0 -0.067470282903433904 -0.29415805778738291 0 -0.065716351338001758 -0.3235301846139168 0 -0.061604359262261238 -0.29713719426195639 0 -0.077742447112638835 -0.30298416893599689 0 -0.076329897534725133 -0.29501858797021457 0 -0.067470282903433904 -0.29415805778738291 0 -0.076329897534725133 -0.29501858797021457 0 -0.072327368960031391 -0.29125317698838232 0 -0.075614713869975189 -0.2865064430356809 0 -0.076329897534725133 -0.29501858797021457 0 -0.072327368960031391 -0.29125317698838232 0 -0.067470282903433904 -0.29415805778738291 0 -0.067470282903433904 -0.29415805778738291 0 -0.066014433522708485 -0.28101783981812523 0 -0.05749236718652069 -0.27074420390999598 0 -0.072327368960031391 -0.29125317698838232 0 -0.067470282903433904 -0.29415805778738291 0 -0.070944280199734644 -0.28645838181286309 0 -0.067470282903433904 -0.29415805778738291 0 -0.070944280199734644 -0.28645838181286309 0 -0.066014433522708485 -0.28101783981812523 0 -0.070944280199734644 -0.28645838181286309 0 -0.070740582694145945 -0.27970961986043208 0 -0.066014433522708485 -0.28101783981812523 0 -0.070944280199734644 -0.28645838181286309 0 -0.075614713869975189 -0.2865064430356809 0 -0.070740582694145945 -0.27970961986043208 0 -0.072327368960031391 -0.29125317698838232 0 -0.070944280199734644 -0.28645838181286309 0 -0.075614713869975189 -0.2865064430356809 0 -0.084686387664885829 -0.29303206167577539 0 -0.075236893364457325 -0.27159778635511322 0 -0.075614713869975189 -0.2865064430356809 0 -0.084686387664885829 -0.29303206167577539 0 -0.075236893364457325 -0.27159778635511322 0 -0.084686387664885829 -0.29303206167577539 0 -0.088974849713274573 -0.27959113012357972 0 -0.075236893364457325 -0.27159778635511322 0 -0.08114585568360437 -0.29991433148452279 0 -0.076329897534725133 -0.29501858797021457 0 -0.084686387664885829 -0.29303206167577539 0 -0.076329897534725133 -0.29501858797021457 0 -0.075614713869975189 -0.2865064430356809 0 -0.084686387664885829 -0.29303206167577539 0 -0.084686387664885829 -0.29303206167577539 0 -0.092749199135170102 -0.29672797193034661 0 -0.091961689446702563 -0.28789346515827541 0 -0.097708192634136493 -0.27849952643424891 0 -0.091961689446702563 -0.28789346515827541 0 -0.088974849713274573 -0.27959113012357972 0 -0.084686387664885829 -0.29303206167577539 0 -0.091961689446702563 -0.28789346515827541 0 -0.088974849713274573 -0.27959113012357972 0 -0.095281085456190656 -0.26693281099448563 0 -0.075236893364457325 -0.27159778635511322 0 -0.070204751931304918 -0.26018338665270913 0 -0.095281085456190656 -0.26693281099448563 0 -0.088974849713274573 -0.27959113012357972 0 -0.075236893364457325 -0.27159778635511322 0 -0.070740582694145945 -0.27970961986043208 0 -0.065892592513854112 -0.27296764828037828 0 -0.075236893364457325 -0.27159778635511322 0 -0.075614713869975189 -0.2865064430356809 0 -0.070740582694145945 -0.27970961986043208 0 -0.075236893364457325 -0.27159778635511322 0 -0.070740582694145945 -0.27970961986043208 0 -0.066014433522708485 -0.28101783981812523 0 -0.065892592513854112 -0.27296764828037828 0 -0.066014433522708485 -0.28101783981812523 0 -0.065892592513854112 -0.27296764828037828 0 -0.05749236718652069 -0.27074420390999598 0 -0.065892592513854112 -0.27296764828037828 0 -0.075236893364457325 -0.27159778635511322 0 -0.066013844033174576 -0.2652056646237525 0 -0.065892592513854112 -0.27296764828037828 0 -0.066013844033174576 -0.2652056646237525 0 -0.06138234546277517 -0.26706748596360341 0 -0.075236893364457325 -0.27159778635511322 0 -0.070204751931304918 -0.26018338665270913 0 -0.066013844033174576 -0.2652056646237525 0 -0.075236893364457325 -0.27159778635511322 0 -0.070204751931304918 -0.26018338665270913 0 -0.070204751931304918 -0.26018338665270913 0 -0.065787399064027335 -0.25016351103445161 0 -0.085089238344277854 -0.25629026112103548 0 -0.066013844033174576 -0.2652056646237525 0 -0.065787399064027335 -0.25016351103445161 0 -0.060710744431653828 -0.26010570941695732 0 -0.070204751931304918 -0.26018338665270913 0 -0.066013844033174576 -0.2652056646237525 0 -0.065787399064027335 -0.25016351103445161 0 -0.066013844033174576 -0.2652056646237525 0 -0.060710744431653828 -0.26010570941695732 0 -0.06138234546277517 -0.26706748596360341 0 -0.070204751931304918 -0.26018338665270913 0 -0.065787399064027335 -0.25016351103445161 0 -0.095281085456190656 -0.26693281099448563 0 -0.070204751931304918 -0.26018338665270913 0 -0.065787399064027335 -0.25016351103445161 0 -0.085089238344277854 -0.25629026112103548 0 -0.093273054064364258 -0.24403616892205371 0 -0.095281085456190656 -0.26693281099448563 0 -0.070204751931304918 -0.26018338665270913 0 -0.085089238344277854 -0.25629026112103548 0 -0.048559996689453558 -0.26454555990995382 0 -0.038422169510052943 -0.27138466365167868 0 -0.025890212786296669 -0.25905774002927628 0 -0.050202420257713022 -0.25363785053844451 0 -0.048559996689453558 -0.26454555990995382 0 -0.025890212786296669 -0.25905774002927628 0 -0.050202420257713022 -0.25363785053844451 0 -0.025890212786296669 -0.25905774002927628 0 -0.050202420257713022 -0.25363785053844451 0 -0.025890212786296669 -0.25905774002927628 0 -0.027823716522454831 -0.2433285591665183 0 -0.050202420257713022 -0.25363785053844451 0 -0.056802179148672652 -0.26631420358693308 0 -0.05749236718652069 -0.27074420390999598 0 -0.050202420257713022 -0.25363785053844451 0 -0.048559996689453558 -0.26454555990995382 0 -0.05749236718652069 -0.27074420390999598 0 -0.050202420257713022 -0.25363785053844451 0 -0.05749236718652069 -0.27074420390999598 0 -0.065787399064027335 -0.25016351103445161 0 -0.050202420257713022 -0.25363785053844451 0 -0.065787399064027335 -0.25016351103445161 0 -0.050202420257713022 -0.25363785053844451 0 -0.060710744431653828 -0.26010570941695732 0 -0.050202420257713022 -0.25363785053844451 0 -0.060710744431653828 -0.26010570941695732 0 -0.056802179148672652 -0.26631420358693308 0 -0.060710744431653828 -0.26010570941695732 0 -0.056802179148672652 -0.26631420358693308 0 -0.06138234546277517 -0.26706748596360341 0 -0.048559996689453558 -0.26454555990995382 0 -0.051966976593025307 -0.27113115234442797 0 -0.04843229204429593 -0.27525336478185702 0 -0.048559996689453558 -0.26454555990995382 0 -0.051966976593025307 -0.27113115234442797 0 -0.05749236718652069 -0.27074420390999598 0 -0.051966976593025307 -0.27113115234442797 0 -0.05749236718652069 -0.27074420390999598 0 -0.053383250451831031 -0.27398148077590517 0 -0.051966976593025307 -0.27113115234442797 0 -0.053383250451831031 -0.27398148077590517 0 -0.04843229204429593 -0.27525336478185702 0 -0.056802179148672652 -0.26631420358693308 0 -0.05749236718652069 -0.27074420390999598 0 -0.06138234546277517 -0.26706748596360341 0 -0.056802179148672652 -0.26631420358693308 0 -0.05749236718652069 -0.27074420390999598 0 -0.065892592513854112 -0.27296764828037828 0 -0.05749236718652069 -0.27074420390999598 0 -0.06138234546277517 -0.26706748596360341 0 -0.05749236718652069 -0.27074420390999598 0 -0.055776246995652548 -0.28056277007924318 0 -0.053383250451831031 -0.27398148077590517 0 -0.055776246995652548 -0.28056277007924318 0 -0.04843229204429593 -0.27525336478185702 0 -0.049364703436670328 -0.28562851536766981 0 -0.055776246995652548 -0.28056277007924318 0 -0.053383250451831031 -0.27398148077590517 0 -0.04843229204429593 -0.27525336478185702 0 -0.04843229204429593 -0.27525336478185702 0 -0.038422169510052943 -0.27138466365167868 0 -0.040297474394153689 -0.28147826184726821 0 -0.04843229204429593 -0.27525336478185702 0 -0.040297474394153689 -0.28147826184726821 0 -0.049364703436670328 -0.28562851536766981 0 -0.048559996689453558 -0.26454555990995382 0 -0.04843229204429593 -0.27525336478185702 0 -0.038422169510052943 -0.27138466365167868 0 -0.038422169510052943 -0.27138466365167868 0 -0.040297474394153689 -0.28147826184726821 0 -0.028739249411773301 -0.27787671679793408 0 -0.032173335922224551 -0.28891017800605667 0 -0.040297474394153689 -0.28147826184726821 0 -0.028739249411773301 -0.27787671679793408 0 -0.032173335922224551 -0.28891017800605667 0 -0.042029317038191467 -0.29288546846771901 0 -0.040297474394153689 -0.28147826184726821 0 -0.032173335922224551 -0.28891017800605667 0 -0.042029317038191467 -0.29288546846771901 0 -0.031885020895779978 -0.30255529129410891 0 -0.042029317038191467 -0.29288546846771901 0 -0.040297474394153689 -0.28147826184726821 0 -0.049364703436670328 -0.28562851536766981 0 -0.067470282903433904 -0.29415805778738291 0 -0.05749236718652069 -0.27074420390999598 0 -0.05749236718652069 -0.27074420390999598 0 -0.061604359262261238 -0.29713719426195639 0 -0.067470282903433904 -0.29415805778738291 0 -0.05749236718652069 -0.27074420390999598 0 -0.061604359262261238 -0.29713719426195639 0 -0.05749236718652069 -0.27074420390999598 0 -0.055776246995652548 -0.28056277007924318 0 -0.061604359262261238 -0.29713719426195639 0 -0.055776246995652548 -0.28056277007924318 0 -0.054651181460813873 -0.28966202788837941 0 -0.061604359262261238 -0.29713719426195639 0 -0.055776246995652548 -0.28056277007924318 0 -0.049364703436670328 -0.28562851536766981 0 -0.054651181460813873 -0.28966202788837941 0 -0.054651181460813873 -0.28966202788837941 0 -0.051859416148671372 -0.29531963184464788 0 -0.061604359262261238 -0.29713719426195639 0 -0.042029317038191467 -0.29288546846771901 0 -0.049364703436670328 -0.28562851536766981 0 -0.051859416148671372 -0.29531963184464788 0 -0.049364703436670328 -0.28562851536766981 0 -0.054651181460813873 -0.28966202788837941 0 -0.051859416148671372 -0.29531963184464788 0 -0.056688407552492583 -0.31141990943455189 0 -0.04659595143164897 -0.30342093244656287 0 -0.04096113440163987 -0.31326972399959407 0 -0.051859416148671372 -0.29531963184464788 0 -0.054187033598768537 -0.30182441699692969 0 -0.04659595143164897 -0.30342093244656287 0 -0.065716351338001758 -0.3235301846139168 0 -0.061604359262261238 -0.29713719426195639 0 -0.056688407552492583 -0.31141990943455189 0 -0.054187033598768537 -0.30182441699692969 0 -0.061604359262261238 -0.29713719426195639 0 -0.056688407552492583 -0.31141990943455189 0 -0.051859416148671372 -0.29531963184464788 0 -0.054187033598768537 -0.30182441699692969 0 -0.061604359262261238 -0.29713719426195639 0 -0.054187033598768537 -0.30182441699692969 0 -0.056688407552492583 -0.31141990943455189 0 -0.04659595143164897 -0.30342093244656287 0 -0.031885020895779978 -0.30255529129410891 0 -0.04096113440163987 -0.31326972399959407 0 -0.022739171770304961 -0.32069076312379879 0 -0.04659595143164897 -0.30342093244656287 0 -0.031885020895779978 -0.30255529129410891 0 -0.04096113440163987 -0.31326972399959407 0 -0.042029317038191467 -0.29288546846771901 0 -0.04659595143164897 -0.30342093244656287 0 -0.031885020895779978 -0.30255529129410891 0 -0.042029317038191467 -0.29288546846771901 0 -0.051859416148671372 -0.29531963184464788 0 -0.04659595143164897 -0.30342093244656287 0 -0.031885020895779978 -0.30255529129410891 0 -0.01403903550104957 -0.30485353140775451 0 -0.021005967660204478 -0.29093880930233262 0 -0.031885020895779978 -0.30255529129410891 0 -0.01403903550104957 -0.30485353140775451 0 -0.022739171770304961 -0.32069076312379879 0 -0.01403903550104957 -0.30485353140775451 0 -0.0023678010226833111 -0.30101747639334192 0 0.0014187768173629411 -0.31311980254864968 0 -0.01403903550104957 -0.30485353140775451 0 -0.0023678010226833111 -0.30101747639334192 0 -0.0072874811663168997 -0.28983154552684243 0 -0.0023678010226833111 -0.30101747639334192 0 -0.0072874811663168997 -0.28983154552684243 0 0.0094511851052114827 -0.2964222574631043 0 -0.01403903550104957 -0.30485353140775451 0 -0.0072874811663168997 -0.28983154552684243 0 -0.021005967660204478 -0.29093880930233262 0 -0.0072874811663168997 -0.28983154552684243 0 -0.01464633619770747 -0.2754906479509921 0 0.0061836277560249533 -0.28030274058131471 0 -0.0072874811663168997 -0.28983154552684243 0 -0.021005967660204478 -0.29093880930233262 0 -0.01464633619770747 -0.2754906479509921 0 -0.021005967660204478 -0.29093880930233262 0 -0.028739249411773301 -0.27787671679793408 0 -0.01464633619770747 -0.2754906479509921 0 -0.032173335922224551 -0.28891017800605667 0 -0.031885020895779978 -0.30255529129410891 0 -0.021005967660204478 -0.29093880930233262 0 -0.032173335922224551 -0.28891017800605667 0 -0.021005967660204478 -0.29093880930233262 0 -0.028739249411773301 -0.27787671679793408 0 -0.028739249411773301 -0.27787671679793408 0 -0.01464633619770747 -0.2754906479509921 0 -0.025890212786296669 -0.25905774002927628 0 -0.038422169510052943 -0.27138466365167868 0 -0.028739249411773301 -0.27787671679793408 0 -0.025890212786296669 -0.25905774002927628 0 -0.01464633619770747 -0.2754906479509921 0 -0.0015780053148804799 -0.26447762952010873 0 0.0061836277560249533 -0.28030274058131471 0 -0.01464633619770747 -0.2754906479509921 0 -0.0015780053148804799 -0.26447762952010873 0 -0.025890212786296669 -0.25905774002927628 0 -0.0015780053148804799 -0.26447762952010873 0 -0.025890212786296669 -0.25905774002927628 0 -0.0092522057687085338 -0.2496290082780255 0 -0.0015780053148804799 -0.26447762952010873 0 -0.0092522057687085338 -0.2496290082780255 0 0.0071600346355602182 -0.24437074822792321 0 -0.0015780053148804799 -0.26447762952010873 0 -0.025890212786296669 -0.25905774002927628 0 -0.025890212786296669 -0.25905774002927628 0 -0.027823716522454831 -0.2433285591665183 0 -0.0092522057687085338 -0.2496290082780255 0 -0.035847169045993839 -0.35951142995016699 0 -0.048921316651449311 -0.34817451185408588 0 -0.029197258083195819 -0.34067192020816051 0 -0.035847169045993839 -0.35951142995016699 0 -0.052398662179926302 -0.37264140844437948 0 -0.026139432335929989 -0.37922039388346768 0 -0.035847169045993839 -0.35951142995016699 0 -0.052398662179926302 -0.37264140844437948 0 -0.048921316651449311 -0.34817451185408588 0 -0.069828343413742264 -0.34992317496587722 0 -0.052398662179926302 -0.37264140844437948 0 -0.048921316651449311 -0.34817451185408588 0 -0.069828343413742264 -0.34992317496587722 0 -0.048921316651449311 -0.34817451185408588 0 -0.059359346827864853 -0.3380374138569836 0 -0.065716351338001758 -0.3235301846139168 0 -0.046897120357972853 -0.32826172369894802 0 -0.059359346827864853 -0.3380374138569836 0 -0.048921316651449311 -0.34817451185408588 0 -0.046897120357972853 -0.32826172369894802 0 -0.059359346827864853 -0.3380374138569836 0 -0.056688407552492583 -0.31141990943455189 0 -0.046897120357972853 -0.32826172369894802 0 -0.04096113440163987 -0.31326972399959407 0 -0.065716351338001758 -0.3235301846139168 0 -0.056688407552492583 -0.31141990943455189 0 -0.046897120357972853 -0.32826172369894802 0 -0.046897120357972853 -0.32826172369894802 0 -0.022739171770304961 -0.32069076312379879 0 -0.046897120357972853 -0.32826172369894802 0 -0.04096113440163987 -0.31326972399959407 0 -0.022739171770304961 -0.32069076312379879 0 -0.046897120357972853 -0.32826172369894802 0 -0.029197258083195819 -0.34067192020816051 0 -0.022739171770304961 -0.32069076312379879 0 -0.048921316651449311 -0.34817451185408588 0 -0.046897120357972853 -0.32826172369894802 0 -0.029197258083195819 -0.34067192020816051 0 -0.029197258083195819 -0.34067192020816051 0 -0.022739171770304961 -0.32069076312379879 0 -0.0017702694144507011 -0.33304088001850451 0 -0.022739171770304961 -0.32069076312379879 0 -0.0017702694144507011 -0.33304088001850451 0 0.0014187768173629411 -0.31311980254864968 0 -0.022739171770304961 -0.32069076312379879 0 0.0014187768173629411 -0.31311980254864968 0 -0.01403903550104957 -0.30485353140775451 0 -0.022739171770304961 -0.32069076312379879 0 0.0014187768173629411 -0.31311980254864968 0 -0.029197258083195819 -0.34067192020816051 0 -0.0017702694144507011 -0.33304088001850451 0 -0.0096362303974187047 -0.35174054195069848 0 -0.0096362303974187047 -0.35174054195069848 0 -0.026139432335929989 -0.37922039388346768 0 0.0058521116818773073 -0.38091771838259703 0 -0.035847169045993839 -0.35951142995016699 0 -0.029197258083195819 -0.34067192020816051 0 -0.0096362303974187047 -0.35174054195069848 0 -0.035847169045993839 -0.35951142995016699 0 -0.0096362303974187047 -0.35174054195069848 0 -0.026139432335929989 -0.37922039388346768 0 -0.01410324192039995 -0.4006017929723687 0 -0.026139432335929989 -0.37922039388346768 0 0.0058521116818773073 -0.38091771838259703 0 -0.01410324192039995 -0.4006017929723687 0 -0.029568003237728822 -0.39657170465255781 0 -0.026139432335929989 -0.37922039388346768 0 -0.01410324192039995 -0.4006017929723687 0 -0.029568003237728822 -0.39657170465255781 0 -0.031342478986799482 -0.41294033080601478 0 -0.052398662179926302 -0.37264140844437948 0 -0.026139432335929989 -0.37922039388346768 0 -0.045539870784702237 -0.39468049165345381 0 -0.029568003237728822 -0.39657170465255781 0 -0.026139432335929989 -0.37922039388346768 0 -0.045539870784702237 -0.39468049165345381 0 -0.029568003237728822 -0.39657170465255781 0 -0.045539870784702237 -0.39468049165345381 0 -0.031342478986799482 -0.41294033080601478 0 -0.045539870784702237 -0.39468049165345381 0 -0.060996110024912079 -0.39596668345221941 0 -0.049686320441985822 -0.41180731156473699 0 -0.052398662179926302 -0.37264140844437948 0 -0.060996110024912079 -0.39596668345221941 0 -0.073940335489482756 -0.3763161653178374 0 -0.052398662179926302 -0.37264140844437948 0 -0.045539870784702237 -0.39468049165345381 0 -0.060996110024912079 -0.39596668345221941 0 -0.053786987586490503 -0.42568695313845217 0 -0.045739464962756243 -0.43770501593452182 0 -0.062492586549052168 -0.4386633017474047 0 -0.053786987586490503 -0.42568695313845217 0 -0.04215879026870329 -0.42491567413189019 0 -0.045739464962756243 -0.43770501593452182 0 -0.053786987586490503 -0.42568695313845217 0 -0.062492586549052168 -0.4386633017474047 0 -0.053786987586490503 -0.42568695313845217 0 -0.062492586549052168 -0.4386633017474047 0 -0.069405197690821943 -0.42809395176536441 0 -0.053786987586490503 -0.42568695313845217 0 -0.049686320441985822 -0.41180731156473699 0 -0.066095963412869524 -0.4162323871164893 0 -0.060996110024912079 -0.39596668345221941 0 -0.049686320441985822 -0.41180731156473699 0 -0.066095963412869524 -0.4162323871164893 0 -0.053786987586490503 -0.42568695313845217 0 -0.049686320441985822 -0.41180731156473699 0 -0.04215879026870329 -0.42491567413189019 0 -0.045539870784702237 -0.39468049165345381 0 -0.049686320441985822 -0.41180731156473699 0 -0.031342478986799482 -0.41294033080601478 0 -0.049686320441985822 -0.41180731156473699 0 -0.031342478986799482 -0.41294033080601478 0 -0.04215879026870329 -0.42491567413189019 0 -0.031342478986799482 -0.41294033080601478 0 -0.04215879026870329 -0.42491567413189019 0 -0.030238699365484428 -0.43643875921572522 0 -0.04215879026870329 -0.42491567413189019 0 -0.030238699365484428 -0.43643875921572522 0 -0.045739464962756243 -0.43770501593452182 0 -0.031342478986799482 -0.41294033080601478 0 -0.030238699365484428 -0.43643875921572522 0 -0.010567141488510019 -0.42547896032122628 0 -0.01410324192039995 -0.4006017929723687 0 -0.031342478986799482 -0.41294033080601478 0 -0.010567141488510019 -0.42547896032122628 0 -0.01410324192039995 -0.4006017929723687 0 -0.010567141488510019 -0.42547896032122628 0 0.0091068225207085914 -0.41068960460455362 0 -0.010567141488510019 -0.42547896032122628 0 -0.012101190051668761 -0.45321467597367621 0 0.0035629439345276422 -0.44506126091951909 0 -0.012101190051668761 -0.45321467597367621 0 -0.0069617622844289177 -0.47660733798683769 0 -0.012101190051668761 -0.45321467597367621 0 0.0035629439345276422 -0.44506126091951909 0 0.0084015630449614329 -0.46570557133314849 0 -0.012101190051668761 -0.45321467597367621 0 -0.027074453799496089 -0.46806862779342062 0 -0.0069617622844289177 -0.47660733798683769 0 -0.012101190051668761 -0.45321467597367621 0 -0.0069617622844289177 -0.47660733798683769 0 0.0084015630449614329 -0.46570557133314849 0 -0.012101190051668761 -0.45321467597367621 0 -0.027074453799496089 -0.46806862779342062 0 -0.030287995293363731 -0.4531635379918173 0 -0.030238699365484428 -0.43643875921572522 0 -0.010567141488510019 -0.42547896032122628 0 -0.012101190051668761 -0.45321467597367621 0 -0.030238699365484428 -0.43643875921572522 0 -0.012101190051668761 -0.45321467597367621 0 -0.030287995293363731 -0.4531635379918173 0 -0.0018223345171891701 -0.49999999999999939 0 -0.0069617622844289177 -0.47660733798683769 0 -0.023841895134402321 -0.48595631252796662 0 -0.0018223345171891701 -0.49999999999999939 0 -0.0069617622844289177 -0.47660733798683769 0 -0.027074453799496089 -0.46806862779342062 0 -0.0069617622844289177 -0.47660733798683769 0 -0.023841895134402321 -0.48595631252796662 0 -0.027074453799496089 -0.46806862779342062 0 -0.023841895134402321 -0.48595631252796662 0 -0.038209138664931967 -0.4801400240336724 0 -0.0018223345171891701 -0.49999999999999939 0 -0.023841895134402321 -0.48595631252796662 0 -0.030124479655788849 -0.5 0 -0.023841895134402321 -0.48595631252796662 0 -0.030124479655788849 -0.5 0 -0.038859201884578982 -0.49092188535386921 0 -0.030124479655788849 -0.5 0 -0.038859201884578982 -0.49092188535386921 0 -0.047450984089942187 -0.5 0 -0.038859201884578982 -0.49092188535386921 0 -0.050379141747768828 -0.48742124802822628 0 -0.047450984089942187 -0.5 0 -0.023841895134402321 -0.48595631252796662 0 -0.038859201884578982 -0.49092188535386921 0 -0.038209138664931967 -0.4801400240336724 0 -0.038859201884578982 -0.49092188535386921 0 -0.038209138664931967 -0.4801400240336724 0 -0.050379141747768828 -0.48742124802822628 0 -0.038209138664931967 -0.4801400240336724 0 -0.04958349682056562 -0.47540122520989703 0 -0.050379141747768828 -0.48742124802822628 0 -0.027074453799496089 -0.46806862779342062 0 -0.038209138664931967 -0.4801400240336724 0 -0.040945428764372613 -0.46956758872425669 0 -0.038209138664931967 -0.4801400240336724 0 -0.040945428764372613 -0.46956758872425669 0 -0.04958349682056562 -0.47540122520989703 0 -0.04958349682056562 -0.47540122520989703 0 -0.059041146127592092 -0.47096738254636372 0 -0.0518041031371132 -0.46311317750124509 0 -0.040945428764372613 -0.46956758872425669 0 -0.04958349682056562 -0.47540122520989703 0 -0.0518041031371132 -0.46311317750124509 0 -0.04958349682056562 -0.47540122520989703 0 -0.059041146127592092 -0.47096738254636372 0 -0.058436967619809557 -0.48014755588072938 0 -0.059041146127592092 -0.47096738254636372 0 -0.058436967619809557 -0.48014755588072938 0 -0.068253876850881662 -0.47650101887474478 0 -0.058436967619809557 -0.48014755588072938 0 -0.058872991125632032 -0.48698527250210488 0 -0.065195852602494414 -0.48338615245422151 0 -0.04958349682056562 -0.47540122520989703 0 -0.058436967619809557 -0.48014755588072938 0 -0.050379141747768828 -0.48742124802822628 0 -0.047450984089942187 -0.5 0 -0.076718136374886045 -0.49671678885133258 0 -0.059870303362171223 -0.49200551102138163 0 -0.047450984089942187 -0.5 0 -0.076718136374886045 -0.49671678885133258 0 -0.058426624794388538 -0.5 0 -0.047450984089942187 -0.5 0 -0.076718136374886045 -0.49671678885133258 0 -0.058436967619809557 -0.48014755588072938 0 -0.050379141747768828 -0.48742124802822628 0 -0.058872991125632032 -0.48698527250210488 0 -0.050379141747768828 -0.48742124802822628 0 -0.058872991125632032 -0.48698527250210488 0 -0.059870303362171223 -0.49200551102138163 0 -0.058872991125632032 -0.48698527250210488 0 -0.059870303362171223 -0.49200551102138163 0 -0.065930263472626968 -0.48902684257697637 0 -0.050379141747768828 -0.48742124802822628 0 -0.059870303362171223 -0.49200551102138163 0 -0.047450984089942187 -0.5 0 -0.030238699365484428 -0.43643875921572522 0 -0.030287995293363731 -0.4531635379918173 0 -0.041224426374571903 -0.44845416203912281 0 -0.041224426374571903 -0.44845416203912281 0 -0.045739464962756243 -0.43770501593452182 0 -0.050220725808666017 -0.45033734084647198 0 -0.041224426374571903 -0.44845416203912281 0 -0.040132366811470317 -0.45926406553754062 0 -0.050220725808666017 -0.45033734084647198 0 -0.030238699365484428 -0.43643875921572522 0 -0.041224426374571903 -0.44845416203912281 0 -0.045739464962756243 -0.43770501593452182 0 -0.027074453799496089 -0.46806862779342062 0 -0.030287995293363731 -0.4531635379918173 0 -0.040132366811470317 -0.45926406553754062 0 -0.030287995293363731 -0.4531635379918173 0 -0.041224426374571903 -0.44845416203912281 0 -0.040132366811470317 -0.45926406553754062 0 -0.027074453799496089 -0.46806862779342062 0 -0.040945428764372613 -0.46956758872425669 0 -0.040132366811470317 -0.45926406553754062 0 -0.040945428764372613 -0.46956758872425669 0 -0.040132366811470317 -0.45926406553754062 0 -0.0518041031371132 -0.46311317750124509 0 -0.040132366811470317 -0.45926406553754062 0 -0.0518041031371132 -0.46311317750124509 0 -0.050220725808666017 -0.45033734084647198 0 -0.0518041031371132 -0.46311317750124509 0 -0.060570194923074222 -0.4536221015763538 0 -0.050220725808666017 -0.45033734084647198 0 -0.059041146127592092 -0.47096738254636372 0 -0.060815952436817637 -0.4623728940937934 0 -0.067092082281814208 -0.46766062896291399 0 -0.059041146127592092 -0.47096738254636372 0 -0.0518041031371132 -0.46311317750124509 0 -0.060815952436817637 -0.4623728940937934 0 -0.0518041031371132 -0.46311317750124509 0 -0.060815952436817637 -0.4623728940937934 0 -0.060570194923074222 -0.4536221015763538 0 -0.045739464962756243 -0.43770501593452182 0 -0.050220725808666017 -0.45033734084647198 0 -0.062492586549052168 -0.4386633017474047 0 -0.060570194923074222 -0.4536221015763538 0 -0.050220725808666017 -0.45033734084647198 0 -0.062492586549052168 -0.4386633017474047 0 -0.062492586549052168 -0.4386633017474047 0 -0.071198185511613804 -0.45163965035635728 0 -0.075417582895941832 -0.43644469187437479 0 -0.062492586549052168 -0.4386633017474047 0 -0.071198185511613804 -0.45163965035635728 0 -0.060570194923074222 -0.4536221015763538 0 -0.062492586549052168 -0.4386633017474047 0 -0.071198185511613804 -0.45163965035635728 0 -0.071198185511613804 -0.45163965035635728 0 -0.084554485627653928 -0.47154821806971892 0 -0.066889616095182486 -0.45560624491285051 0 -0.067092082281814208 -0.46766062896291399 0 -0.084554485627653928 -0.47154821806971892 0 -0.071198185511613804 -0.45163965035635728 0 -0.066889616095182486 -0.45560624491285051 0 -0.084554485627653928 -0.47154821806971892 0 -0.060815952436817637 -0.4623728940937934 0 -0.060570194923074222 -0.4536221015763538 0 -0.066889616095182486 -0.45560624491285051 0 -0.060570194923074222 -0.4536221015763538 0 -0.071198185511613804 -0.45163965035635728 0 -0.066889616095182486 -0.45560624491285051 0 -0.071198185511613804 -0.45163965035635728 0 -0.066889616095182486 -0.45560624491285051 0 -0.060815952436817637 -0.4623728940937934 0 -0.066889616095182486 -0.45560624491285051 0 -0.067092082281814208 -0.46766062896291399 0 -0.08290899860038628 -0.45446901305838722 0 -0.09273699488266729 -0.45377226775534618 0 -0.084554485627653928 -0.47154821806971892 0 -0.071198185511613804 -0.45163965035635728 0 -0.08290899860038628 -0.45446901305838722 0 -0.084554485627653928 -0.47154821806971892 0 -0.09273699488266729 -0.45377226775534618 0 -0.084554485627653928 -0.47154821806971892 0 -0.10113578979887029 -0.46234094130604991 0 -0.071198185511613804 -0.45163965035635728 0 -0.075417582895941832 -0.43644469187437479 0 -0.090561446218615338 -0.4338132683040119 0 -0.071198185511613804 -0.45163965035635728 0 -0.090561446218615338 -0.4338132683040119 0 -0.071198185511613804 -0.45163965035635728 0 -0.086347622129743451 -0.44574799563132322 0 -0.090561446218615338 -0.4338132683040119 0 -0.09273699488266729 -0.45377226775534618 0 -0.086347622129743451 -0.44574799563132322 0 -0.096168129480151257 -0.44264236678728069 0 -0.08290899860038628 -0.45446901305838722 0 -0.09273699488266729 -0.45377226775534618 0 -0.086347622129743451 -0.44574799563132322 0 -0.086347622129743451 -0.44574799563132322 0 -0.096168129480151257 -0.44264236678728069 0 -0.090561446218615338 -0.4338132683040119 0 -0.071198185511613804 -0.45163965035635728 0 -0.08290899860038628 -0.45446901305838722 0 -0.086347622129743451 -0.44574799563132322 0 -0.059870303362171223 -0.49200551102138163 0 -0.076718136374886045 -0.49671678885133258 0 -0.065930263472626968 -0.48902684257697637 0 -0.058426624794388538 -0.5 0 -0.076718136374886045 -0.49671678885133258 0 -0.086728769932988226 -0.5 0 -0.065930263472626968 -0.48902684257697637 0 -0.074485163943521837 -0.48427007243655201 0 -0.065195852602494414 -0.48338615245422151 0 -0.058872991125632032 -0.48698527250210488 0 -0.065930263472626968 -0.48902684257697637 0 -0.065195852602494414 -0.48338615245422151 0 -0.076718136374886045 -0.49671678885133258 0 -0.065930263472626968 -0.48902684257697637 0 -0.074485163943521837 -0.48427007243655201 0 -0.074485163943521837 -0.48427007243655201 0 -0.068253876850881662 -0.47650101887474478 0 -0.084554485627653928 -0.47154821806971892 0 -0.067092082281814208 -0.46766062896291399 0 -0.068253876850881662 -0.47650101887474478 0 -0.084554485627653928 -0.47154821806971892 0 -0.074485163943521837 -0.48427007243655201 0 -0.065195852602494414 -0.48338615245422151 0 -0.068253876850881662 -0.47650101887474478 0 -0.058436967619809557 -0.48014755588072938 0 -0.065195852602494414 -0.48338615245422151 0 -0.068253876850881662 -0.47650101887474478 0 -0.059041146127592092 -0.47096738254636372 0 -0.067092082281814208 -0.46766062896291399 0 -0.068253876850881662 -0.47650101887474478 0 -0.084554485627653928 -0.47154821806971892 0 -0.097910785743694023 -0.4914567857830805 0 -0.084554485627653928 -0.47154821806971892 0 -0.084065502259276365 -0.48643491926283161 0 -0.097910785743694023 -0.4914567857830805 0 -0.074485163943521837 -0.48427007243655201 0 -0.084554485627653928 -0.47154821806971892 0 -0.084065502259276365 -0.48643491926283161 0 -0.076718136374886045 -0.49671678885133258 0 -0.1059852886598298 -0.4935561745543976 0 -0.076718136374886045 -0.49671678885133258 0 -0.1059852886598298 -0.4935561745543976 0 -0.097910785743694023 -0.4914567857830805 0 -0.076718136374886045 -0.49671678885133258 0 -0.084065502259276365 -0.48643491926283161 0 -0.097910785743694023 -0.4914567857830805 0 -0.076718136374886045 -0.49671678885133258 0 -0.086728769932988226 -0.5 0 -0.1059852886598298 -0.4935561745543976 0 -0.076718136374886045 -0.49671678885133258 0 -0.074485163943521837 -0.48427007243655201 0 -0.084065502259276365 -0.48643491926283161 0 -0.086728769932988226 -0.5 0 -0.1059852886598298 -0.4935561745543976 0 -0.1150309150715879 -0.5 0 -0.1059852886598298 -0.4935561745543976 0 -0.097910785743694023 -0.4914567857830805 0 -0.10381575625208481 -0.4853230069957804 0 -0.1059852886598298 -0.4935561745543976 0 -0.10381575625208481 -0.4853230069957804 0 -0.1109471577859806 -0.48314588192539532 0 -0.084554485627653928 -0.47154821806971892 0 -0.097910785743694023 -0.4914567857830805 0 -0.10381575625208481 -0.4853230069957804 0 -0.084554485627653928 -0.47154821806971892 0 -0.10381575625208481 -0.4853230069957804 0 -0.10563915129080061 -0.47422181774341748 0 -0.084554485627653928 -0.47154821806971892 0 -0.10563915129080061 -0.47422181774341748 0 -0.10113578979887029 -0.46234094130604991 0 -0.10381575625208481 -0.4853230069957804 0 -0.10563915129080061 -0.47422181774341748 0 -0.1109471577859806 -0.48314588192539532 0 -0.13307938006694139 -0.4712703239386119 0 -0.1193696636052141 -0.47712421428575708 0 -0.1159763293319514 -0.46280717690116269 0 -0.10563915129080061 -0.47422181774341748 0 -0.1193696636052141 -0.47712421428575708 0 -0.1159763293319514 -0.46280717690116269 0 -0.1300406290563427 -0.48092086363538961 0 -0.1193696636052141 -0.47712421428575708 0 -0.1199259291219735 -0.48550419604762379 0 -0.1193696636052141 -0.47712421428575708 0 -0.1109471577859806 -0.48314588192539532 0 -0.1199259291219735 -0.48550419604762379 0 -0.10563915129080061 -0.47422181774341748 0 -0.1193696636052141 -0.47712421428575708 0 -0.1109471577859806 -0.48314588192539532 0 -0.13525244094477359 -0.49039556025746273 0 -0.1059852886598298 -0.4935561745543976 0 -0.13525244094477359 -0.49039556025746273 0 -0.1059852886598298 -0.4935561745543976 0 -0.1150309150715879 -0.5 0 -0.13525244094477359 -0.49039556025746273 0 -0.1059852886598298 -0.4935561745543976 0 -0.1199259291219735 -0.48550419604762379 0 -0.1059852886598298 -0.4935561745543976 0 -0.1109471577859806 -0.48314588192539532 0 -0.1199259291219735 -0.48550419604762379 0 -0.1070962512009155 -0.44782717037724129 0 -0.1158674077649441 -0.43220560697375793 0 -0.1040157506942565 -0.43433940105236601 0 -0.1070962512009155 -0.44782717037724129 0 -0.096168129480151257 -0.44264236678728069 0 -0.1040157506942565 -0.43433940105236601 0 -0.09273699488266729 -0.45377226775534618 0 -0.1070962512009155 -0.44782717037724129 0 -0.096168129480151257 -0.44264236678728069 0 -0.09273699488266729 -0.45377226775534618 0 -0.1070962512009155 -0.44782717037724129 0 -0.10113578979887029 -0.46234094130604991 0 -0.10563915129080061 -0.47422181774341748 0 -0.10113578979887029 -0.46234094130604991 0 -0.1159763293319514 -0.46280717690116269 0 -0.1070962512009155 -0.44782717037724129 0 -0.10113578979887029 -0.46234094130604991 0 -0.1159763293319514 -0.46280717690116269 0 -0.13338366994242351 -0.4587204609827244 0 -0.1159763293319514 -0.46280717690116269 0 -0.1223948712200001 -0.44528036425593093 0 -0.1070962512009155 -0.44782717037724129 0 -0.1159763293319514 -0.46280717690116269 0 -0.1223948712200001 -0.44528036425593093 0 -0.1070962512009155 -0.44782717037724129 0 -0.1223948712200001 -0.44528036425593093 0 -0.1158674077649441 -0.43220560697375793 0 -0.13094817586350499 -0.4270094938573904 0 -0.1223948712200001 -0.44528036425593093 0 -0.1158674077649441 -0.43220560697375793 0 -0.1158674077649441 -0.43220560697375793 0 -0.1040157506942565 -0.43433940105236601 0 -0.1099247069256164 -0.41598688625166608 0 -0.1158674077649441 -0.43220560697375793 0 -0.1099247069256164 -0.41598688625166608 0 -0.1193302138357875 -0.42124853150686092 0 -0.13094817586350499 -0.4270094938573904 0 -0.1158674077649441 -0.43220560697375793 0 -0.1193302138357875 -0.42124853150686092 0 -0.1040157506942565 -0.43433940105236601 0 -0.1099247069256164 -0.41598688625166608 0 -0.090561446218615338 -0.4338132683040119 0 -0.09385097778175841 -0.42111213042174839 0 -0.1099247069256164 -0.41598688625166608 0 -0.090561446218615338 -0.4338132683040119 0 -0.1099247069256164 -0.41598688625166608 0 -0.090561446218615338 -0.4338132683040119 0 -0.1040157506942565 -0.43433940105236601 0 -0.1099247069256164 -0.41598688625166608 0 -0.096168129480151257 -0.44264236678728069 0 -0.1040157506942565 -0.43433940105236601 0 -0.090561446218615338 -0.4338132683040119 0 -0.096970035958555009 -0.41409778151129878 0 -0.09385097778175841 -0.42111213042174839 0 -0.1099247069256164 -0.41598688625166608 0 -0.10056653632318779 -0.40635311360890558 0 -0.1099247069256164 -0.41598688625166608 0 -0.11537233323165599 -0.39906720729386969 0 -0.10056653632318779 -0.40635311360890558 0 -0.096970035958555009 -0.41409778151129878 0 -0.089634380165042077 -0.41256057002000768 0 -0.10056653632318779 -0.40635311360890558 0 -0.096970035958555009 -0.41409778151129878 0 -0.1099247069256164 -0.41598688625166608 0 -0.13094817586350499 -0.4270094938573904 0 -0.1193302138357875 -0.42124853150686092 0 -0.11995786610175831 -0.40914972455250781 0 -0.13094817586350499 -0.4270094938573904 0 -0.11995786610175831 -0.40914972455250781 0 -0.1196267513718729 -0.40705490141683559 0 -0.1099247069256164 -0.41598688625166608 0 -0.1196267513718729 -0.40705490141683559 0 -0.1099247069256164 -0.41598688625166608 0 -0.11537233323165599 -0.39906720729386969 0 -0.1099247069256164 -0.41598688625166608 0 -0.11995786610175831 -0.40914972455250781 0 -0.1196267513718729 -0.40705490141683559 0 -0.1099247069256164 -0.41598688625166608 0 -0.1196267513718729 -0.40705490141683559 0 -0.11537233323165599 -0.39906720729386969 0 -0.1099247069256164 -0.41598688625166608 0 -0.1193302138357875 -0.42124853150686092 0 -0.11995786610175831 -0.40914972455250781 0 -0.11995786610175831 -0.40914972455250781 0 -0.1196267513718729 -0.40705490141683559 0 -0.13737206822152959 -0.39071804562645263 0 -0.1196267513718729 -0.40705490141683559 0 -0.11737904366768 -0.39283460350804611 0 -0.1196267513718729 -0.40705490141683559 0 -0.11537233323165599 -0.39906720729386969 0 -0.1196267513718729 -0.40705490141683559 0 -0.11737904366768 -0.39283460350804611 0 -0.11537233323165599 -0.39906720729386969 0 -0.1196267513718729 -0.40705490141683559 0 -0.11737904366768 -0.39283460350804611 0 -0.11737904366768 -0.39283460350804611 0 -0.11537233323165599 -0.39906720729386969 0 -0.10895646833709451 -0.38755746495285748 0 -0.11537233323165599 -0.39906720729386969 0 -0.10895646833709451 -0.38755746495285748 0 -0.1037956222323069 -0.39767171858287459 0 -0.11537233323165599 -0.39906720729386969 0 -0.10895646833709451 -0.38755746495285748 0 -0.11737904366768 -0.39283460350804611 0 -0.11537233323165599 -0.39906720729386969 0 -0.1212262449702025 -0.38088565413672348 0 -0.1159443258153485 -0.38375774923682437 0 -0.11737904366768 -0.39283460350804611 0 -0.1212262449702025 -0.38088565413672348 0 -0.1159443258153485 -0.38375774923682437 0 -0.11737904366768 -0.39283460350804611 0 -0.1212262449702025 -0.38088565413672348 0 -0.11737904366768 -0.39283460350804611 0 -0.1159443258153485 -0.38375774923682437 0 -0.10895646833709451 -0.38755746495285748 0 -0.11737904366768 -0.39283460350804611 0 -0.1159443258153485 -0.38375774923682437 0 -0.1159443258153485 -0.38375774923682437 0 -0.10895646833709451 -0.38755746495285748 0 -0.1091711321070202 -0.37313504540493958 0 -0.1159443258153485 -0.38375774923682437 0 -0.10895646833709451 -0.38755746495285748 0 -0.097538504935182319 -0.36707420681466479 0 -0.10895646833709451 -0.38755746495285748 0 -0.098397578081671697 -0.37533673842527637 0 -0.1048079358530266 -0.37324496299284637 0 -0.097538504935182319 -0.36707420681466479 0 -0.10895646833709451 -0.38755746495285748 0 -0.097538504935182319 -0.36707420681466479 0 -0.10895646833709451 -0.38755746495285748 0 -0.10895646833709451 -0.38755746495285748 0 -0.099941572950748847 -0.38418117417857101 0 -0.090287151037290084 -0.39770908847586611 0 -0.10895646833709451 -0.38755746495285748 0 -0.099941572950748847 -0.38418117417857101 0 -0.098397578081671697 -0.37533673842527637 0 -0.1091711321070202 -0.37313504540493958 0 -0.1048079358530266 -0.37324496299284637 0 -0.10895646833709451 -0.38755746495285748 0 -0.099941572950748847 -0.38418117417857101 0 -0.090287151037290084 -0.39770908847586611 0 -0.092921294041215477 -0.38217892245521817 0 -0.090675144586911227 -0.37387850245525273 0 -0.098397578081671697 -0.37533673842527637 0 -0.092921294041215477 -0.38217892245521817 0 -0.099941572950748847 -0.38418117417857101 0 -0.098397578081671697 -0.37533673842527637 0 -0.092921294041215477 -0.38217892245521817 0 -0.10895646833709451 -0.38755746495285748 0 -0.090287151037290084 -0.39770908847586611 0 -0.10895646833709451 -0.38755746495285748 0 -0.1037956222323069 -0.39767171858287459 0 -0.090287151037290084 -0.39770908847586611 0 -0.10056653632318779 -0.40635311360890558 0 -0.11537233323165599 -0.39906720729386969 0 -0.1037956222323069 -0.39767171858287459 0 -0.10056653632318779 -0.40635311360890558 0 -0.1037956222323069 -0.39767171858287459 0 -0.090287151037290084 -0.39770908847586611 0 -0.090287151037290084 -0.39770908847586611 0 -0.084925632632925657 -0.38320371309299672 0 -0.078052327565223262 -0.4027091556697977 0 -0.090287151037290084 -0.39770908847586611 0 -0.078052327565223262 -0.4027091556697977 0 -0.089634380165042077 -0.41256057002000768 0 -0.10056653632318779 -0.40635311360890558 0 -0.090287151037290084 -0.39770908847586611 0 -0.089634380165042077 -0.41256057002000768 0 -0.083677543077431193 -0.36643044418400839 0 -0.084925632632925657 -0.38320371309299672 0 -0.073940335489482756 -0.3763161653178374 0 -0.084925632632925657 -0.38320371309299672 0 -0.073940335489482756 -0.3763161653178374 0 -0.078052327565223262 -0.4027091556697977 0 -0.090675144586911227 -0.37387850245525273 0 -0.092921294041215477 -0.38217892245521817 0 -0.084925632632925657 -0.38320371309299672 0 -0.090287151037290084 -0.39770908847586611 0 -0.092921294041215477 -0.38217892245521817 0 -0.084925632632925657 -0.38320371309299672 0 -0.073940335489482756 -0.3763161653178374 0 -0.078052327565223262 -0.4027091556697977 0 -0.060996110024912079 -0.39596668345221941 0 -0.073940335489482756 -0.3763161653178374 0 -0.078052327565223262 -0.4027091556697977 0 -0.060996110024912079 -0.39596668345221941 0 -0.078052327565223262 -0.4027091556697977 0 -0.066095963412869524 -0.4162323871164893 0 -0.078052327565223262 -0.4027091556697977 0 -0.073929452077469621 -0.4190344101433523 0 -0.066095963412869524 -0.4162323871164893 0 -0.078052327565223262 -0.4027091556697977 0 -0.073929452077469621 -0.4190344101433523 0 -0.082164319640963754 -0.429102146021758 0 -0.073929452077469621 -0.4190344101433523 0 -0.066095963412869524 -0.4162323871164893 0 -0.069405197690821943 -0.42809395176536441 0 -0.053786987586490503 -0.42568695313845217 0 -0.066095963412869524 -0.4162323871164893 0 -0.069405197690821943 -0.42809395176536441 0 -0.062492586549052168 -0.4386633017474047 0 -0.069405197690821943 -0.42809395176536441 0 -0.075417582895941832 -0.43644469187437479 0 -0.069405197690821943 -0.42809395176536441 0 -0.075417582895941832 -0.43644469187437479 0 -0.082164319640963754 -0.429102146021758 0 -0.073929452077469621 -0.4190344101433523 0 -0.069405197690821943 -0.42809395176536441 0 -0.082164319640963754 -0.429102146021758 0 -0.075417582895941832 -0.43644469187437479 0 -0.082164319640963754 -0.429102146021758 0 -0.090561446218615338 -0.4338132683040119 0 -0.09385097778175841 -0.42111213042174839 0 -0.082164319640963754 -0.429102146021758 0 -0.090561446218615338 -0.4338132683040119 0 -0.09385097778175841 -0.42111213042174839 0 -0.082164319640963754 -0.429102146021758 0 -0.089634380165042077 -0.41256057002000768 0 -0.078052327565223262 -0.4027091556697977 0 -0.082164319640963754 -0.429102146021758 0 -0.096970035958555009 -0.41409778151129878 0 -0.09385097778175841 -0.42111213042174839 0 -0.089634380165042077 -0.41256057002000768 0 -0.078052327565223262 -0.4027091556697977 0 -0.082164319640963754 -0.429102146021758 0 -0.089634380165042077 -0.41256057002000768 0 -0.084319266885840266 -0.081517322268859618 0 -0.068467501378563694 -0.090648290414224258 0 -0.091962411996892673 -0.09468808666002583 0 -0.084319266885840266 -0.081517322268859618 0 -0.091962411996892673 -0.09468808666002583 0 -0.1003244077950277 -0.079377924908830166 0 -0.091422251327783657 -0.067015971690222553 0 -0.064318645323672638 -0.064478939053158255 0 -0.083719278628626589 -0.056319261460343717 0 -0.084319266885840266 -0.081517322268859618 0 -0.091422251327783657 -0.067015971690222553 0 -0.1003244077950277 -0.079377924908830166 0 -0.084319266885840266 -0.081517322268859618 0 -0.091422251327783657 -0.067015971690222553 0 -0.064318645323672638 -0.064478939053158255 0 -0.064318645323672638 -0.064478939053158255 0 -0.068467501378563694 -0.090648290414224258 0 -0.055574898643220141 -0.077248021753909935 0 -0.091422251327783657 -0.067015971690222553 0 -0.064318645323672638 -0.064478939053158255 0 -0.064318645323672638 -0.064478939053158255 0 -0.068467501378563694 -0.090648290414224258 0 -0.064318645323672638 -0.064478939053158255 0 -0.064024062111221858 -0.062620824071630193 0 -0.059767394660719723 -0.064052919302516484 0 -0.064318645323672638 -0.064478939053158255 0 -0.064024062111221858 -0.062620824071630193 0 -0.084319266885840266 -0.081517322268859618 0 -0.064318645323672638 -0.064478939053158255 0 -0.068467501378563694 -0.090648290414224258 0 -0.068467501378563694 -0.090648290414224258 0 -0.072616357433454209 -0.1168176417752905 0 -0.085785021921460189 -0.1111250993364884 0 -0.068467501378563694 -0.090648290414224258 0 -0.063123318463635475 -0.11920418788174419 0 -0.072616357433454209 -0.1168176417752905 0 -0.068467501378563694 -0.090648290414224258 0 -0.072616357433454209 -0.1168176417752905 0 -0.080289945568023907 -0.1243773783738894 0 -0.10142221037855489 -0.1139874332415752 0 -0.080289945568023907 -0.1243773783738894 0 -0.085785021921460189 -0.1111250993364884 0 -0.10142221037855489 -0.1139874332415752 0 -0.072616357433454209 -0.1168176417752905 0 -0.080289945568023907 -0.1243773783738894 0 -0.085785021921460189 -0.1111250993364884 0 -0.068467501378563694 -0.090648290414224258 0 -0.085785021921460189 -0.1111250993364884 0 -0.091962411996892673 -0.09468808666002583 0 -0.085785021921460189 -0.1111250993364884 0 -0.091962411996892673 -0.09468808666002583 0 -0.10142221037855489 -0.1139874332415752 0 -0.091962411996892673 -0.09468808666002583 0 -0.10142221037855489 -0.1139874332415752 0 -0.1088648296515234 -0.092730843632654131 0 -0.10142221037855489 -0.1139874332415752 0 -0.1170758862506653 -0.1228717099769169 0 -0.1000214264687898 -0.1290503741148985 0 -0.080289945568023907 -0.1243773783738894 0 -0.10142221037855489 -0.1139874332415752 0 -0.1000214264687898 -0.1290503741148985 0 -0.10142221037855489 -0.1139874332415752 0 -0.1170758862506653 -0.1228717099769169 0 -0.12255447518908601 -0.10359748810926089 0 -0.1170758862506653 -0.1228717099769169 0 -0.12255447518908601 -0.10359748810926089 0 -0.1323942407210463 -0.118963604282387 0 -0.10142221037855489 -0.1139874332415752 0 -0.12255447518908601 -0.10359748810926089 0 -0.1088648296515234 -0.092730843632654131 0 -0.10142221037855489 -0.1139874332415752 0 -0.12255447518908601 -0.10359748810926089 0 -0.1249640605986297 -0.084896779416902116 0 -0.11283398485779531 -0.081608205144256513 0 -0.1088648296515234 -0.092730843632654131 0 -0.12255447518908601 -0.10359748810926089 0 -0.1249640605986297 -0.084896779416902116 0 -0.1088648296515234 -0.092730843632654131 0 -0.1249640605986297 -0.084896779416902116 0 -0.11283398485779531 -0.081608205144256513 0 -0.11718264138600031 -0.069427272618639624 0 -0.091962411996892673 -0.09468808666002583 0 -0.1088648296515234 -0.092730843632654131 0 -0.1003244077950277 -0.079377924908830166 0 -0.11283398485779531 -0.081608205144256513 0 -0.1088648296515234 -0.092730843632654131 0 -0.1003244077950277 -0.079377924908830166 0 -0.091422251327783657 -0.067015971690222553 0 -0.11718264138600031 -0.069427272618639624 0 -0.091422251327783657 -0.067015971690222553 0 -0.1003244077950277 -0.079377924908830166 0 -0.11718264138600031 -0.069427272618639624 0 -0.091422251327783657 -0.067015971690222553 0 -0.11718264138600031 -0.069427272618639624 0 -0.1036311959658805 -0.061361642606396608 0 -0.091422251327783657 -0.067015971690222553 0 -0.1003244077950277 -0.079377924908830166 0 -0.11283398485779531 -0.081608205144256513 0 -0.1003244077950277 -0.079377924908830166 0 -0.11718264138600031 -0.069427272618639624 0 -0.11718264138600031 -0.069427272618639624 0 -0.1094830484490939 -0.056753099703142067 0 -0.1036311959658805 -0.061361642606396608 0 -0.11718264138600031 -0.069427272618639624 0 -0.122481117783452 -0.057535868302799997 0 -0.1094830484490939 -0.056753099703142067 0 -0.122481117783452 -0.057535868302799997 0 -0.1094830484490939 -0.056753099703142067 0 -0.1118637394433272 -0.043043926388835307 0 -0.1118637394433272 -0.043043926388835307 0 -0.1000903092041093 -0.033525730973447937 0 -0.1219807890748608 -0.02819837452950167 0 -0.122481117783452 -0.057535868302799997 0 -0.1219807890748608 -0.02819837452950167 0 -0.122481117783452 -0.057535868302799997 0 -0.1118637394433272 -0.043043926388835307 0 -0.1219807890748608 -0.02819837452950167 0 -0.1000903092041093 -0.033525730973447937 0 -0.09643684270064401 -0.052250226413582818 0 -0.086379255316825512 -0.041855779310816313 0 -0.1118637394433272 -0.043043926388835307 0 -0.1000903092041093 -0.033525730973447937 0 -0.09643684270064401 -0.052250226413582818 0 -0.091422251327783657 -0.067015971690222553 0 -0.09643684270064401 -0.052250226413582818 0 -0.1036311959658805 -0.061361642606396608 0 -0.1094830484490939 -0.056753099703142067 0 -0.09643684270064401 -0.052250226413582818 0 -0.1036311959658805 -0.061361642606396608 0 -0.1094830484490939 -0.056753099703142067 0 -0.1118637394433272 -0.043043926388835307 0 -0.09643684270064401 -0.052250226413582818 0 -0.1219807890748608 -0.02819837452950167 0 -0.1031729114855256 -0.01469515009950096 0 -0.1214804603662699 0.001139119243796668 0 -0.1219807890748608 -0.02819837452950167 0 -0.1214804603662699 0.001139119243796668 0 -0.1000903092041093 -0.033525730973447937 0 -0.1031729114855256 -0.01469515009950096 0 -0.080649234878386794 -0.02005773543862718 0 -0.1000903092041093 -0.033525730973447937 0 -0.1219807890748608 -0.02819837452950167 0 -0.1031729114855256 -0.01469515009950096 0 -0.1031729114855256 -0.01469515009950096 0 -0.094512981239103039 0.0067775986195027756 0 -0.1214804603662699 0.001139119243796668 0 -0.080649234878386794 -0.02005773543862718 0 -0.094512981239103039 0.0067775986195027756 0 -0.081202616950677903 -0.0014108215933112159 0 -0.080649234878386794 -0.02005773543862718 0 -0.094512981239103039 0.0067775986195027756 0 -0.1031729114855256 -0.01469515009950096 0 -0.080649234878386794 -0.02005773543862718 0 -0.094512981239103039 0.0067775986195027756 0 -0.080649234878386794 -0.02005773543862718 0 -0.070485413297611488 -0.037942093554419777 0 -0.057203517637037328 -0.0195995135086298 0 -0.070485413297611488 -0.037942093554419777 0 -0.057203517637037328 -0.0195995135086298 0 -0.080649234878386794 -0.02005773543862718 0 -0.063641141463562895 -0.0049251060214543247 0 -0.057203517637037328 -0.0195995135086298 0 -0.081202616950677903 -0.0014108215933112159 0 -0.080649234878386794 -0.02005773543862718 0 -0.063641141463562895 -0.0049251060214543247 0 -0.091422251327783657 -0.067015971690222553 0 -0.083719278628626589 -0.056319261460343717 0 -0.091422251327783657 -0.067015971690222553 0 -0.09643684270064401 -0.052250226413582818 0 -0.083719278628626589 -0.056319261460343717 0 -0.09643684270064401 -0.052250226413582818 0 -0.083719278628626589 -0.056319261460343717 0 -0.09643684270064401 -0.052250226413582818 0 -0.083719278628626589 -0.056319261460343717 0 -0.086379255316825512 -0.041855779310816313 0 -0.080649234878386794 -0.02005773543862718 0 -0.086379255316825512 -0.041855779310816313 0 -0.070485413297611488 -0.037942093554419777 0 -0.1000903092041093 -0.033525730973447937 0 -0.080649234878386794 -0.02005773543862718 0 -0.086379255316825512 -0.041855779310816313 0 -0.083719278628626589 -0.056319261460343717 0 -0.086379255316825512 -0.041855779310816313 0 -0.070485413297611488 -0.037942093554419777 0 -0.070485413297611488 -0.037942093554419777 0 -0.060613789874128042 -0.041110168790130311 0 -0.057203517637037328 -0.0195995135086298 0 -0.070485413297611488 -0.037942093554419777 0 -0.069161496825101462 -0.050780683856144961 0 -0.060613789874128042 -0.041110168790130311 0 -0.064024062111221858 -0.062620824071630193 0 -0.069161496825101462 -0.050780683856144961 0 -0.060613789874128042 -0.041110168790130311 0 -0.064024062111221858 -0.062620824071630193 0 -0.083719278628626589 -0.056319261460343717 0 -0.083719278628626589 -0.056319261460343717 0 -0.070485413297611488 -0.037942093554419777 0 -0.069161496825101462 -0.050780683856144961 0 -0.064024062111221858 -0.062620824071630193 0 -0.083719278628626589 -0.056319261460343717 0 -0.069161496825101462 -0.050780683856144961 0 -0.083719278628626589 -0.056319261460343717 0 -0.070485413297611488 -0.037942093554419777 0 -0.064318645323672638 -0.064478939053158255 0 -0.064024062111221858 -0.062620824071630193 0 -0.083719278628626589 -0.056319261460343717 0 -0.064024062111221858 -0.062620824071630193 0 -0.060613789874128042 -0.041110168790130311 0 -0.064024062111221858 -0.062620824071630193 0 -0.060613789874128042 -0.041110168790130311 0 -0.059767394660719723 -0.064052919302516484 0 -0.060613789874128042 -0.041110168790130311 0 -0.044137250772963071 -0.053194585911126732 0 -0.059767394660719723 -0.064052919302516484 0 -0.060613789874128042 -0.041110168790130311 0 -0.036400888139965323 -0.038072629318992773 0 -0.044137250772963071 -0.053194585911126732 0 -0.060613789874128042 -0.041110168790130311 0 -0.036400888139965323 -0.038072629318992773 0 -0.045063739912980919 -0.026050700616460629 0 -0.036400888139965323 -0.038072629318992773 0 -0.044137250772963071 -0.053194585911126732 0 -0.025159372881907428 -0.053019165725247612 0 -0.044137250772963071 -0.053194585911126732 0 -0.025159372881907428 -0.053019165725247612 0 -0.035839528414217531 -0.071638577372519247 0 -0.057203517637037328 -0.0195995135086298 0 -0.041530379121820761 -0.01250081545595459 0 -0.045253868457480508 -0.0029043835237603558 0 -0.063641141463562895 -0.0049251060214543247 0 -0.045253868457480508 -0.0029043835237603558 0 -0.054863487566188522 0.0033556939330056578 0 -0.057203517637037328 -0.0195995135086298 0 -0.045253868457480508 -0.0029043835237603558 0 -0.063641141463562895 -0.0049251060214543247 0 -0.057203517637037328 -0.0195995135086298 0 -0.045253868457480508 -0.0029043835237603558 0 -0.057203517637037328 -0.0195995135086298 0 -0.045063739912980919 -0.026050700616460629 0 -0.041530379121820761 -0.01250081545595459 0 -0.060613789874128042 -0.041110168790130311 0 -0.057203517637037328 -0.0195995135086298 0 -0.045063739912980919 -0.026050700616460629 0 -0.060613789874128042 -0.041110168790130311 0 -0.057203517637037328 -0.0195995135086298 0 -0.036400888139965323 -0.038072629318992773 0 -0.045063739912980919 -0.026050700616460629 0 -0.0283818216340367 -0.02231783771730126 0 -0.045063739912980919 -0.026050700616460629 0 -0.041530379121820761 -0.01250081545595459 0 -0.0283818216340367 -0.02231783771730126 0 -0.041530379121820761 -0.01250081545595459 0 -0.031571753622779378 -0.00083557407611478001 0 -0.045253868457480508 -0.0029043835237603558 0 -0.041530379121820761 -0.01250081545595459 0 -0.031571753622779378 -0.00083557407611478001 0 -0.017391221066954531 -0.01013320849585213 0 -0.031571753622779378 -0.00083557407611478001 0 -0.017391221066954531 -0.01013320849585213 0 -0.019503699567590939 0.0072620669748936556 0 -0.041530379121820761 -0.01250081545595459 0 -0.017391221066954531 -0.01013320849585213 0 -0.041530379121820761 -0.01250081545595459 0 -0.017391221066954531 -0.01013320849585213 0 -0.0283818216340367 -0.02231783771730126 0 -0.017391221066954531 -0.01013320849585213 0 -0.0283818216340367 -0.02231783771730126 0 -0.01447921734959684 -0.034399754077976158 0 -0.0037990618172862381 -0.015780342430704711 0 -0.01447921734959684 -0.034399754077976158 0 -0.017391221066954531 -0.01013320849585213 0 -0.0037990618172862381 -0.015780342430704711 0 -0.01447921734959684 -0.034399754077976158 0 -0.001720343861461474 -0.027913753244978919 0 -0.0037990618172862381 -0.015780342430704711 0 -0.01447921734959684 -0.034399754077976158 0 -0.017391221066954531 -0.01013320849585213 0 -0.0062950599919664469 0.001842533104863542 0 0.0067479369879116582 -0.007765601535749676 0 -0.017391221066954531 -0.01013320849585213 0 -0.0037990618172862381 -0.015780342430704711 0 0.0067479369879116582 -0.007765601535749676 0 -0.017391221066954531 -0.01013320849585213 0 0.0067479369879116582 -0.007765601535749676 0 -0.017391221066954531 -0.01013320849585213 0 -0.019503699567590939 0.0072620669748936556 0 -0.0062950599919664469 0.001842533104863542 0 -0.025159372881907428 -0.053019165725247612 0 -0.035839528414217531 -0.071638577372519247 0 -0.025159372881907428 -0.053019165725247612 0 -0.01447921734959684 -0.034399754077976158 0 -0.0091397369957274092 -0.048448799767634193 0 -0.025159372881907428 -0.053019165725247612 0 -0.01447921734959684 -0.034399754077976158 0 -0.036400888139965323 -0.038072629318992773 0 -0.0283818216340367 -0.02231783771730126 0 -0.01447921734959684 -0.034399754077976158 0 -0.036400888139965323 -0.038072629318992773 0 -0.025159372881907428 -0.053019165725247612 0 -0.01447921734959684 -0.034399754077976158 0 -0.0091397369957274092 -0.048448799767634193 0 0.0027778392732508892 -0.037419988898024961 0 0.002782278211465206 -0.054119284764627767 0 -0.01447921734959684 -0.034399754077976158 0 -0.0091397369957274092 -0.048448799767634193 0 0.0027778392732508892 -0.037419988898024961 0 -0.001720343861461474 -0.027913753244978919 0 -0.01447921734959684 -0.034399754077976158 0 0.0027778392732508892 -0.037419988898024961 0 -0.025159372881907428 -0.053019165725247612 0 -0.0091397369957274092 -0.048448799767634193 0 -0.01162021223184887 -0.063285805372294446 0 -0.0091397369957274092 -0.048448799767634193 0 -0.01162021223184887 -0.063285805372294446 0 0.002782278211465206 -0.054119284764627767 0 -0.01162021223184887 -0.063285805372294446 0 0.0055048381763041004 -0.07040764260375279 0 0.002782278211465206 -0.054119284764627767 0 -0.01162021223184887 -0.063285805372294446 0 -0.0084648568107918362 -0.080397212085674671 0 0.0055048381763041004 -0.07040764260375279 0 -0.0084648568107918362 -0.080397212085674671 0 -0.025566074909771589 -0.089830195767540408 0 0.002064634101435865 -0.094646214576444551 0 -0.0084648568107918362 -0.080397212085674671 0 -0.025566074909771589 -0.089830195767540408 0 -0.035839528414217531 -0.071638577372519247 0 -0.025159372881907428 -0.053019165725247612 0 -0.01162021223184887 -0.063285805372294446 0 -0.035839528414217531 -0.071638577372519247 0 -0.01162021223184887 -0.063285805372294446 0 -0.0084648568107918362 -0.080397212085674671 0 -0.035839528414217531 -0.071638577372519247 0 -0.0084648568107918362 -0.080397212085674671 0 -0.035839528414217531 -0.071638577372519247 0 -0.044137250772963071 -0.053194585911126732 0 -0.035839528414217531 -0.071638577372519247 0 -0.059767394660719723 -0.064052919302516484 0 -0.025566074909771589 -0.089830195767540408 0 -0.035839528414217531 -0.071638577372519247 0 -0.049481423438926711 -0.095421382627131554 0 -0.035839528414217531 -0.071638577372519247 0 -0.049481423438926711 -0.095421382627131554 0 -0.035839528414217531 -0.071638577372519247 0 -0.055574898643220141 -0.077248021753909935 0 -0.049481423438926711 -0.095421382627131554 0 -0.068467501378563694 -0.090648290414224258 0 -0.055574898643220141 -0.077248021753909935 0 -0.049481423438926711 -0.095421382627131554 0 -0.035839528414217531 -0.071638577372519247 0 -0.059767394660719723 -0.064052919302516484 0 -0.035839528414217531 -0.071638577372519247 0 -0.055574898643220141 -0.077248021753909935 0 -0.059767394660719723 -0.064052919302516484 0 -0.064318645323672638 -0.064478939053158255 0 -0.055574898643220141 -0.077248021753909935 0 -0.059767394660719723 -0.064052919302516484 0 -0.064024062111221858 -0.062620824071630193 0 -0.059767394660719723 -0.064052919302516484 0 -0.064318645323672638 -0.064478939053158255 0 -0.059767394660719723 -0.064052919302516484 0 -0.063123318463635475 -0.11920418788174419 0 -0.049481423438926711 -0.095421382627131554 0 -0.039654959715581493 -0.11953813104102461 0 -0.068467501378563694 -0.090648290414224258 0 -0.063123318463635475 -0.11920418788174419 0 -0.049481423438926711 -0.095421382627131554 0 -0.063123318463635475 -0.11920418788174419 0 -0.049481423438926711 -0.095421382627131554 0 -0.025566074909771589 -0.089830195767540408 0 -0.049481423438926711 -0.095421382627131554 0 -0.0222577896523143 -0.1084026971199525 0 -0.049481423438926711 -0.095421382627131554 0 -0.039654959715581493 -0.11953813104102461 0 -0.0222577896523143 -0.1084026971199525 0 -0.039654959715581493 -0.11953813104102461 0 -0.0222577896523143 -0.1084026971199525 0 -0.012651193088777711 -0.1355072320099355 0 -0.0222577896523143 -0.1084026971199525 0 0.0031293108519285032 -0.1123315394043807 0 0.002064634101435865 -0.094646214576444551 0 -0.025566074909771589 -0.089830195767540408 0 -0.0222577896523143 -0.1084026971199525 0 0.002064634101435865 -0.094646214576444551 0 -0.012651193088777711 -0.1355072320099355 0 0.0031293108519285032 -0.1123315394043807 0 -0.0222577896523143 -0.1084026971199525 0 -0.012651193088777711 -0.1355072320099355 0 0.0031293108519285032 -0.1123315394043807 0 -0.012651193088777711 -0.1355072320099355 0 0.0032261101365381331 -0.14892545287734371 0 0.0090378767511883288 -0.13437486366001539 0 -0.012651193088777711 -0.1355072320099355 0 0.0090378767511883288 -0.13437486366001539 0 0.0031293108519285032 -0.1123315394043807 0 -0.012651193088777711 -0.1355072320099355 0 -0.024330599791576639 -0.15195427391544661 0 -0.01042963698611824 -0.1539154116082169 0 -0.012651193088777711 -0.1355072320099355 0 -0.024330599791576639 -0.15195427391544661 0 -0.043842897360677251 -0.1405068437338573 0 -0.012651193088777711 -0.1355072320099355 0 -0.01042963698611824 -0.1539154116082169 0 0.0032261101365381331 -0.14892545287734371 0 -0.01042963698611824 -0.1539154116082169 0 -0.017249014964547789 -0.16845701367652291 0 0.0044545250607441328 -0.16623151910569131 0 -0.01042963698611824 -0.1539154116082169 0 0.0044545250607441328 -0.16623151910569131 0 0.0032261101365381331 -0.14892545287734371 0 -0.017249014964547789 -0.16845701367652291 0 0.0044545250607441328 -0.16623151910569131 0 0.0034329602273533359 -0.1860487201670272 0 -0.017249014964547789 -0.16845701367652291 0 -0.01419001777624266 -0.19066450082631881 0 0.0034329602273533359 -0.1860487201670272 0 -0.030719486625789921 -0.17920583561086931 0 -0.017249014964547789 -0.16845701367652291 0 -0.01419001777624266 -0.19066450082631881 0 -0.024330599791576639 -0.15195427391544661 0 -0.017249014964547789 -0.16845701367652291 0 -0.037480256557762229 -0.16138486854870021 0 -0.030719486625789921 -0.17920583561086931 0 -0.017249014964547789 -0.16845701367652291 0 -0.037480256557762229 -0.16138486854870021 0 -0.024330599791576639 -0.15195427391544661 0 -0.01042963698611824 -0.1539154116082169 0 -0.017249014964547789 -0.16845701367652291 0 -0.037480256557762229 -0.16138486854870021 0 -0.0470696613474684 -0.17435340727891099 0 -0.052603986164713318 -0.15757894024880101 0 -0.030719486625789921 -0.17920583561086931 0 -0.037480256557762229 -0.16138486854870021 0 -0.0470696613474684 -0.17435340727891099 0 -0.030719486625789921 -0.17920583561086931 0 -0.0470696613474684 -0.17435340727891099 0 -0.041130767039546663 -0.18791706701990091 0 -0.030719486625789921 -0.17920583561086931 0 -0.029009411341098659 -0.1930363186950759 0 -0.041130767039546663 -0.18791706701990091 0 -0.053150731214581713 -0.18582310272145069 0 -0.0470696613474684 -0.17435340727891099 0 -0.041130767039546663 -0.18791706701990091 0 -0.053150731214581713 -0.18582310272145069 0 -0.0470696613474684 -0.17435340727891099 0 -0.060799494224536448 -0.17126844748943401 0 -0.053150731214581713 -0.18582310272145069 0 -0.060799494224536448 -0.17126844748943401 0 -0.066171676008054126 -0.18348116216823371 0 -0.0470696613474684 -0.17435340727891099 0 -0.052603986164713318 -0.15757894024880101 0 -0.060799494224536448 -0.17126844748943401 0 -0.052603986164713318 -0.15757894024880101 0 -0.060799494224536448 -0.17126844748943401 0 -0.064669014087651536 -0.15637242326992951 0 -0.052603986164713318 -0.15757894024880101 0 -0.060647088055055698 -0.1428320986592338 0 -0.064669014087651536 -0.15637242326992951 0 -0.052603986164713318 -0.15757894024880101 0 -0.060647088055055698 -0.1428320986592338 0 -0.043842897360677251 -0.1405068437338573 0 -0.063123318463635475 -0.11920418788174419 0 -0.039654959715581493 -0.11953813104102461 0 -0.043842897360677251 -0.1405068437338573 0 -0.063123318463635475 -0.11920418788174419 0 -0.060647088055055698 -0.1428320986592338 0 -0.043842897360677251 -0.1405068437338573 0 -0.039654959715581493 -0.11953813104102461 0 -0.012651193088777711 -0.1355072320099355 0 -0.043842897360677251 -0.1405068437338573 0 -0.024330599791576639 -0.15195427391544661 0 -0.037480256557762229 -0.16138486854870021 0 -0.043842897360677251 -0.1405068437338573 0 -0.037480256557762229 -0.16138486854870021 0 -0.052603986164713318 -0.15757894024880101 0 -0.043842897360677251 -0.1405068437338573 0 -0.027823716522454831 -0.2433285591665183 0 -0.011812027632305719 -0.233418067333026 0 -0.027343817090048971 -0.22880209115172939 0 -0.027823716522454831 -0.2433285591665183 0 -0.0092522057687085338 -0.2496290082780255 0 -0.011812027632305719 -0.233418067333026 0 -0.0092522057687085338 -0.2496290082780255 0 0.0071600346355602182 -0.24437074822792321 0 0.001850392632153141 -0.2279750586834822 0 -0.0092522057687085338 -0.2496290082780255 0 0.001850392632153141 -0.2279750586834822 0 -0.0092522057687085338 -0.2496290082780255 0 -0.011812027632305719 -0.233418067333026 0 0.001850392632153141 -0.2279750586834822 0 -0.01485885149093887 -0.22741229614784561 0 -0.011812027632305719 -0.233418067333026 0 -0.0039110180236026949 -0.22586272478009919 0 -0.0001473723906542323 -0.22724260841378141 0 -0.0034245390449026761 -0.21122125959071181 0 0.001850392632153141 -0.2279750586834822 0 -0.0001473723906542323 -0.22724260841378141 0 -0.0039110180236026949 -0.22586272478009919 0 -0.0034245390449026761 -0.21122125959071181 0 -0.011812027632305719 -0.233418067333026 0 -0.0001473723906542323 -0.22724260841378141 0 -0.0039110180236026949 -0.22586272478009919 0 -0.011812027632305719 -0.233418067333026 0 -0.0001473723906542323 -0.22724260841378141 0 0.001850392632153141 -0.2279750586834822 0 -0.0001473723906542323 -0.22724260841378141 0 -0.0039110180236026949 -0.22586272478009919 0 -0.0039110180236026949 -0.22586272478009919 0 -0.016280978016651428 -0.22132746641404011 0 -0.01485885149093887 -0.22741229614784561 0 -0.0039110180236026949 -0.22586272478009919 0 -0.016280978016651428 -0.22132746641404011 0 -0.0039110180236026949 -0.22586272478009919 0 -0.016280978016651428 -0.22132746641404011 0 -0.0034245390449026761 -0.21122125959071181 0 -0.016280978016651428 -0.22132746641404011 0 -0.027343817090048971 -0.22880209115172939 0 -0.032414583642648612 -0.21541232441429881 0 -0.01485885149093887 -0.22741229614784561 0 -0.016280978016651428 -0.22132746641404011 0 -0.027343817090048971 -0.22880209115172939 0 -0.01485885149093887 -0.22741229614784561 0 -0.011812027632305719 -0.233418067333026 0 -0.027343817090048971 -0.22880209115172939 0 -0.016280978016651428 -0.22132746641404011 0 -0.032414583642648612 -0.21541232441429881 0 -0.02167210606885895 -0.20546375884034959 0 -0.037334679195055079 -0.20193043117794079 0 -0.032414583642648612 -0.21541232441429881 0 -0.016280978016651428 -0.22132746641404011 0 -0.02167210606885895 -0.20546375884034959 0 -0.032414583642648612 -0.21541232441429881 0 -0.016280978016651428 -0.22132746641404011 0 -0.02167210606885895 -0.20546375884034959 0 -0.0034245390449026761 -0.21122125959071181 0 -0.02167210606885895 -0.20546375884034959 0 -0.0034245390449026761 -0.21122125959071181 0 -0.01419001777624266 -0.19066450082631881 0 -0.0034245390449026761 -0.21122125959071181 0 -0.01419001777624266 -0.19066450082631881 0 0.0034329602273533359 -0.1860487201670272 0 -0.030719486625789921 -0.17920583561086931 0 -0.01419001777624266 -0.19066450082631881 0 -0.029009411341098659 -0.1930363186950759 0 -0.02167210606885895 -0.20546375884034959 0 -0.029009411341098659 -0.1930363186950759 0 -0.037334679195055079 -0.20193043117794079 0 -0.02167210606885895 -0.20546375884034959 0 -0.01419001777624266 -0.19066450082631881 0 -0.029009411341098659 -0.1930363186950759 0 -0.029009411341098659 -0.1930363186950759 0 -0.037334679195055079 -0.20193043117794079 0 -0.041130767039546663 -0.18791706701990091 0 -0.037334679195055079 -0.20193043117794079 0 -0.041130767039546663 -0.18791706701990091 0 -0.050451537664010428 -0.19837951268955231 0 -0.053150731214581713 -0.18582310272145069 0 -0.041130767039546663 -0.18791706701990091 0 -0.050451537664010428 -0.19837951268955231 0 -0.053150731214581713 -0.18582310272145069 0 -0.050451537664010428 -0.19837951268955231 0 -0.062984619554603979 -0.19557399394355221 0 -0.053150731214581713 -0.18582310272145069 0 -0.062984619554603979 -0.19557399394355221 0 -0.066171676008054126 -0.18348116216823371 0 -0.050451537664010428 -0.19837951268955231 0 -0.064929534384480819 -0.20912563305743129 0 -0.062984619554603979 -0.19557399394355221 0 -0.050451537664010428 -0.19837951268955231 0 -0.051141878686094017 -0.2119517677886813 0 -0.064929534384480819 -0.20912563305743129 0 -0.051141878686094017 -0.2119517677886813 0 -0.065919436827708053 -0.2214579819804095 0 -0.064929534384480819 -0.20912563305743129 0 -0.051141878686094017 -0.2119517677886813 0 -0.032414583642648612 -0.21541232441429881 0 -0.044877241070754012 -0.22327862171820609 0 -0.037334679195055079 -0.20193043117794079 0 -0.051141878686094017 -0.2119517677886813 0 -0.032414583642648612 -0.21541232441429881 0 -0.037334679195055079 -0.20193043117794079 0 -0.050451537664010428 -0.19837951268955231 0 -0.051141878686094017 -0.2119517677886813 0 -0.027343817090048971 -0.22880209115172939 0 -0.044877241070754012 -0.22327862171820609 0 -0.042441615599656111 -0.2354265976686083 0 -0.027343817090048971 -0.22880209115172939 0 -0.032414583642648612 -0.21541232441429881 0 -0.044877241070754012 -0.22327862171820609 0 -0.051141878686094017 -0.2119517677886813 0 -0.056834983165791123 -0.22985675799061889 0 -0.065919436827708053 -0.2214579819804095 0 -0.051141878686094017 -0.2119517677886813 0 -0.044877241070754012 -0.22327862171820609 0 -0.056834983165791123 -0.22985675799061889 0 -0.044877241070754012 -0.22327862171820609 0 -0.056834983165791123 -0.22985675799061889 0 -0.042441615599656111 -0.2354265976686083 0 -0.065787399064027335 -0.25016351103445161 0 -0.056834983165791123 -0.22985675799061889 0 -0.053816604521796908 -0.24227117930803091 0 -0.050202420257713022 -0.25363785053844451 0 -0.053816604521796908 -0.24227117930803091 0 -0.042441615599656111 -0.2354265976686083 0 -0.065787399064027335 -0.25016351103445161 0 -0.056834983165791123 -0.22985675799061889 0 -0.056834983165791123 -0.22985675799061889 0 -0.053816604521796908 -0.24227117930803091 0 -0.042441615599656111 -0.2354265976686083 0 -0.065787399064027335 -0.25016351103445161 0 -0.050202420257713022 -0.25363785053844451 0 -0.053816604521796908 -0.24227117930803091 0 -0.050202420257713022 -0.25363785053844451 0 -0.027823716522454831 -0.2433285591665183 0 -0.042441615599656111 -0.2354265976686083 0 -0.050202420257713022 -0.25363785053844451 0 -0.042441615599656111 -0.2354265976686083 0 -0.027823716522454831 -0.2433285591665183 0 -0.027343817090048971 -0.22880209115172939 0 -0.042441615599656111 -0.2354265976686083 0 -0.065787399064027335 -0.25016351103445161 0 -0.093273054064364258 -0.24403616892205371 0 -0.093273054064364258 -0.24403616892205371 0 -0.075198034939809019 -0.23333668916018471 0 -0.091740784900060976 -0.2318185132024646 0 -0.065787399064027335 -0.25016351103445161 0 -0.093273054064364258 -0.24403616892205371 0 -0.075198034939809019 -0.23333668916018471 0 -0.065787399064027335 -0.25016351103445161 0 -0.056834983165791123 -0.22985675799061889 0 -0.075198034939809019 -0.23333668916018471 0 -0.075198034939809019 -0.23333668916018471 0 -0.065919436827708053 -0.2214579819804095 0 -0.075710962556764558 -0.21467887663557689 0 -0.056834983165791123 -0.22985675799061889 0 -0.075198034939809019 -0.23333668916018471 0 -0.065919436827708053 -0.2214579819804095 0 -0.075198034939809019 -0.23333668916018471 0 -0.091740784900060976 -0.2318185132024646 0 -0.086207429571537292 -0.22337755003416501 0 -0.075198034939809019 -0.23333668916018471 0 -0.086207429571537292 -0.22337755003416501 0 -0.075710962556764558 -0.21467887663557689 0 -0.086207429571537292 -0.22337755003416501 0 -0.08917531538773818 -0.2128080063423084 0 -0.097776237063440921 -0.22341441528978259 0 -0.091740784900060976 -0.2318185132024646 0 -0.086207429571537292 -0.22337755003416501 0 -0.097776237063440921 -0.22341441528978259 0 -0.08917531538773818 -0.2128080063423084 0 -0.082364716236474608 -0.20169417983630181 0 -0.097212742106464037 -0.20202081990648199 0 -0.08917531538773818 -0.2128080063423084 0 -0.075710962556764558 -0.21467887663557689 0 -0.082364716236474608 -0.20169417983630181 0 -0.086207429571537292 -0.22337755003416501 0 -0.08917531538773818 -0.2128080063423084 0 -0.075710962556764558 -0.21467887663557689 0 -0.065919436827708053 -0.2214579819804095 0 -0.075710962556764558 -0.21467887663557689 0 -0.064929534384480819 -0.20912563305743129 0 -0.075710962556764558 -0.21467887663557689 0 -0.071496443742679536 -0.2021646358245863 0 -0.082364716236474608 -0.20169417983630181 0 -0.075710962556764558 -0.21467887663557689 0 -0.064929534384480819 -0.20912563305743129 0 -0.071496443742679536 -0.2021646358245863 0 -0.071496443742679536 -0.2021646358245863 0 -0.074175615577129789 -0.19230808285307621 0 -0.082364716236474608 -0.20169417983630181 0 -0.064929534384480819 -0.20912563305743129 0 -0.071496443742679536 -0.2021646358245863 0 -0.062984619554603979 -0.19557399394355221 0 -0.071496443742679536 -0.2021646358245863 0 -0.062984619554603979 -0.19557399394355221 0 -0.074175615577129789 -0.19230808285307621 0 -0.062984619554603979 -0.19557399394355221 0 -0.074175615577129789 -0.19230808285307621 0 -0.066171676008054126 -0.18348116216823371 0 -0.074175615577129789 -0.19230808285307621 0 -0.086550519219509833 -0.18833850800833271 0 -0.075674572135863816 -0.18277602769802251 0 -0.074175615577129789 -0.19230808285307621 0 -0.082364716236474608 -0.20169417983630181 0 -0.086550519219509833 -0.18833850800833271 0 -0.082364716236474608 -0.20169417983630181 0 -0.086550519219509833 -0.18833850800833271 0 -0.097212742106464037 -0.20202081990648199 0 -0.086550519219509833 -0.18833850800833271 0 -0.097212742106464037 -0.20202081990648199 0 -0.1024786532079056 -0.1897043423413875 0 -0.097212742106464037 -0.20202081990648199 0 -0.107794468021381 -0.19963959679215351 0 -0.1024786532079056 -0.1897043423413875 0 -0.107794468021381 -0.19963959679215351 0 -0.1024786532079056 -0.1897043423413875 0 -0.1146080948904455 -0.1917068533728824 0 -0.1146080948904455 -0.1917068533728824 0 -0.12451201569035369 -0.1934438937872491 0 -0.1225472103470182 -0.18330229632466249 0 -0.1146080948904455 -0.1917068533728824 0 -0.12451201569035369 -0.1934438937872491 0 -0.1173289918522632 -0.2041632996480694 0 -0.12451201569035369 -0.1934438937872491 0 -0.1173289918522632 -0.2041632996480694 0 -0.1325318814923532 -0.20146001599417049 0 -0.107794468021381 -0.19963959679215351 0 -0.1146080948904455 -0.1917068533728824 0 -0.1173289918522632 -0.2041632996480694 0 -0.1173289918522632 -0.2041632996480694 0 -0.1145747878539345 -0.21511515773130821 0 -0.107343858049827 -0.21060266869194599 0 -0.107794468021381 -0.19963959679215351 0 -0.1173289918522632 -0.2041632996480694 0 -0.107343858049827 -0.21060266869194599 0 -0.1173289918522632 -0.2041632996480694 0 -0.1214172066551381 -0.21426413513511039 0 -0.1325318814923532 -0.20146001599417049 0 -0.1173289918522632 -0.2041632996480694 0 -0.1214172066551381 -0.21426413513511039 0 -0.1145747878539345 -0.21511515773130821 0 -0.1214172066551381 -0.21426413513511039 0 -0.1212272992560946 -0.2210831455040432 0 -0.1214172066551381 -0.21426413513511039 0 -0.1145747878539345 -0.21511515773130821 0 -0.1212272992560946 -0.2210831455040432 0 -0.1145747878539345 -0.21511515773130821 0 -0.107343858049827 -0.21060266869194599 0 -0.1105490001332529 -0.21909899415083489 0 -0.1048420065526787 -0.21872486354049331 0 -0.107343858049827 -0.21060266869194599 0 -0.1105490001332529 -0.21909899415083489 0 -0.1048420065526787 -0.21872486354049331 0 -0.107343858049827 -0.21060266869194599 0 -0.099270031832029759 -0.21351415475420249 0 -0.097212742106464037 -0.20202081990648199 0 -0.107794468021381 -0.19963959679215351 0 -0.107343858049827 -0.21060266869194599 0 -0.08917531538773818 -0.2128080063423084 0 -0.097212742106464037 -0.20202081990648199 0 -0.099270031832029759 -0.21351415475420249 0 -0.097212742106464037 -0.20202081990648199 0 -0.107343858049827 -0.21060266869194599 0 -0.099270031832029759 -0.21351415475420249 0 -0.1048420065526787 -0.21872486354049331 0 -0.099270031832029759 -0.21351415475420249 0 -0.097776237063440921 -0.22341441528978259 0 -0.08917531538773818 -0.2128080063423084 0 -0.099270031832029759 -0.21351415475420249 0 -0.097776237063440921 -0.22341441528978259 0 -0.091740784900060976 -0.2318185132024646 0 -0.097776237063440921 -0.22341441528978259 0 -0.10337754284140779 -0.2332652435251219 0 -0.097776237063440921 -0.22341441528978259 0 -0.1089114544609294 -0.22712339277831181 0 -0.10337754284140779 -0.2332652435251219 0 -0.1048420065526787 -0.21872486354049331 0 -0.1089114544609294 -0.22712339277831181 0 -0.1105490001332529 -0.21909899415083489 0 -0.1048420065526787 -0.21872486354049331 0 -0.097776237063440921 -0.22341441528978259 0 -0.1089114544609294 -0.22712339277831181 0 -0.1089114544609294 -0.22712339277831181 0 -0.10337754284140779 -0.2332652435251219 0 -0.1207587090647011 -0.23790882680965489 0 -0.1089114544609294 -0.22712339277831181 0 -0.1105490001332529 -0.21909899415083489 0 -0.1151587684913951 -0.22236031372680459 0 -0.1145747878539345 -0.21511515773130821 0 -0.1105490001332529 -0.21909899415083489 0 -0.1151587684913951 -0.22236031372680459 0 -0.1145747878539345 -0.21511515773130821 0 -0.1151587684913951 -0.22236031372680459 0 -0.1212272992560946 -0.2210831455040432 0 -0.1151587684913951 -0.22236031372680459 0 -0.1212272992560946 -0.2210831455040432 0 -0.1211861265671469 -0.22256153441496129 0 -0.1151587684913951 -0.22236031372680459 0 -0.1212272992560946 -0.2210831455040432 0 -0.1212272992560946 -0.2210831455040432 0 -0.1211861265671469 -0.22256153441496129 0 -0.1211861265671469 -0.22256153441496129 0 -0.1207587090647011 -0.23790882680965489 0 -0.1151587684913951 -0.22236031372680459 0 -0.1211861265671469 -0.22256153441496129 0 -0.1207587090647011 -0.23790882680965489 0 -0.1089114544609294 -0.22712339277831181 0 -0.1151587684913951 -0.22236031372680459 0 -0.1207587090647011 -0.23790882680965489 0 -0.1057356655064912 -0.25584069738494769 0 -0.1202568717247048 -0.25592831442403741 0 -0.1207587090647011 -0.23790882680965489 0 -0.1202568717247048 -0.25592831442403741 0 -0.1207587090647011 -0.23790882680965489 0 -0.093273054064364258 -0.24403616892205371 0 -0.10337754284140779 -0.2332652435251219 0 -0.1207587090647011 -0.23790882680965489 0 -0.093273054064364258 -0.24403616892205371 0 -0.1207587090647011 -0.23790882680965489 0 -0.1057356655064912 -0.25584069738494769 0 -0.093273054064364258 -0.24403616892205371 0 -0.1207587090647011 -0.23790882680965489 0 -0.093273054064364258 -0.24403616892205371 0 -0.091740784900060976 -0.2318185132024646 0 -0.10337754284140779 -0.2332652435251219 0 -0.076765213488344475 -0.14298699313635679 0 -0.08594007470912246 -0.15898212704236081 0 -0.093953651360734483 -0.14914235013022789 0 -0.076765213488344475 -0.14298699313635679 0 -0.080312215136912918 -0.1653600837405115 0 -0.08594007470912246 -0.15898212704236081 0 -0.076765213488344475 -0.14298699313635679 0 -0.080312215136912918 -0.1653600837405115 0 -0.076765213488344475 -0.14298699313635679 0 -0.08594007470912246 -0.15898212704236081 0 -0.088329061799746839 -0.13587028251090541 0 -0.076765213488344475 -0.14298699313635679 0 -0.093953651360734483 -0.14914235013022789 0 -0.080289945568023907 -0.1243773783738894 0 -0.088329061799746839 -0.13587028251090541 0 -0.1000214264687898 -0.1290503741148985 0 -0.080289945568023907 -0.1243773783738894 0 -0.088329061799746839 -0.13587028251090541 0 -0.076765213488344475 -0.14298699313635679 0 -0.063123318463635475 -0.11920418788174419 0 -0.060647088055055698 -0.1428320986592338 0 -0.076765213488344475 -0.14298699313635679 0 -0.072616357433454209 -0.1168176417752905 0 -0.080289945568023907 -0.1243773783738894 0 -0.076765213488344475 -0.14298699313635679 0 -0.063123318463635475 -0.11920418788174419 0 -0.072616357433454209 -0.1168176417752905 0 -0.076765213488344475 -0.14298699313635679 0 -0.063123318463635475 -0.11920418788174419 0 -0.076765213488344475 -0.14298699313635679 0 -0.072616357433454209 -0.1168176417752905 0 -0.076765213488344475 -0.14298699313635679 0 -0.076765213488344475 -0.14298699313635679 0 -0.064669014087651536 -0.15637242326992951 0 -0.071069279880043412 -0.16235574004556741 0 -0.060647088055055698 -0.1428320986592338 0 -0.076765213488344475 -0.14298699313635679 0 -0.064669014087651536 -0.15637242326992951 0 -0.060799494224536448 -0.17126844748943401 0 -0.064669014087651536 -0.15637242326992951 0 -0.071069279880043412 -0.16235574004556741 0 -0.076765213488344475 -0.14298699313635679 0 -0.071069279880043412 -0.16235574004556741 0 -0.080312215136912918 -0.1653600837405115 0 -0.060799494224536448 -0.17126844748943401 0 -0.071069279880043412 -0.16235574004556741 0 -0.071726779354439191 -0.17293452069509371 0 -0.071069279880043412 -0.16235574004556741 0 -0.071726779354439191 -0.17293452069509371 0 -0.080312215136912918 -0.1653600837405115 0 -0.071726779354439191 -0.17293452069509371 0 -0.081875804355325293 -0.17687728021806509 0 -0.080312215136912918 -0.1653600837405115 0 -0.060799494224536448 -0.17126844748943401 0 -0.066171676008054126 -0.18348116216823371 0 -0.071726779354439191 -0.17293452069509371 0 -0.071726779354439191 -0.17293452069509371 0 -0.075674572135863816 -0.18277602769802251 0 -0.081875804355325293 -0.17687728021806509 0 -0.074175615577129789 -0.19230808285307621 0 -0.066171676008054126 -0.18348116216823371 0 -0.075674572135863816 -0.18277602769802251 0 -0.066171676008054126 -0.18348116216823371 0 -0.071726779354439191 -0.17293452069509371 0 -0.075674572135863816 -0.18277602769802251 0 -0.086550519219509833 -0.18833850800833271 0 -0.075674572135863816 -0.18277602769802251 0 -0.081875804355325293 -0.17687728021806509 0 -0.081875804355325293 -0.17687728021806509 0 -0.080312215136912918 -0.1653600837405115 0 -0.095114935929900668 -0.17497726094836469 0 -0.086550519219509833 -0.18833850800833271 0 -0.081875804355325293 -0.17687728021806509 0 -0.095114935929900668 -0.17497726094836469 0 -0.08594007470912246 -0.15898212704236081 0 -0.095114935929900668 -0.17497726094836469 0 -0.080312215136912918 -0.1653600837405115 0 -0.08594007470912246 -0.15898212704236081 0 -0.095114935929900668 -0.17497726094836469 0 -0.08594007470912246 -0.15898212704236081 0 -0.096434626849083507 -0.16176632385195491 0 -0.095114935929900668 -0.17497726094836469 0 -0.08594007470912246 -0.15898212704236081 0 -0.096434626849083507 -0.16176632385195491 0 -0.093953651360734483 -0.14914235013022789 0 -0.096434626849083507 -0.16176632385195491 0 -0.1041848111446652 -0.15822342055318639 0 -0.093953651360734483 -0.14914235013022789 0 -0.096434626849083507 -0.16176632385195491 0 -0.1067502118321401 -0.16864424521738541 0 -0.095114935929900668 -0.17497726094836469 0 -0.096434626849083507 -0.16176632385195491 0 -0.1067502118321401 -0.16864424521738541 0 -0.1041848111446652 -0.15822342055318639 0 -0.1067502118321401 -0.16864424521738541 0 -0.1041848111446652 -0.15822342055318639 0 -0.116754228912556 -0.15985964487889731 0 -0.086550519219509833 -0.18833850800833271 0 -0.1024786532079056 -0.1897043423413875 0 -0.095114935929900668 -0.17497726094836469 0 -0.1067502118321401 -0.16864424521738541 0 -0.095114935929900668 -0.17497726094836469 0 -0.11011588218258669 -0.18014409694951949 0 -0.1024786532079056 -0.1897043423413875 0 -0.1146080948904455 -0.1917068533728824 0 -0.11011588218258669 -0.18014409694951949 0 -0.1024786532079056 -0.1897043423413875 0 -0.095114935929900668 -0.17497726094836469 0 -0.11011588218258669 -0.18014409694951949 0 -0.1146080948904455 -0.1917068533728824 0 -0.11011588218258669 -0.18014409694951949 0 -0.1225472103470182 -0.18330229632466249 0 -0.1067502118321401 -0.16864424521738541 0 -0.11011588218258669 -0.18014409694951949 0 -0.1191961868881103 -0.17252958349243461 0 -0.11011588218258669 -0.18014409694951949 0 -0.1191961868881103 -0.17252958349243461 0 -0.1225472103470182 -0.18330229632466249 0 -0.1191961868881103 -0.17252958349243461 0 -0.1225472103470182 -0.18330229632466249 0 -0.13059930323865759 -0.1766672674865386 0 -0.1191961868881103 -0.17252958349243461 0 -0.116754228912556 -0.15985964487889731 0 -0.1345425581583779 -0.16525597428601141 0 -0.1067502118321401 -0.16864424521738541 0 -0.1191961868881103 -0.17252958349243461 0 -0.116754228912556 -0.15985964487889731 0 -0.1206706680989046 -0.14890321839168569 0 -0.1129113007823002 -0.1371282307830369 0 -0.1333711449083074 -0.13606964512696471 0 -0.116754228912556 -0.15985964487889731 0 -0.1206706680989046 -0.14890321839168569 0 -0.1324942085929128 -0.15216763195841809 0 -0.1206706680989046 -0.14890321839168569 0 -0.10808475609616081 -0.14774312387747929 0 -0.1129113007823002 -0.1371282307830369 0 -0.1041848111446652 -0.15822342055318639 0 -0.116754228912556 -0.15985964487889731 0 -0.10808475609616081 -0.14774312387747929 0 -0.116754228912556 -0.15985964487889731 0 -0.1206706680989046 -0.14890321839168569 0 -0.10808475609616081 -0.14774312387747929 0 -0.1041848111446652 -0.15822342055318639 0 -0.10808475609616081 -0.14774312387747929 0 -0.093953651360734483 -0.14914235013022789 0 -0.10808475609616081 -0.14774312387747929 0 -0.10010015403344751 -0.14006720980306739 0 -0.1129113007823002 -0.1371282307830369 0 -0.10808475609616081 -0.14774312387747929 0 -0.093953651360734483 -0.14914235013022789 0 -0.10010015403344751 -0.14006720980306739 0 -0.088329061799746839 -0.13587028251090541 0 -0.093953651360734483 -0.14914235013022789 0 -0.10010015403344751 -0.14006720980306739 0 -0.088329061799746839 -0.13587028251090541 0 -0.1000214264687898 -0.1290503741148985 0 -0.10010015403344751 -0.14006720980306739 0 -0.1000214264687898 -0.1290503741148985 0 -0.10010015403344751 -0.14006720980306739 0 -0.1129113007823002 -0.1371282307830369 0 -0.1170758862506653 -0.1228717099769169 0 -0.1129113007823002 -0.1371282307830369 0 -0.1333711449083074 -0.13606964512696471 0 -0.1170758862506653 -0.1228717099769169 0 -0.1000214264687898 -0.1290503741148985 0 -0.1129113007823002 -0.1371282307830369 0 -0.1333711449083074 -0.13606964512696471 0 -0.1323942407210463 -0.118963604282387 0 -0.14475088483824189 -0.12378360447354581 0 -0.1170758862506653 -0.1228717099769169 0 -0.1333711449083074 -0.13606964512696471 0 -0.1323942407210463 -0.118963604282387 0 -0.15413205112095779 -0.13693664177922621 0 -0.16262860399132101 -0.12254601022866581 0 -0.14475088483824189 -0.12378360447354581 0 -0.1333711449083074 -0.13606964512696471 0 -0.15413205112095779 -0.13693664177922621 0 -0.14475088483824189 -0.12378360447354581 0 -0.15413205112095779 -0.13693664177922621 0 -0.14720542065248199 -0.15047655512965791 0 -0.1620360991844158 -0.15373577721034479 0 -0.1333711449083074 -0.13606964512696471 0 -0.15413205112095779 -0.13693664177922621 0 -0.14720542065248199 -0.15047655512965791 0 -0.1206706680989046 -0.14890321839168569 0 -0.1333711449083074 -0.13606964512696471 0 -0.1324942085929128 -0.15216763195841809 0 -0.1333711449083074 -0.13606964512696471 0 -0.14720542065248199 -0.15047655512965791 0 -0.1324942085929128 -0.15216763195841809 0 -0.14720542065248199 -0.15047655512965791 0 -0.1324942085929128 -0.15216763195841809 0 -0.1345425581583779 -0.16525597428601141 0 -0.116754228912556 -0.15985964487889731 0 -0.1324942085929128 -0.15216763195841809 0 -0.1345425581583779 -0.16525597428601141 0 -0.1191961868881103 -0.17252958349243461 0 -0.1345425581583779 -0.16525597428601141 0 -0.13059930323865759 -0.1766672674865386 0 -0.1225472103470182 -0.18330229632466249 0 -0.13059930323865759 -0.1766672674865386 0 -0.13554389986968851 -0.18658700359646091 0 -0.1345425581583779 -0.16525597428601141 0 -0.13059930323865759 -0.1766672674865386 0 -0.14116666093009339 -0.1756614797331236 0 -0.13059930323865759 -0.1766672674865386 0 -0.13554389986968851 -0.18658700359646091 0 -0.14116666093009339 -0.1756614797331236 0 -0.13554389986968851 -0.18658700359646091 0 -0.14116666093009339 -0.1756614797331236 0 -0.15155804186961461 -0.1823435778334688 0 -0.14116666093009339 -0.1756614797331236 0 -0.15155804186961461 -0.1823435778334688 0 -0.14998400968769171 -0.1672320427245646 0 -0.15155804186961461 -0.1823435778334688 0 -0.14998400968769171 -0.1672320427245646 0 -0.16418362643449319 -0.17121972000912369 0 -0.14720542065248199 -0.15047655512965791 0 -0.14998400968769171 -0.1672320427245646 0 -0.1620360991844158 -0.15373577721034479 0 -0.14720542065248199 -0.15047655512965791 0 -0.1345425581583779 -0.16525597428601141 0 -0.14998400968769171 -0.1672320427245646 0 -0.1345425581583779 -0.16525597428601141 0 -0.14116666093009339 -0.1756614797331236 0 -0.14998400968769171 -0.1672320427245646 0 -0.14998400968769171 -0.1672320427245646 0 -0.16418362643449319 -0.17121972000912369 0 -0.1620360991844158 -0.15373577721034479 0 -0.16418362643449319 -0.17121972000912369 0 -0.18073262454237229 -0.158227480603787 0 -0.1620360991844158 -0.15373577721034479 0 -0.15155804186961461 -0.1823435778334688 0 -0.16418362643449319 -0.17121972000912369 0 -0.16695969623542509 -0.18912108779637199 0 -0.16418362643449319 -0.17121972000912369 0 -0.17293448338375239 -0.1940898597180096 0 -0.16418362643449319 -0.17121972000912369 0 -0.16695969623542509 -0.18912108779637199 0 -0.17293448338375239 -0.1940898597180096 0 -0.16418362643449319 -0.17121972000912369 0 -0.179991962295281 -0.17788351445726289 0 -0.17293448338375239 -0.1940898597180096 0 -0.179991962295281 -0.17788351445726289 0 -0.17293448338375239 -0.1940898597180096 0 -0.19159021753080621 -0.19021262325770441 0 -0.16418362643449319 -0.17121972000912369 0 -0.179991962295281 -0.17788351445726289 0 -0.18073262454237229 -0.158227480603787 0 -0.179991962295281 -0.17788351445726289 0 -0.18073262454237229 -0.158227480603787 0 -0.19465134661280609 -0.17329331645286999 0 -0.18073262454237229 -0.158227480603787 0 -0.1761398098721462 -0.13790684195541611 0 -0.197594241661706 -0.13963917261529729 0 -0.18073262454237229 -0.158227480603787 0 -0.1761398098721462 -0.13790684195541611 0 -0.1620360991844158 -0.15373577721034479 0 -0.1761398098721462 -0.13790684195541611 0 -0.17830519995459931 -0.1173302348113832 0 -0.16262860399132101 -0.12254601022866581 0 -0.1761398098721462 -0.13790684195541611 0 -0.19615448496305321 -0.1235900824752859 0 -0.17830519995459931 -0.1173302348113832 0 -0.1761398098721462 -0.13790684195541611 0 -0.197594241661706 -0.13963917261529729 0 -0.15413205112095779 -0.13693664177922621 0 -0.1761398098721462 -0.13790684195541611 0 -0.16262860399132101 -0.12254601022866581 0 -0.15413205112095779 -0.13693664177922621 0 -0.1761398098721462 -0.13790684195541611 0 -0.1620360991844158 -0.15373577721034479 0 -0.14950339401945839 -0.24981374083537469 0 -0.135224960833768 -0.24789050302248111 0 -0.14611956417798691 -0.23225516363371301 0 -0.14950339401945839 -0.24981374083537469 0 -0.14611956417798691 -0.23225516363371301 0 -0.16818652220814589 -0.242690561488875 0 -0.1202568717247048 -0.25592831442403741 0 -0.1207587090647011 -0.23790882680965489 0 -0.135224960833768 -0.24789050302248111 0 -0.1207587090647011 -0.23790882680965489 0 -0.14611956417798691 -0.23225516363371301 0 -0.1207587090647011 -0.23790882680965489 0 -0.135224960833768 -0.24789050302248111 0 -0.14611956417798691 -0.23225516363371301 0 -0.1211861265671469 -0.22256153441496129 0 -0.1207587090647011 -0.23790882680965489 0 -0.14611956417798691 -0.23225516363371301 0 -0.1211861265671469 -0.22256153441496129 0 -0.14633327292920961 -0.22458151743636601 0 -0.14611956417798691 -0.23225516363371301 0 -0.1212272992560946 -0.2210831455040432 0 -0.1211861265671469 -0.22256153441496129 0 -0.14633327292920961 -0.22458151743636601 0 -0.1212272992560946 -0.2210831455040432 0 -0.14633327292920961 -0.22458151743636601 0 -0.14993349513103199 -0.2150417093493425 0 -0.1211861265671469 -0.22256153441496129 0 -0.14633327292920961 -0.22458151743636601 0 -0.14633327292920961 -0.22458151743636601 0 -0.14993349513103199 -0.2150417093493425 0 -0.17148041929127231 -0.22660150045776981 0 -0.14633327292920961 -0.22458151743636601 0 -0.14611956417798691 -0.23225516363371301 0 -0.17148041929127231 -0.22660150045776981 0 -0.14993349513103199 -0.2150417093493425 0 -0.14693551963454149 -0.19652671667241339 0 -0.1614528228986212 -0.2005118283445132 0 -0.14993349513103199 -0.2150417093493425 0 -0.1325318814923532 -0.20146001599417049 0 -0.14693551963454149 -0.19652671667241339 0 -0.1214172066551381 -0.21426413513511039 0 -0.1212272992560946 -0.2210831455040432 0 -0.14993349513103199 -0.2150417093493425 0 -0.1214172066551381 -0.21426413513511039 0 -0.14993349513103199 -0.2150417093493425 0 -0.1325318814923532 -0.20146001599417049 0 -0.1212272992560946 -0.2210831455040432 0 -0.14993349513103199 -0.2150417093493425 0 -0.12451201569035369 -0.1934438937872491 0 -0.13554389986968851 -0.18658700359646091 0 -0.1325318814923532 -0.20146001599417049 0 -0.12451201569035369 -0.1934438937872491 0 -0.1225472103470182 -0.18330229632466249 0 -0.13554389986968851 -0.18658700359646091 0 -0.13554389986968851 -0.18658700359646091 0 -0.1325318814923532 -0.20146001599417049 0 -0.14693551963454149 -0.19652671667241339 0 -0.13554389986968851 -0.18658700359646091 0 -0.15155804186961461 -0.1823435778334688 0 -0.14693551963454149 -0.19652671667241339 0 -0.14693551963454149 -0.19652671667241339 0 -0.15657634850056479 -0.19228454949075649 0 -0.1614528228986212 -0.2005118283445132 0 -0.15155804186961461 -0.1823435778334688 0 -0.14693551963454149 -0.19652671667241339 0 -0.15657634850056479 -0.19228454949075649 0 -0.1614528228986212 -0.2005118283445132 0 -0.17293448338375239 -0.1940898597180096 0 -0.1786396910059691 -0.2090002731946399 0 -0.15657634850056479 -0.19228454949075649 0 -0.1614528228986212 -0.2005118283445132 0 -0.16695969623542509 -0.18912108779637199 0 -0.15155804186961461 -0.1823435778334688 0 -0.15657634850056479 -0.19228454949075649 0 -0.16695969623542509 -0.18912108779637199 0 -0.16695969623542509 -0.18912108779637199 0 -0.17293448338375239 -0.1940898597180096 0 -0.1614528228986212 -0.2005118283445132 0 -0.16695969623542509 -0.18912108779637199 0 -0.17293448338375239 -0.1940898597180096 0 -0.17293448338375239 -0.1940898597180096 0 -0.18839500936716411 -0.20694719262260269 0 -0.19159021753080621 -0.19021262325770441 0 -0.17293448338375239 -0.1940898597180096 0 -0.18839500936716411 -0.20694719262260269 0 -0.17293448338375239 -0.1940898597180096 0 -0.1786396910059691 -0.2090002731946399 0 -0.1786396910059691 -0.2090002731946399 0 -0.1864814805700418 -0.2157025755764915 0 -0.18839500936716411 -0.20694719262260269 0 -0.17293448338375239 -0.1940898597180096 0 -0.1786396910059691 -0.2090002731946399 0 -0.18839500936716411 -0.20694719262260269 0 -0.1786396910059691 -0.2090002731946399 0 -0.18839500936716411 -0.20694719262260269 0 -0.1786396910059691 -0.2090002731946399 0 -0.18428247864442099 -0.22374755364809881 0 -0.1786396910059691 -0.2090002731946399 0 -0.1864814805700418 -0.2157025755764915 0 -0.18428247864442099 -0.22374755364809881 0 -0.14993349513103199 -0.2150417093493425 0 -0.1786396910059691 -0.2090002731946399 0 -0.14993349513103199 -0.2150417093493425 0 -0.1786396910059691 -0.2090002731946399 0 -0.17148041929127231 -0.22660150045776981 0 -0.14993349513103199 -0.2150417093493425 0 -0.1614528228986212 -0.2005118283445132 0 -0.1786396910059691 -0.2090002731946399 0 -0.14611956417798691 -0.23225516363371301 0 -0.17148041929127231 -0.22660150045776981 0 -0.16818652220814589 -0.242690561488875 0 -0.14633327292920961 -0.22458151743636601 0 -0.17148041929127231 -0.22660150045776981 0 -0.14611956417798691 -0.23225516363371301 0 -0.17148041929127231 -0.22660150045776981 0 -0.17148041929127231 -0.22660150045776981 0 -0.17674015525875941 -0.23387634310441929 0 -0.16818652220814589 -0.242690561488875 0 -0.17148041929127231 -0.22660150045776981 0 -0.18428247864442099 -0.22374755364809881 0 -0.1786396910059691 -0.2090002731946399 0 -0.17148041929127231 -0.22660150045776981 0 -0.18428247864442099 -0.22374755364809881 0 -0.1864814805700418 -0.2157025755764915 0 -0.18428247864442099 -0.22374755364809881 0 -0.18933986353540971 -0.22262011726643721 0 -0.17148041929127231 -0.22660150045776981 0 -0.18428247864442099 -0.22374755364809881 0 -0.18581507452143911 -0.22775295357955549 0 -0.18428247864442099 -0.22374755364809881 0 -0.18581507452143911 -0.22775295357955549 0 -0.18428247864442099 -0.22374755364809881 0 -0.18581507452143911 -0.22775295357955549 0 -0.18933986353540971 -0.22262011726643721 0 -0.18428247864442099 -0.22374755364809881 0 -0.18933986353540971 -0.22262011726643721 0 -0.1839082126823646 -0.23358547870159441 0 -0.18581507452143911 -0.22775295357955549 0 -0.17674015525875941 -0.23387634310441929 0 -0.1839082126823646 -0.23358547870159441 0 -0.18671464509408811 -0.23010395814903381 0 -0.18671464509408811 -0.23010395814903381 0 -0.18581507452143911 -0.22775295357955549 0 -0.18843982123806491 -0.2279637903769689 0 -0.1839082126823646 -0.23358547870159441 0 -0.18671464509408811 -0.23010395814903381 0 -0.18581507452143911 -0.22775295357955549 0 -0.18671464509408811 -0.23010395814903381 0 -0.18581507452143911 -0.22775295357955549 0 -0.18581507452143911 -0.22775295357955549 0 -0.18843982123806491 -0.2279637903769689 0 -0.17148041929127231 -0.22660150045776981 0 -0.18581507452143911 -0.22775295357955549 0 -0.17148041929127231 -0.22660150045776981 0 -0.18581507452143911 -0.22775295357955549 0 -0.17674015525875941 -0.23387634310441929 0 -0.1839082126823646 -0.23358547870159441 0 -0.17674015525875941 -0.23387634310441929 0 -0.17821096717810911 -0.24181830014894981 0 -0.17674015525875941 -0.23387634310441929 0 -0.17821096717810911 -0.24181830014894981 0 -0.16818652220814589 -0.242690561488875 0 -0.1839082126823646 -0.23358547870159441 0 -0.17821096717810911 -0.24181830014894981 0 -0.18473471383680221 -0.24292955162704369 0 -0.1839082126823646 -0.23358547870159441 0 -0.18671464509408811 -0.23010395814903381 0 -0.18473471383680221 -0.24292955162704369 0 -0.1782978193185433 -0.25664854058420161 0 -0.17821096717810911 -0.24181830014894981 0 -0.18473471383680221 -0.24292955162704369 0 -0.1782978193185433 -0.25664854058420161 0 -0.17821096717810911 -0.24181830014894981 0 -0.16818652220814589 -0.242690561488875 0 -0.1957441448692005 -0.25370232372117441 0 -0.21676030625241591 -0.25015325724963899 0 -0.19957890433680889 -0.23870834794767029 0 -0.21676030625241591 -0.25015325724963899 0 -0.19957890433680889 -0.23870834794767029 0 -0.21636398295335221 -0.2302068414070792 0 -0.1957441448692005 -0.25370232372117441 0 -0.18671464509408811 -0.23010395814903381 0 -0.1957441448692005 -0.25370232372117441 0 -0.18671464509408811 -0.23010395814903381 0 -0.19957890433680889 -0.23870834794767029 0 -0.1957441448692005 -0.25370232372117441 0 -0.18671464509408811 -0.23010395814903381 0 -0.18473471383680221 -0.24292955162704369 0 -0.18843982123806491 -0.2279637903769689 0 -0.21636398295335221 -0.2302068414070792 0 -0.198564133074104 -0.21540407235544079 0 -0.18843982123806491 -0.2279637903769689 0 -0.21636398295335221 -0.2302068414070792 0 -0.19957890433680889 -0.23870834794767029 0 -0.18843982123806491 -0.2279637903769689 0 -0.21636398295335221 -0.2302068414070792 0 -0.18671464509408811 -0.23010395814903381 0 -0.19957890433680889 -0.23870834794767029 0 -0.18843982123806491 -0.2279637903769689 0 -0.18671464509408811 -0.23010395814903381 0 -0.18843982123806491 -0.2279637903769689 0 -0.18843982123806491 -0.2279637903769689 0 -0.18933986353540971 -0.22262011726643721 0 -0.198564133074104 -0.21540407235544079 0 -0.18843982123806491 -0.2279637903769689 0 -0.198564133074104 -0.21540407235544079 0 -0.18581507452143911 -0.22775295357955549 0 -0.18843982123806491 -0.2279637903769689 0 -0.18933986353540971 -0.22262011726643721 0 -0.21636398295335221 -0.2302068414070792 0 -0.20966743853720879 -0.215412317837265 0 -0.198564133074104 -0.21540407235544079 0 -0.21636398295335221 -0.2302068414070792 0 -0.198564133074104 -0.21540407235544079 0 -0.21636398295335221 -0.2302068414070792 0 -0.20966743853720879 -0.215412317837265 0 -0.21907623390101211 -0.22080684251216481 0 -0.21596676999871281 -0.21534277253719331 0 -0.20966743853720879 -0.215412317837265 0 -0.21907623390101211 -0.22080684251216481 0 -0.21596676999871281 -0.21534277253719331 0 -0.2133649099674815 -0.20836255138546189 0 -0.20966743853720879 -0.215412317837265 0 -0.21596676999871281 -0.21534277253719331 0 -0.21858805729776309 -0.2106477607533076 0 -0.2133649099674815 -0.20836255138546189 0 -0.2133649099674815 -0.20836255138546189 0 -0.20885160380516141 -0.20264194751878539 0 -0.22053373071124779 -0.20379587366954871 0 -0.21858805729776309 -0.2106477607533076 0 -0.2133649099674815 -0.20836255138546189 0 -0.22053373071124779 -0.20379587366954871 0 -0.2133649099674815 -0.20836255138546189 0 -0.20966743853720879 -0.215412317837265 0 -0.20885160380516141 -0.20264194751878539 0 -0.198564133074104 -0.21540407235544079 0 -0.20885160380516141 -0.20264194751878539 0 -0.20966743853720879 -0.215412317837265 0 -0.198564133074104 -0.21540407235544079 0 -0.20885160380516141 -0.20264194751878539 0 -0.198564133074104 -0.21540407235544079 0 -0.18839500936716411 -0.20694719262260269 0 -0.20885160380516141 -0.20264194751878539 0 -0.18839500936716411 -0.20694719262260269 0 -0.20885160380516141 -0.20264194751878539 0 -0.198564133074104 -0.21540407235544079 0 -0.19147567301576021 -0.2159298184894328 0 -0.18839500936716411 -0.20694719262260269 0 -0.18933986353540971 -0.22262011726643721 0 -0.198564133074104 -0.21540407235544079 0 -0.19147567301576021 -0.2159298184894328 0 -0.198564133074104 -0.21540407235544079 0 -0.18839500936716411 -0.20694719262260269 0 -0.1864814805700418 -0.2157025755764915 0 -0.19147567301576021 -0.2159298184894328 0 -0.18839500936716411 -0.20694719262260269 0 -0.1864814805700418 -0.2157025755764915 0 -0.18933986353540971 -0.22262011726643721 0 -0.19147567301576021 -0.2159298184894328 0 -0.18839500936716411 -0.20694719262260269 0 -0.19159021753080621 -0.19021262325770441 0 -0.20885160380516141 -0.20264194751878539 0 -0.19159021753080621 -0.19021262325770441 0 -0.20885160380516141 -0.20264194751878539 0 -0.20650905912669959 -0.1846506263625198 0 -0.20885160380516141 -0.20264194751878539 0 -0.20650905912669959 -0.1846506263625198 0 -0.22613660279328501 -0.18119903694778011 0 -0.20885160380516141 -0.20264194751878539 0 -0.22613660279328501 -0.18119903694778011 0 -0.20885160380516141 -0.20264194751878539 0 -0.22053373071124779 -0.20379587366954871 0 -0.22613660279328501 -0.18119903694778011 0 -0.23785661013386039 -0.18865909171883499 0 -0.23038389112669061 -0.20506482495912201 0 -0.22613660279328501 -0.18119903694778011 0 -0.23038389112669061 -0.20506482495912201 0 -0.22613660279328501 -0.18119903694778011 0 -0.23038389112669061 -0.20506482495912201 0 -0.22053373071124779 -0.20379587366954871 0 -0.22613660279328501 -0.18119903694778011 0 -0.23785661013386039 -0.18865909171883499 0 -0.24412641139680771 -0.20143993915243291 0 -0.23038389112669061 -0.20506482495912201 0 -0.23785661013386039 -0.18865909171883499 0 -0.24412641139680771 -0.20143993915243291 0 -0.25746937539176168 -0.1964820274251777 0 -0.23785661013386039 -0.18865909171883499 0 -0.25746937539176168 -0.1964820274251777 0 -0.24412641139680771 -0.20143993915243291 0 -0.24741945388435951 -0.2132382388286263 0 -0.23038389112669061 -0.20506482495912201 0 -0.24741945388435951 -0.2132382388286263 0 -0.23038389112669061 -0.20506482495912201 0 -0.24240703569839481 -0.2230616044812872 0 -0.23038389112669061 -0.20506482495912201 0 -0.2346311794600964 -0.22893061297046391 0 -0.23038389112669061 -0.20506482495912201 0 -0.2253114309419427 -0.21468956945564169 0 -0.2346311794600964 -0.22893061297046391 0 -0.21858805729776309 -0.2106477607533076 0 -0.22053373071124779 -0.20379587366954871 0 -0.2253114309419427 -0.21468956945564169 0 -0.23038389112669061 -0.20506482495912201 0 -0.22053373071124779 -0.20379587366954871 0 -0.2253114309419427 -0.21468956945564169 0 -0.21596676999871281 -0.21534277253719331 0 -0.21858805729776309 -0.2106477607533076 0 -0.2253114309419427 -0.21468956945564169 0 -0.21596676999871281 -0.21534277253719331 0 -0.2253114309419427 -0.21468956945564169 0 -0.21907623390101211 -0.22080684251216481 0 -0.21636398295335221 -0.2302068414070792 0 -0.23512652133470141 -0.23171397102023661 0 -0.21636398295335221 -0.2302068414070792 0 -0.22731990341667049 -0.22441736742839241 0 -0.23512652133470141 -0.23171397102023661 0 -0.2253114309419427 -0.21468956945564169 0 -0.21907623390101211 -0.22080684251216481 0 -0.22731990341667049 -0.22441736742839241 0 -0.21636398295335221 -0.2302068414070792 0 -0.21907623390101211 -0.22080684251216481 0 -0.22731990341667049 -0.22441736742839241 0 -0.22731990341667049 -0.22441736742839241 0 -0.2346311794600964 -0.22893061297046391 0 -0.23512652133470141 -0.23171397102023661 0 -0.22731990341667049 -0.22441736742839241 0 -0.2346311794600964 -0.22893061297046391 0 -0.2253114309419427 -0.21468956945564169 0 -0.22731990341667049 -0.22441736742839241 0 -0.2346311794600964 -0.22893061297046391 0 -0.23038389112669061 -0.20506482495912201 0 -0.24240703569839481 -0.2230616044812872 0 -0.2346311794600964 -0.22893061297046391 0 -0.24741945388435951 -0.2132382388286263 0 -0.24240703569839481 -0.2230616044812872 0 -0.25262611591903539 -0.22400372494419901 0 -0.24240703569839481 -0.2230616044812872 0 -0.24768526661111701 -0.2281283434359743 0 -0.25262611591903539 -0.22400372494419901 0 -0.24768526661111701 -0.2281283434359743 0 -0.2435809463426212 -0.23239308564922639 0 -0.25284123069700443 -0.23192607249552791 0 -0.24240703569839481 -0.2230616044812872 0 -0.24768526661111701 -0.2281283434359743 0 -0.2435809463426212 -0.23239308564922639 0 -0.24240703569839481 -0.2230616044812872 0 -0.23974050555801121 -0.23208459636507769 0 -0.2346311794600964 -0.22893061297046391 0 -0.24240703569839481 -0.2230616044812872 0 -0.2435809463426212 -0.23239308564922639 0 -0.23974050555801121 -0.23208459636507769 0 -0.2435809463426212 -0.23239308564922639 0 -0.23974050555801121 -0.23208459636507769 0 -0.2346311794600964 -0.22893061297046391 0 -0.23512652133470141 -0.23171397102023661 0 -0.23974050555801121 -0.23208459636507769 0 -0.2346311794600964 -0.22893061297046391 0 -0.23974050555801121 -0.23208459636507769 0 -0.23512652133470141 -0.23171397102023661 0 -0.23974050555801121 -0.23208459636507769 0 -0.2346311794600964 -0.22893061297046391 0 -0.23512652133470141 -0.23171397102023661 0 -0.23777646763563109 -0.24660419077810361 0 -0.25716779966087988 -0.24332951444333839 0 -0.23974050555801121 -0.23208459636507769 0 -0.25716779966087988 -0.24332951444333839 0 -0.23974050555801121 -0.23208459636507769 0 -0.23777646763563109 -0.24660419077810361 0 -0.25716779966087988 -0.24332951444333839 0 -0.23512652133470141 -0.23171397102023661 0 -0.23777646763563109 -0.24660419077810361 0 -0.24802376513885799 -0.25056218103589212 0 -0.23777646763563109 -0.24660419077810361 0 -0.25716779966087988 -0.24332951444333839 0 -0.2435809463426212 -0.23239308564922639 0 -0.23974050555801121 -0.23208459636507769 0 -0.25716779966087988 -0.24332951444333839 0 -0.23974050555801121 -0.23208459636507769 0 -0.23512652133470141 -0.23171397102023661 0 -0.23777646763563109 -0.24660419077810361 0 -0.23512652133470141 -0.23171397102023661 0 -0.23777646763563109 -0.24660419077810361 0 -0.23160486789359561 -0.2428815157129568 0 -0.21676030625241591 -0.25015325724963899 0 -0.21636398295335221 -0.2302068414070792 0 -0.23160486789359561 -0.2428815157129568 0 -0.21636398295335221 -0.2302068414070792 0 -0.23512652133470141 -0.23171397102023661 0 -0.23160486789359561 -0.2428815157129568 0 -0.21676030625241591 -0.25015325724963899 0 -0.23777646763563109 -0.24660419077810361 0 -0.23160486789359561 -0.2428815157129568 0 -0.21676030625241591 -0.25015325724963899 0 -0.23777646763563109 -0.24660419077810361 0 -0.21636398295335221 -0.2302068414070792 0 -0.23160486789359561 -0.2428815157129568 0 -0.197594241661706 -0.13963917261529729 0 -0.2039241726435165 -0.15744132383831019 0 -0.21904867345126611 -0.14137150327517639 0 -0.2039241726435165 -0.15744132383831019 0 -0.22259263812227581 -0.16128527011147811 0 -0.21904867345126611 -0.14137150327517639 0 -0.21858534286516859 -0.13876801872716071 0 -0.2115880829534276 -0.12871430657271621 0 -0.197594241661706 -0.13963917261529729 0 -0.197594241661706 -0.13963917261529729 0 -0.21904867345126611 -0.14137150327517639 0 -0.21858534286516859 -0.13876801872716071 0 -0.197594241661706 -0.13963917261529729 0 -0.21904867345126611 -0.14137150327517639 0 -0.21858534286516859 -0.13876801872716071 0 -0.2115880829534276 -0.12871430657271621 0 -0.2231117892525088 -0.125129578033182 0 -0.2115880829534276 -0.12871430657271621 0 -0.197594241661706 -0.13963917261529729 0 -0.19615448496305321 -0.1235900824752859 0 -0.1761398098721462 -0.13790684195541611 0 -0.197594241661706 -0.13963917261529729 0 -0.19615448496305321 -0.1235900824752859 0 -0.18073262454237229 -0.158227480603787 0 -0.197594241661706 -0.13963917261529729 0 -0.2039241726435165 -0.15744132383831019 0 -0.18073262454237229 -0.158227480603787 0 -0.19465134661280609 -0.17329331645286999 0 -0.2039241726435165 -0.15744132383831019 0 -0.19465134661280609 -0.17329331645286999 0 -0.2039241726435165 -0.15744132383831019 0 -0.21076276385971651 -0.17157391474259159 0 -0.179991962295281 -0.17788351445726289 0 -0.19159021753080621 -0.19021262325770441 0 -0.19465134661280609 -0.17329331645286999 0 -0.19159021753080621 -0.19021262325770441 0 -0.19465134661280609 -0.17329331645286999 0 -0.20650905912669959 -0.1846506263625198 0 -0.19465134661280609 -0.17329331645286999 0 -0.20650905912669959 -0.1846506263625198 0 -0.21076276385971651 -0.17157391474259159 0 -0.20650905912669959 -0.1846506263625198 0 -0.21076276385971651 -0.17157391474259159 0 -0.22613660279328501 -0.18119903694778011 0 -0.2039241726435165 -0.15744132383831019 0 -0.21076276385971651 -0.17157391474259159 0 -0.22259263812227581 -0.16128527011147811 0 -0.21076276385971651 -0.17157391474259159 0 -0.22259263812227581 -0.16128527011147811 0 -0.22613660279328501 -0.18119903694778011 0 -0.22259263812227581 -0.16128527011147811 0 -0.22613660279328501 -0.18119903694778011 0 -0.23972932328866639 -0.16433658354530001 0 -0.22259263812227581 -0.16128527011147811 0 -0.22613660279328501 -0.18119903694778011 0 -0.22613660279328501 -0.18119903694778011 0 -0.23972932328866639 -0.16433658354530001 0 -0.23785661013386039 -0.18865909171883499 0 -0.24717494319197139 -0.17741243323831901 0 -0.25746937539176168 -0.1964820274251777 0 -0.23785661013386039 -0.18865909171883499 0 -0.22613660279328501 -0.18119903694778011 0 -0.24717494319197139 -0.17741243323831901 0 -0.22613660279328501 -0.18119903694778011 0 -0.24717494319197139 -0.17741243323831901 0 -0.23972932328866639 -0.16433658354530001 0 -0.22259263812227581 -0.16128527011147811 0 -0.23972932328866639 -0.16433658354530001 0 -0.24883804199027751 -0.14377683551444781 0 -0.24717494319197139 -0.17741243323831901 0 -0.23972932328866639 -0.16433658354530001 0 -0.25617324025123772 -0.15932421745894301 0 -0.23972932328866639 -0.16433658354530001 0 -0.24883804199027751 -0.14377683551444781 0 -0.25617324025123772 -0.15932421745894301 0 -0.21858534286516859 -0.13876801872716071 0 -0.24883804199027751 -0.14377683551444781 0 -0.21904867345126611 -0.14137150327517639 0 -0.22259263812227581 -0.16128527011147811 0 -0.21904867345126611 -0.14137150327517639 0 -0.22259263812227581 -0.16128527011147811 0 -0.24883804199027751 -0.14377683551444781 0 -0.21904867345126611 -0.14137150327517639 0 -0.24883804199027751 -0.14377683551444781 0 -0.21904867345126611 -0.14137150327517639 0 -0.21858534286516859 -0.13876801872716071 0 -0.24883804199027751 -0.14377683551444781 0 -0.2231117892525088 -0.125129578033182 0 -0.21858534286516859 -0.13876801872716071 0 -0.21904867345126611 -0.14137150327517639 0 -0.24883804199027751 -0.14377683551444781 0 -0.2231117892525088 -0.125129578033182 0 -0.2381304364260618 -0.1198190330824674 0 -0.24883804199027751 -0.14377683551444781 0 -0.2381304364260618 -0.1198190330824674 0 -0.25419369594462271 -0.1155583014554987 0 -0.2381304364260618 -0.1198190330824674 0 -0.23762079489134699 -0.1018863883374498 0 -0.25419369594462271 -0.1155583014554987 0 -0.23762079489134699 -0.1018863883374498 0 -0.25419369594462271 -0.1155583014554987 0 -0.25261571898206031 -0.094261252835925555 0 -0.23762079489134699 -0.1018863883374498 0 -0.22401523452360531 -0.099167618875042898 0 -0.22404018786121671 -0.1137021802590973 0 -0.23762079489134699 -0.1018863883374498 0 -0.22401523452360531 -0.099167618875042898 0 -0.22804510148759749 -0.087804892731352224 0 -0.22401523452360531 -0.099167618875042898 0 -0.22404018786121671 -0.1137021802590973 0 -0.21476265198965341 -0.108838564581304 0 -0.2381304364260618 -0.1198190330824674 0 -0.23762079489134699 -0.1018863883374498 0 -0.22404018786121671 -0.1137021802590973 0 -0.2231117892525088 -0.125129578033182 0 -0.22404018786121671 -0.1137021802590973 0 -0.2174682744267005 -0.1211845139135138 0 -0.2231117892525088 -0.125129578033182 0 -0.2381304364260618 -0.1198190330824674 0 -0.22404018786121671 -0.1137021802590973 0 -0.24115193262689991 -0.068699935576816237 0 -0.24167578351709151 -0.084288062323390811 0 -0.26058885016140931 -0.080342048453295428 0 -0.24115193262689991 -0.068699935576816237 0 -0.24167578351709151 -0.084288062323390811 0 -0.2259419059556026 -0.073033038181390342 0 -0.23762079489134699 -0.1018863883374498 0 -0.24167578351709151 -0.084288062323390811 0 -0.25261571898206031 -0.094261252835925555 0 -0.23762079489134699 -0.1018863883374498 0 -0.24167578351709151 -0.084288062323390811 0 -0.22804510148759749 -0.087804892731352224 0 -0.24167578351709151 -0.084288062323390811 0 -0.22804510148759749 -0.087804892731352224 0 -0.2259419059556026 -0.073033038181390342 0 -0.22401523452360531 -0.099167618875042898 0 -0.22804510148759749 -0.087804892731352224 0 -0.21524690102651201 -0.094221525432508002 0 -0.22804510148759749 -0.087804892731352224 0 -0.21648091797180261 -0.082801080029083915 0 -0.21524690102651201 -0.094221525432508002 0 -0.22804510148759749 -0.087804892731352224 0 -0.2259419059556026 -0.073033038181390342 0 -0.21648091797180261 -0.082801080029083915 0 -0.2259419059556026 -0.073033038181390342 0 -0.21419619228465511 -0.059495609460374313 0 -0.232030852017241 -0.055135929256138187 0 -0.24115193262689991 -0.068699935576816237 0 -0.2259419059556026 -0.073033038181390342 0 -0.232030852017241 -0.055135929256138187 0 -0.21078792852721129 -0.073112933389898854 0 -0.2031906659028915 -0.08759017386549417 0 -0.19750837336331789 -0.066745456561026234 0 -0.21078792852721129 -0.073112933389898854 0 -0.19750837336331789 -0.066745456561026234 0 -0.21419619228465511 -0.059495609460374313 0 -0.2259419059556026 -0.073033038181390342 0 -0.21078792852721129 -0.073112933389898854 0 -0.21419619228465511 -0.059495609460374313 0 -0.2259419059556026 -0.073033038181390342 0 -0.21078792852721129 -0.073112933389898854 0 -0.21648091797180261 -0.082801080029083915 0 -0.21078792852721129 -0.073112933389898854 0 -0.21648091797180261 -0.082801080029083915 0 -0.2031906659028915 -0.08759017386549417 0 -0.21648091797180261 -0.082801080029083915 0 -0.2031906659028915 -0.08759017386549417 0 -0.21524690102651201 -0.094221525432508002 0 -0.2031906659028915 -0.08759017386549417 0 -0.1899288162147483 -0.083551720932969725 0 -0.19750837336331789 -0.066745456561026234 0 -0.2031906659028915 -0.08759017386549417 0 -0.1899288162147483 -0.083551720932969725 0 -0.19151960403773169 -0.095219394919294681 0 -0.19750837336331789 -0.066745456561026234 0 -0.1836000085744284 -0.064321255689838777 0 -0.18184408218468651 -0.074447003335202044 0 -0.1899288162147483 -0.083551720932969725 0 -0.19750837336331789 -0.066745456561026234 0 -0.18184408218468651 -0.074447003335202044 0 -0.19750837336331789 -0.066745456561026234 0 -0.18184408218468651 -0.074447003335202044 0 -0.21113303763964911 -0.11719199078905961 0 -0.21476265198965341 -0.108838564581304 0 -0.20205801747808949 -0.1107150557265322 0 -0.21113303763964911 -0.11719199078905961 0 -0.20205801747808949 -0.1107150557265322 0 -0.19615448496305321 -0.1235900824752859 0 -0.2115880829534276 -0.12871430657271621 0 -0.21113303763964911 -0.11719199078905961 0 -0.19615448496305321 -0.1235900824752859 0 -0.2115880829534276 -0.12871430657271621 0 -0.2231117892525088 -0.125129578033182 0 -0.2174682744267005 -0.1211845139135138 0 -0.2115880829534276 -0.12871430657271621 0 -0.2174682744267005 -0.1211845139135138 0 -0.21113303763964911 -0.11719199078905961 0 -0.22404018786121671 -0.1137021802590973 0 -0.2174682744267005 -0.1211845139135138 0 -0.21113303763964911 -0.11719199078905961 0 -0.22404018786121671 -0.1137021802590973 0 -0.21113303763964911 -0.11719199078905961 0 -0.21476265198965341 -0.108838564581304 0 -0.21476265198965341 -0.108838564581304 0 -0.21524690102651201 -0.094221525432508002 0 -0.20823962603871651 -0.1015762014653644 0 -0.22401523452360531 -0.099167618875042898 0 -0.21476265198965341 -0.108838564581304 0 -0.21524690102651201 -0.094221525432508002 0 -0.2031906659028915 -0.08759017386549417 0 -0.21524690102651201 -0.094221525432508002 0 -0.20823962603871651 -0.1015762014653644 0 -0.2031906659028915 -0.08759017386549417 0 -0.20823962603871651 -0.1015762014653644 0 -0.19905305400803491 -0.1014260130761331 0 -0.21476265198965341 -0.108838564581304 0 -0.20823962603871651 -0.1015762014653644 0 -0.20205801747808949 -0.1107150557265322 0 -0.20823962603871651 -0.1015762014653644 0 -0.19905305400803491 -0.1014260130761331 0 -0.20205801747808949 -0.1107150557265322 0 -0.19905305400803491 -0.1014260130761331 0 -0.1916198982716078 -0.1091723863947347 0 -0.20205801747808949 -0.1107150557265322 0 -0.2031906659028915 -0.08759017386549417 0 -0.19905305400803491 -0.1014260130761331 0 -0.19151960403773169 -0.095219394919294681 0 -0.19151960403773169 -0.095219394919294681 0 -0.1916198982716078 -0.1091723863947347 0 -0.1797443956886664 -0.10329184076446291 0 -0.19905305400803491 -0.1014260130761331 0 -0.19151960403773169 -0.095219394919294681 0 -0.1916198982716078 -0.1091723863947347 0 -0.1916198982716078 -0.1091723863947347 0 -0.19615448496305321 -0.1235900824752859 0 -0.17830519995459931 -0.1173302348113832 0 -0.1916198982716078 -0.1091723863947347 0 -0.20205801747808949 -0.1107150557265322 0 -0.19615448496305321 -0.1235900824752859 0 -0.1916198982716078 -0.1091723863947347 0 -0.17830519995459931 -0.1173302348113832 0 -0.1797443956886664 -0.10329184076446291 0 -0.17830519995459931 -0.1173302348113832 0 -0.1669722847826634 -0.1087030190552665 0 -0.1797443956886664 -0.10329184076446291 0 -0.17830519995459931 -0.1173302348113832 0 -0.16262860399132101 -0.12254601022866581 0 -0.1669722847826634 -0.1087030190552665 0 -0.16262860399132101 -0.12254601022866581 0 -0.1669722847826634 -0.1087030190552665 0 -0.15530240720756669 -0.1118935580266094 0 -0.160363503154799 -0.093997562569388279 0 -0.15713031638227429 -0.1020732085516919 0 -0.16969219909694611 -0.097408341434385079 0 -0.15713031638227429 -0.1020732085516919 0 -0.1669722847826634 -0.1087030190552665 0 -0.15530240720756669 -0.1118935580266094 0 -0.15713031638227429 -0.1020732085516919 0 -0.1669722847826634 -0.1087030190552665 0 -0.16969219909694611 -0.097408341434385079 0 -0.160363503154799 -0.093997562569388279 0 -0.16969219909694611 -0.097408341434385079 0 -0.16646233569245231 -0.091677394433522547 0 -0.16969219909694611 -0.097408341434385079 0 -0.1797443956886664 -0.10329184076446291 0 -0.18035718798845041 -0.091917667971713135 0 -0.1669722847826634 -0.1087030190552665 0 -0.16969219909694611 -0.097408341434385079 0 -0.1797443956886664 -0.10329184076446291 0 -0.19151960403773169 -0.095219394919294681 0 -0.1797443956886664 -0.10329184076446291 0 -0.18035718798845041 -0.091917667971713135 0 -0.17798828737059549 -0.084193236993068674 0 -0.18184408218468651 -0.074447003335202044 0 -0.16617979100605551 -0.082148550109378854 0 -0.1899288162147483 -0.083551720932969725 0 -0.19151960403773169 -0.095219394919294681 0 -0.18035718798845041 -0.091917667971713135 0 -0.18184408218468651 -0.074447003335202044 0 -0.16617979100605551 -0.082148550109378854 0 -0.1899288162147483 -0.083551720932969725 0 -0.18035718798845041 -0.091917667971713135 0 -0.17798828737059549 -0.084193236993068674 0 -0.1899288162147483 -0.083551720932969725 0 -0.17798828737059549 -0.084193236993068674 0 -0.18184408218468651 -0.074447003335202044 0 -0.17798828737059549 -0.084193236993068674 0 -0.17163155945903741 -0.088901242616080595 0 -0.16617979100605551 -0.082148550109378854 0 -0.18035718798845041 -0.091917667971713135 0 -0.17798828737059549 -0.084193236993068674 0 -0.17163155945903741 -0.088901242616080595 0 -0.16969219909694611 -0.097408341434385079 0 -0.18035718798845041 -0.091917667971713135 0 -0.17163155945903741 -0.088901242616080595 0 -0.18184408218468651 -0.074447003335202044 0 -0.16987432107326711 -0.074359476512395495 0 -0.16617979100605551 -0.082148550109378854 0 -0.1836000085744284 -0.064321255689838777 0 -0.16987432107326711 -0.074359476512395495 0 -0.18168889940327551 -0.049451134055945728 0 -0.1836000085744284 -0.064321255689838777 0 -0.18184408218468651 -0.074447003335202044 0 -0.16987432107326711 -0.074359476512395495 0 -0.16987432107326711 -0.074359476512395495 0 -0.14294303144421691 -0.071838573547057083 0 -0.16987432107326711 -0.074359476512395495 0 -0.14294303144421691 -0.071838573547057083 0 -0.15798651330778329 -0.056242689367681051 0 -0.16987432107326711 -0.074359476512395495 0 -0.16617979100605551 -0.082148550109378854 0 -0.14294303144421691 -0.071838573547057083 0 -0.16416208105902669 -0.086402431114236289 0 -0.16617979100605551 -0.082148550109378854 0 -0.14368673999961751 -0.09320754297694761 0 -0.16969219909694611 -0.097408341434385079 0 -0.16646233569245231 -0.091677394433522547 0 -0.17163155945903741 -0.088901242616080595 0 -0.16416208105902669 -0.086402431114236289 0 -0.16646233569245231 -0.091677394433522547 0 -0.17163155945903741 -0.088901242616080595 0 -0.16987432107326711 -0.074359476512395495 0 -0.16617979100605551 -0.082148550109378854 0 -0.16416208105902669 -0.086402431114236289 0 -0.16617979100605551 -0.082148550109378854 0 -0.16416208105902669 -0.086402431114236289 0 -0.17163155945903741 -0.088901242616080595 0 -0.16617979100605551 -0.082148550109378854 0 -0.160363503154799 -0.093997562569388279 0 -0.16416208105902669 -0.086402431114236289 0 -0.16646233569245231 -0.091677394433522547 0 -0.16617979100605551 -0.082148550109378854 0 -0.14368673999961751 -0.09320754297694761 0 -0.14294303144421691 -0.071838573547057083 0 -0.14368673999961751 -0.09320754297694761 0 -0.14294303144421691 -0.071838573547057083 0 -0.16617979100605551 -0.082148550109378854 0 -0.14368673999961751 -0.09320754297694761 0 -0.160363503154799 -0.093997562569388279 0 -0.16416208105902669 -0.086402431114236289 0 -0.14368673999961751 -0.09320754297694761 0 -0.1249640605986297 -0.084896779416902116 0 -0.11718264138600031 -0.069427272618639624 0 -0.14294303144421691 -0.071838573547057083 0 -0.11718264138600031 -0.069427272618639624 0 -0.14294303144421691 -0.071838573547057083 0 -0.11718264138600031 -0.069427272618639624 0 -0.122481117783452 -0.057535868302799997 0 -0.14294303144421691 -0.071838573547057083 0 -0.1249640605986297 -0.084896779416902116 0 -0.14368673999961751 -0.09320754297694761 0 -0.14294303144421691 -0.071838573547057083 0 -0.12255447518908601 -0.10359748810926089 0 -0.14368673999961751 -0.09320754297694761 0 -0.12255447518908601 -0.10359748810926089 0 -0.1249640605986297 -0.084896779416902116 0 -0.14368673999961751 -0.09320754297694761 0 -0.12255447518908601 -0.10359748810926089 0 -0.14368673999961751 -0.09320754297694761 0 -0.144218812418931 -0.10849557372524669 0 -0.12255447518908601 -0.10359748810926089 0 -0.1323942407210463 -0.118963604282387 0 -0.144218812418931 -0.10849557372524669 0 -0.1323942407210463 -0.118963604282387 0 -0.14475088483824189 -0.12378360447354581 0 -0.144218812418931 -0.10849557372524669 0 -0.16262860399132101 -0.12254601022866581 0 -0.14475088483824189 -0.12378360447354581 0 -0.15530240720756669 -0.1118935580266094 0 -0.14475088483824189 -0.12378360447354581 0 -0.144218812418931 -0.10849557372524669 0 -0.14475088483824189 -0.12378360447354581 0 -0.15530240720756669 -0.1118935580266094 0 -0.144218812418931 -0.10849557372524669 0 -0.15713031638227429 -0.1020732085516919 0 -0.15530240720756669 -0.1118935580266094 0 -0.144218812418931 -0.10849557372524669 0 -0.160363503154799 -0.093997562569388279 0 -0.15713031638227429 -0.1020732085516919 0 -0.14368673999961751 -0.09320754297694761 0 -0.14368673999961751 -0.09320754297694761 0 -0.144218812418931 -0.10849557372524669 0 -0.15713031638227429 -0.1020732085516919 0 -0.14368673999961751 -0.09320754297694761 0 -0.144218812418931 -0.10849557372524669 0 -0.15531372486671771 -0.024256711664723599 0 -0.13798080456456391 -0.020309282296771959 0 -0.14189517049207681 -0.041730396774731379 0 -0.15531372486671771 -0.024256711664723599 0 -0.1443311252151166 -0.003638598460695623 0 -0.13798080456456391 -0.020309282296771959 0 -0.15531372486671771 -0.024256711664723599 0 -0.1443311252151166 -0.003638598460695623 0 -0.1671817900639633 -0.0084163161651879936 0 -0.1443311252151166 -0.003638598460695623 0 -0.1671817900639633 -0.0084163161651879936 0 -0.1443311252151166 -0.003638598460695623 0 -0.13798080456456391 -0.020309282296771959 0 -0.1214804603662699 0.001139119243796668 0 -0.1443311252151166 -0.003638598460695623 0 -0.1214804603662699 0.001139119243796668 0 -0.1219807890748608 -0.02819837452950167 0 -0.13798080456456391 -0.020309282296771959 0 -0.14189517049207681 -0.041730396774731379 0 -0.1219807890748608 -0.02819837452950167 0 -0.13798080456456391 -0.020309282296771959 0 -0.1214804603662699 0.001139119243796668 0 -0.122481117783452 -0.057535868302799997 0 -0.1219807890748608 -0.02819837452950167 0 -0.14189517049207681 -0.041730396774731379 0 -0.122481117783452 -0.057535868302799997 0 -0.14294303144421691 -0.071838573547057083 0 -0.14189517049207681 -0.041730396774731379 0 -0.14294303144421691 -0.071838573547057083 0 -0.14189517049207681 -0.041730396774731379 0 -0.15798651330778329 -0.056242689367681051 0 -0.14294303144421691 -0.071838573547057083 0 -0.14189517049207681 -0.041730396774731379 0 -0.15531372486671771 -0.024256711664723599 0 -0.14189517049207681 -0.041730396774731379 0 -0.16520306872859769 -0.03975838783600405 0 -0.14189517049207681 -0.041730396774731379 0 -0.16520306872859769 -0.03975838783600405 0 -0.15798651330778329 -0.056242689367681051 0 -0.16987432107326711 -0.074359476512395495 0 -0.15798651330778329 -0.056242689367681051 0 -0.18168889940327551 -0.049451134055945728 0 -0.16520306872859769 -0.03975838783600405 0 -0.15798651330778329 -0.056242689367681051 0 -0.18168889940327551 -0.049451134055945728 0 -0.16987432107326711 -0.074359476512395495 0 -0.18168889940327551 -0.049451134055945728 0 -0.16520306872859769 -0.03975838783600405 0 -0.18168889940327551 -0.049451134055945728 0 -0.1758272115888094 -0.024530586797482889 0 -0.18168889940327551 -0.049451134055945728 0 -0.1758272115888094 -0.024530586797482889 0 -0.1935034777332828 -0.024542791599495441 0 -0.1758272115888094 -0.024530586797482889 0 -0.19003245491281001 -0.01319403386968037 0 -0.1935034777332828 -0.024542791599495441 0 -0.15531372486671771 -0.024256711664723599 0 -0.1758272115888094 -0.024530586797482889 0 -0.1671817900639633 -0.0084163161651879936 0 -0.15531372486671771 -0.024256711664723599 0 -0.16520306872859769 -0.03975838783600405 0 -0.1758272115888094 -0.024530586797482889 0 -0.1443311252151166 -0.003638598460695623 0 -0.1671817900639633 -0.0084163161651879936 0 -0.1671412108519178 0.0077694809268749956 0 -0.1671817900639633 -0.0084163161651879936 0 -0.19003245491281001 -0.01319403386968037 0 -0.1671817900639633 -0.0084163161651879936 0 -0.19003245491281001 -0.01319403386968037 0 -0.1912466489785683 0.00016841418813751639 0 -0.1758272115888094 -0.024530586797482889 0 -0.1671817900639633 -0.0084163161651879936 0 -0.19003245491281001 -0.01319403386968037 0 -0.1935034777332828 -0.024542791599495441 0 -0.20707941407531241 -0.017747560330370581 0 -0.20531805606329009 0.00036555085695480488 0 -0.1935034777332828 -0.024542791599495441 0 -0.20531805606329009 0.00036555085695480488 0 -0.19003245491281001 -0.01319403386968037 0 -0.1935034777332828 -0.024542791599495441 0 -0.20531805606329009 0.00036555085695480488 0 -0.19003245491281001 -0.01319403386968037 0 -0.1912466489785683 0.00016841418813751639 0 -0.20531805606329009 0.00036555085695480488 0 -0.1935034777332828 -0.024542791599495441 0 -0.20707941407531241 -0.017747560330370581 0 -0.20975705382226559 -0.029984113178638021 0 -0.20707941407531241 -0.017747560330370581 0 -0.20975705382226559 -0.029984113178638021 0 -0.21973906868241089 -0.016828887400303659 0 -0.2238085592651001 -0.0028981095783687872 0 -0.21973906868241089 -0.016828887400303659 0 -0.20531805606329009 0.00036555085695480488 0 -0.20707941407531241 -0.017747560330370581 0 -0.21973906868241089 -0.016828887400303659 0 -0.20531805606329009 0.00036555085695480488 0 -0.1836000085744284 -0.064321255689838777 0 -0.18168889940327551 -0.049451134055945728 0 -0.19976077307513879 -0.046466769204051239 0 -0.19750837336331789 -0.066745456561026234 0 -0.1836000085744284 -0.064321255689838777 0 -0.19976077307513879 -0.046466769204051239 0 -0.18168889940327551 -0.049451134055945728 0 -0.1935034777332828 -0.024542791599495441 0 -0.18168889940327551 -0.049451134055945728 0 -0.1935034777332828 -0.024542791599495441 0 -0.19976077307513879 -0.046466769204051239 0 -0.1935034777332828 -0.024542791599495441 0 -0.20975705382226559 -0.029984113178638021 0 -0.19976077307513879 -0.046466769204051239 0 -0.20975705382226559 -0.029984113178638021 0 -0.19976077307513879 -0.046466769204051239 0 -0.2198511567782134 -0.043333840825548253 0 -0.19750837336331789 -0.066745456561026234 0 -0.19976077307513879 -0.046466769204051239 0 -0.21419619228465511 -0.059495609460374313 0 -0.19976077307513879 -0.046466769204051239 0 -0.21419619228465511 -0.059495609460374313 0 -0.2198511567782134 -0.043333840825548253 0 -0.21419619228465511 -0.059495609460374313 0 -0.232030852017241 -0.055135929256138187 0 -0.2198511567782134 -0.043333840825548253 0 -0.232030852017241 -0.055135929256138187 0 -0.2198511567782134 -0.043333840825548253 0 -0.24367437834833949 -0.040235060599334273 0 -0.2198511567782134 -0.043333840825548253 0 -0.24367437834833949 -0.040235060599334273 0 -0.22937252945902051 -0.030130834361729988 0 -0.20975705382226559 -0.029984113178638021 0 -0.2198511567782134 -0.043333840825548253 0 -0.22937252945902051 -0.030130834361729988 0 -0.24115193262689991 -0.068699935576816237 0 -0.232030852017241 -0.055135929256138187 0 -0.25457599670544939 -0.058395342019821259 0 -0.232030852017241 -0.055135929256138187 0 -0.24367437834833949 -0.040235060599334273 0 -0.25457599670544939 -0.058395342019821259 0 -0.2238085592651001 -0.0028981095783687872 0 -0.23691149292458979 -0.0067770386058729776 0 -0.24112100423828001 0.0065761508708656151 0 -0.21973906868241089 -0.016828887400303659 0 -0.24111208381068391 -0.02113874667384676 0 -0.23691149292458979 -0.0067770386058729776 0 -0.2238085592651001 -0.0028981095783687872 0 -0.21973906868241089 -0.016828887400303659 0 -0.23691149292458979 -0.0067770386058729776 0 -0.20975705382226559 -0.029984113178638021 0 -0.21973906868241089 -0.016828887400303659 0 -0.22937252945902051 -0.030130834361729988 0 -0.21973906868241089 -0.016828887400303659 0 -0.22937252945902051 -0.030130834361729988 0 -0.24111208381068391 -0.02113874667384676 0 -0.24367437834833949 -0.040235060599334273 0 -0.22937252945902051 -0.030130834361729988 0 -0.24111208381068391 -0.02113874667384676 0 -0.24367437834833949 -0.040235060599334273 0 -0.24111208381068391 -0.02113874667384676 0 -0.26419650807124567 -0.028430060996090599 0 -0.24111208381068391 -0.02113874667384676 0 -0.23691149292458979 -0.0067770386058729776 0 -0.25711699077986211 -0.0050434881869386092 0 -0.23691149292458979 -0.0067770386058729776 0 -0.25711699077986211 -0.0050434881869386092 0 -0.24112100423828001 0.0065761508708656151 0 -0.24111208381068391 -0.02113874667384676 0 -0.25711699077986211 -0.0050434881869386092 0 -0.26419650807124567 -0.028430060996090599 0 -0.25711699077986211 -0.0050434881869386092 0 -0.26419650807124567 -0.028430060996090599 0 -0.27074414156112669 -0.013683147724870681 0 -0.26419650807124567 -0.028430060996090599 0 -0.27074414156112669 -0.013683147724870681 0 -0.28867629229924652 -0.018144928852651201 0 -0.26419650807124567 -0.028430060996090599 0 -0.28867629229924652 -0.018144928852651201 0 -0.28625217292774108 -0.039201812273810442 0 -0.27074414156112669 -0.013683147724870681 0 -0.28307012502733431 -0.0032709871931908031 0 -0.28867629229924652 -0.018144928852651201 0 -0.25711699077986211 -0.0050434881869386092 0 -0.27074414156112669 -0.013683147724870681 0 -0.28307012502733431 -0.0032709871931908031 0 -0.28307012502733431 -0.0032709871931908031 0 -0.28867629229924652 -0.018144928852651201 0 -0.29737265755826658 8.8263195202494378e-05 0 -0.28867629229924652 -0.018144928852651201 0 -0.30833952772667528 -0.0309912184347787 0 -0.28625217292774108 -0.039201812273810442 0 -0.28867629229924652 -0.018144928852651201 0 -0.30833952772667528 -0.0309912184347787 0 -0.31075891322233617 -0.011525538541019689 0 -0.31075891322233617 -0.011525538541019689 0 -0.29737265755826658 8.8263195202494378e-05 0 -0.31297505777003198 0.0076390313441479932 0 -0.28867629229924652 -0.018144928852651201 0 -0.31075891322233617 -0.011525538541019689 0 -0.29737265755826658 8.8263195202494378e-05 0 -0.30450718267477189 -0.047144636961652372 0 -0.29457047222307159 -0.059085395774513647 0 -0.30932038219002428 -0.063836170679598223 0 -0.30450718267477189 -0.047144636961652372 0 -0.30932038219002428 -0.063836170679598223 0 -0.3213984604656891 -0.049659281586911783 0 -0.30833952772667528 -0.0309912184347787 0 -0.30450718267477189 -0.047144636961652372 0 -0.3213984604656891 -0.049659281586911783 0 -0.30833952772667528 -0.0309912184347787 0 -0.30450718267477189 -0.047144636961652372 0 -0.28625217292774108 -0.039201812273810442 0 -0.30450718267477189 -0.047144636961652372 0 -0.28625217292774108 -0.039201812273810442 0 -0.29457047222307159 -0.059085395774513647 0 -0.28625217292774108 -0.039201812273810442 0 -0.29457047222307159 -0.059085395774513647 0 -0.27671581959824648 -0.058000695993501807 0 -0.28625217292774108 -0.039201812273810442 0 -0.27671581959824648 -0.058000695993501807 0 -0.2645815215965226 -0.045080670062164832 0 -0.26419650807124567 -0.028430060996090599 0 -0.28625217292774108 -0.039201812273810442 0 -0.2645815215965226 -0.045080670062164832 0 -0.24367437834833949 -0.040235060599334273 0 -0.26419650807124567 -0.028430060996090599 0 -0.2645815215965226 -0.045080670062164832 0 -0.24367437834833949 -0.040235060599334273 0 -0.2645815215965226 -0.045080670062164832 0 -0.25457599670544939 -0.058395342019821259 0 -0.27671581959824648 -0.058000695993501807 0 -0.2645815215965226 -0.045080670062164832 0 -0.25457599670544939 -0.058395342019821259 0 -0.25457599670544939 -0.058395342019821259 0 -0.26058885016140931 -0.080342048453295428 0 -0.25457599670544939 -0.058395342019821259 0 -0.26058885016140931 -0.080342048453295428 0 -0.27466329662514027 -0.077014199433030922 0 -0.24115193262689991 -0.068699935576816237 0 -0.25457599670544939 -0.058395342019821259 0 -0.26058885016140931 -0.080342048453295428 0 -0.24167578351709151 -0.084288062323390811 0 -0.26058885016140931 -0.080342048453295428 0 -0.25261571898206031 -0.094261252835925555 0 -0.26058885016140931 -0.080342048453295428 0 -0.26660170361736918 -0.1022887548867696 0 -0.26058885016140931 -0.080342048453295428 0 -0.25261571898206031 -0.094261252835925555 0 -0.26660170361736918 -0.1022887548867696 0 -0.27466329662514027 -0.077014199433030922 0 -0.26660170361736918 -0.1022887548867696 0 -0.28499924478790778 -0.088752290801731762 0 -0.26058885016140931 -0.080342048453295428 0 -0.27466329662514027 -0.077014199433030922 0 -0.26660170361736918 -0.1022887548867696 0 -0.27671581959824648 -0.058000695993501807 0 -0.25457599670544939 -0.058395342019821259 0 -0.27466329662514027 -0.077014199433030922 0 -0.27671581959824648 -0.058000695993501807 0 -0.27466329662514027 -0.077014199433030922 0 -0.2883057121847567 -0.073023174486661666 0 -0.25419369594462271 -0.1155583014554987 0 -0.26660170361736918 -0.1022887548867696 0 -0.27261455707332899 -0.1242354613202437 0 -0.25419369594462271 -0.1155583014554987 0 -0.25261571898206031 -0.094261252835925555 0 -0.26660170361736918 -0.1022887548867696 0 -0.26660170361736918 -0.1022887548867696 0 -0.28711986012084301 -0.1020710428149936 0 -0.28499924478790778 -0.088752290801731762 0 -0.26660170361736918 -0.1022887548867696 0 -0.28263767048331689 -0.11428798347432099 0 -0.28711986012084301 -0.1020710428149936 0 -0.26660170361736918 -0.1022887548867696 0 -0.27261455707332899 -0.1242354613202437 0 -0.28263767048331689 -0.11428798347432099 0 -0.26660170361736918 -0.1022887548867696 0 -0.27261455707332899 -0.1242354613202437 0 -0.27261455707332899 -0.1242354613202437 0 -0.28263767048331689 -0.11428798347432099 0 -0.29071254353464498 -0.1291580518133558 0 -0.28263767048331689 -0.11428798347432099 0 -0.29613968807039859 -0.1136866065362425 0 -0.29071254353464498 -0.1291580518133558 0 -0.28263767048331689 -0.11428798347432099 0 -0.29613968807039859 -0.1136866065362425 0 -0.28711986012084301 -0.1020710428149936 0 -0.29613968807039859 -0.1136866065362425 0 -0.28711986012084301 -0.1020710428149936 0 -0.29819298098887231 -0.1030535657286698 0 -0.28711986012084301 -0.1020710428149936 0 -0.29580504869391061 -0.094575900377844635 0 -0.28499924478790778 -0.088752290801731762 0 -0.28711986012084301 -0.1020710428149936 0 -0.29580504869391061 -0.094575900377844635 0 -0.29819298098887231 -0.1030535657286698 0 -0.29580504869391061 -0.094575900377844635 0 -0.30525084246206291 -0.098073831925952371 0 -0.30306857080099248 -0.090982998636062545 0 -0.29580504869391061 -0.094575900377844635 0 -0.30525084246206291 -0.098073831925952371 0 -0.29819298098887231 -0.1030535657286698 0 -0.30971189081201722 -0.094285804349216684 0 -0.30525084246206291 -0.098073831925952371 0 -0.30306857080099248 -0.090982998636062545 0 -0.30525084246206291 -0.098073831925952371 0 -0.30568368944842661 -0.1087096185027833 0 -0.31528029226558818 -0.1090213685388282 0 -0.30525084246206291 -0.098073831925952371 0 -0.30568368944842661 -0.1087096185027833 0 -0.29819298098887231 -0.1030535657286698 0 -0.29613968807039859 -0.1136866065362425 0 -0.30568368944842661 -0.1087096185027833 0 -0.29819298098887231 -0.1030535657286698 0 -0.29613968807039859 -0.1136866065362425 0 -0.31162309115777159 -0.1234110628131577 0 -0.29071254353464498 -0.1291580518133558 0 -0.29613968807039859 -0.1136866065362425 0 -0.30568368944842661 -0.1087096185027833 0 -0.31162309115777159 -0.1234110628131577 0 -0.30568368944842661 -0.1087096185027833 0 -0.31162309115777159 -0.1234110628131577 0 -0.31528029226558818 -0.1090213685388282 0 -0.29457047222307159 -0.059085395774513647 0 -0.27671581959824648 -0.058000695993501807 0 -0.2883057121847567 -0.073023174486661666 0 -0.2883057121847567 -0.073023174486661666 0 -0.29749984748542763 -0.083540672811090205 0 -0.30065932523295869 -0.07277089800873783 0 -0.29457047222307159 -0.059085395774513647 0 -0.2883057121847567 -0.073023174486661666 0 -0.30065932523295869 -0.07277089800873783 0 -0.27466329662514027 -0.077014199433030922 0 -0.2883057121847567 -0.073023174486661666 0 -0.28499924478790778 -0.088752290801731762 0 -0.2883057121847567 -0.073023174486661666 0 -0.28499924478790778 -0.088752290801731762 0 -0.29749984748542763 -0.083540672811090205 0 -0.29580504869391061 -0.094575900377844635 0 -0.28499924478790778 -0.088752290801731762 0 -0.29749984748542763 -0.083540672811090205 0 -0.29749984748542763 -0.083540672811090205 0 -0.31138194245525869 -0.080361314663356595 0 -0.30065932523295869 -0.07277089800873783 0 -0.29749984748542763 -0.083540672811090205 0 -0.30306857080099248 -0.090982998636062545 0 -0.31138194245525869 -0.080361314663356595 0 -0.29580504869391061 -0.094575900377844635 0 -0.29749984748542763 -0.083540672811090205 0 -0.30306857080099248 -0.090982998636062545 0 -0.30971189081201722 -0.094285804349216684 0 -0.30306857080099248 -0.090982998636062545 0 -0.31138194245525869 -0.080361314663356595 0 -0.31138194245525869 -0.080361314663356595 0 -0.30065932523295869 -0.07277089800873783 0 -0.30932038219002428 -0.063836170679598223 0 -0.29457047222307159 -0.059085395774513647 0 -0.30065932523295869 -0.07277089800873783 0 -0.30932038219002428 -0.063836170679598223 0 -0.31138194245525869 -0.080361314663356595 0 -0.30932038219002428 -0.063836170679598223 0 -0.32329490837956071 -0.066791620463781967 0 -0.31138194245525869 -0.080361314663356595 0 -0.32329490837956071 -0.066791620463781967 0 -0.32902855868483588 -0.081386378944494936 0 -0.30971189081201722 -0.094285804349216684 0 -0.31138194245525869 -0.080361314663356595 0 -0.32902855868483588 -0.081386378944494936 0 -0.30971189081201722 -0.094285804349216684 0 -0.32902855868483588 -0.081386378944494936 0 -0.30971189081201722 -0.094285804349216684 0 -0.32902855868483588 -0.081386378944494936 0 -0.3293197511151042 -0.10419104593423539 0 -0.32902855868483588 -0.081386378944494936 0 -0.34592356471688768 -0.08362255555846812 0 -0.34480478214903199 -0.092977027115506927 0 -0.32902855868483588 -0.081386378944494936 0 -0.3293197511151042 -0.10419104593423539 0 -0.34480478214903199 -0.092977027115506927 0 -0.32902855868483588 -0.081386378944494936 0 -0.35059218755629068 -0.073604382232026033 0 -0.34592356471688768 -0.08362255555846812 0 -0.32902855868483588 -0.081386378944494936 0 -0.33523889949282393 -0.067258480506067975 0 -0.34834522655765482 -0.068486953539773188 0 -0.32902855868483588 -0.081386378944494936 0 -0.34834522655765482 -0.068486953539773188 0 -0.32902855868483588 -0.081386378944494936 0 -0.34834522655765482 -0.068486953539773188 0 -0.35059218755629068 -0.073604382232026033 0 -0.33523889949282393 -0.067258480506067975 0 -0.34834522655765482 -0.068486953539773188 0 -0.34274116779242642 -0.058970767616122723 0 -0.32329490837956071 -0.066791620463781967 0 -0.33523889949282393 -0.067258480506067975 0 -0.33340120698873249 -0.058248096402262389 0 -0.32329490837956071 -0.066791620463781967 0 -0.32902855868483588 -0.081386378944494936 0 -0.33523889949282393 -0.067258480506067975 0 -0.31528029226558818 -0.1090213685388282 0 -0.3293197511151042 -0.10419104593423539 0 -0.33389831955501481 -0.1261637519244872 0 -0.31162309115777159 -0.1234110628131577 0 -0.31528029226558818 -0.1090213685388282 0 -0.33389831955501481 -0.1261637519244872 0 -0.30525084246206291 -0.098073831925952371 0 -0.3293197511151042 -0.10419104593423539 0 -0.30971189081201722 -0.094285804349216684 0 -0.30525084246206291 -0.098073831925952371 0 -0.3293197511151042 -0.10419104593423539 0 -0.30525084246206291 -0.098073831925952371 0 -0.31528029226558818 -0.1090213685388282 0 -0.3293197511151042 -0.10419104593423539 0 -0.3293197511151042 -0.10419104593423539 0 -0.35338865976814537 -0.1103082599425185 0 -0.34480478214903199 -0.092977027115506927 0 -0.3293197511151042 -0.10419104593423539 0 -0.35338865976814537 -0.1103082599425185 0 -0.3293197511151042 -0.10419104593423539 0 -0.35338865976814537 -0.1103082599425185 0 -0.33389831955501481 -0.1261637519244872 0 -0.35338865976814537 -0.1103082599425185 0 -0.33389831955501481 -0.1261637519244872 0 -0.35306343021995462 -0.13784543119989959 0 -0.35338865976814537 -0.1103082599425185 0 -0.34480478214903199 -0.092977027115506927 0 -0.35926873047739227 -0.086522433941844584 0 -0.35338865976814537 -0.1103082599425185 0 -0.37390481963735239 -0.094360433994108928 0 -0.35926873047739227 -0.086522433941844584 0 -0.35338865976814537 -0.1103082599425185 0 -0.37390481963735239 -0.094360433994108928 0 -0.37745756842118627 -0.1164254739508029 0 -0.35338865976814537 -0.1103082599425185 0 -0.37745756842118627 -0.1164254739508029 0 -0.35338865976814537 -0.1103082599425185 0 -0.36649768230107638 -0.1271665818720773 0 -0.37745756842118627 -0.1164254739508029 0 -0.34834522655765482 -0.068486953539773188 0 -0.36003854255737627 -0.066404663670763711 0 -0.36766189443047298 -0.055587528135050697 0 -0.34834522655765482 -0.068486953539773188 0 -0.35059218755629068 -0.073604382232026033 0 -0.36003854255737627 -0.066404663670763711 0 -0.34592356471688768 -0.08362255555846812 0 -0.34480478214903199 -0.092977027115506927 0 -0.35926873047739227 -0.086522433941844584 0 -0.35059218755629068 -0.073604382232026033 0 -0.34592356471688768 -0.08362255555846812 0 -0.35926873047739227 -0.086522433941844584 0 -0.37390481963735239 -0.094360433994108928 0 -0.35926873047739227 -0.086522433941844584 0 -0.3703520708535189 -0.072295394037414917 0 -0.37390481963735239 -0.094360433994108928 0 -0.3703520708535189 -0.072295394037414917 0 -0.3703520708535189 -0.072295394037414917 0 -0.36003854255737627 -0.066404663670763711 0 -0.36766189443047298 -0.055587528135050697 0 -0.35059218755629068 -0.073604382232026033 0 -0.35926873047739227 -0.086522433941844584 0 -0.3703520708535189 -0.072295394037414917 0 -0.35059218755629068 -0.073604382232026033 0 -0.3703520708535189 -0.072295394037414917 0 -0.3703520708535189 -0.072295394037414917 0 -0.36766189443047298 -0.055587528135050697 0 -0.37855666239413249 -0.062060271795993237 0 -0.3703520708535189 -0.072295394037414917 0 -0.36766189443047298 -0.055587528135050697 0 -0.35059218755629068 -0.073604382232026033 0 -0.3703520708535189 -0.072295394037414917 0 -0.36003854255737627 -0.066404663670763711 0 -0.36766189443047298 -0.055587528135050697 0 -0.36501247007478432 -0.039132760903400489 0 -0.36766189443047298 -0.055587528135050697 0 -0.37755626503612327 -0.048980193143602073 0 -0.37855666239413249 -0.062060271795993237 0 -0.36766189443047298 -0.055587528135050697 0 -0.36501247007478432 -0.039132760903400489 0 -0.37755626503612327 -0.048980193143602073 0 -0.36766189443047298 -0.055587528135050697 0 -0.37755626503612327 -0.048980193143602073 0 -0.34834522655765482 -0.068486953539773188 0 -0.36766189443047298 -0.055587528135050697 0 -0.35087739626665798 -0.054718911582459312 0 -0.34834522655765482 -0.068486953539773188 0 -0.36766189443047298 -0.055587528135050697 0 -0.36766189443047298 -0.055587528135050697 0 -0.35087739626665798 -0.054718911582459312 0 -0.35325281084308019 -0.043479782834366328 0 -0.35087739626665798 -0.054718911582459312 0 -0.34274116779242642 -0.058970767616122723 0 -0.34004115434425891 -0.046365882741306458 0 -0.35087739626665798 -0.054718911582459312 0 -0.35325281084308019 -0.043479782834366328 0 -0.34004115434425891 -0.046365882741306458 0 -0.34834522655765482 -0.068486953539773188 0 -0.35087739626665798 -0.054718911582459312 0 -0.34274116779242642 -0.058970767616122723 0 -0.35325281084308019 -0.043479782834366328 0 -0.34267113909922681 -0.02159383080961463 0 -0.34004115434425891 -0.046365882741306458 0 -0.35325281084308019 -0.043479782834366328 0 -0.36501247007478432 -0.039132760903400489 0 -0.34267113909922681 -0.02159383080961463 0 -0.36766189443047298 -0.055587528135050697 0 -0.35325281084308019 -0.043479782834366328 0 -0.36501247007478432 -0.039132760903400489 0 -0.36501247007478432 -0.039132760903400489 0 -0.37702188562280292 -0.02911683488913519 0 -0.37755626503612327 -0.048980193143602073 0 -0.36501247007478432 -0.039132760903400489 0 -0.37755626503612327 -0.048980193143602073 0 -0.36082191085538678 -0.013106474711239611 0 -0.37728664903071002 -0.013752034310298131 0 -0.37702188562280292 -0.02911683488913519 0 -0.36501247007478432 -0.039132760903400489 0 -0.36082191085538678 -0.013106474711239611 0 -0.36501247007478432 -0.039132760903400489 0 -0.36082191085538678 -0.013106474711239611 0 -0.37702188562280292 -0.02911683488913519 0 -0.36082191085538678 -0.013106474711239611 0 -0.37270498551195169 -0.0023871038273499561 0 -0.37728664903071002 -0.013752034310298131 0 -0.36082191085538678 -0.013106474711239611 0 -0.37270498551195169 -0.0023871038273499561 0 -0.3566313516359878 0.01291981148092123 0 -0.36082191085538678 -0.013106474711239611 0 -0.3566313516359878 0.01291981148092123 0 -0.36082191085538678 -0.013106474711239611 0 -0.34473091958066099 -0.0023468171150456212 0 -0.3566313516359878 0.01291981148092123 0 -0.36082191085538678 -0.013106474711239611 0 -0.34473091958066099 -0.0023468171150456212 0 -0.34267113909922681 -0.02159383080961463 0 -0.36501247007478432 -0.039132760903400489 0 -0.36082191085538678 -0.013106474711239611 0 -0.34267113909922681 -0.02159383080961463 0 -0.36501247007478432 -0.039132760903400489 0 -0.34267113909922681 -0.02159383080961463 0 -0.34267113909922681 -0.02159383080961463 0 -0.32362452051065871 -0.02082801570275996 0 -0.32945555544043797 -0.034302561887935179 0 -0.34267113909922681 -0.02159383080961463 0 -0.32689746706461698 -0.0057269288404516007 0 -0.32362452051065871 -0.02082801570275996 0 -0.34473091958066099 -0.0023468171150456212 0 -0.34267113909922681 -0.02159383080961463 0 -0.32689746706461698 -0.0057269288404516007 0 -0.31075891322233617 -0.011525538541019689 0 -0.32689746706461698 -0.0057269288404516007 0 -0.32362452051065871 -0.02082801570275996 0 -0.31075891322233617 -0.011525538541019689 0 -0.32689746706461698 -0.0057269288404516007 0 -0.31297505777003198 0.0076390313441479932 0 -0.30833952772667528 -0.0309912184347787 0 -0.32362452051065871 -0.02082801570275996 0 -0.32945555544043797 -0.034302561887935179 0 -0.30833952772667528 -0.0309912184347787 0 -0.31075891322233617 -0.011525538541019689 0 -0.32362452051065871 -0.02082801570275996 0 -0.30833952772667528 -0.0309912184347787 0 -0.3213984604656891 -0.049659281586911783 0 -0.32945555544043797 -0.034302561887935179 0 -0.32329490837956071 -0.066791620463781967 0 -0.3213984604656891 -0.049659281586911783 0 -0.33340120698873249 -0.058248096402262389 0 -0.30932038219002428 -0.063836170679598223 0 -0.32329490837956071 -0.066791620463781967 0 -0.3213984604656891 -0.049659281586911783 0 -0.3213984604656891 -0.049659281586911783 0 -0.33340120698873249 -0.058248096402262389 0 -0.34004115434425891 -0.046365882741306458 0 -0.33523889949282393 -0.067258480506067975 0 -0.33340120698873249 -0.058248096402262389 0 -0.34274116779242642 -0.058970767616122723 0 -0.33340120698873249 -0.058248096402262389 0 -0.34274116779242642 -0.058970767616122723 0 -0.34004115434425891 -0.046365882741306458 0 -0.3213984604656891 -0.049659281586911783 0 -0.32945555544043797 -0.034302561887935179 0 -0.34004115434425891 -0.046365882741306458 0 -0.34267113909922681 -0.02159383080961463 0 -0.32945555544043797 -0.034302561887935179 0 -0.34004115434425891 -0.046365882741306458 0 -0.30375803464666867 -0.23790807360419991 0 -0.29472039790534538 -0.23149118423620091 0 -0.29664864866403201 -0.24012880269567019 0 -0.30375803464666867 -0.23790807360419991 0 -0.30354003062611729 -0.24287550236665759 0 -0.29664864866403201 -0.24012880269567019 0 -0.30354003062611729 -0.24287550236665759 0 -0.29664864866403201 -0.24012880269567019 0 -0.29682166380256941 -0.24828486218979359 0 -0.30125617742336469 -0.25577182020881872 0 -0.30354003062611729 -0.24287550236665759 0 -0.29682166380256941 -0.24828486218979359 0 -0.30354003062611729 -0.24287550236665759 0 -0.30960831475363332 -0.2444619611335874 0 -0.3084519733414311 -0.24036249465668699 0 -0.31160380809715849 -0.25026392663385499 0 -0.30354003062611729 -0.24287550236665759 0 -0.30960831475363332 -0.2444619611335874 0 -0.31160380809715849 -0.25026392663385499 0 -0.30960831475363332 -0.2444619611335874 0 -0.31579901552585088 -0.24305045555939289 0 -0.30960831475363332 -0.2444619611335874 0 -0.3084519733414311 -0.24036249465668699 0 -0.31579901552585088 -0.24305045555939289 0 -0.3084519733414311 -0.24036249465668699 0 -0.30955447115488521 -0.2335164806195969 0 -0.31579901552585088 -0.24305045555939289 0 -0.30375803464666867 -0.23790807360419991 0 -0.30354003062611729 -0.24287550236665759 0 -0.3084519733414311 -0.24036249465668699 0 -0.30375803464666867 -0.23790807360419991 0 -0.3084519733414311 -0.24036249465668699 0 -0.30955447115488521 -0.2335164806195969 0 -0.29729195712531709 -0.21236604441440199 0 -0.31611567453951689 -0.23038034043113209 0 -0.30375803464666867 -0.23790807360419991 0 -0.29532745691111262 -0.22273340871622241 0 -0.29729195712531709 -0.21236604441440199 0 -0.30375803464666867 -0.23790807360419991 0 -0.30955447115488521 -0.2335164806195969 0 -0.29729195712531709 -0.21236604441440199 0 -0.30955447115488521 -0.2335164806195969 0 -0.29729195712531709 -0.21236604441440199 0 -0.31611567453951689 -0.23038034043113209 0 -0.30375803464666867 -0.23790807360419991 0 -0.29729195712531709 -0.21236604441440199 0 -0.29729195712531709 -0.21236604441440199 0 -0.31413858832063218 -0.21908565335156269 0 -0.31611567453951689 -0.23038034043113209 0 -0.30375803464666867 -0.23790807360419991 0 -0.29472039790534538 -0.23149118423620091 0 -0.29532745691111262 -0.22273340871622241 0 -0.29472039790534538 -0.23149118423620091 0 -0.29071527490011467 -0.2234727433913524 0 -0.2871525744047993 -0.23321289277355919 0 -0.29472039790534538 -0.23149118423620091 0 -0.29532745691111262 -0.22273340871622241 0 -0.29071527490011467 -0.2234727433913524 0 -0.29532745691111262 -0.22273340871622241 0 -0.29071527490011467 -0.2234727433913524 0 -0.28945434900935302 -0.21687488704911359 0 -0.29071527490011467 -0.2234727433913524 0 -0.28277479324112331 -0.21852990211475079 0 -0.28945434900935302 -0.21687488704911359 0 -0.29071527490011467 -0.2234727433913524 0 -0.2871525744047993 -0.23321289277355919 0 -0.28277479324112331 -0.21852990211475079 0 -0.27738970403431801 -0.25532542001562802 0 -0.2871525744047993 -0.23321289277355919 0 -0.27738970403431801 -0.25532542001562802 0 -0.2871525744047993 -0.23321289277355919 0 -0.29001259199056301 -0.2470899886560215 0 -0.29472039790534538 -0.23149118423620091 0 -0.2871525744047993 -0.23321289277355919 0 -0.29664864866403201 -0.24012880269567019 0 -0.2871525744047993 -0.23321289277355919 0 -0.29664864866403201 -0.24012880269567019 0 -0.29001259199056301 -0.2470899886560215 0 -0.29664864866403201 -0.24012880269567019 0 -0.29001259199056301 -0.2470899886560215 0 -0.29682166380256941 -0.24828486218979359 0 -0.27738970403431801 -0.25532542001562802 0 -0.27160728704960052 -0.23799490035178431 0 -0.25716779966087988 -0.24332951444333839 0 -0.27738970403431801 -0.25532542001562802 0 -0.25716779966087988 -0.24332951444333839 0 -0.27738970403431801 -0.25532542001562802 0 -0.2871525744047993 -0.23321289277355919 0 -0.27160728704960052 -0.23799490035178431 0 -0.27160728704960052 -0.23799490035178431 0 -0.25716779966087988 -0.24332951444333839 0 -0.26181155960815389 -0.2313008824287012 0 -0.2435809463426212 -0.23239308564922639 0 -0.25716779966087988 -0.24332951444333839 0 -0.25284123069700443 -0.23192607249552791 0 -0.25716779966087988 -0.24332951444333839 0 -0.25284123069700443 -0.23192607249552791 0 -0.26181155960815389 -0.2313008824287012 0 -0.25580498916708688 -0.25446821000594683 0 -0.24802376513885799 -0.25056218103589212 0 -0.25716779966087988 -0.24332951444333839 0 -0.25262611591903539 -0.22400372494419901 0 -0.26328539147703811 -0.2218721304683634 0 -0.25600199354296399 -0.21703942307595439 0 -0.25262611591903539 -0.22400372494419901 0 -0.25284123069700443 -0.23192607249552791 0 -0.26181155960815389 -0.2313008824287012 0 -0.24768526661111701 -0.2281283434359743 0 -0.25262611591903539 -0.22400372494419901 0 -0.25284123069700443 -0.23192607249552791 0 -0.25262611591903539 -0.22400372494419901 0 -0.26181155960815389 -0.2313008824287012 0 -0.26328539147703811 -0.2218721304683634 0 -0.26328539147703811 -0.2218721304683634 0 -0.27311749240456701 -0.22643029835067999 0 -0.27206355365783008 -0.21456487804000801 0 -0.26181155960815389 -0.2313008824287012 0 -0.26328539147703811 -0.2218721304683634 0 -0.27311749240456701 -0.22643029835067999 0 -0.27160728704960052 -0.23799490035178431 0 -0.26181155960815389 -0.2313008824287012 0 -0.27311749240456701 -0.22643029835067999 0 -0.2871525744047993 -0.23321289277355919 0 -0.27160728704960052 -0.23799490035178431 0 -0.27311749240456701 -0.22643029835067999 0 -0.2871525744047993 -0.23321289277355919 0 -0.27311749240456701 -0.22643029835067999 0 -0.28277479324112331 -0.21852990211475079 0 -0.27311749240456701 -0.22643029835067999 0 -0.27206355365783008 -0.21456487804000801 0 -0.28277479324112331 -0.21852990211475079 0 -0.27858413276243338 -0.2117808998180101 0 -0.27206355365783008 -0.21456487804000801 0 -0.28277479324112331 -0.21852990211475079 0 -0.27708214064966302 -0.2043049631315205 0 -0.27206355365783008 -0.21456487804000801 0 -0.25972977994244728 -0.20961230870253669 0 -0.27858413276243338 -0.2117808998180101 0 -0.27708214064966302 -0.2043049631315205 0 -0.2860337277592197 -0.21296752220579249 0 -0.27858413276243338 -0.2117808998180101 0 -0.27708214064966302 -0.2043049631315205 0 -0.27206355365783008 -0.21456487804000801 0 -0.26328539147703811 -0.2218721304683634 0 -0.25972977994244728 -0.20961230870253669 0 -0.25600199354296399 -0.21703942307595439 0 -0.26328539147703811 -0.2218721304683634 0 -0.27206355365783008 -0.21456487804000801 0 -0.25972977994244728 -0.20961230870253669 0 -0.27708214064966302 -0.2043049631315205 0 -0.25972977994244728 -0.20961230870253669 0 -0.25746937539176168 -0.1964820274251777 0 -0.24412641139680771 -0.20143993915243291 0 -0.24741945388435951 -0.2132382388286263 0 -0.25972977994244728 -0.20961230870253669 0 -0.24741945388435951 -0.2132382388286263 0 -0.25972977994244728 -0.20961230870253669 0 -0.25600199354296399 -0.21703942307595439 0 -0.24741945388435951 -0.2132382388286263 0 -0.25262611591903539 -0.22400372494419901 0 -0.25600199354296399 -0.21703942307595439 0 -0.24412641139680771 -0.20143993915243291 0 -0.25972977994244728 -0.20961230870253669 0 -0.25746937539176168 -0.1964820274251777 0 -0.27708214064966302 -0.2043049631315205 0 -0.25746937539176168 -0.1964820274251777 0 -0.27031378222235308 -0.19459398266594791 0 -0.25746937539176168 -0.1964820274251777 0 -0.27031378222235308 -0.19459398266594791 0 -0.27055095976135418 -0.18476270598584629 0 -0.27708214064966302 -0.2043049631315205 0 -0.25746937539176168 -0.1964820274251777 0 -0.27708214064966302 -0.2043049631315205 0 -0.27031378222235308 -0.19459398266594791 0 -0.28102785779778189 -0.196801302696025 0 -0.27031378222235308 -0.19459398266594791 0 -0.28102785779778189 -0.196801302696025 0 -0.2800994931134545 -0.18972289120245889 0 -0.27031378222235308 -0.19459398266594791 0 -0.2800994931134545 -0.18972289120245889 0 -0.27055095976135418 -0.18476270598584629 0 -0.28102785779778189 -0.196801302696025 0 -0.29083436339366142 -0.19073712205683349 0 -0.29729195712531709 -0.21236604441440199 0 -0.28102785779778189 -0.196801302696025 0 -0.2800994931134545 -0.18972289120245889 0 -0.29083436339366142 -0.19073712205683349 0 -0.29083436339366142 -0.19073712205683349 0 -0.29729195712531709 -0.21236604441440199 0 -0.2800994931134545 -0.18972289120245889 0 -0.29083436339366142 -0.19073712205683349 0 -0.27708214064966302 -0.2043049631315205 0 -0.29729195712531709 -0.21236604441440199 0 -0.27708214064966302 -0.2043049631315205 0 -0.28102785779778189 -0.196801302696025 0 -0.29729195712531709 -0.21236604441440199 0 -0.28102785779778189 -0.196801302696025 0 -0.29729195712531709 -0.21236604441440199 0 -0.27708214064966302 -0.2043049631315205 0 -0.2860337277592197 -0.21296752220579249 0 -0.29729195712531709 -0.21236604441440199 0 -0.27858413276243338 -0.2117808998180101 0 -0.28277479324112331 -0.21852990211475079 0 -0.2860337277592197 -0.21296752220579249 0 -0.28277479324112331 -0.21852990211475079 0 -0.2860337277592197 -0.21296752220579249 0 -0.28945434900935302 -0.21687488704911359 0 -0.2860337277592197 -0.21296752220579249 0 -0.2925541502607289 -0.21503128702829691 0 -0.29729195712531709 -0.21236604441440199 0 -0.29532745691111262 -0.22273340871622241 0 -0.2925541502607289 -0.21503128702829691 0 -0.29729195712531709 -0.21236604441440199 0 -0.2860337277592197 -0.21296752220579249 0 -0.2925541502607289 -0.21503128702829691 0 -0.28945434900935302 -0.21687488704911359 0 -0.29532745691111262 -0.22273340871622241 0 -0.2925541502607289 -0.21503128702829691 0 -0.28945434900935302 -0.21687488704911359 0 -0.29729195712531709 -0.21236604441440199 0 -0.31413858832063218 -0.21908565335156269 0 -0.30769801244807138 -0.20609325429960071 0 -0.29729195712531709 -0.21236604441440199 0 -0.31413858832063218 -0.21908565335156269 0 -0.29083436339366142 -0.19073712205683349 0 -0.30769801244807138 -0.20609325429960071 0 -0.31962202449395338 -0.19345698110972009 0 -0.29083436339366142 -0.19073712205683349 0 -0.31962202449395338 -0.19345698110972009 0 -0.29083436339366142 -0.19073712205683349 0 -0.30769801244807138 -0.20609325429960071 0 -0.29729195712531709 -0.21236604441440199 0 -0.29083436339366142 -0.19073712205683349 0 -0.31028625009302568 -0.17103184156314169 0 -0.31962202449395338 -0.19345698110972009 0 -0.31028625009302568 -0.17103184156314169 0 -0.28473088696147469 -0.16845964490527579 0 -0.3032931476197212 -0.14817379414724929 0 -0.28473088696147469 -0.16845964490527579 0 -0.27862741052928908 -0.14618216775371781 0 -0.29083436339366142 -0.19073712205683349 0 -0.31028625009302568 -0.17103184156314169 0 -0.28473088696147469 -0.16845964490527579 0 -0.29083436339366142 -0.19073712205683349 0 -0.28473088696147469 -0.16845964490527579 0 -0.29083436339366142 -0.19073712205683349 0 -0.28473088696147469 -0.16845964490527579 0 -0.27677611813571618 -0.1784247984341108 0 -0.2800994931134545 -0.18972289120245889 0 -0.29083436339366142 -0.19073712205683349 0 -0.27677611813571618 -0.1784247984341108 0 -0.2800994931134545 -0.18972289120245889 0 -0.27677611813571618 -0.1784247984341108 0 -0.27055095976135418 -0.18476270598584629 0 -0.27677611813571618 -0.1784247984341108 0 -0.26335993206927077 -0.17494080093831571 0 -0.27151599396116177 -0.1637321053027396 0 -0.27677611813571618 -0.1784247984341108 0 -0.27055095976135418 -0.18476270598584629 0 -0.26335993206927077 -0.17494080093831571 0 -0.24717494319197139 -0.17741243323831901 0 -0.25746937539176168 -0.1964820274251777 0 -0.26335993206927077 -0.17494080093831571 0 -0.25746937539176168 -0.1964820274251777 0 -0.27055095976135418 -0.18476270598584629 0 -0.26335993206927077 -0.17494080093831571 0 -0.24717494319197139 -0.17741243323831901 0 -0.26335993206927077 -0.17494080093831571 0 -0.25617324025123772 -0.15932421745894301 0 -0.26335993206927077 -0.17494080093831571 0 -0.25617324025123772 -0.15932421745894301 0 -0.27151599396116177 -0.1637321053027396 0 -0.28473088696147469 -0.16845964490527579 0 -0.27151599396116177 -0.1637321053027396 0 -0.27862741052928908 -0.14618216775371781 0 -0.25617324025123772 -0.15932421745894301 0 -0.27151599396116177 -0.1637321053027396 0 -0.27862741052928908 -0.14618216775371781 0 -0.28473088696147469 -0.16845964490527579 0 -0.27677611813571618 -0.1784247984341108 0 -0.27151599396116177 -0.1637321053027396 0 -0.24883804199027751 -0.14377683551444781 0 -0.27862741052928908 -0.14618216775371781 0 -0.24883804199027751 -0.14377683551444781 0 -0.25617324025123772 -0.15932421745894301 0 -0.27862741052928908 -0.14618216775371781 0 -0.24883804199027751 -0.14377683551444781 0 -0.25419369594462271 -0.1155583014554987 0 -0.27261455707332899 -0.1242354613202437 0 -0.27261455707332899 -0.1242354613202437 0 -0.27862741052928908 -0.14618216775371781 0 -0.27261455707332899 -0.1242354613202437 0 -0.27862741052928908 -0.14618216775371781 0 -0.29071254353464498 -0.1291580518133558 0 -0.24883804199027751 -0.14377683551444781 0 -0.27261455707332899 -0.1242354613202437 0 -0.27862741052928908 -0.14618216775371781 0 -0.27862741052928908 -0.14618216775371781 0 -0.3032931476197212 -0.14817379414724929 0 -0.27862741052928908 -0.14618216775371781 0 -0.29071254353464498 -0.1291580518133558 0 -0.3032931476197212 -0.14817379414724929 0 -0.28473088696147469 -0.16845964490527579 0 -0.27862741052928908 -0.14618216775371781 0 -0.3032931476197212 -0.14817379414724929 0 -0.31162309115777159 -0.1234110628131577 0 -0.29071254353464498 -0.1291580518133558 0 -0.3032931476197212 -0.14817379414724929 0 -0.31162309115777159 -0.1234110628131577 0 -0.3032931476197212 -0.14817379414724929 0 -0.32139901925909342 -0.13580640282961129 0 -0.31162309115777159 -0.1234110628131577 0 -0.32139901925909342 -0.13580640282961129 0 -0.33389831955501481 -0.1261637519244872 0 -0.32139901925909342 -0.13580640282961129 0 -0.32795888471015339 -0.15016542054078161 0 -0.33389831955501481 -0.1261637519244872 0 -0.3032931476197212 -0.14817379414724929 0 -0.32139901925909342 -0.13580640282961129 0 -0.32795888471015339 -0.15016542054078161 0 -0.3032931476197212 -0.14817379414724929 0 -0.32795888471015339 -0.15016542054078161 0 -0.32795888471015339 -0.15016542054078161 0 -0.33389831955501481 -0.1261637519244872 0 -0.3447358197335309 -0.1526140555734998 0 -0.33389831955501481 -0.1261637519244872 0 -0.35306343021995462 -0.13784543119989959 0 -0.3447358197335309 -0.1526140555734998 0 -0.35338865976814537 -0.1103082599425185 0 -0.35306343021995462 -0.13784543119989959 0 -0.36649768230107638 -0.1271665818720773 0 -0.35306343021995462 -0.13784543119989959 0 -0.36649768230107638 -0.1271665818720773 0 -0.36931972304268063 -0.1389624787683631 0 -0.36649768230107638 -0.1271665818720773 0 -0.37993886846038039 -0.13183607229046479 0 -0.37745756842118627 -0.1164254739508029 0 -0.36649768230107638 -0.1271665818720773 0 -0.36931972304268063 -0.1389624787683631 0 -0.37993886846038039 -0.13183607229046479 0 -0.35306343021995462 -0.13784543119989959 0 -0.36931972304268063 -0.1389624787683631 0 -0.36467846573241608 -0.15071763784924741 0 -0.36467846573241608 -0.15071763784924741 0 -0.37633411006425183 -0.15978166266085819 0 -0.38242016849957511 -0.1472466706301265 0 -0.36931972304268063 -0.1389624787683631 0 -0.36467846573241608 -0.15071763784924741 0 -0.38242016849957511 -0.1472466706301265 0 -0.35306343021995462 -0.13784543119989959 0 -0.36467846573241608 -0.15071763784924741 0 -0.3447358197335309 -0.1526140555734998 0 -0.3447358197335309 -0.1526140555734998 0 -0.35961218769087561 -0.16579713319760181 0 -0.33898543531193898 -0.1733670582219248 0 -0.36467846573241608 -0.15071763784924741 0 -0.3447358197335309 -0.1526140555734998 0 -0.35961218769087561 -0.16579713319760181 0 -0.36467846573241608 -0.15071763784924741 0 -0.35961218769087561 -0.16579713319760181 0 -0.37633411006425183 -0.15978166266085819 0 -0.35961218769087561 -0.16579713319760181 0 -0.37916751020303791 -0.17522902745937999 0 -0.37633411006425183 -0.15978166266085819 0 -0.35961218769087561 -0.16579713319760181 0 -0.36381787900643392 -0.18356420690734471 0 -0.37916751020303791 -0.17522902745937999 0 -0.36381787900643392 -0.18356420690734471 0 -0.37719734669453753 -0.19889669921549399 0 -0.37916751020303791 -0.17522902745937999 0 -0.35961218769087561 -0.16579713319760181 0 -0.36381787900643392 -0.18356420690734471 0 -0.33898543531193898 -0.1733670582219248 0 -0.36381787900643392 -0.18356420690734471 0 -0.33898543531193898 -0.1733670582219248 0 -0.34840968559424551 -0.19617684016260711 0 -0.32795888471015339 -0.15016542054078161 0 -0.3447358197335309 -0.1526140555734998 0 -0.33898543531193898 -0.1733670582219248 0 -0.31028625009302568 -0.17103184156314169 0 -0.3032931476197212 -0.14817379414724929 0 -0.32795888471015339 -0.15016542054078161 0 -0.31028625009302568 -0.17103184156314169 0 -0.32795888471015339 -0.15016542054078161 0 -0.33898543531193898 -0.1733670582219248 0 -0.31028625009302568 -0.17103184156314169 0 -0.33898543531193898 -0.1733670582219248 0 -0.31962202449395338 -0.19345698110972009 0 -0.30769801244807138 -0.20609325429960071 0 -0.31962202449395338 -0.19345698110972009 0 -0.32772997724979369 -0.20923747931175879 0 -0.30769801244807138 -0.20609325429960071 0 -0.32772997724979369 -0.20923747931175879 0 -0.31413858832063218 -0.21908565335156269 0 -0.32772997724979369 -0.20923747931175879 0 -0.32538098475405652 -0.222833256791996 0 -0.31413858832063218 -0.21908565335156269 0 -0.32772997724979369 -0.20923747931175879 0 -0.3436892319691397 -0.21217231934847011 0 -0.33677504029843452 -0.22221000384590531 0 -0.32772997724979369 -0.20923747931175879 0 -0.3436892319691397 -0.21217231934847011 0 -0.34840968559424551 -0.19617684016260711 0 -0.32772997724979369 -0.20923747931175879 0 -0.33677504029843452 -0.22221000384590531 0 -0.32538098475405652 -0.222833256791996 0 -0.31962202449395338 -0.19345698110972009 0 -0.32772997724979369 -0.20923747931175879 0 -0.34840968559424551 -0.19617684016260711 0 -0.31962202449395338 -0.19345698110972009 0 -0.34840968559424551 -0.19617684016260711 0 -0.33898543531193898 -0.1733670582219248 0 -0.31962202449395338 -0.19345698110972009 0 -0.34840968559424551 -0.19617684016260711 0 -0.34840968559424551 -0.19617684016260711 0 -0.37096167669131253 -0.2122504217067504 0 -0.37719734669453753 -0.19889669921549399 0 -0.36381787900643392 -0.18356420690734471 0 -0.34840968559424551 -0.19617684016260711 0 -0.37719734669453753 -0.19889669921549399 0 -0.34840968559424551 -0.19617684016260711 0 -0.37719734669453753 -0.19889669921549399 0 -0.37096167669131253 -0.2122504217067504 0 -0.35641118188146159 -0.21459319475403649 0 -0.36459766405508082 -0.22081899385946119 0 -0.3436892319691397 -0.21217231934847011 0 -0.34840968559424551 -0.19617684016260711 0 -0.35641118188146159 -0.21459319475403649 0 -0.34840968559424551 -0.19617684016260711 0 -0.37096167669131253 -0.2122504217067504 0 -0.35641118188146159 -0.21459319475403649 0 -0.3436892319691397 -0.21217231934847011 0 -0.35641118188146159 -0.21459319475403649 0 -0.34925547579172411 -0.22564376612712761 0 -0.34925547579172411 -0.22564376612712761 0 -0.35480770204116668 -0.2391674681001644 0 -0.34354197103972761 -0.23602478082990599 0 -0.34925547579172411 -0.22564376612712761 0 -0.36030772752041501 -0.2296948298842833 0 -0.35480770204116668 -0.2391674681001644 0 -0.35641118188146159 -0.21459319475403649 0 -0.36030772752041501 -0.2296948298842833 0 -0.35641118188146159 -0.21459319475403649 0 -0.34925547579172411 -0.22564376612712761 0 -0.36030772752041501 -0.2296948298842833 0 -0.36459766405508082 -0.22081899385946119 0 -0.36030772752041501 -0.2296948298842833 0 -0.37154797963151909 -0.22697664775502591 0 -0.35641118188146159 -0.21459319475403649 0 -0.36459766405508082 -0.22081899385946119 0 -0.36030772752041501 -0.2296948298842833 0 -0.36030772752041501 -0.2296948298842833 0 -0.37154797963151909 -0.22697664775502591 0 -0.36420427315936832 -0.24479646501453009 0 -0.37096167669131253 -0.2122504217067504 0 -0.36459766405508082 -0.22081899385946119 0 -0.37154797963151909 -0.22697664775502591 0 -0.37154797963151909 -0.22697664775502591 0 -0.36420427315936832 -0.24479646501453009 0 -0.37154797963151909 -0.22697664775502591 0 -0.36420427315936832 -0.24479646501453009 0 -0.37718685643449368 -0.2397235917175477 0 -0.38126767478425849 -0.25407857661963051 0 -0.36420427315936832 -0.24479646501453009 0 -0.37718685643449368 -0.2397235917175477 0 -0.36030772752041501 -0.2296948298842833 0 -0.36420427315936832 -0.24479646501453009 0 -0.36030772752041501 -0.2296948298842833 0 -0.36420427315936832 -0.24479646501453009 0 -0.35480770204116668 -0.2391674681001644 0 -0.35013116589001492 -0.25114475686595727 0 -0.36420427315936832 -0.24479646501453009 0 -0.35480770204116668 -0.2391674681001644 0 -0.35013116589001492 -0.25114475686595727 0 -0.35480770204116668 -0.2391674681001644 0 -0.34354197103972761 -0.23602478082990599 0 -0.35013116589001492 -0.25114475686595727 0 -0.33493939195371653 -0.24839463644786239 0 -0.34354197103972761 -0.23602478082990599 0 -0.33493939195371653 -0.24839463644786239 0 -0.34354197103972761 -0.23602478082990599 0 -0.33185590908901352 -0.2327848028832287 0 -0.34354197103972761 -0.23602478082990599 0 -0.33677504029843452 -0.22221000384590531 0 -0.33185590908901352 -0.2327848028832287 0 -0.34925547579172411 -0.22564376612712761 0 -0.34354197103972761 -0.23602478082990599 0 -0.33677504029843452 -0.22221000384590531 0 -0.3436892319691397 -0.21217231934847011 0 -0.34925547579172411 -0.22564376612712761 0 -0.33677504029843452 -0.22221000384590531 0 -0.33677504029843452 -0.22221000384590531 0 -0.33185590908901352 -0.2327848028832287 0 -0.32538098475405652 -0.222833256791996 0 -0.33185590908901352 -0.2327848028832287 0 -0.32538098475405652 -0.222833256791996 0 -0.31611567453951689 -0.23038034043113209 0 -0.32538098475405652 -0.222833256791996 0 -0.31413858832063218 -0.21908565335156269 0 -0.31611567453951689 -0.23038034043113209 0 -0.33493939195371653 -0.24839463644786239 0 -0.31611567453951689 -0.23038034043113209 0 -0.33493939195371653 -0.24839463644786239 0 -0.33185590908901352 -0.2327848028832287 0 -0.31611567453951689 -0.23038034043113209 0 -0.31990404369703929 -0.25362272624222421 0 -0.33493939195371653 -0.24839463644786239 0 -0.31579901552585088 -0.24305045555939289 0 -0.30955447115488521 -0.2335164806195969 0 -0.31611567453951689 -0.23038034043113209 0 -0.31579901552585088 -0.24305045555939289 0 -0.33493939195371653 -0.24839463644786239 0 -0.31611567453951689 -0.23038034043113209 0 -0.31579901552585088 -0.24305045555939289 0 -0.31990404369703929 -0.25362272624222421 0 -0.31160380809715849 -0.25026392663385499 0 -0.31579901552585088 -0.24305045555939289 0 -0.4243063970095361 -0.25208011803610397 0 -0.43329518046291721 -0.2327552146800014 0 -0.41228772036853162 -0.23859533230047589 0 -0.44313374448004539 -0.25282540670650688 0 -0.4243063970095361 -0.25208011803610397 0 -0.43329518046291721 -0.2327552146800014 0 -0.43329518046291721 -0.2327552146800014 0 -0.41228772036853162 -0.23859533230047589 0 -0.41913504153214137 -0.21844624299008161 0 -0.41228772036853162 -0.23859533230047589 0 -0.40290456725687268 -0.22269523043428549 0 -0.41913504153214137 -0.21844624299008161 0 -0.41200971311640833 -0.25501453429736459 0 -0.4243063970095361 -0.25208011803610397 0 -0.41228772036853162 -0.23859533230047589 0 -0.39861601160740101 -0.25108952705634102 0 -0.41200971311640833 -0.25501453429736459 0 -0.41228772036853162 -0.23859533230047589 0 -0.39861601160740101 -0.25108952705634102 0 -0.41228772036853162 -0.23859533230047589 0 -0.39143161317255037 -0.2362101112564127 0 -0.38126767478425849 -0.25407857661963051 0 -0.39143161317255037 -0.2362101112564127 0 -0.37718685643449368 -0.2397235917175477 0 -0.38126767478425849 -0.25407857661963051 0 -0.39861601160740101 -0.25108952705634102 0 -0.39143161317255037 -0.2362101112564127 0 -0.39143161317255037 -0.2362101112564127 0 -0.37718685643449368 -0.2397235917175477 0 -0.38146628018713352 -0.2302097898465405 0 -0.39143161317255037 -0.2362101112564127 0 -0.38146628018713352 -0.2302097898465405 0 -0.38568345341631072 -0.2186079073560766 0 -0.37096167669131253 -0.2122504217067504 0 -0.37154797963151909 -0.22697664775502591 0 -0.38568345341631072 -0.2186079073560766 0 -0.37154797963151909 -0.22697664775502591 0 -0.38146628018713352 -0.2302097898465405 0 -0.38568345341631072 -0.2186079073560766 0 -0.37154797963151909 -0.22697664775502591 0 -0.37718685643449368 -0.2397235917175477 0 -0.38146628018713352 -0.2302097898465405 0 -0.41228772036853162 -0.23859533230047589 0 -0.39143161317255037 -0.2362101112564127 0 -0.40290456725687268 -0.22269523043428549 0 -0.39143161317255037 -0.2362101112564127 0 -0.40290456725687268 -0.22269523043428549 0 -0.38568345341631072 -0.2186079073560766 0 -0.40290456725687268 -0.22269523043428549 0 -0.38568345341631072 -0.2186079073560766 0 -0.40598500779482949 -0.2016165582683809 0 -0.37096167669131253 -0.2122504217067504 0 -0.38568345341631072 -0.2186079073560766 0 -0.37719734669453753 -0.19889669921549399 0 -0.38568345341631072 -0.2186079073560766 0 -0.37719734669453753 -0.19889669921549399 0 -0.40598500779482949 -0.2016165582683809 0 -0.37719734669453753 -0.19889669921549399 0 -0.40598500779482949 -0.2016165582683809 0 -0.39649692090601402 -0.18157002191310059 0 -0.37719734669453753 -0.19889669921549399 0 -0.40598500779482949 -0.2016165582683809 0 -0.40598500779482949 -0.2016165582683809 0 -0.43477266889512162 -0.20433641732126781 0 -0.40598500779482949 -0.2016165582683809 0 -0.43477266889512162 -0.20433641732126781 0 -0.41829737854733201 -0.17138699498240809 0 -0.40598500779482949 -0.2016165582683809 0 -0.41913504153214137 -0.21844624299008161 0 -0.43477266889512162 -0.20433641732126781 0 -0.40290456725687268 -0.22269523043428549 0 -0.40598500779482949 -0.2016165582683809 0 -0.41913504153214137 -0.21844624299008161 0 -0.43329518046291721 -0.2327552146800014 0 -0.41913504153214137 -0.21844624299008161 0 -0.43477266889512162 -0.20433641732126781 0 -0.43477266889512162 -0.20433641732126781 0 -0.41829737854733201 -0.17138699498240809 0 -0.44854429383794292 -0.18065270801539521 0 -0.41829737854733201 -0.17138699498240809 0 -0.41726866241386701 -0.1458882107442423 0 -0.44651767726721109 -0.15747833955297039 0 -0.41829737854733201 -0.17138699498240809 0 -0.39579221819535437 -0.15991784416793539 0 -0.41726866241386701 -0.1458882107442423 0 -0.41829737854733201 -0.17138699498240809 0 -0.41726866241386701 -0.1458882107442423 0 -0.40598500779482949 -0.2016165582683809 0 -0.41829737854733201 -0.17138699498240809 0 -0.39649692090601402 -0.18157002191310059 0 -0.39649692090601402 -0.18157002191310059 0 -0.37916751020303791 -0.17522902745937999 0 -0.39579221819535437 -0.15991784416793539 0 -0.37719734669453753 -0.19889669921549399 0 -0.39649692090601402 -0.18157002191310059 0 -0.37916751020303791 -0.17522902745937999 0 -0.37916751020303791 -0.17522902745937999 0 -0.37633411006425183 -0.15978166266085819 0 -0.39579221819535437 -0.15991784416793539 0 -0.41829737854733201 -0.17138699498240809 0 -0.39649692090601402 -0.18157002191310059 0 -0.39579221819535437 -0.15991784416793539 0 -0.39579221819535437 -0.15991784416793539 0 -0.39804141773134832 -0.1378536035953935 0 -0.41726866241386701 -0.1458882107442423 0 -0.39579221819535437 -0.15991784416793539 0 -0.38242016849957511 -0.1472466706301265 0 -0.39804141773134832 -0.1378536035953935 0 -0.37633411006425183 -0.15978166266085819 0 -0.39579221819535437 -0.15991784416793539 0 -0.38242016849957511 -0.1472466706301265 0 -0.37993886846038039 -0.13183607229046479 0 -0.39804141773134832 -0.1378536035953935 0 -0.39335360287980581 -0.12046551772960951 0 -0.38242016849957511 -0.1472466706301265 0 -0.37993886846038039 -0.13183607229046479 0 -0.39804141773134832 -0.1378536035953935 0 -0.38242016849957511 -0.1472466706301265 0 -0.37993886846038039 -0.13183607229046479 0 -0.36931972304268063 -0.1389624787683631 0 -0.38242016849957511 -0.1472466706301265 0 -0.37993886846038039 -0.13183607229046479 0 -0.39804141773134832 -0.1378536035953935 0 -0.39335360287980581 -0.12046551772960951 0 -0.41623994628040201 -0.1203894265060764 0 -0.39804141773134832 -0.1378536035953935 0 -0.41726866241386701 -0.1458882107442423 0 -0.41623994628040201 -0.1203894265060764 0 -0.41726866241386701 -0.1458882107442423 0 -0.42865372354796449 -0.13000479636069681 0 -0.41623994628040201 -0.1203894265060764 0 -0.41726866241386701 -0.1458882107442423 0 -0.41623994628040201 -0.1203894265060764 0 -0.41726866241386701 -0.1458882107442423 0 -0.4425709294591742 -0.13832342352053889 0 -0.44651767726721109 -0.15747833955297039 0 -0.41726866241386701 -0.1458882107442423 0 -0.42865372354796449 -0.13000479636069681 0 -0.4425709294591742 -0.13832342352053889 0 -0.42865372354796449 -0.13000479636069681 0 -0.4425709294591742 -0.13832342352053889 0 -0.43828843073734869 -0.1191922238822697 0 -0.4425709294591742 -0.13832342352053889 0 -0.45951008489678691 -0.12882466091163361 0 -0.43828843073734869 -0.1191922238822697 0 -0.4425709294591742 -0.13832342352053889 0 -0.46535933379854488 -0.14504601494894001 0 -0.44651767726721109 -0.15747833955297039 0 -0.46535933379854488 -0.14504601494894001 0 -0.45951008489678691 -0.12882466091163361 0 -0.47790837319164059 -0.12948813161581099 0 -0.4425709294591742 -0.13832342352053889 0 -0.46535933379854488 -0.14504601494894001 0 -0.45951008489678691 -0.12882466091163361 0 -0.46535933379854488 -0.14504601494894001 0 -0.47790837319164059 -0.12948813161581099 0 -0.48862674889601249 -0.14435418655235979 0 -0.5 -0.14072866684348889 0 -0.48862674889601249 -0.14435418655235979 0 -0.50000000000000233 -0.1172363815138221 0 -0.47790837319164059 -0.12948813161581099 0 -0.48862674889601249 -0.14435418655235979 0 -0.50000000000000233 -0.1172363815138221 0 -0.48862674889601249 -0.14435418655235979 0 -0.50000000000000233 -0.1172363815138221 0 -0.5 -0.14072866684348889 0 -0.48862674889601249 -0.14435418655235979 0 -0.5 -0.1642209521731558 0 -0.46535933379854488 -0.14504601494894001 0 -0.48862674889601249 -0.14435418655235979 0 -0.47725349779202081 -0.17147199159089649 0 -0.48862674889601249 -0.14435418655235979 0 -0.47725349779202081 -0.17147199159089649 0 -0.48862674889601249 -0.14435418655235979 0 -0.47725349779202081 -0.17147199159089649 0 -0.5 -0.1642209521731558 0 -0.47725349779202081 -0.17147199159089649 0 -0.5 -0.1642209521731558 0 -0.49999999999999711 -0.18771323750282259 0 -0.47725349779202081 -0.17147199159089649 0 -0.48284805435045702 -0.1928626967405794 0 -0.49999999999999711 -0.18771323750282259 0 -0.47725349779202081 -0.17147199159089649 0 -0.46588024668802902 -0.19858979662943341 0 -0.47725349779202081 -0.17147199159089649 0 -0.44854429383794292 -0.18065270801539521 0 -0.46588024668802902 -0.19858979662943341 0 -0.46535933379854488 -0.14504601494894001 0 -0.47725349779202081 -0.17147199159089649 0 -0.44651767726721109 -0.15747833955297039 0 -0.47725349779202081 -0.17147199159089649 0 -0.44651767726721109 -0.15747833955297039 0 -0.44854429383794292 -0.18065270801539521 0 -0.41829737854733201 -0.17138699498240809 0 -0.44651767726721109 -0.15747833955297039 0 -0.44854429383794292 -0.18065270801539521 0 -0.43477266889512162 -0.20433641732126781 0 -0.44854429383794292 -0.18065270801539521 0 -0.46588024668802902 -0.19858979662943341 0 -0.43477266889512162 -0.20433641732126781 0 -0.46588024668802902 -0.19858979662943341 0 -0.45450699558403712 -0.22570760166797019 0 -0.46793629520373919 -0.21760338364631929 0 -0.46588024668802902 -0.19858979662943341 0 -0.45450699558403712 -0.22570760166797019 0 -0.46588024668802902 -0.19858979662943341 0 -0.45450699558403712 -0.22570760166797019 0 -0.47725349779202081 -0.17147199159089649 0 -0.46588024668802902 -0.19858979662943341 0 -0.48284805435045702 -0.1928626967405794 0 -0.46588024668802902 -0.19858979662943341 0 -0.48284805435045702 -0.1928626967405794 0 -0.48294012334400982 -0.21077073106337671 0 -0.48284805435045702 -0.1928626967405794 0 -0.49999999999999711 -0.18771323750282259 0 -0.48294012334400982 -0.21077073106337671 0 -0.49999999999999711 -0.18771323750282259 0 -0.48294012334400982 -0.21077073106337671 0 -0.49999999999999711 -0.18771323750282259 0 -0.5 -0.20797395375414759 0 -0.48294012334400982 -0.21077073106337671 0 -0.5 -0.20797395375414759 0 -0.49157680636448792 -0.21824987032225379 0 -0.5 -0.2282346700054726 0 -0.5 -0.20797395375414759 0 -0.49157680636448792 -0.21824987032225379 0 -0.48294012334400982 -0.21077073106337671 0 -0.49157680636448792 -0.21824987032225379 0 -0.48294012334400982 -0.21077073106337671 0 -0.48336710211394168 -0.2260201264660183 0 -0.46793629520373919 -0.21760338364631929 0 -0.46588024668802902 -0.19858979662943341 0 -0.48294012334400982 -0.21077073106337671 0 -0.48294012334400982 -0.21077073106337671 0 -0.46588024668802408 -0.2338282246239321 0 -0.48294012334400982 -0.21077073106337671 0 -0.48336710211394168 -0.2260201264660183 0 -0.46588024668802408 -0.2338282246239321 0 -0.46793629520373919 -0.21760338364631929 0 -0.48294012334400982 -0.21077073106337671 0 -0.46588024668802408 -0.2338282246239321 0 -0.49157680636448792 -0.21824987032225379 0 -0.48336710211394168 -0.2260201264660183 0 -0.5 -0.2282346700054726 0 -0.48336710211394168 -0.2260201264660183 0 -0.5 -0.2282346700054726 0 -0.48778554165744908 -0.24107357428340001 0 -0.48193852755816652 -0.25692765929205058 0 -0.48778554165744908 -0.24107357428340001 0 -0.49999999999999911 -0.2484953862567976 0 -0.5 -0.2282346700054726 0 -0.48778554165744908 -0.24107357428340001 0 -0.49999999999999911 -0.2484953862567976 0 -0.48336710211394168 -0.2260201264660183 0 -0.47362207861513728 -0.2456900293966606 0 -0.48193852755816652 -0.25692765929205058 0 -0.48778554165744908 -0.24107357428340001 0 -0.47362207861513728 -0.2456900293966606 0 -0.48336710211394168 -0.2260201264660183 0 -0.47362207861513728 -0.2456900293966606 0 -0.46588024668802408 -0.2338282246239321 0 -0.48336710211394168 -0.2260201264660183 0 -0.48778554165744908 -0.24107357428340001 0 -0.47362207861513728 -0.2456900293966606 0 -0.44882037003203851 -0.25688571818448769 0 -0.46588024668802408 -0.2338282246239321 0 -0.46304993761288332 -0.2504409761330959 0 -0.47362207861513728 -0.2456900293966606 0 -0.46588024668802408 -0.2338282246239321 0 -0.44882037003203851 -0.25688571818448769 0 -0.46304993761288332 -0.2504409761330959 0 -0.46588024668802408 -0.2338282246239321 0 -0.44313374448004539 -0.25282540670650688 0 -0.45450699558403712 -0.22570760166797019 0 -0.46588024668802408 -0.2338282246239321 0 -0.46793629520373919 -0.21760338364631929 0 -0.45450699558403712 -0.22570760166797019 0 -0.46588024668802408 -0.2338282246239321 0 -0.43329518046291721 -0.2327552146800014 0 -0.43477266889512162 -0.20433641732126781 0 -0.45450699558403712 -0.22570760166797019 0 -0.44313374448004539 -0.25282540670650688 0 -0.43329518046291721 -0.2327552146800014 0 -0.45450699558403712 -0.22570760166797019 0 -0.44313374448004539 -0.25282540670650688 0 -0.44882037003203851 -0.25688571818448769 0 -0.46588024668802408 -0.2338282246239321 0 -0.44313374448004539 -0.25282540670650688 0 -0.45450699558403712 -0.22570760166797019 0 -0.41319125939642659 -0.044821632305847382 0 -0.41226691517884378 -0.02190991448664012 0 -0.4017538921803665 -0.031870942488938708 0 -0.41319125939642659 -0.044821632305847382 0 -0.41226691517884378 -0.02190991448664012 0 -0.42045101224240111 -0.033054242120549367 0 -0.41319125939642659 -0.044821632305847382 0 -0.41226691517884378 -0.02190991448664012 0 -0.42045101224240111 -0.033054242120549367 0 -0.41319125939642659 -0.044821632305847382 0 -0.42964392100687959 -0.047415416233911017 0 -0.41319125939642659 -0.044821632305847382 0 -0.4017538921803665 -0.031870942488938708 0 -0.41319125939642659 -0.044821632305847382 0 -0.40370708171488162 -0.055946067937132471 0 -0.41418251401347211 -0.069391858029745013 0 -0.41319125939642659 -0.044821632305847382 0 -0.41418251401347211 -0.069391858029745013 0 -0.41319125939642659 -0.044821632305847382 0 -0.42346855854209248 -0.056458760927925213 0 -0.41418251401347211 -0.069391858029745013 0 -0.41319125939642659 -0.044821632305847382 0 -0.42346855854209248 -0.056458760927925213 0 -0.41319125939642659 -0.044821632305847382 0 -0.42964392100687959 -0.047415416233911017 0 -0.42346855854209248 -0.056458760927925213 0 -0.42964392100687959 -0.047415416233911017 0 -0.42346855854209248 -0.056458760927925213 0 -0.4348143797693243 -0.058281165144052668 0 -0.42346855854209248 -0.056458760927925213 0 -0.43374585768776153 -0.068095889550000316 0 -0.42346855854209248 -0.056458760927925213 0 -0.4348143797693243 -0.058281165144052668 0 -0.43374585768776153 -0.068095889550000316 0 -0.42964392100687959 -0.047415416233911017 0 -0.4348143797693243 -0.058281165144052668 0 -0.4440021710442526 -0.054226333499772711 0 -0.42964392100687959 -0.047415416233911017 0 -0.43400911225545769 -0.035765958771236721 0 -0.4440021710442526 -0.054226333499772711 0 -0.42045101224240111 -0.033054242120549367 0 -0.42964392100687959 -0.047415416233911017 0 -0.43400911225545769 -0.035765958771236721 0 -0.43400911225545769 -0.035765958771236721 0 -0.42418609417118791 -0.0091183421442887977 0 -0.42045101224240111 -0.033054242120549367 0 -0.43400911225545769 -0.035765958771236721 0 -0.42418609417118791 -0.0091183421442887977 0 -0.43400911225545769 -0.035765958771236721 0 -0.42418609417118791 -0.0091183421442887977 0 -0.44051600057621748 -0.024795972068078709 0 -0.42743953833156889 -0.0036333487927089 0 -0.44051600057621748 -0.024795972068078709 0 -0.42743953833156889 -0.0036333487927089 0 -0.43907533615872812 -0.012633837457299509 0 -0.44051600057621748 -0.024795972068078709 0 -0.42418609417118791 -0.0091183421442887977 0 -0.42743953833156889 -0.0036333487927089 0 -0.44051600057621748 -0.024795972068078709 0 -0.42743953833156889 -0.0036333487927089 0 -0.43907533615872812 -0.012633837457299509 0 -0.43965810197412369 0.00048714516041962168 0 -0.42418609417118791 -0.0091183421442887977 0 -0.41226691517884378 -0.02190991448664012 0 -0.41134257096125798 0.001001803332566935 0 -0.41226691517884378 -0.02190991448664012 0 -0.41134257096125798 0.001001803332566935 0 -0.41226691517884378 -0.02190991448664012 0 -0.40127014919496062 -0.0107490608947835 0 -0.41134257096125798 0.001001803332566935 0 -0.42045101224240111 -0.033054242120549367 0 -0.42418609417118791 -0.0091183421442887977 0 -0.41226691517884378 -0.02190991448664012 0 -0.40127014919496062 -0.0107490608947835 0 -0.39031652496430941 -0.01892025267202747 0 -0.4017538921803665 -0.031870942488938708 0 -0.41226691517884378 -0.02190991448664012 0 -0.40127014919496062 -0.0107490608947835 0 -0.4017538921803665 -0.031870942488938708 0 -0.39031652496430941 -0.01892025267202747 0 -0.39280589954217432 -0.038796680953239022 0 -0.4017538921803665 -0.031870942488938708 0 -0.39031652496430941 -0.01892025267202747 0 -0.4017538921803665 -0.031870942488938708 0 -0.40127014919496062 -0.0107490608947835 0 -0.38697053054261621 -0.0043141965444658068 0 -0.39872561257296191 0.01287471731850858 0 -0.40127014919496062 -0.0107490608947835 0 -0.38697053054261621 -0.0043141965444658068 0 -0.39031652496430941 -0.01892025267202747 0 -0.38697053054261621 -0.0043141965444658068 0 -0.37728664903071002 -0.013752034310298131 0 -0.39031652496430941 -0.01892025267202747 0 -0.37270498551195169 -0.0023871038273499561 0 -0.38697053054261621 -0.0043141965444658068 0 -0.37728664903071002 -0.013752034310298131 0 -0.39031652496430941 -0.01892025267202747 0 -0.37702188562280292 -0.02911683488913519 0 -0.39280589954217432 -0.038796680953239022 0 -0.37728664903071002 -0.013752034310298131 0 -0.39031652496430941 -0.01892025267202747 0 -0.37702188562280292 -0.02911683488913519 0 -0.37702188562280292 -0.02911683488913519 0 -0.39280589954217432 -0.038796680953239022 0 -0.37755626503612327 -0.048980193143602073 0 -0.39280589954217432 -0.038796680953239022 0 -0.39324962454288231 -0.04947982886044186 0 -0.37755626503612327 -0.048980193143602073 0 -0.39280589954217432 -0.038796680953239022 0 -0.37755626503612327 -0.048980193143602073 0 -0.39280589954217432 -0.038796680953239022 0 -0.40120885564468689 -0.044165619306598743 0 -0.39324962454288231 -0.04947982886044186 0 -0.41319125939642659 -0.044821632305847382 0 -0.40120885564468689 -0.044165619306598743 0 -0.4017538921803665 -0.031870942488938708 0 -0.39280589954217432 -0.038796680953239022 0 -0.40120885564468689 -0.044165619306598743 0 -0.4017538921803665 -0.031870942488938708 0 -0.40370708171488162 -0.055946067937132471 0 -0.39097002077654519 -0.059510582961637332 0 -0.40438377651696727 -0.070040972779672445 0 -0.41319125939642659 -0.044821632305847382 0 -0.40120885564468689 -0.044165619306598743 0 -0.40370708171488162 -0.055946067937132471 0 -0.40120885564468689 -0.044165619306598743 0 -0.40370708171488162 -0.055946067937132471 0 -0.39324962454288231 -0.04947982886044186 0 -0.40370708171488162 -0.055946067937132471 0 -0.39324962454288231 -0.04947982886044186 0 -0.39097002077654519 -0.059510582961637332 0 -0.39324962454288231 -0.04947982886044186 0 -0.39097002077654519 -0.059510582961637332 0 -0.37755626503612327 -0.048980193143602073 0 -0.39097002077654519 -0.059510582961637332 0 -0.37755626503612327 -0.048980193143602073 0 -0.39097002077654519 -0.059510582961637332 0 -0.37755626503612327 -0.048980193143602073 0 -0.37855666239413249 -0.062060271795993237 0 -0.3703520708535189 -0.072295394037414917 0 -0.38736792368524309 -0.071168183408544541 0 -0.3703520708535189 -0.072295394037414917 0 -0.37855666239413249 -0.062060271795993237 0 -0.38736792368524309 -0.071168183408544541 0 -0.39097002077654519 -0.059510582961637332 0 -0.37855666239413249 -0.062060271795993237 0 -0.38736792368524309 -0.071168183408544541 0 -0.37390481963735239 -0.094360433994108928 0 -0.3703520708535189 -0.072295394037414917 0 -0.38736792368524309 -0.071168183408544541 0 -0.37390481963735239 -0.094360433994108928 0 -0.38736792368524309 -0.071168183408544541 0 -0.39597425711997192 -0.090600983928667583 0 -0.38736792368524309 -0.071168183408544541 0 -0.39597425711997192 -0.090600983928667583 0 -0.40295635287420872 -0.080519762499279737 0 -0.39597425711997192 -0.090600983928667583 0 -0.40295635287420872 -0.080519762499279737 0 -0.41521123014693712 -0.094890642267910677 0 -0.38736792368524309 -0.071168183408544541 0 -0.40438377651696727 -0.070040972779672445 0 -0.39097002077654519 -0.059510582961637332 0 -0.38736792368524309 -0.071168183408544541 0 -0.40438377651696727 -0.070040972779672445 0 -0.38736792368524309 -0.071168183408544541 0 -0.40295635287420872 -0.080519762499279737 0 -0.40438377651696727 -0.070040972779672445 0 -0.39097002077654519 -0.059510582961637332 0 -0.40438377651696727 -0.070040972779672445 0 -0.37745756842118627 -0.1164254739508029 0 -0.3891438180729751 -0.10527449433467689 0 -0.39335360287980581 -0.12046551772960951 0 -0.37745756842118627 -0.1164254739508029 0 -0.39335360287980581 -0.12046551772960951 0 -0.37993886846038039 -0.13183607229046479 0 -0.37745756842118627 -0.1164254739508029 0 -0.39335360287980581 -0.12046551772960951 0 -0.37993886846038039 -0.13183607229046479 0 -0.37745756842118627 -0.1164254739508029 0 -0.37390481963735239 -0.094360433994108928 0 -0.39597425711997192 -0.090600983928667583 0 -0.3891438180729751 -0.10527449433467689 0 -0.37390481963735239 -0.094360433994108928 0 -0.37745756842118627 -0.1164254739508029 0 -0.37390481963735239 -0.094360433994108928 0 -0.37745756842118627 -0.1164254739508029 0 -0.3891438180729751 -0.10527449433467689 0 -0.39597425711997192 -0.090600983928667583 0 -0.3891438180729751 -0.10527449433467689 0 -0.40198457090001832 -0.1063242129533882 0 -0.39597425711997192 -0.090600983928667583 0 -0.40198457090001832 -0.1063242129533882 0 -0.41521123014693712 -0.094890642267910677 0 -0.40198457090001832 -0.1063242129533882 0 -0.39335360287980581 -0.12046551772960951 0 -0.41623994628040201 -0.1203894265060764 0 -0.3891438180729751 -0.10527449433467689 0 -0.40198457090001832 -0.1063242129533882 0 -0.39335360287980581 -0.12046551772960951 0 -0.41623994628040201 -0.1203894265060764 0 -0.41521123014693712 -0.094890642267910677 0 -0.42844194607580782 -0.10598612750435719 0 -0.41623994628040201 -0.1203894265060764 0 -0.41521123014693712 -0.094890642267910677 0 -0.40198457090001832 -0.1063242129533882 0 -0.41623994628040201 -0.1203894265060764 0 -0.41521123014693712 -0.094890642267910677 0 -0.42844194607580782 -0.10598612750435719 0 -0.43828843073734869 -0.1191922238822697 0 -0.4421764995395418 -0.1028299784097125 0 -0.41521123014693712 -0.094890642267910677 0 -0.42844194607580782 -0.10598612750435719 0 -0.43029362367480928 -0.092628366455816499 0 -0.42844194607580782 -0.10598612750435719 0 -0.43029362367480928 -0.092628366455816499 0 -0.4421764995395418 -0.1028299784097125 0 -0.42865372354796449 -0.13000479636069681 0 -0.41623994628040201 -0.1203894265060764 0 -0.43828843073734869 -0.1191922238822697 0 -0.41623994628040201 -0.1203894265060764 0 -0.42844194607580782 -0.10598612750435719 0 -0.43828843073734869 -0.1191922238822697 0 -0.40438377651696727 -0.070040972779672445 0 -0.41418251401347211 -0.069391858029745013 0 -0.40370708171488162 -0.055946067937132471 0 -0.40438377651696727 -0.070040972779672445 0 -0.41418251401347211 -0.069391858029745013 0 -0.40295635287420872 -0.080519762499279737 0 -0.40438377651696727 -0.070040972779672445 0 -0.41184457690192477 -0.07589803011160301 0 -0.40438377651696727 -0.070040972779672445 0 -0.41184457690192477 -0.07589803011160301 0 -0.40438377651696727 -0.070040972779672445 0 -0.41418251401347211 -0.069391858029745013 0 -0.41184457690192477 -0.07589803011160301 0 -0.40295635287420872 -0.080519762499279737 0 -0.41521123014693712 -0.094890642267910677 0 -0.41184457690192477 -0.07589803011160301 0 -0.41521123014693712 -0.094890642267910677 0 -0.41418251401347211 -0.069391858029745013 0 -0.4245847499314292 -0.081289710738169527 0 -0.41521123014693712 -0.094890642267910677 0 -0.41418251401347211 -0.069391858029745013 0 -0.41184457690192477 -0.07589803011160301 0 -0.41521123014693712 -0.094890642267910677 0 -0.41418251401347211 -0.069391858029745013 0 -0.41521123014693712 -0.094890642267910677 0 -0.4245847499314292 -0.081289710738169527 0 -0.43029362367480928 -0.092628366455816499 0 -0.43029362367480928 -0.092628366455816499 0 -0.43466214219414029 -0.081137945016605428 0 -0.44131042978162449 -0.091446904959817443 0 -0.4245847499314292 -0.081289710738169527 0 -0.43029362367480928 -0.092628366455816499 0 -0.43466214219414029 -0.081137945016605428 0 -0.42346855854209248 -0.056458760927925213 0 -0.41418251401347211 -0.069391858029745013 0 -0.43374585768776153 -0.068095889550000316 0 -0.41418251401347211 -0.069391858029745013 0 -0.43374585768776153 -0.068095889550000316 0 -0.41418251401347211 -0.069391858029745013 0 -0.4245847499314292 -0.081289710738169527 0 -0.43374585768776153 -0.068095889550000316 0 -0.4245847499314292 -0.081289710738169527 0 -0.43466214219414029 -0.081137945016605428 0 -0.43374585768776153 -0.068095889550000316 0 -0.4348143797693243 -0.058281165144052668 0 -0.43374585768776153 -0.068095889550000316 0 -0.443862721028218 -0.067425700638459984 0 -0.43374585768776153 -0.068095889550000316 0 -0.443862721028218 -0.067425700638459984 0 -0.44748834151229172 -0.083656694931466435 0 -0.443862721028218 -0.067425700638459984 0 -0.44748834151229172 -0.083656694931466435 0 -0.4440021710442526 -0.054226333499772711 0 -0.43374585768776153 -0.068095889550000316 0 -0.443862721028218 -0.067425700638459984 0 -0.44748834151229172 -0.083656694931466435 0 -0.45775631464081129 -0.067989412228459889 0 -0.4440021710442526 -0.054226333499772711 0 -0.44748834151229172 -0.083656694931466435 0 -0.4440021710442526 -0.054226333499772711 0 -0.43374585768776153 -0.068095889550000316 0 -0.44748834151229172 -0.083656694931466435 0 -0.43466214219414029 -0.081137945016605428 0 -0.43374585768776153 -0.068095889550000316 0 -0.44748834151229172 -0.083656694931466435 0 -0.43466214219414029 -0.081137945016605428 0 -0.44131042978162449 -0.091446904959817443 0 -0.44748834151229172 -0.083656694931466435 0 -0.44748834151229172 -0.083656694931466435 0 -0.45825621267120092 -0.095849305060457288 0 -0.44748834151229172 -0.083656694931466435 0 -0.44912828105348052 -0.097501116443791003 0 -0.44748834151229172 -0.083656694931466435 0 -0.44912828105348052 -0.097501116443791003 0 -0.45825621267120092 -0.095849305060457288 0 -0.44131042978162449 -0.091446904959817443 0 -0.44748834151229172 -0.083656694931466435 0 -0.44912828105348052 -0.097501116443791003 0 -0.44748834151229172 -0.083656694931466435 0 -0.46096816785426609 -0.082551896235604202 0 -0.45825621267120092 -0.095849305060457288 0 -0.46723722707259452 -0.090520508546733616 0 -0.46096816785426609 -0.082551896235604202 0 -0.45825621267120092 -0.095849305060457288 0 -0.46723722707259452 -0.090520508546733616 0 -0.46096816785426609 -0.082551896235604202 0 -0.4712863663214758 -0.076648524284367803 0 -0.46096816785426609 -0.082551896235604202 0 -0.45775631464081129 -0.067989412228459889 0 -0.4712863663214758 -0.076648524284367803 0 -0.45775631464081129 -0.067989412228459889 0 -0.4712863663214758 -0.076648524284367803 0 -0.46812972888801291 -0.059936324435835249 0 -0.44748834151229172 -0.083656694931466435 0 -0.46096816785426609 -0.082551896235604202 0 -0.45775631464081129 -0.067989412228459889 0 -0.43828843073734869 -0.1191922238822697 0 -0.4421764995395418 -0.1028299784097125 0 -0.45548650497981502 -0.1122901981903424 0 -0.45951008489678691 -0.12882466091163361 0 -0.43828843073734869 -0.1191922238822697 0 -0.45548650497981502 -0.1122901981903424 0 -0.4421764995395418 -0.1028299784097125 0 -0.45419232968385681 -0.1024407289617036 0 -0.45548650497981502 -0.1122901981903424 0 -0.44131042978162449 -0.091446904959817443 0 -0.4421764995395418 -0.1028299784097125 0 -0.44912828105348052 -0.097501116443791003 0 -0.43029362367480928 -0.092628366455816499 0 -0.44131042978162449 -0.091446904959817443 0 -0.4421764995395418 -0.1028299784097125 0 -0.4421764995395418 -0.1028299784097125 0 -0.44912828105348052 -0.097501116443791003 0 -0.45419232968385681 -0.1024407289617036 0 -0.46591415017524579 -0.1037330467042147 0 -0.45548650497981502 -0.1122901981903424 0 -0.47604569836685379 -0.1119794141522987 0 -0.44912828105348052 -0.097501116443791003 0 -0.45825621267120092 -0.095849305060457288 0 -0.45419232968385681 -0.1024407289617036 0 -0.45825621267120092 -0.095849305060457288 0 -0.46591415017524579 -0.1037330467042147 0 -0.45419232968385681 -0.1024407289617036 0 -0.46723722707259452 -0.090520508546733616 0 -0.45825621267120092 -0.095849305060457288 0 -0.46591415017524579 -0.1037330467042147 0 -0.46591415017524579 -0.1037330467042147 0 -0.45419232968385681 -0.1024407289617036 0 -0.45548650497981502 -0.1122901981903424 0 -0.45951008489678691 -0.12882466091163361 0 -0.45548650497981502 -0.1122901981903424 0 -0.47604569836685379 -0.1119794141522987 0 -0.45951008489678691 -0.12882466091163361 0 -0.47790837319164059 -0.12948813161581099 0 -0.47604569836685379 -0.1119794141522987 0 -0.47604569836685379 -0.1119794141522987 0 -0.47976123834078388 -0.093819770449024148 0 -0.48895173417691051 -0.1036286448959215 0 -0.46591415017524579 -0.1037330467042147 0 -0.47604569836685379 -0.1119794141522987 0 -0.47976123834078388 -0.093819770449024148 0 -0.46723722707259452 -0.090520508546733616 0 -0.46591415017524579 -0.1037330467042147 0 -0.47976123834078388 -0.093819770449024148 0 -0.47976123834078388 -0.093819770449024148 0 -0.48895173417691051 -0.1036286448959215 0 -0.5 -0.091479013468540038 0 -0.48895173417691051 -0.1036286448959215 0 -0.50000000000000233 -0.1172363815138221 0 -0.5 -0.091479013468540038 0 -0.47604569836685379 -0.1119794141522987 0 -0.48895173417691051 -0.1036286448959215 0 -0.50000000000000233 -0.1172363815138221 0 -0.47790837319164059 -0.12948813161581099 0 -0.47604569836685379 -0.1119794141522987 0 -0.50000000000000233 -0.1172363815138221 0 -0.4822955657058286 -0.063812948641846334 0 -0.4712863663214758 -0.076648524284367803 0 -0.48697848090267909 -0.07854844727455973 0 -0.4822955657058286 -0.063812948641846334 0 -0.4712863663214758 -0.076648524284367803 0 -0.46812972888801291 -0.059936324435835249 0 -0.47976123834078388 -0.093819770449024148 0 -0.4712863663214758 -0.076648524284367803 0 -0.48697848090267909 -0.07854844727455973 0 -0.46723722707259452 -0.090520508546733616 0 -0.47976123834078388 -0.093819770449024148 0 -0.4712863663214758 -0.076648524284367803 0 -0.47976123834078388 -0.093819770449024148 0 -0.5 -0.091479013468540038 0 -0.48697848090267909 -0.07854844727455973 0 -0.5 -0.091479013468540038 0 -0.48697848090267909 -0.07854844727455973 0 -0.5 -0.065721645423257979 0 -0.4822955657058286 -0.063812948641846334 0 -0.48697848090267909 -0.07854844727455973 0 -0.5 -0.065721645423257979 0 -0.4822955657058286 -0.063812948641846334 0 -0.5 -0.065721645423257979 0 -0.48933327805103832 -0.051200757895332231 0 -0.5 -0.065721645423257979 0 -0.48933327805103832 -0.051200757895332231 0 -0.5 -0.039964277377975921 0 -0.48933327805103832 -0.051200757895332231 0 -0.48477605033228999 -0.034422591390093647 0 -0.5 -0.039964277377975921 0 -0.48477605033228999 -0.034422591390093647 0 -0.46719131829263888 -0.046885254112272921 0 -0.46409252474781709 -0.035105509308896859 0 -0.48477605033228999 -0.034422591390093647 0 -0.47804554007176558 -0.050821992537725062 0 -0.46719131829263888 -0.046885254112272921 0 -0.48933327805103832 -0.051200757895332231 0 -0.48477605033228999 -0.034422591390093647 0 -0.47804554007176558 -0.050821992537725062 0 -0.4822955657058286 -0.063812948641846334 0 -0.48933327805103832 -0.051200757895332231 0 -0.47804554007176558 -0.050821992537725062 0 -0.47804554007176558 -0.050821992537725062 0 -0.46812972888801291 -0.059936324435835249 0 -0.46719131829263888 -0.046885254112272921 0 -0.4822955657058286 -0.063812948641846334 0 -0.47804554007176558 -0.050821992537725062 0 -0.46812972888801291 -0.059936324435835249 0 -0.45775631464081129 -0.067989412228459889 0 -0.46812972888801291 -0.059936324435835249 0 -0.45656207004067101 -0.050764534265813448 0 -0.46812972888801291 -0.059936324435835249 0 -0.45656207004067101 -0.050764534265813448 0 -0.46719131829263888 -0.046885254112272921 0 -0.45656207004067101 -0.050764534265813448 0 -0.46719131829263888 -0.046885254112272921 0 -0.46409252474781709 -0.035105509308896859 0 -0.45656207004067101 -0.050764534265813448 0 -0.46409252474781709 -0.035105509308896859 0 -0.44853903530844552 -0.037780253166945332 0 -0.46409252474781709 -0.035105509308896859 0 -0.44853903530844552 -0.037780253166945332 0 -0.45215113779402638 -0.02226165799595203 0 -0.4440021710442526 -0.054226333499772711 0 -0.44051600057621748 -0.024795972068078709 0 -0.44853903530844552 -0.037780253166945332 0 -0.4440021710442526 -0.054226333499772711 0 -0.44051600057621748 -0.024795972068078709 0 -0.43400911225545769 -0.035765958771236721 0 -0.4440021710442526 -0.054226333499772711 0 -0.44051600057621748 -0.024795972068078709 0 -0.45656207004067101 -0.050764534265813448 0 -0.44853903530844552 -0.037780253166945332 0 -0.44853903530844552 -0.037780253166945332 0 -0.44051600057621748 -0.024795972068078709 0 -0.45775631464081129 -0.067989412228459889 0 -0.45656207004067101 -0.050764534265813448 0 -0.4440021710442526 -0.054226333499772711 0 -0.45656207004067101 -0.050764534265813448 0 -0.44853903530844552 -0.037780253166945332 0 -0.4440021710442526 -0.054226333499772711 0 -0.4348143797693243 -0.058281165144052668 0 -0.443862721028218 -0.067425700638459984 0 -0.4440021710442526 -0.054226333499772711 0 -0.45145128480767632 -0.0076384910317680481 0 -0.43907533615872812 -0.012633837457299509 0 -0.45215113779402638 -0.02226165799595203 0 -0.45145128480767632 -0.0076384910317680481 0 -0.45808941820642818 0.0011935338796389349 0 -0.44705951247989978 0.0048970811749863216 0 -0.45145128480767632 -0.0076384910317680481 0 -0.44705951247989978 0.0048970811749863216 0 -0.43965810197412369 0.00048714516041962168 0 -0.45145128480767632 -0.0076384910317680481 0 -0.43907533615872812 -0.012633837457299509 0 -0.43965810197412369 0.00048714516041962168 0 -0.43907533615872812 -0.012633837457299509 0 -0.44051600057621748 -0.024795972068078709 0 -0.45215113779402638 -0.02226165799595203 0 -0.43907533615872812 -0.012633837457299509 0 -0.44051600057621748 -0.024795972068078709 0 -0.44853903530844552 -0.037780253166945332 0 -0.44051600057621748 -0.024795972068078709 0 -0.45215113779402638 -0.02226165799595203 0 -0.46409252474781709 -0.035105509308896859 0 -0.45215113779402638 -0.02226165799595203 0 -0.47143273426935911 -0.01661452875522736 0 -0.47143273426935911 -0.01661452875522736 0 -0.45808941820642818 0.0011935338796389349 0 -0.45145128480767632 -0.0076384910317680481 0 -0.47143273426935911 -0.01661452875522736 0 -0.45808941820642818 0.0011935338796389349 0 -0.45145128480767632 -0.0076384910317680481 0 -0.45215113779402638 -0.02226165799595203 0 -0.47143273426935911 -0.01661452875522736 0 -0.47143273426935911 -0.01661452875522736 0 -0.5 -0.014206909332693749 0 -0.47690643715765479 0.0066177296824142494 0 -0.47143273426935911 -0.01661452875522736 0 -0.47690643715765479 0.0066177296824142494 0 -0.45808941820642818 0.0011935338796389349 0 -0.48477605033228999 -0.034422591390093647 0 -0.46409252474781709 -0.035105509308896859 0 -0.47143273426935911 -0.01661452875522736 0 -0.48477605033228999 -0.034422591390093647 0 -0.47143273426935911 -0.01661452875522736 0 -0.48477605033228999 -0.034422591390093647 0 -0.5 -0.039964277377975921 0 -0.5 -0.014206909332693749 0 -0.48477605033228999 -0.034422591390093647 0 -0.47143273426935911 -0.01661452875522736 0 -0.5 -0.014206909332693749 0 -0.5 -0.014206909332693749 0 -0.5 0.011550458712588359 0 -0.47690643715765479 0.0066177296824142494 0 -0.5 0.011550458712588359 0 -0.48409022903630627 0.024516641549678 0 -0.47690643715765479 0.0066177296824142494 0 -0.5 0.011550458712588359 0 -0.48409022903630627 0.024516641549678 0 -0.5 0.037307826757870532 0 -0.48409022903630627 0.024516641549678 0 -0.47718214176778251 0.042815389828443289 0 -0.46636256625609429 0.024291802767073569 0 -0.48409022903630627 0.024516641549678 0 -0.47690643715765479 0.0066177296824142494 0 -0.46636256625609429 0.024291802767073569 0 -0.48986968255316349 0.051582405535852603 0 -0.5 0.037307826757870532 0 -0.49999999999999989 0.063065194803152702 0 -0.48986968255316349 0.051582405535852603 0 -0.48229658844487172 0.063141210753943883 0 -0.49999999999999989 0.063065194803152702 0 -0.48986968255316349 0.051582405535852603 0 -0.5 0.037307826757870532 0 -0.47718214176778251 0.042815389828443289 0 -0.48409022903630627 0.024516641549678 0 -0.5 0.037307826757870532 0 -0.47718214176778251 0.042815389828443289 0 -0.47718214176778251 0.042815389828443289 0 -0.4645931768897435 0.063217226704735299 0 -0.48229658844487172 0.063141210753943883 0 -0.48986968255316349 0.051582405535852603 0 -0.47718214176778251 0.042815389828443289 0 -0.48229658844487172 0.063141210753943883 0 -0.45466963951662098 0.041109411609620353 0 -0.4645931768897435 0.063217226704735299 0 -0.45466963951662098 0.041109411609620353 0 -0.44750208860177187 0.063290613425832323 0 -0.4645931768897435 0.063217226704735299 0 -0.47718214176778251 0.042815389828443289 0 -0.45466963951662098 0.041109411609620353 0 -0.4645931768897435 0.063217226704735299 0 -0.47718214176778251 0.042815389828443289 0 -0.45466963951662098 0.041109411609620353 0 -0.46636256625609429 0.024291802767073569 0 -0.45466963951662098 0.041109411609620353 0 -0.44474610214349791 0.019001596514505548 0 -0.42858337189822382 0.040572464745521071 0 -0.45466963951662098 0.041109411609620353 0 -0.43961218107146233 0.051657875238953252 0 -0.42858337189822382 0.040572464745521071 0 -0.45466963951662098 0.041109411609620353 0 -0.43961218107146233 0.051657875238953252 0 -0.44750208860177187 0.063290613425832323 0 -0.43961218107146233 0.051657875238953252 0 -0.43041100031380031 0.063364000146929583 0 -0.44750208860177187 0.063290613425832323 0 -0.47690643715765479 0.0066177296824142494 0 -0.46152613094091882 0.01277616571090808 0 -0.45808941820642818 0.0011935338796389349 0 -0.47690643715765479 0.0066177296824142494 0 -0.46152613094091882 0.01277616571090808 0 -0.46636256625609429 0.024291802767073569 0 -0.46152613094091882 0.01277616571090808 0 -0.45808941820642818 0.0011935338796389349 0 -0.44474610214349791 0.019001596514505548 0 -0.45466963951662098 0.041109411609620353 0 -0.46636256625609429 0.024291802767073569 0 -0.44474610214349791 0.019001596514505548 0 -0.46152613094091882 0.01277616571090808 0 -0.46636256625609429 0.024291802767073569 0 -0.44474610214349791 0.019001596514505548 0 -0.45466963951662098 0.041109411609620353 0 -0.44474610214349791 0.019001596514505548 0 -0.44474610214349791 0.019001596514505548 0 -0.44135265526777301 0.011441621352135559 0 -0.43494522553423909 0.020629971657992099 0 -0.44474610214349791 0.019001596514505548 0 -0.44135265526777301 0.011441621352135559 0 -0.44705951247989978 0.0048970811749863216 0 -0.45808941820642818 0.0011935338796389349 0 -0.44474610214349791 0.019001596514505548 0 -0.45808941820642818 0.0011935338796389349 0 -0.44474610214349791 0.019001596514505548 0 -0.44705951247989978 0.0048970811749863216 0 -0.44474610214349791 0.019001596514505548 0 -0.44135265526777301 0.011441621352135559 0 -0.44135265526777301 0.011441621352135559 0 -0.44705951247989978 0.0048970811749863216 0 -0.43965810197412369 0.00048714516041962168 0 -0.44135265526777301 0.011441621352135559 0 -0.43965810197412369 0.00048714516041962168 0 -0.43252890593969101 0.010389884101844439 0 -0.42418609417118791 -0.0091183421442887977 0 -0.42743953833156889 -0.0036333487927089 0 -0.41436307608691791 0.017529274482659299 0 -0.42743953833156889 -0.0036333487927089 0 -0.42441831964012722 0.014570898904907221 0 -0.41436307608691791 0.017529274482659299 0 -0.42743953833156889 -0.0036333487927089 0 -0.43965810197412369 0.00048714516041962168 0 -0.43252890593969101 0.010389884101844439 0 -0.42743953833156889 -0.0036333487927089 0 -0.43252890593969101 0.010389884101844439 0 -0.42441831964012722 0.014570898904907221 0 -0.44135265526777301 0.011441621352135559 0 -0.43252890593969101 0.010389884101844439 0 -0.43494522553423909 0.020629971657992099 0 -0.43252890593969101 0.010389884101844439 0 -0.42441831964012722 0.014570898904907221 0 -0.42751509242201002 0.021744291575953881 0 -0.42418609417118791 -0.0091183421442887977 0 -0.41436307608691791 0.017529274482659299 0 -0.42743953833156889 -0.0036333487927089 0 -0.41436307608691791 0.017529274482659299 0 -0.41134257096125798 0.001001803332566935 0 -0.41041822674367179 0.023913521151773941 0 -0.39872561257296191 0.01287471731850858 0 -0.41134257096125798 0.001001803332566935 0 -0.41041822674367179 0.023913521151773941 0 -0.42418609417118791 -0.0091183421442887977 0 -0.41134257096125798 0.001001803332566935 0 -0.41436307608691791 0.017529274482659299 0 -0.41134257096125798 0.001001803332566935 0 -0.41041822674367179 0.023913521151773941 0 -0.41436307608691791 0.017529274482659299 0 -0.41041822674367179 0.023913521151773941 0 -0.41022264870931929 0.02876131340220784 0 -0.41041822674367179 0.023913521151773941 0 -0.41022264870931929 0.02876131340220784 0 -0.41436307608691791 0.017529274482659299 0 -0.41022264870931929 0.02876131340220784 0 -0.41436307608691791 0.017529274482659299 0 -0.41041822674367179 0.023913521151773941 0 -0.41436307608691791 0.017529274482659299 0 -0.42441831964012722 0.014570898904907221 0 -0.41436307608691791 0.017529274482659299 0 -0.42024498542044819 0.026824393156787401 0 -0.41022264870931929 0.02876131340220784 0 -0.41436307608691791 0.017529274482659299 0 -0.42024498542044819 0.026824393156787401 0 -0.41022264870931929 0.02876131340220784 0 -0.42024498542044819 0.026824393156787401 0 -0.4178351188627098 0.037104214606560562 0 -0.44474610214349791 0.019001596514505548 0 -0.43494522553423909 0.020629971657992099 0 -0.42858337189822382 0.040572464745521071 0 -0.42024498542044819 0.026824393156787401 0 -0.42751509242201002 0.021744291575953881 0 -0.42858337189822382 0.040572464745521071 0 -0.42751509242201002 0.021744291575953881 0 -0.43494522553423909 0.020629971657992099 0 -0.42858337189822382 0.040572464745521071 0 -0.44474610214349791 0.019001596514505548 0 -0.42858337189822382 0.040572464745521071 0 -0.42441831964012722 0.014570898904907221 0 -0.42024498542044819 0.026824393156787401 0 -0.42751509242201002 0.021744291575953881 0 -0.43252890593969101 0.010389884101844439 0 -0.42751509242201002 0.021744291575953881 0 -0.43494522553423909 0.020629971657992099 0 -0.42024498542044819 0.026824393156787401 0 -0.42858337189822382 0.040572464745521071 0 -0.4178351188627098 0.037104214606560562 0 -0.43961218107146233 0.051657875238953252 0 -0.42858337189822382 0.040572464745521071 0 -0.43041100031380031 0.063364000146929583 0 -0.42858337189822382 0.040572464745521071 0 -0.41242064165295023 0.062143332976536958 0 -0.43041100031380031 0.063364000146929583 0 -0.42858337189822382 0.040572464745521071 0 -0.41242064165295023 0.062143332976536958 0 -0.42858337189822382 0.040572464745521071 0 -0.40923446040359718 0.053255534475029863 0 -0.41242064165295023 0.062143332976536958 0 -0.41022264870931929 0.02876131340220784 0 -0.40359722072478132 0.046734594465810908 0 -0.42858337189822382 0.040572464745521071 0 -0.40923446040359718 0.053255534475029863 0 -0.4178351188627098 0.037104214606560562 0 -0.41022264870931929 0.02876131340220784 0 -0.40923446040359718 0.053255534475029863 0 -0.40359722072478132 0.046734594465810908 0 -0.41022264870931929 0.02876131340220784 0 -0.40923446040359718 0.053255534475029863 0 -0.4178351188627098 0.037104214606560562 0 -0.41022264870931929 0.02876131340220784 0 -0.40923446040359718 0.053255534475029863 0 -0.41041822674367179 0.023913521151773941 0 -0.39532969892859843 0.048332421612478922 0 -0.39666821124060853 0.029366450379820611 0 -0.41022264870931929 0.02876131340220784 0 -0.40359722072478132 0.046734594465810908 0 -0.39532969892859843 0.048332421612478922 0 -0.41041822674367179 0.023913521151773941 0 -0.39532969892859843 0.048332421612478922 0 -0.41041822674367179 0.023913521151773941 0 -0.41022264870931929 0.02876131340220784 0 -0.39532969892859843 0.048332421612478922 0 -0.40359722072478132 0.046734594465810908 0 -0.39697179274024269 0.064707875529413761 0 -0.40923446040359718 0.053255534475029863 0 -0.40359722072478132 0.046734594465810908 0 -0.39697179274024269 0.064707875529413761 0 -0.39532969892859843 0.048332421612478922 0 -0.38024117111352551 0.072751322073184202 0 -0.39697179274024269 0.064707875529413761 0 -0.40359722072478132 0.046734594465810908 0 -0.39532969892859843 0.048332421612478922 0 -0.39697179274024269 0.064707875529413761 0 -0.40923446040359718 0.053255534475029863 0 -0.41242064165295023 0.062143332976536958 0 -0.39697179274024269 0.064707875529413761 0 -0.39532969892859843 0.048332421612478922 0 -0.38024117111352551 0.072751322073184202 0 -0.39532969892859843 0.048332421612478922 0 -0.37935735793272007 0.057056186903266248 0 -0.38024117111352551 0.072751322073184202 0 -0.39532969892859843 0.048332421612478922 0 -0.37935735793272007 0.057056186903266248 0 -0.37429410155058551 0.044272405856776123 0 -0.39532969892859843 0.048332421612478922 0 -0.39666821124060853 0.029366450379820611 0 -0.37429410155058551 0.044272405856776123 0 -0.39666821124060853 0.029366450379820611 0 -0.37429410155058551 0.044272405856776123 0 -0.39666821124060853 0.029366450379820611 0 -0.3720689649553926 0.02115963287041478 0 -0.37429410155058551 0.044272405856776123 0 -0.38488548360524572 0.0092452964966098956 0 -0.39666821124060853 0.029366450379820611 0 -0.3720689649553926 0.02115963287041478 0 -0.38697053054261621 -0.0043141965444658068 0 -0.38488548360524572 0.0092452964966098956 0 -0.39872561257296191 0.01287471731850858 0 -0.37270498551195169 -0.0023871038273499561 0 -0.38697053054261621 -0.0043141965444658068 0 -0.38488548360524572 0.0092452964966098956 0 -0.40127014919496062 -0.0107490608947835 0 -0.41134257096125798 0.001001803332566935 0 -0.39872561257296191 0.01287471731850858 0 -0.41041822674367179 0.023913521151773941 0 -0.39872561257296191 0.01287471731850858 0 -0.39666821124060853 0.029366450379820611 0 -0.38488548360524572 0.0092452964966098956 0 -0.39872561257296191 0.01287471731850858 0 -0.39666821124060853 0.029366450379820611 0 -0.39862461378187558 0.104344788218256 0 -0.39625791140767658 0.083714201207552921 0 -0.41162022837677958 0.097923752754698085 0 -0.39862461378187558 0.104344788218256 0 -0.38009518116240287 0.1052850694385689 0 -0.39625791140767658 0.083714201207552921 0 -0.39862461378187558 0.104344788218256 0 -0.39159192823308731 0.1215135195617397 0 -0.41558484035692339 0.1118664048327797 0 -0.39159192823308731 0.1215135195617397 0 -0.41558484035692339 0.1118664048327797 0 -0.39159192823308731 0.1215135195617397 0 -0.38009518116240287 0.1052850694385689 0 -0.37077471165323472 0.115364321114973 0 -0.39159192823308731 0.1215135195617397 0 -0.36759901610925139 0.1311606342906996 0 -0.37077471165323472 0.115364321114973 0 -0.39862461378187558 0.104344788218256 0 -0.39159192823308731 0.1215135195617397 0 -0.38009518116240287 0.1052850694385689 0 -0.38009518116240287 0.1052850694385689 0 -0.39625791140767658 0.083714201207552921 0 -0.38009518116240287 0.1052850694385689 0 -0.38043672674551388 0.089730203813298631 0 -0.36524269744302318 0.097228609801523369 0 -0.38043672674551388 0.089730203813298631 0 -0.38024117111352551 0.072751322073184202 0 -0.39625791140767658 0.083714201207552921 0 -0.38009518116240287 0.1052850694385689 0 -0.38043672674551388 0.089730203813298631 0 -0.39625791140767658 0.083714201207552921 0 -0.38043672674551388 0.089730203813298631 0 -0.38024117111352551 0.072751322073184202 0 -0.36524269744302318 0.097228609801523369 0 -0.37935735793272007 0.057056186903266248 0 -0.38024117111352551 0.072751322073184202 0 -0.3686293405050669 0.06230068384109242 0 -0.38024117111352551 0.072751322073184202 0 -0.39697179274024269 0.064707875529413761 0 -0.39625791140767658 0.083714201207552921 0 -0.41242064165295023 0.062143332976536958 0 -0.39697179274024269 0.064707875529413761 0 -0.39625791140767658 0.083714201207552921 0 -0.41242064165295023 0.062143332976536958 0 -0.39625791140767658 0.083714201207552921 0 -0.39625791140767658 0.083714201207552921 0 -0.41238298698623699 0.080378603110921099 0 -0.41162022837677958 0.097923752754698085 0 -0.41238298698623699 0.080378603110921099 0 -0.42078807531350693 0.086695828740513819 0 -0.41162022837677958 0.097923752754698085 0 -0.41238298698623699 0.080378603110921099 0 -0.42078807531350693 0.086695828740513819 0 -0.42082807818027212 0.071415899875303682 0 -0.41242064165295023 0.062143332976536958 0 -0.42082807818027212 0.071415899875303682 0 -0.43041100031380031 0.063364000146929583 0 -0.41242064165295023 0.062143332976536958 0 -0.39625791140767658 0.083714201207552921 0 -0.41238298698623699 0.080378603110921099 0 -0.41242064165295023 0.062143332976536958 0 -0.41238298698623699 0.080378603110921099 0 -0.42082807818027212 0.071415899875303682 0 -0.42082807818027212 0.071415899875303682 0 -0.43041100031380031 0.063364000146929583 0 -0.43654898009068149 0.074605178112888193 0 -0.42078807531350693 0.086695828740513819 0 -0.42082807818027212 0.071415899875303682 0 -0.43654898009068149 0.074605178112888193 0 -0.42078807531350693 0.086695828740513819 0 -0.43654898009068149 0.074605178112888193 0 -0.44848402028630091 0.087863143840667651 0 -0.42078807531350693 0.086695828740513819 0 -0.43957775248075948 0.1022192901038198 0 -0.44848402028630091 0.087863143840667651 0 -0.42078807531350693 0.086695828740513819 0 -0.44848402028630091 0.087863143840667651 0 -0.41558484035692339 0.1118664048327797 0 -0.43957775248075948 0.1022192901038198 0 -0.42078807531350693 0.086695828740513819 0 -0.41162022837677958 0.097923752754698085 0 -0.43957775248075948 0.1022192901038198 0 -0.41162022837677958 0.097923752754698085 0 -0.41558484035692339 0.1118664048327797 0 -0.43957775248075948 0.1022192901038198 0 -0.39862461378187558 0.104344788218256 0 -0.41162022837677958 0.097923752754698085 0 -0.41558484035692339 0.1118664048327797 0 -0.39159192823308731 0.1215135195617397 0 -0.41558484035692339 0.1118664048327797 0 -0.41475349874680539 0.12921927172726991 0 -0.41558484035692339 0.1118664048327797 0 -0.4389849621618771 0.1193657618431269 0 -0.41475349874680539 0.12921927172726991 0 -0.4389849621618771 0.1193657618431269 0 -0.41475349874680539 0.12921927172726991 0 -0.41558484035692339 0.1118664048327797 0 -0.4389849621618771 0.1193657618431269 0 -0.43957775248075948 0.1022192901038198 0 -0.4389849621618771 0.1193657618431269 0 -0.46321642557694881 0.1095122519589839 0 -0.45101032849204792 0.12999023377356139 0 -0.4389849621618771 0.1193657618431269 0 -0.45315547407636902 0.10111705596120479 0 -0.46321642557694881 0.1095122519589839 0 -0.4389849621618771 0.1193657618431269 0 -0.46321642557694881 0.1095122519589839 0 -0.4389849621618771 0.1193657618431269 0 -0.43957775248075948 0.1022192901038198 0 -0.45315547407636902 0.10111705596120479 0 -0.43957775248075948 0.1022192901038198 0 -0.45315547407636902 0.10111705596120479 0 -0.44848402028630091 0.087863143840667651 0 -0.45315547407636902 0.10111705596120479 0 -0.46321642557694881 0.1095122519589839 0 -0.4761799652590949 0.089030458940821289 0 -0.46321642557694881 0.1095122519589839 0 -0.45101032849204792 0.12999023377356139 0 -0.46822726704663842 0.13461586117906379 0 -0.43041100031380031 0.063364000146929583 0 -0.44750208860177187 0.063290613425832323 0 -0.43041100031380031 0.063364000146929583 0 -0.43654898009068149 0.074605178112888193 0 -0.44750208860177187 0.063290613425832323 0 -0.43654898009068149 0.074605178112888193 0 -0.44750208860177187 0.063290613425832323 0 -0.4515351142814763 0.074312862283401393 0 -0.43654898009068149 0.074605178112888193 0 -0.4515351142814763 0.074312862283401393 0 -0.44848402028630091 0.087863143840667651 0 -0.45315547407636902 0.10111705596120479 0 -0.44848402028630091 0.087863143840667651 0 -0.4761799652590949 0.089030458940821289 0 -0.44848402028630091 0.087863143840667651 0 -0.4761799652590949 0.089030458940821289 0 -0.44848402028630091 0.087863143840667651 0 -0.46176888841747132 0.079282291582415412 0 -0.4761799652590949 0.089030458940821289 0 -0.4515351142814763 0.074312862283401393 0 -0.44848402028630091 0.087863143840667651 0 -0.46176888841747132 0.079282291582415412 0 -0.46176888841747132 0.079282291582415412 0 -0.4645931768897435 0.063217226704735299 0 -0.4761799652590949 0.089030458940821289 0 -0.44750208860177187 0.063290613425832323 0 -0.4515351142814763 0.074312862283401393 0 -0.4645931768897435 0.063217226704735299 0 -0.4515351142814763 0.074312862283401393 0 -0.46176888841747132 0.079282291582415412 0 -0.4645931768897435 0.063217226704735299 0 -0.44750208860177187 0.063290613425832323 0 -0.4645931768897435 0.063217226704735299 0 -0.48229658844487172 0.063141210753943883 0 -0.4761799652590949 0.089030458940821289 0 -0.48848327335236102 0.078270068222506275 0 -0.4645931768897435 0.063217226704735299 0 -0.4761799652590949 0.089030458940821289 0 -0.4645931768897435 0.063217226704735299 0 -0.48229658844487172 0.063141210753943883 0 -0.4761799652590949 0.089030458940821289 0 -0.4645931768897435 0.063217226704735299 0 -0.48229658844487172 0.063141210753943883 0 -0.4761799652590949 0.089030458940821289 0 -0.48848327335236102 0.078270068222506275 0 -0.49983750855174591 0.090027565468335929 0 -0.4761799652590949 0.089030458940821289 0 -0.49983750855174591 0.090027565468335929 0 -0.4761799652590949 0.089030458940821289 0 -0.49983750855174591 0.090027565468335929 0 -0.48958916576593342 0.095413987732379801 0 -0.48229658844487172 0.063141210753943883 0 -0.48848327335236102 0.078270068222506275 0 -0.49999999999999989 0.063065194803152702 0 -0.48848327335236102 0.078270068222506275 0 -0.49983750855174591 0.090027565468335929 0 -0.49999999999999989 0.063065194803152702 0 -0.48229658844487172 0.063141210753943883 0 -0.49999999999999989 0.063065194803152702 0 -0.46321642557694881 0.1095122519589839 0 -0.47990658545942821 0.1212828859667896 0 -0.48317535706381298 0.10461490455952389 0 -0.46321642557694881 0.1095122519589839 0 -0.47990658545942821 0.1212828859667896 0 -0.46822726704663842 0.13461586117906379 0 -0.46321642557694881 0.1095122519589839 0 -0.4761799652590949 0.089030458940821289 0 -0.48317535706381298 0.10461490455952389 0 -0.4761799652590949 0.089030458940821289 0 -0.48317535706381298 0.10461490455952389 0 -0.4761799652590949 0.089030458940821289 0 -0.48317535706381298 0.10461490455952389 0 -0.48958916576593342 0.095413987732379801 0 -0.49983750855174591 0.090027565468335929 0 -0.48958916576593342 0.095413987732379801 0 -0.5 0.1181176236691024 0 -0.48317535706381298 0.10461490455952389 0 -0.48958916576593342 0.095413987732379801 0 -0.5 0.1181176236691024 0 -0.47990658545942821 0.1212828859667896 0 -0.48317535706381298 0.10461490455952389 0 -0.5 0.1181176236691024 0 -0.47990658545942821 0.1212828859667896 0 -0.5 0.1181176236691024 0 -0.48585138176364528 0.13500703377424231 0 -0.5 0.1181176236691024 0 -0.48585138176364528 0.13500703377424231 0 -0.5 0.1456438381020774 0 -0.47990658545942821 0.1212828859667896 0 -0.48585138176364528 0.13500703377424231 0 -0.46822726704663842 0.13461586117906379 0 -0.4811230563121599 0.15537495995417819 0 -0.46822726704663842 0.13461586117906379 0 -0.46021458504390522 0.14669860386790551 0 -0.48585138176364528 0.13500703377424231 0 -0.4811230563121599 0.15537495995417819 0 -0.46822726704663842 0.13461586117906379 0 -0.4811230563121599 0.15537495995417819 0 -0.5 0.1456438381020774 0 -0.5 0.1658595589809074 0 -0.48585138176364528 0.13500703377424231 0 -0.4811230563121599 0.15537495995417819 0 -0.5 0.1456438381020774 0 -0.4811230563121599 0.15537495995417819 0 -0.5 0.1456438381020774 0 -0.4811230563121599 0.15537495995417819 0 -0.48505206174391619 0.1705367506133004 0 -0.5 0.1658595589809074 0 -0.48505206174391619 0.1705367506133004 0 -0.5 0.18607527985973751 0 -0.48112305631216001 0.1856985412724223 0 -0.48505206174391619 0.1705367506133004 0 -0.5 0.1658595589809074 0 -0.5 0.18607527985973751 0 -0.48112305631216001 0.1856985412724223 0 -0.46224611262431903 0.16510608180627759 0 -0.48505206174391619 0.1705367506133004 0 -0.48112305631216001 0.1856985412724223 0 -0.46224611262431903 0.16510608180627759 0 -0.4811230563121599 0.15537495995417819 0 -0.46224611262431903 0.16510608180627759 0 -0.4811230563121599 0.15537495995417819 0 -0.48505206174391619 0.1705367506133004 0 -0.46224611262431903 0.16510608180627759 0 -0.46224611262431903 0.16510608180627759 0 -0.44682758869240652 0.17305437776149921 0 -0.46224611262431903 0.16510608180627759 0 -0.4576340108976501 0.1841638237198302 0 -0.44682758869240652 0.17305437776149921 0 -0.48112305631216001 0.1856985412724223 0 -0.46224611262431903 0.16510608180627759 0 -0.4576340108976501 0.1841638237198302 0 -0.4576340108976501 0.1841638237198302 0 -0.44682758869240652 0.17305437776149921 0 -0.44289182908253882 0.18510467841148781 0 -0.44682758869240652 0.17305437776149921 0 -0.43140906476049329 0.18100267371671941 0 -0.44682758869240652 0.17305437776149921 0 -0.44289182908253882 0.18510467841148781 0 -0.43140906476049329 0.18100267371671941 0 -0.46224611262431903 0.16510608180627759 0 -0.44194119954213101 0.16019561822930989 0 -0.44256097557467039 0.143631981258872 0 -0.44682758869240652 0.17305437776149921 0 -0.44194119954213101 0.16019561822930989 0 -0.42963943744549038 0.16629080639197771 0 -0.46224611262431903 0.16510608180627759 0 -0.44682758869240652 0.17305437776149921 0 -0.44194119954213101 0.16019561822930989 0 -0.44194119954213101 0.16019561822930989 0 -0.44256097557467039 0.143631981258872 0 -0.42843188337376831 0.15289484392792341 0 -0.46224611262431903 0.16510608180627759 0 -0.44256097557467039 0.143631981258872 0 -0.44256097557467039 0.143631981258872 0 -0.45101032849204792 0.12999023377356139 0 -0.46021458504390522 0.14669860386790551 0 -0.44256097557467039 0.143631981258872 0 -0.45101032849204792 0.12999023377356139 0 -0.43077590519657172 0.1295503541386748 0 -0.4389849621618771 0.1193657618431269 0 -0.45101032849204792 0.12999023377356139 0 -0.43077590519657172 0.1295503541386748 0 -0.45101032849204792 0.12999023377356139 0 -0.46822726704663842 0.13461586117906379 0 -0.46021458504390522 0.14669860386790551 0 -0.4811230563121599 0.15537495995417819 0 -0.46224611262431903 0.16510608180627759 0 -0.46021458504390522 0.14669860386790551 0 -0.46224611262431903 0.16510608180627759 0 -0.44256097557467039 0.143631981258872 0 -0.46021458504390522 0.14669860386790551 0 -0.48046960682878898 0.236822938512074 0 -0.48288939512325202 0.25591489506307508 0 -0.45999763640871932 0.25082967221969332 0 -0.48046960682878898 0.236822938512074 0 -0.5 0.23074947995947989 0 -0.5 0.2552079591803923 0 -0.48046960682878898 0.236822938512074 0 -0.5 0.2552079591803923 0 -0.48288939512325202 0.25591489506307508 0 -0.48046960682878898 0.236822938512074 0 -0.5 0.23074947995947989 0 -0.48272264186409369 0.2131143863785199 0 -0.48046960682878898 0.236822938512074 0 -0.4688897786080749 0.21970587704620939 0 -0.46460107778475451 0.23211230665695209 0 -0.48046960682878898 0.236822938512074 0 -0.4688897786080749 0.21970587704620939 0 -0.48272264186409369 0.2131143863785199 0 -0.4688897786080749 0.21970587704620939 0 -0.48272264186409369 0.2131143863785199 0 -0.46370255012589928 0.203565359332573 0 -0.5 0.23074947995947989 0 -0.48272264186409369 0.2131143863785199 0 -0.50000000000000044 0.20629100073856749 0 -0.5 0.18607527985973751 0 -0.48112305631216001 0.1856985412724223 0 -0.50000000000000044 0.20629100073856749 0 -0.48112305631216001 0.1856985412724223 0 -0.48272264186409369 0.2131143863785199 0 -0.50000000000000044 0.20629100073856749 0 -0.48112305631216001 0.1856985412724223 0 -0.50000000000000044 0.20629100073856749 0 -0.48112305631216001 0.1856985412724223 0 -0.48272264186409369 0.2131143863785199 0 -0.46370255012589928 0.203565359332573 0 -0.48112305631216001 0.1856985412724223 0 -0.4576340108976501 0.1841638237198302 0 -0.46370255012589928 0.203565359332573 0 -0.4576340108976501 0.1841638237198302 0 -0.44834762263927019 0.19738307106988431 0 -0.46370255012589928 0.203565359332573 0 -0.4576340108976501 0.1841638237198302 0 -0.44289182908253882 0.18510467841148781 0 -0.44834762263927019 0.19738307106988431 0 -0.44834762263927019 0.19738307106988431 0 -0.43886359647297801 0.21124831725816701 0 -0.4301942838656731 0.19345844362781719 0 -0.44289182908253882 0.18510467841148781 0 -0.44834762263927019 0.19738307106988431 0 -0.4301942838656731 0.19345844362781719 0 -0.44834762263927019 0.19738307106988431 0 -0.44949654035151532 0.21035490244137681 0 -0.43886359647297801 0.21124831725816701 0 -0.44949654035151532 0.21035490244137681 0 -0.43886359647297801 0.21124831725816701 0 -0.44469629825130869 0.21979467434214031 0 -0.44949654035151532 0.21035490244137681 0 -0.45118803423642923 0.21868981420992181 0 -0.45817293835934669 0.21472936274206891 0 -0.44949654035151532 0.21035490244137681 0 -0.45118803423642923 0.21868981420992181 0 -0.44469629825130869 0.21979467434214031 0 -0.4688897786080749 0.21970587704620939 0 -0.45817293835934669 0.21472936274206891 0 -0.46370255012589928 0.203565359332573 0 -0.44949654035151532 0.21035490244137681 0 -0.45817293835934669 0.21472936274206891 0 -0.46370255012589928 0.203565359332573 0 -0.44834762263927019 0.19738307106988431 0 -0.44949654035151532 0.21035490244137681 0 -0.46370255012589928 0.203565359332573 0 -0.4688897786080749 0.21970587704620939 0 -0.45817293835934669 0.21472936274206891 0 -0.45751921268788798 0.2231287439821141 0 -0.4688897786080749 0.21970587704620939 0 -0.46460107778475451 0.23211230665695209 0 -0.45751921268788798 0.2231287439821141 0 -0.46460107778475451 0.23211230665695209 0 -0.45467033055719558 0.2303704921204596 0 -0.45751921268788798 0.2231287439821141 0 -0.45118803423642923 0.21868981420992181 0 -0.45817293835934669 0.21472936274206891 0 -0.45751921268788798 0.2231287439821141 0 -0.45467033055719558 0.2303704921204596 0 -0.45751921268788798 0.2231287439821141 0 -0.44780296835738931 0.22512985471379621 0 -0.44183564020814431 0.22663240091844511 0 -0.44510054763709223 0.23098224495316699 0 -0.44560827905632949 0.24271538667895121 0 -0.45118803423642923 0.21868981420992181 0 -0.45751921268788798 0.2231287439821141 0 -0.44780296835738931 0.22512985471379621 0 -0.44780296835738931 0.22512985471379621 0 -0.44469629825130869 0.21979467434214031 0 -0.44401821524703849 0.22479043874855831 0 -0.44780296835738931 0.22512985471379621 0 -0.44401821524703849 0.22479043874855831 0 -0.44482238154175879 0.22678387861587629 0 -0.45118803423642923 0.21868981420992181 0 -0.44780296835738931 0.22512985471379621 0 -0.44469629825130869 0.21979467434214031 0 -0.43886359647297801 0.21124831725816701 0 -0.44469629825130869 0.21979467434214031 0 -0.44183564020814431 0.22663240091844511 0 -0.44469629825130869 0.21979467434214031 0 -0.44401821524703849 0.22479043874855831 0 -0.44183564020814431 0.22663240091844511 0 -0.44401821524703849 0.22479043874855831 0 -0.44183564020814431 0.22663240091844511 0 -0.44482238154175879 0.22678387861587629 0 -0.43873275264295919 0.23061158720665259 0 -0.44183564020814431 0.22663240091844511 0 -0.44007755638430368 0.2349023677557763 0 -0.43873275264295919 0.23061158720665259 0 -0.44007755638430368 0.2349023677557763 0 -0.43664021781428253 0.2348304100596996 0 -0.43873275264295919 0.23061158720665259 0 -0.44183564020814431 0.22663240091844511 0 -0.43416426780311901 0.2313886598371627 0 -0.44183564020814431 0.22663240091844511 0 -0.44482238154175879 0.22678387861587629 0 -0.44510054763709223 0.23098224495316699 0 -0.44183564020814431 0.22663240091844511 0 -0.44510054763709223 0.23098224495316699 0 -0.45467033055719558 0.2303704921204596 0 -0.44780296835738931 0.22512985471379621 0 -0.44510054763709223 0.23098224495316699 0 -0.44780296835738931 0.22512985471379621 0 -0.44482238154175879 0.22678387861587629 0 -0.44510054763709223 0.23098224495316699 0 -0.44183564020814431 0.22663240091844511 0 -0.44007755638430368 0.2349023677557763 0 -0.44560827905632949 0.24271538667895121 0 -0.44510054763709223 0.23098224495316699 0 -0.44560827905632949 0.24271538667895121 0 -0.45999763640871932 0.25082967221969332 0 -0.44510054763709223 0.23098224495316699 0 -0.45999763640871932 0.25082967221969332 0 -0.44007755638430368 0.2349023677557763 0 -0.44560827905632949 0.24271538667895121 0 -0.43496991599073231 0.23876239131185209 0 -0.43764155441091662 0.2474698448891208 0 -0.44560827905632949 0.24271538667895121 0 -0.43496991599073231 0.23876239131185209 0 -0.43764155441091662 0.2474698448891208 0 -0.44560827905632949 0.24271538667895121 0 -0.44524550226303911 0.25832923819999348 0 -0.46460107778475451 0.23211230665695209 0 -0.45467033055719558 0.2303704921204596 0 -0.45999763640871932 0.25082967221969332 0 -0.45467033055719558 0.2303704921204596 0 -0.44510054763709223 0.23098224495316699 0 -0.45999763640871932 0.25082967221969332 0 -0.48046960682878898 0.236822938512074 0 -0.46460107778475451 0.23211230665695209 0 -0.45999763640871932 0.25082967221969332 0 -0.41049777417839811 0.24187912586577739 0 -0.41551472855326388 0.23162436601184919 0 -0.39854262030368393 0.2348936362318122 0 -0.41049777417839811 0.24187912586577739 0 -0.39943013983217052 0.24932329527852759 0 -0.41201954839353078 0.25527644679037031 0 -0.41049777417839811 0.24187912586577739 0 -0.42169656257412352 0.24560881436308679 0 -0.41551472855326388 0.23162436601184919 0 -0.42169656257412352 0.24560881436308679 0 -0.4268726317432035 0.23590561232653251 0 -0.41551472855326388 0.23162436601184919 0 -0.41049777417839811 0.24187912586577739 0 -0.42169656257412352 0.24560881436308679 0 -0.42295797343655511 0.25530983657629841 0 -0.42169656257412352 0.24560881436308679 0 -0.43045923421388588 0.2442495556196882 0 -0.43101067031675672 0.25352811813177728 0 -0.43764155441091662 0.2474698448891208 0 -0.43045923421388588 0.2442495556196882 0 -0.43101067031675672 0.25352811813177728 0 -0.43764155441091662 0.2474698448891208 0 -0.43045923421388588 0.2442495556196882 0 -0.43496991599073231 0.23876239131185209 0 -0.43045923421388588 0.2442495556196882 0 -0.43496991599073231 0.23876239131185209 0 -0.4268726317432035 0.23590561232653251 0 -0.43496991599073231 0.23876239131185209 0 -0.4268726317432035 0.23590561232653251 0 -0.43416426780311901 0.2313886598371627 0 -0.44007755638430368 0.2349023677557763 0 -0.43664021781428253 0.2348304100596996 0 -0.43496991599073231 0.23876239131185209 0 -0.43664021781428253 0.2348304100596996 0 -0.43496991599073231 0.23876239131185209 0 -0.43416426780311901 0.2313886598371627 0 -0.42169656257412352 0.24560881436308679 0 -0.43045923421388588 0.2442495556196882 0 -0.4268726317432035 0.23590561232653251 0 -0.44183564020814431 0.22663240091844511 0 -0.42776793550402697 0.2289919403256015 0 -0.42227444631872812 0.22177239831677681 0 -0.44183564020814431 0.22663240091844511 0 -0.42227444631872812 0.22177239831677681 0 -0.42485896009817969 0.2088458479078763 0 -0.4268726317432035 0.23590561232653251 0 -0.42776793550402697 0.2289919403256015 0 -0.41551472855326388 0.23162436601184919 0 -0.4268726317432035 0.23590561232653251 0 -0.42776793550402697 0.2289919403256015 0 -0.43416426780311901 0.2313886598371627 0 -0.44183564020814431 0.22663240091844511 0 -0.42776793550402697 0.2289919403256015 0 -0.43416426780311901 0.2313886598371627 0 -0.43873275264295919 0.23061158720665259 0 -0.43664021781428253 0.2348304100596996 0 -0.43416426780311901 0.2313886598371627 0 -0.42227444631872812 0.22177239831677681 0 -0.41551472855326388 0.23162436601184919 0 -0.4023155613185399 0.21468322211865851 0 -0.42776793550402697 0.2289919403256015 0 -0.42227444631872812 0.22177239831677681 0 -0.41551472855326388 0.23162436601184919 0 -0.42227444631872812 0.22177239831677681 0 -0.42485896009817969 0.2088458479078763 0 -0.4023155613185399 0.21468322211865851 0 -0.42485896009817969 0.2088458479078763 0 -0.40877183919141258 0.19238759835357319 0 -0.4023155613185399 0.21468322211865851 0 -0.43886359647297801 0.21124831725816701 0 -0.44183564020814431 0.22663240091844511 0 -0.42485896009817969 0.2088458479078763 0 -0.43886359647297801 0.21124831725816701 0 -0.42485896009817969 0.2088458479078763 0 -0.4301942838656731 0.19345844362781719 0 -0.44183564020814431 0.22663240091844511 0 -0.42485896009817969 0.2088458479078763 0 -0.42485896009817969 0.2088458479078763 0 -0.40877183919141258 0.19238759835357319 0 -0.42485896009817969 0.2088458479078763 0 -0.4301942838656731 0.19345844362781719 0 -0.40877183919141258 0.19238759835357319 0 -0.4301942838656731 0.19345844362781719 0 -0.40877183919141258 0.19238759835357319 0 -0.41620737178208927 0.1789742098933276 0 -0.40877183919141258 0.19238759835357319 0 -0.39140704660235542 0.19326951469120551 0 -0.4023155613185399 0.21468322211865851 0 -0.39140704660235542 0.19326951469120551 0 -0.37795752055253989 0.20435215463810419 0 -0.37429609380037948 0.18021627786804689 0 -0.37795752055253989 0.20435215463810419 0 -0.4023155613185399 0.21468322211865851 0 -0.37624485387552897 0.22919207507299499 0 -0.39140704660235542 0.19326951469120551 0 -0.37795752055253989 0.20435215463810419 0 -0.4023155613185399 0.21468322211865851 0 -0.41551472855326388 0.23162436601184919 0 -0.4023155613185399 0.21468322211865851 0 -0.39854262030368393 0.2348936362318122 0 -0.4023155613185399 0.21468322211865851 0 -0.37624485387552897 0.22919207507299499 0 -0.39854262030368393 0.2348936362318122 0 -0.37624485387552897 0.22919207507299499 0 -0.38800319934906952 0.24665280124930841 0 -0.3750328804877176 0.25176355644521631 0 -0.37624485387552897 0.22919207507299499 0 -0.38800319934906952 0.24665280124930841 0 -0.39854262030368393 0.2348936362318122 0 -0.38800319934906952 0.24665280124930841 0 -0.39854262030368393 0.2348936362318122 0 -0.39943013983217052 0.24932329527852759 0 -0.41049777417839811 0.24187912586577739 0 -0.39854262030368393 0.2348936362318122 0 -0.39943013983217052 0.24932329527852759 0 -0.41714846734943822 0.14867708267822641 0 -0.41271646925700761 0.13952393584077341 0 -0.42573415029750922 0.14179479470209039 0 -0.41714846734943822 0.14867708267822641 0 -0.42843188337376831 0.15289484392792341 0 -0.41455937559409428 0.16164681738484629 0 -0.41714846734943822 0.14867708267822641 0 -0.40783077847518417 0.15201442955084629 0 -0.41455937559409428 0.16164681738484629 0 -0.41714846734943822 0.14867708267822641 0 -0.40783077847518417 0.15201442955084629 0 -0.41271646925700761 0.13952393584077341 0 -0.41271646925700761 0.13952393584077341 0 -0.41475349874680539 0.12921927172726991 0 -0.43077590519657172 0.1295503541386748 0 -0.41271646925700761 0.13952393584077341 0 -0.43077590519657172 0.1295503541386748 0 -0.44256097557467039 0.143631981258872 0 -0.43077590519657172 0.1295503541386748 0 -0.42573415029750922 0.14179479470209039 0 -0.4389849621618771 0.1193657618431269 0 -0.41475349874680539 0.12921927172726991 0 -0.43077590519657172 0.1295503541386748 0 -0.41271646925700761 0.13952393584077341 0 -0.43077590519657172 0.1295503541386748 0 -0.42573415029750922 0.14179479470209039 0 -0.44256097557467039 0.143631981258872 0 -0.42573415029750922 0.14179479470209039 0 -0.42843188337376831 0.15289484392792341 0 -0.41714846734943822 0.14867708267822641 0 -0.42573415029750922 0.14179479470209039 0 -0.42843188337376831 0.15289484392792341 0 -0.44194119954213101 0.16019561822930989 0 -0.42843188337376831 0.15289484392792341 0 -0.42963943744549038 0.16629080639197771 0 -0.42843188337376831 0.15289484392792341 0 -0.42963943744549038 0.16629080639197771 0 -0.41455937559409428 0.16164681738484629 0 -0.44682758869240652 0.17305437776149921 0 -0.42963943744549038 0.16629080639197771 0 -0.43140906476049329 0.18100267371671941 0 -0.44289182908253882 0.18510467841148781 0 -0.4301942838656731 0.19345844362781719 0 -0.43140906476049329 0.18100267371671941 0 -0.42963943744549038 0.16629080639197771 0 -0.43140906476049329 0.18100267371671941 0 -0.41620737178208927 0.1789742098933276 0 -0.4301942838656731 0.19345844362781719 0 -0.43140906476049329 0.18100267371671941 0 -0.41620737178208927 0.1789742098933276 0 -0.40877183919141258 0.19238759835357319 0 -0.41620737178208927 0.1789742098933276 0 -0.40621584983099029 0.1734348215406093 0 -0.41455937559409428 0.16164681738484629 0 -0.3988518898119926 0.16277423992392651 0 -0.40621584983099029 0.1734348215406093 0 -0.42963943744549038 0.16629080639197771 0 -0.41620737178208927 0.1789742098933276 0 -0.41455937559409428 0.16164681738484629 0 -0.41620737178208927 0.1789742098933276 0 -0.41455937559409428 0.16164681738484629 0 -0.40621584983099029 0.1734348215406093 0 -0.40783077847518417 0.15201442955084629 0 -0.41455937559409428 0.16164681738484629 0 -0.3988518898119926 0.16277423992392651 0 -0.3988518898119926 0.16277423992392651 0 -0.40621584983099029 0.1734348215406093 0 -0.39268471828464557 0.17592934879927019 0 -0.40877183919141258 0.19238759835357319 0 -0.39268471828464557 0.17592934879927019 0 -0.40877183919141258 0.19238759835357319 0 -0.39140704660235542 0.19326951469120551 0 -0.39268471828464557 0.17592934879927019 0 -0.40877183919141258 0.19238759835357319 0 -0.40621584983099029 0.1734348215406093 0 -0.39268471828464557 0.17592934879927019 0 -0.39140704660235542 0.19326951469120551 0 -0.39268471828464557 0.17592934879927019 0 -0.37429609380037948 0.18021627786804689 0 -0.39268471828464557 0.17592934879927019 0 -0.37659759737787801 0.15947109924496769 0 -0.37429609380037948 0.18021627786804689 0 -0.39268471828464557 0.17592934879927019 0 -0.37659759737787801 0.15947109924496769 0 -0.3988518898119926 0.16277423992392651 0 -0.37659759737787801 0.15947109924496769 0 -0.39465703331744362 0.14949751754287191 0 -0.3988518898119926 0.16277423992392651 0 -0.39268471828464557 0.17592934879927019 0 -0.37659759737787801 0.15947109924496769 0 -0.37659759737787801 0.15947109924496769 0 -0.39465703331744362 0.14949751754287191 0 -0.37659759737787801 0.15947109924496769 0 -0.38201680948592948 0.14924192247370421 0 -0.39465703331744362 0.14949751754287191 0 -0.39052203533173357 0.13907278161141301 0 -0.36629057191666459 0.148926291495563 0 -0.38201680948592948 0.14924192247370421 0 -0.39052203533173357 0.13907278161141301 0 -0.36629057191666459 0.148926291495563 0 -0.38201680948592948 0.14924192247370421 0 -0.39465703331744362 0.14949751754287191 0 -0.39052203533173357 0.13907278161141301 0 -0.40783077847518417 0.15201442955084629 0 -0.41271646925700761 0.13952393584077341 0 -0.39465703331744362 0.14949751754287191 0 -0.41271646925700761 0.13952393584077341 0 -0.39465703331744362 0.14949751754287191 0 -0.39052203533173357 0.13907278161141301 0 -0.41271646925700761 0.13952393584077341 0 -0.39465703331744362 0.14949751754287191 0 -0.40783077847518417 0.15201442955084629 0 -0.3988518898119926 0.16277423992392651 0 -0.39465703331744362 0.14949751754287191 0 -0.39159192823308731 0.1215135195617397 0 -0.41475349874680539 0.12921927172726991 0 -0.39052203533173357 0.13907278161141301 0 -0.41475349874680539 0.12921927172726991 0 -0.39052203533173357 0.13907278161141301 0 -0.41271646925700761 0.13952393584077341 0 -0.41475349874680539 0.12921927172726991 0 -0.39052203533173357 0.13907278161141301 0 -0.39159192823308731 0.1215135195617397 0 -0.36759901610925139 0.1311606342906996 0 -0.39159192823308731 0.1215135195617397 0 -0.39052203533173357 0.13907278161141301 0 -0.36759901610925139 0.1311606342906996 0 -0.39052203533173357 0.13907278161141301 0 -0.36759901610925139 0.1311606342906996 0 -0.36629057191666459 0.148926291495563 0 -0.36759901610925139 0.1311606342906996 0 -0.34599953411809647 0.12816714100866089 0 -0.36629057191666459 0.148926291495563 0 -0.34599953411809647 0.12816714100866089 0 -0.36629057191666459 0.148926291495563 0 -0.36629057191666459 0.148926291495563 0 -0.34417447293010139 0.1579196071789668 0 -0.34599953411809647 0.12816714100866089 0 -0.36629057191666459 0.148926291495563 0 -0.34417447293010139 0.1579196071789668 0 -0.36629057191666459 0.148926291495563 0 -0.3595974634638518 0.15993600724905449 0 -0.34417447293010139 0.1579196071789668 0 -0.37659759737787801 0.15947109924496769 0 -0.38201680948592948 0.14924192247370421 0 -0.36629057191666459 0.148926291495563 0 -0.37659759737787801 0.15947109924496769 0 -0.36629057191666459 0.148926291495563 0 -0.3595974634638518 0.15993600724905449 0 -0.37659759737787801 0.15947109924496769 0 -0.36629057191666459 0.148926291495563 0 -0.37659759737787801 0.15947109924496769 0 -0.35132721163076469 0.1734270310767195 0 -0.37659759737787801 0.15947109924496769 0 -0.3595974634638518 0.15993600724905449 0 -0.35132721163076469 0.1734270310767195 0 -0.37659759737787801 0.15947109924496769 0 -0.37429609380037948 0.18021627786804689 0 -0.35132721163076469 0.1734270310767195 0 -0.37429609380037948 0.18021627786804689 0 -0.35132721163076469 0.1734270310767195 0 -0.36220292671618032 0.19375064857518701 0 -0.35132721163076469 0.1734270310767195 0 -0.36220292671618032 0.19375064857518701 0 -0.34494422409005038 0.1893202354530176 0 -0.3595974634638518 0.15993600724905449 0 -0.35132721163076469 0.1734270310767195 0 -0.34417447293010139 0.1579196071789668 0 -0.35132721163076469 0.1734270310767195 0 -0.34417447293010139 0.1579196071789668 0 -0.33590422109701268 0.17141063100663101 0 -0.34417447293010139 0.1579196071789668 0 -0.32205837394353892 0.16691292286237189 0 -0.34417447293010139 0.1579196071789668 0 -0.33590422109701268 0.17141063100663101 0 -0.32205837394353892 0.16691292286237189 0 -0.34417447293010139 0.1579196071789668 0 -0.32205837394353892 0.16691292286237189 0 -0.33402895403081562 0.14754003193551521 0 -0.35132721163076469 0.1734270310767195 0 -0.32605682588364993 0.18738296290846859 0 -0.34494422409005038 0.1893202354530176 0 -0.35132721163076469 0.1734270310767195 0 -0.33590422109701268 0.17141063100663101 0 -0.32605682588364993 0.18738296290846859 0 -0.35132721163076469 0.1734270310767195 0 -0.32605682588364993 0.18738296290846859 0 -0.32205837394353892 0.16691292286237189 0 -0.31142240704003499 0.18412590880129351 0 -0.30679270848123358 0.17312057045444601 0 -0.32605682588364993 0.18738296290846859 0 -0.32205837394353892 0.16691292286237189 0 -0.31142240704003499 0.18412590880129351 0 -0.32205837394353892 0.16691292286237189 0 -0.31142240704003499 0.18412590880129351 0 -0.33590422109701268 0.17141063100663101 0 -0.32605682588364993 0.18738296290846859 0 -0.32205837394353892 0.16691292286237189 0 -0.32205837394353892 0.16691292286237189 0 -0.31838702450443412 0.15119445056826331 0 -0.30837758057758913 0.15815617934915541 0 -0.32205837394353892 0.16691292286237189 0 -0.33402895403081562 0.14754003193551521 0 -0.32205837394353892 0.16691292286237189 0 -0.30679270848123358 0.17312057045444601 0 -0.31838702450443412 0.15119445056826331 0 -0.31991388075402899 0.13877363512870169 0 -0.33402895403081562 0.14754003193551521 0 -0.32205837394353892 0.16691292286237189 0 -0.31838702450443412 0.15119445056826331 0 -0.33402895403081562 0.14754003193551521 0 -0.31838702450443412 0.15119445056826331 0 -0.31991388075402899 0.13877363512870169 0 -0.30755633321620218 0.1445894835655748 0 -0.31991388075402899 0.13877363512870169 0 -0.33131715666630912 0.13065815096227221 0 -0.3218002938732854 0.1220565968992518 0 -0.31991388075402899 0.13877363512870169 0 -0.3218002938732854 0.1220565968992518 0 -0.31991388075402899 0.13877363512870169 0 -0.31045471494455629 0.1229996177453869 0 -0.3218002938732854 0.1220565968992518 0 -0.34599953411809647 0.12816714100866089 0 -0.33131715666630912 0.13065815096227221 0 -0.33402895403081562 0.14754003193551521 0 -0.34599953411809647 0.12816714100866089 0 -0.33402895403081562 0.14754003193551521 0 -0.31991388075402899 0.13877363512870169 0 -0.33131715666630912 0.13065815096227221 0 -0.33402895403081562 0.14754003193551521 0 -0.34599953411809647 0.12816714100866089 0 -0.33131715666630912 0.13065815096227221 0 -0.33484312055531912 0.1167533498392314 0 -0.34599953411809647 0.12816714100866089 0 -0.34417447293010139 0.1579196071789668 0 -0.33402895403081562 0.14754003193551521 0 -0.34438917182896528 0.24274931929121821 0 -0.36080613551101243 0.24625516983038101 0 -0.36011219607104272 0.23028587509867091 0 -0.34438917182896528 0.24274931929121821 0 -0.36080613551101243 0.24625516983038101 0 -0.34894940468996088 0.25921633644191561 0 -0.37624485387552897 0.22919207507299499 0 -0.36080613551101243 0.24625516983038101 0 -0.36011219607104272 0.23028587509867091 0 -0.37624485387552897 0.22919207507299499 0 -0.36080613551101243 0.24625516983038101 0 -0.3750328804877176 0.25176355644521631 0 -0.37624485387552897 0.22919207507299499 0 -0.36011219607104272 0.23028587509867091 0 -0.36189030560107849 0.21680758570065689 0 -0.34438917182896528 0.24274931929121821 0 -0.36011219607104272 0.23028587509867091 0 -0.34681198484258091 0.22595093813807049 0 -0.36011219607104272 0.23028587509867091 0 -0.34681198484258091 0.22595093813807049 0 -0.36189030560107849 0.21680758570065689 0 -0.34923516964748219 0.2114114779162368 0 -0.36189030560107849 0.21680758570065689 0 -0.36220292671618032 0.19375064857518701 0 -0.34681198484258091 0.22595093813807049 0 -0.34923516964748219 0.2114114779162368 0 -0.36189030560107849 0.21680758570065689 0 -0.37795752055253989 0.20435215463810419 0 -0.37624485387552897 0.22919207507299499 0 -0.36189030560107849 0.21680758570065689 0 -0.37795752055253989 0.20435215463810419 0 -0.36189030560107849 0.21680758570065689 0 -0.36220292671618032 0.19375064857518701 0 -0.37795752055253989 0.20435215463810419 0 -0.37429609380037948 0.18021627786804689 0 -0.36220292671618032 0.19375064857518701 0 -0.34923516964748219 0.2114114779162368 0 -0.36220292671618032 0.19375064857518701 0 -0.34018993212960702 0.20272029925169549 0 -0.36220292671618032 0.19375064857518701 0 -0.34018993212960702 0.20272029925169549 0 -0.36220292671618032 0.19375064857518701 0 -0.34494422409005038 0.1893202354530176 0 -0.34018993212960702 0.20272029925169549 0 -0.32605682588364993 0.18738296290846859 0 -0.34018993212960702 0.20272029925169549 0 -0.31817693754303339 0.2116899499282032 0 -0.32605682588364993 0.18738296290846859 0 -0.34494422409005038 0.1893202354530176 0 -0.34018993212960702 0.20272029925169549 0 -0.32605682588364993 0.18738296290846859 0 -0.31817693754303339 0.2116899499282032 0 -0.30078644013653522 0.2013388947402176 0 -0.32605682588364993 0.18738296290846859 0 -0.30078644013653522 0.2013388947402176 0 -0.32605682588364993 0.18738296290846859 0 -0.30078644013653522 0.2013388947402176 0 -0.31142240704003499 0.18412590880129351 0 -0.31817693754303339 0.2116899499282032 0 -0.33508069894796422 0.21782791791557421 0 -0.32421357455127331 0.22534068461834389 0 -0.31817693754303339 0.2116899499282032 0 -0.33508069894796422 0.21782791791557421 0 -0.34018993212960702 0.20272029925169549 0 -0.31817693754303339 0.2116899499282032 0 -0.33508069894796422 0.21782791791557421 0 -0.34018993212960702 0.20272029925169549 0 -0.31817693754303339 0.2116899499282032 0 -0.34923516964748219 0.2114114779162368 0 -0.34018993212960702 0.20272029925169549 0 -0.33508069894796422 0.21782791791557421 0 -0.34681198484258091 0.22595093813807049 0 -0.34923516964748219 0.2114114779162368 0 -0.33508069894796422 0.21782791791557421 0 -0.34438917182896528 0.24274931929121821 0 -0.34681198484258091 0.22595093813807049 0 -0.33390294842581031 0.23177848183706931 0 -0.34681198484258091 0.22595093813807049 0 -0.33508069894796422 0.21782791791557421 0 -0.33390294842581031 0.23177848183706931 0 -0.33508069894796422 0.21782791791557421 0 -0.33390294842581031 0.23177848183706931 0 -0.32421357455127331 0.22534068461834389 0 -0.31817693754303339 0.2116899499282032 0 -0.32421357455127331 0.22534068461834389 0 -0.31074261255221702 0.23074790114507621 0 -0.32421357455127331 0.22534068461834389 0 -0.32288371020106149 0.23602472253535761 0 -0.31074261255221702 0.23074790114507621 0 -0.33390294842581031 0.23177848183706931 0 -0.32421357455127331 0.22534068461834389 0 -0.32288371020106149 0.23602472253535761 0 -0.32288371020106149 0.23602472253535761 0 -0.31511224971917429 0.24568480614046351 0 -0.31074261255221702 0.23074790114507621 0 -0.32288371020106149 0.23602472253535761 0 -0.31511224971917429 0.24568480614046351 0 -0.3293642339759455 0.2460546291707954 0 -0.34438917182896528 0.24274931929121821 0 -0.3293642339759455 0.2460546291707954 0 -0.33464169824699341 0.25956843252168788 0 -0.33390294842581031 0.23177848183706931 0 -0.32288371020106149 0.23602472253535761 0 -0.3293642339759455 0.2460546291707954 0 -0.34438917182896528 0.24274931929121821 0 -0.33390294842581031 0.23177848183706931 0 -0.3293642339759455 0.2460546291707954 0 -0.29364197954709198 0.23506200923926721 0 -0.27840926718348608 0.23755355833295291 0 -0.28752303105369142 0.25191910753971841 0 -0.29364197954709198 0.23506200923926721 0 -0.30226790202873161 0.2434327375369861 0 -0.28752303105369142 0.25191910753971841 0 -0.29364197954709198 0.23506200923926721 0 -0.30226790202873161 0.2434327375369861 0 -0.31074261255221702 0.23074790114507621 0 -0.31511224971917429 0.24568480614046351 0 -0.30226790202873161 0.2434327375369861 0 -0.30708462869667008 0.25624224894010761 0 -0.31511224971917429 0.24568480614046351 0 -0.30226790202873161 0.2434327375369861 0 -0.31074261255221702 0.23074790114507621 0 -0.31817693754303339 0.2116899499282032 0 -0.31074261255221702 0.23074790114507621 0 -0.30222672399681227 0.2181891948702161 0 -0.29364197954709198 0.23506200923926721 0 -0.31074261255221702 0.23074790114507621 0 -0.30222672399681227 0.2181891948702161 0 -0.28627651045059083 0.224688439812228 0 -0.30222672399681227 0.2181891948702161 0 -0.29364197954709198 0.23506200923926721 0 -0.28627651045059083 0.224688439812228 0 -0.30222672399681227 0.2181891948702161 0 -0.28627651045059083 0.224688439812228 0 -0.27840926718348608 0.23755355833295291 0 -0.29364197954709198 0.23506200923926721 0 -0.28627651045059083 0.224688439812228 0 -0.27840926718348608 0.23755355833295291 0 -0.29637694776395218 0.20377409994761761 0 -0.2771734308418678 0.19680106185928251 0 -0.27861733192214838 0.21358210171405551 0 -0.28627651045059083 0.224688439812228 0 -0.2987494116105367 0.20463557135582669 0 -0.28627651045059083 0.224688439812228 0 -0.30222672399681227 0.2181891948702161 0 -0.2987494116105367 0.20463557135582669 0 -0.28627651045059083 0.224688439812228 0 -0.29637694776395218 0.20377409994761761 0 -0.2987494116105367 0.20463557135582669 0 -0.28627651045059083 0.224688439812228 0 -0.29637694776395218 0.20377409994761761 0 -0.27861733192214838 0.21358210171405551 0 -0.29637694776395218 0.20377409994761761 0 -0.27861733192214838 0.21358210171405551 0 -0.31817693754303339 0.2116899499282032 0 -0.30222672399681227 0.2181891948702161 0 -0.31817693754303339 0.2116899499282032 0 -0.2987494116105367 0.20463557135582669 0 -0.30078644013653522 0.2013388947402176 0 -0.31817693754303339 0.2116899499282032 0 -0.30222672399681227 0.2181891948702161 0 -0.2987494116105367 0.20463557135582669 0 -0.31817693754303339 0.2116899499282032 0 -0.2987494116105367 0.20463557135582669 0 -0.29637694776395218 0.20377409994761761 0 -0.2987494116105367 0.20463557135582669 0 -0.30078644013653522 0.2013388947402176 0 -0.29637694776395218 0.20377409994761761 0 -0.2987494116105367 0.20463557135582669 0 -0.30078644013653522 0.2013388947402176 0 -0.29945501665522978 0.187514733048632 0 -0.31142240704003499 0.18412590880129351 0 -0.29637694776395218 0.20377409994761761 0 -0.30078644013653522 0.2013388947402176 0 -0.30078644013653522 0.2013388947402176 0 -0.31142240704003499 0.18412590880129351 0 -0.2987494116105367 0.20463557135582669 0 -0.30078644013653522 0.2013388947402176 0 -0.30078644013653522 0.2013388947402176 0 -0.29945501665522978 0.187514733048632 0 -0.29285083355770741 0.1958388272138083 0 -0.29637694776395218 0.20377409994761761 0 -0.29285083355770741 0.1958388272138083 0 -0.2771734308418678 0.19680106185928251 0 -0.29945501665522978 0.187514733048632 0 -0.29046233239095193 0.18976534647329199 0 -0.29285083355770741 0.1958388272138083 0 -0.29637694776395218 0.20377409994761761 0 -0.2771734308418678 0.19680106185928251 0 -0.29046233239095193 0.18976534647329199 0 -0.29285083355770741 0.1958388272138083 0 -0.2771734308418678 0.19680106185928251 0 -0.29637694776395218 0.20377409994761761 0 -0.30078644013653522 0.2013388947402176 0 -0.29285083355770741 0.1958388272138083 0 -0.29046233239095193 0.18976534647329199 0 -0.2771734308418678 0.19680106185928251 0 -0.28332931829728802 0.1840678788784964 0 -0.2771734308418678 0.19680106185928251 0 -0.2579699139197833 0.18982802377094771 0 -0.26700693120013003 0.20619311748717031 0 -0.2771734308418678 0.19680106185928251 0 -0.2579699139197833 0.18982802377094771 0 -0.2771734308418678 0.19680106185928251 0 -0.2579699139197833 0.18982802377094771 0 -0.2738926088374582 0.17947389539257291 0 -0.2579699139197833 0.18982802377094771 0 -0.25393341091484428 0.20848588961241249 0 -0.24470030986413349 0.19880256041608771 0 -0.2579699139197833 0.18982802377094771 0 -0.25393341091484428 0.20848588961241249 0 -0.26700693120013003 0.20619311748717031 0 -0.25393341091484428 0.20848588961241249 0 -0.26700693120013003 0.20619311748717031 0 -0.26085771608034458 0.22339010348049329 0 -0.25393341091484428 0.20848588961241249 0 -0.26085771608034458 0.22339010348049329 0 -0.2444306604235445 0.22090815078701381 0 -0.2771734308418678 0.19680106185928251 0 -0.26700693120013003 0.20619311748717031 0 -0.27861733192214838 0.21358210171405551 0 -0.27861733192214838 0.21358210171405551 0 -0.26085771608034458 0.22339010348049329 0 -0.26700693120013003 0.20619311748717031 0 -0.27861733192214838 0.21358210171405551 0 -0.26085771608034458 0.22339010348049329 0 -0.27861733192214838 0.21358210171405551 0 -0.27410575510296548 0.22691345426229589 0 -0.26085771608034458 0.22339010348049329 0 -0.28627651045059083 0.224688439812228 0 -0.27861733192214838 0.21358210171405551 0 -0.27410575510296548 0.22691345426229589 0 -0.28627651045059083 0.224688439812228 0 -0.27410575510296548 0.22691345426229589 0 -0.27840926718348608 0.23755355833295291 0 -0.27410575510296548 0.22691345426229589 0 -0.26770171761068451 0.234902494242655 0 -0.27840926718348608 0.23755355833295291 0 -0.27410575510296548 0.22691345426229589 0 -0.26085771608034458 0.22339010348049329 0 -0.26770171761068451 0.234902494242655 0 -0.26085771608034458 0.22339010348049329 0 -0.25727446498661333 0.2401380287912471 0 -0.26770171761068451 0.234902494242655 0 -0.26085771608034458 0.22339010348049329 0 -0.25727446498661333 0.2401380287912471 0 -0.24309810023854081 0.23319810524693099 0 -0.26085771608034458 0.22339010348049329 0 -0.24309810023854081 0.23319810524693099 0 -0.25727446498661333 0.2401380287912471 0 -0.27015985268551662 0.24635523071495319 0 -0.26770171761068451 0.234902494242655 0 -0.25727446498661333 0.2401380287912471 0 -0.25756984743672601 0.25405066201242432 0 -0.24576283243991379 0.2469610899906661 0 -0.25727446498661333 0.2401380287912471 0 -0.27015985268551662 0.24635523071495319 0 -0.25756984743672601 0.25405066201242432 0 -0.27015985268551662 0.24635523071495319 0 -0.27840926718348608 0.23755355833295291 0 -0.28752303105369142 0.25191910753971841 0 -0.27015985268551662 0.24635523071495319 0 -0.26770171761068451 0.234902494242655 0 -0.27840926718348608 0.23755355833295291 0 -0.29570652159721139 0.15022271586481309 0 -0.28192191977534758 0.14793356250019399 0 -0.29568011549979928 0.13878643148185521 0 -0.29570652159721139 0.15022271586481309 0 -0.28192191977534758 0.14793356250019399 0 -0.28771430931788933 0.15694056663374911 0 -0.28192191977534758 0.14793356250019399 0 -0.28771430931788933 0.15694056663374911 0 -0.2769162524321484 0.16210000491858989 0 -0.28192191977534758 0.14793356250019399 0 -0.28719105934721351 0.13439929951169641 0 -0.29568011549979928 0.13878643148185521 0 -0.28192191977534758 0.14793356250019399 0 -0.28719105934721351 0.13439929951169641 0 -0.28086597594047019 0.13655299079751021 0 -0.28719105934721351 0.13439929951169641 0 -0.29500068958652459 0.12898640760209831 0 -0.2874422118615208 0.1176658064117468 0 -0.28719105934721351 0.13439929951169641 0 -0.28086597594047019 0.13655299079751021 0 -0.2874422118615208 0.1176658064117468 0 -0.28719105934721351 0.13439929951169641 0 -0.29500068958652459 0.12898640760209831 0 -0.29568011549979928 0.13878643148185521 0 -0.29500068958652459 0.12898640760209831 0 -0.29568011549979928 0.13878643148185521 0 -0.30426006409460021 0.13177106625193399 0 -0.31991388075402899 0.13877363512870169 0 -0.30426006409460021 0.13177106625193399 0 -0.31045471494455629 0.1229996177453869 0 -0.29568011549979928 0.13878643148185521 0 -0.30426006409460021 0.13177106625193399 0 -0.30755633321620218 0.1445894835655748 0 -0.31991388075402899 0.13877363512870169 0 -0.30426006409460021 0.13177106625193399 0 -0.30755633321620218 0.1445894835655748 0 -0.29500068958652459 0.12898640760209831 0 -0.30426006409460021 0.13177106625193399 0 -0.3004299971294892 0.1223094343532594 0 -0.30426006409460021 0.13177106625193399 0 -0.31045471494455629 0.1229996177453869 0 -0.3004299971294892 0.1223094343532594 0 -0.29570652159721139 0.15022271586481309 0 -0.29568011549979928 0.13878643148185521 0 -0.30755633321620218 0.1445894835655748 0 -0.29570652159721139 0.15022271586481309 0 -0.30755633321620218 0.1445894835655748 0 -0.30837758057758913 0.15815617934915541 0 -0.31838702450443412 0.15119445056826331 0 -0.30755633321620218 0.1445894835655748 0 -0.30837758057758913 0.15815617934915541 0 -0.32205837394353892 0.16691292286237189 0 -0.30837758057758913 0.15815617934915541 0 -0.30679270848123358 0.17312057045444601 0 -0.30837758057758913 0.15815617934915541 0 -0.30679270848123358 0.17312057045444601 0 -0.2943165523303285 0.16431383490330431 0 -0.29570652159721139 0.15022271586481309 0 -0.30837758057758913 0.15815617934915541 0 -0.2943165523303285 0.16431383490330431 0 -0.29945501665522978 0.187514733048632 0 -0.31142240704003499 0.18412590880129351 0 -0.30679270848123358 0.17312057045444601 0 -0.30679270848123358 0.17312057045444601 0 -0.29152704301892612 0.17932821804651461 0 -0.2943165523303285 0.16431383490330431 0 -0.30679270848123358 0.17312057045444601 0 -0.29152704301892612 0.17932821804651461 0 -0.29945501665522978 0.187514733048632 0 -0.30679270848123358 0.17312057045444601 0 -0.29152704301892612 0.17932821804651461 0 -0.29945501665522978 0.187514733048632 0 -0.29046233239095193 0.18976534647329199 0 -0.29152704301892612 0.17932821804651461 0 -0.29152704301892612 0.17932821804651461 0 -0.28332931829728802 0.1840678788784964 0 -0.28461601403900638 0.17103739979553789 0 -0.29046233239095193 0.18976534647329199 0 -0.29152704301892612 0.17932821804651461 0 -0.28332931829728802 0.1840678788784964 0 -0.29570652159721139 0.15022271586481309 0 -0.2943165523303285 0.16431383490330431 0 -0.28771430931788933 0.15694056663374911 0 -0.29152704301892612 0.17932821804651461 0 -0.2943165523303285 0.16431383490330431 0 -0.28461601403900638 0.17103739979553789 0 -0.2943165523303285 0.16431383490330431 0 -0.28461601403900638 0.17103739979553789 0 -0.28771430931788933 0.15694056663374911 0 -0.28461601403900638 0.17103739979553789 0 -0.28771430931788933 0.15694056663374911 0 -0.2769162524321484 0.16210000491858989 0 -0.2769162524321484 0.16210000491858989 0 -0.2738926088374582 0.17947389539257291 0 -0.26486817144125241 0.16965544085958509 0 -0.28461601403900638 0.17103739979553789 0 -0.2769162524321484 0.16210000491858989 0 -0.2738926088374582 0.17947389539257291 0 -0.2769162524321484 0.16210000491858989 0 -0.26942925953077013 0.15660273735189051 0 -0.26486817144125241 0.16965544085958509 0 -0.2771734308418678 0.19680106185928251 0 -0.28332931829728802 0.1840678788784964 0 -0.2738926088374582 0.17947389539257291 0 -0.28332931829728802 0.1840678788784964 0 -0.28461601403900638 0.17103739979553789 0 -0.2738926088374582 0.17947389539257291 0 -0.2579699139197833 0.18982802377094771 0 -0.2738926088374582 0.17947389539257291 0 -0.26486817144125241 0.16965544085958509 0 -0.2579699139197833 0.18982802377094771 0 -0.25163171938660761 0.17735375730289479 0 -0.26486817144125241 0.16965544085958509 0 -0.26942925953077013 0.15660273735189051 0 -0.26486817144125241 0.16965544085958509 0 -0.25289265241827069 0.16341854715930401 0 -0.25163171938660761 0.17735375730289479 0 -0.26486817144125241 0.16965544085958509 0 -0.25289265241827069 0.16341854715930401 0 -0.25289265241827069 0.16341854715930401 0 -0.25503682607026862 0.14707709813031819 0 -0.2701674321398958 0.14054217678552541 0 -0.26942925953077013 0.15660273735189051 0 -0.25289265241827069 0.16341854715930401 0 -0.2701674321398958 0.14054217678552541 0 -0.25289265241827069 0.16341854715930401 0 -0.2701674321398958 0.14054217678552541 0 -0.25503682607026862 0.14707709813031819 0 -0.25811542329558168 0.13736733463570799 0 -0.2481917006010628 0.13789668201824959 0 -0.25503682607026862 0.14707709813031819 0 -0.2701674321398958 0.14054217678552541 0 -0.25811542329558168 0.13736733463570799 0 -0.28192191977534758 0.14793356250019399 0 -0.26942925953077013 0.15660273735189051 0 -0.2701674321398958 0.14054217678552541 0 -0.28192191977534758 0.14793356250019399 0 -0.28086597594047019 0.13655299079751021 0 -0.2701674321398958 0.14054217678552541 0 -0.28192191977534758 0.14793356250019399 0 -0.2769162524321484 0.16210000491858989 0 -0.26942925953077013 0.15660273735189051 0 -0.28086597594047019 0.13655299079751021 0 -0.2701674321398958 0.14054217678552541 0 -0.2874422118615208 0.1176658064117468 0 -0.2701674321398958 0.14054217678552541 0 -0.27334381803336782 0.12990375136234319 0 -0.2874422118615208 0.1176658064117468 0 -0.2701674321398958 0.14054217678552541 0 -0.2874422118615208 0.1176658064117468 0 -0.2701674321398958 0.14054217678552541 0 -0.27334381803336782 0.12990375136234319 0 -0.26254338795267051 0.1311741014243655 0 -0.26254338795267051 0.1311741014243655 0 -0.25463776971401092 0.13014661482008091 0 -0.25310246796619779 0.1141001280538462 0 -0.27334381803336782 0.12990375136234319 0 -0.26254338795267051 0.1311741014243655 0 -0.25310246796619779 0.1141001280538462 0 -0.2701674321398958 0.14054217678552541 0 -0.26254338795267051 0.1311741014243655 0 -0.25811542329558168 0.13736733463570799 0 -0.26254338795267051 0.1311741014243655 0 -0.25811542329558168 0.13736733463570799 0 -0.25463776971401092 0.13014661482008091 0 -0.25811542329558168 0.13736733463570799 0 -0.25463776971401092 0.13014661482008091 0 -0.2481917006010628 0.13789668201824959 0 -0.25463776971401092 0.13014661482008091 0 -0.25310246796619779 0.1141001280538462 0 -0.24590746468531891 0.1247891684990587 0 -0.25310246796619779 0.1141001280538462 0 -0.26156265011362573 0.1090569457181646 0 -0.27070277444451651 0.11660027139816879 0 -0.27334381803336782 0.12990375136234319 0 -0.25310246796619779 0.1141001280538462 0 -0.25180394650241178 0.1045642170394553 0 -0.25901357296022293 0.092310082379674419 0 -0.25663950194421531 0.092974631951187756 0 -0.25180394650241178 0.1045642170394553 0 -0.25901357296022293 0.092310082379674419 0 -0.25180394650241178 0.1045642170394553 0 -0.2593145590851445 0.099342155982843877 0 -0.25901357296022293 0.092310082379674419 0 -0.25135192691430541 0.097572050828468287 0 -0.25180394650241178 0.1045642170394553 0 -0.25663950194421531 0.092974631951187756 0 -0.25135192691430541 0.097572050828468287 0 -0.25167662679445962 0.093306264048713838 0 -0.25663950194421531 0.092974631951187756 0 -0.25135192691430541 0.097572050828468287 0 -0.25167662679445962 0.093306264048713838 0 -0.24769751127296649 0.094413649185785292 0 -0.25310246796619779 0.1141001280538462 0 -0.25180394650241178 0.1045642170394553 0 -0.24517623637591121 0.099726830501934247 0 -0.25310246796619779 0.1141001280538462 0 -0.25180394650241178 0.1045642170394553 0 -0.26156265011362573 0.1090569457181646 0 -0.25180394650241178 0.1045642170394553 0 -0.261783860878601 0.1028029920878701 0 -0.2593145590851445 0.099342155982843877 0 -0.26156265011362573 0.1090569457181646 0 -0.261783860878601 0.1028029920878701 0 -0.2704975965227619 0.1052374194216643 0 -0.25180394650241178 0.1045642170394553 0 -0.26156265011362573 0.1090569457181646 0 -0.261783860878601 0.1028029920878701 0 -0.26465685599934241 0.097691332424375762 0 -0.27155841460746721 0.094356784327691526 0 -0.25901357296022293 0.092310082379674419 0 -0.261783860878601 0.1028029920878701 0 -0.2593145590851445 0.099342155982843877 0 -0.26465685599934241 0.097691332424375762 0 -0.2593145590851445 0.099342155982843877 0 -0.26465685599934241 0.097691332424375762 0 -0.25901357296022293 0.092310082379674419 0 -0.27155841460746721 0.094356784327691526 0 -0.28465263363543231 0.1025002766602552 0 -0.2817805269432665 0.08593716033475074 0 -0.26465685599934241 0.097691332424375762 0 -0.27155841460746721 0.094356784327691526 0 -0.2704975965227619 0.1052374194216643 0 -0.261783860878601 0.1028029920878701 0 -0.26465685599934241 0.097691332424375762 0 -0.2704975965227619 0.1052374194216643 0 -0.2704975965227619 0.1052374194216643 0 -0.27832380411605778 0.1105009434729587 0 -0.28465263363543231 0.1025002766602552 0 -0.27155841460746721 0.094356784327691526 0 -0.2704975965227619 0.1052374194216643 0 -0.28465263363543231 0.1025002766602552 0 -0.27334381803336782 0.12990375136234319 0 -0.27070277444451651 0.11660027139816879 0 -0.2874422118615208 0.1176658064117468 0 -0.27334381803336782 0.12990375136234319 0 -0.25310246796619779 0.1141001280538462 0 -0.27070277444451651 0.11660027139816879 0 -0.27070277444451651 0.11660027139816879 0 -0.27832380411605778 0.1105009434729587 0 -0.2874422118615208 0.1176658064117468 0 -0.2704975965227619 0.1052374194216643 0 -0.27070277444451651 0.11660027139816879 0 -0.27832380411605778 0.1105009434729587 0 -0.26156265011362573 0.1090569457181646 0 -0.2704975965227619 0.1052374194216643 0 -0.27070277444451651 0.11660027139816879 0 -0.29500068958652459 0.12898640760209831 0 -0.2874422118615208 0.1176658064117468 0 -0.3004299971294892 0.1223094343532594 0 -0.27832380411605778 0.1105009434729587 0 -0.2874422118615208 0.1176658064117468 0 -0.28465263363543231 0.1025002766602552 0 -0.28465263363543231 0.1025002766602552 0 -0.2817805269432665 0.08593716033475074 0 -0.29259884783058893 0.093233634501362239 0 -0.2874422118615208 0.1176658064117468 0 -0.30471699158314591 0.094789436037968119 0 -0.28465263363543231 0.1025002766602552 0 -0.30471699158314591 0.094789436037968119 0 -0.29259884783058893 0.093233634501362239 0 -0.2874422118615208 0.1176658064117468 0 -0.28465263363543231 0.1025002766602552 0 -0.30471699158314591 0.094789436037968119 0 -0.2874422118615208 0.1176658064117468 0 -0.30471699158314591 0.094789436037968119 0 -0.30757161865992089 0.1119860258990462 0 -0.30471699158314591 0.094789436037968119 0 -0.31123526061835799 0.1019389938584869 0 -0.30757161865992089 0.1119860258990462 0 -0.30471699158314591 0.094789436037968119 0 -0.31123526061835799 0.1019389938584869 0 -0.31152571871313123 0.092898017321946566 0 -0.2874422118615208 0.1176658064117468 0 -0.30757161865992089 0.1119860258990462 0 -0.3004299971294892 0.1223094343532594 0 -0.30757161865992089 0.1119860258990462 0 -0.31045471494455629 0.1229996177453869 0 -0.3004299971294892 0.1223094343532594 0 -0.3043281880366891 0.068959757032966126 0 -0.2911788486051014 0.065302019155482491 0 -0.3070233397890908 0.059481660641063708 0 -0.3043281880366891 0.068959757032966126 0 -0.30454748092631062 0.079564238289828282 0 -0.2911788486051014 0.065302019155482491 0 -0.3043281880366891 0.068959757032966126 0 -0.3070233397890908 0.059481660641063708 0 -0.31456308282625361 0.071491110045490025 0 -0.3043281880366891 0.068959757032966126 0 -0.30454748092631062 0.079564238289828282 0 -0.31456308282625361 0.071491110045490025 0 -0.30653434099927551 0.087364808849430778 0 -0.30454748092631062 0.079564238289828282 0 -0.31647315485452199 0.082793556822227499 0 -0.31152571871313123 0.092898017321946566 0 -0.30653434099927551 0.087364808849430778 0 -0.31647315485452199 0.082793556822227499 0 -0.30471699158314591 0.094789436037968119 0 -0.31152571871313123 0.092898017321946566 0 -0.30653434099927551 0.087364808849430778 0 -0.30471699158314591 0.094789436037968119 0 -0.30653434099927551 0.087364808849430778 0 -0.29838123808622979 0.088614943994041448 0 -0.30471699158314591 0.094789436037968119 0 -0.29838123808622979 0.088614943994041448 0 -0.29259884783058893 0.093233634501362239 0 -0.30653434099927551 0.087364808849430778 0 -0.29838123808622979 0.088614943994041448 0 -0.30454748092631062 0.079564238289828282 0 -0.30454748092631062 0.079564238289828282 0 -0.2817805269432665 0.08593716033475074 0 -0.29838123808622979 0.088614943994041448 0 -0.2817805269432665 0.08593716033475074 0 -0.29259884783058893 0.093233634501362239 0 -0.29838123808622979 0.088614943994041448 0 -0.30454748092631062 0.079564238289828282 0 -0.2817805269432665 0.08593716033475074 0 -0.30454748092631062 0.079564238289828282 0 -0.2817805269432665 0.08593716033475074 0 -0.2911788486051014 0.065302019155482491 0 -0.2817805269432665 0.08593716033475074 0 -0.2911788486051014 0.065302019155482491 0 -0.27222908922381739 0.069847792989204946 0 -0.2817805269432665 0.08593716033475074 0 -0.25901357296022293 0.092310082379674419 0 -0.27222908922381739 0.069847792989204946 0 -0.25901357296022293 0.092310082379674419 0 -0.2817805269432665 0.08593716033475074 0 -0.27222908922381739 0.069847792989204946 0 -0.25901357296022293 0.092310082379674419 0 -0.27155841460746721 0.094356784327691526 0 -0.2817805269432665 0.08593716033475074 0 -0.25901357296022293 0.092310082379674419 0 -0.25901357296022293 0.092310082379674419 0 -0.25657510893321239 0.086207462076776445 0 -0.2604233676740646 0.074099877046945553 0 -0.27222908922381739 0.069847792989204946 0 -0.25901357296022293 0.092310082379674419 0 -0.2604233676740646 0.074099877046945553 0 -0.25901357296022293 0.092310082379674419 0 -0.25663950194421531 0.092974631951187756 0 -0.25414283872043841 0.0804926186526215 0 -0.25274690811870781 0.086675881116122316 0 -0.24604912306543311 0.080523902294998853 0 -0.25414283872043841 0.0804926186526215 0 -0.25657510893321239 0.086207462076776445 0 -0.2604233676740646 0.074099877046945553 0 -0.25414283872043841 0.0804926186526215 0 -0.25278755826924437 0.074628024693822348 0 -0.24604912306543311 0.080523902294998853 0 -0.25414283872043841 0.0804926186526215 0 -0.25657510893321239 0.086207462076776445 0 -0.25274690811870781 0.086675881116122316 0 -0.25657510893321239 0.086207462076776445 0 -0.25389259758431959 0.09059336022873328 0 -0.25653019535549249 0.090521384159092971 0 -0.25901357296022293 0.092310082379674419 0 -0.25657510893321239 0.086207462076776445 0 -0.25653019535549249 0.090521384159092971 0 -0.25657510893321239 0.086207462076776445 0 -0.25274690811870781 0.086675881116122316 0 -0.25389259758431959 0.09059336022873328 0 -0.25274690811870781 0.086675881116122316 0 -0.25003483723942149 0.090593342685627937 0 -0.2475815008793627 0.086357991239860973 0 -0.25274690811870781 0.086675881116122316 0 -0.25389259758431959 0.09059336022873328 0 -0.25003483723942149 0.090593342685627937 0 -0.25389259758431959 0.09059336022873328 0 -0.25003483723942149 0.090593342685627937 0 -0.25167662679445962 0.093306264048713838 0 -0.25389259758431959 0.09059336022873328 0 -0.25167662679445962 0.093306264048713838 0 -0.25663950194421531 0.092974631951187756 0 -0.25389259758431959 0.09059336022873328 0 -0.25653019535549249 0.090521384159092971 0 -0.25663950194421531 0.092974631951187756 0 -0.25901357296022293 0.092310082379674419 0 -0.25653019535549249 0.090521384159092971 0 -0.25663950194421531 0.092974631951187756 0 -0.27222908922381739 0.069847792989204946 0 -0.2604233676740646 0.074099877046945553 0 -0.26074341561930559 0.062288317309811672 0 -0.2604233676740646 0.074099877046945553 0 -0.25386986552330743 0.066842973137095488 0 -0.26074341561930559 0.062288317309811672 0 -0.2604233676740646 0.074099877046945553 0 -0.25278755826924437 0.074628024693822348 0 -0.25386986552330743 0.066842973137095488 0 -0.25414283872043841 0.0804926186526215 0 -0.2604233676740646 0.074099877046945553 0 -0.25278755826924437 0.074628024693822348 0 -0.25278755826924437 0.074628024693822348 0 -0.25386986552330743 0.066842973137095488 0 -0.24668382099116071 0.071844604538094575 0 -0.25386986552330743 0.066842973137095488 0 -0.25231231530705539 0.059153595136949899 0 -0.2460355414916098 0.06438805142209772 0 -0.25386986552330743 0.066842973137095488 0 -0.25231231530705539 0.059153595136949899 0 -0.26074341561930559 0.062288317309811672 0 -0.25231231530705539 0.059153595136949899 0 -0.25821687150227451 0.054575235816638153 0 -0.24928111109321671 0.05138839801411961 0 -0.25231231530705539 0.059153595136949899 0 -0.26074341561930559 0.062288317309811672 0 -0.25821687150227451 0.054575235816638153 0 -0.26074341561930559 0.062288317309811672 0 -0.25821687150227451 0.054575235816638153 0 -0.26712463737870351 0.053784010837539413 0 -0.25821687150227451 0.054575235816638153 0 -0.2616228781130911 0.046261857784770141 0 -0.26712463737870351 0.053784010837539413 0 -0.25821687150227451 0.054575235816638153 0 -0.2616228781130911 0.046261857784770141 0 -0.24928111109321671 0.05138839801411961 0 -0.25672787277622838 0.037606352579533028 0 -0.2616228781130911 0.046261857784770141 0 -0.24928111109321671 0.05138839801411961 0 -0.25672787277622838 0.037606352579533028 0 -0.26097741403120639 0.027008092884210522 0 -0.2469881834913138 0.032364494782173382 0 -0.25672787277622838 0.037606352579533028 0 -0.2616228781130911 0.046261857784770141 0 -0.2690442914714482 0.03730496272152916 0 -0.25672787277622838 0.037606352579533028 0 -0.2690442914714482 0.03730496272152916 0 -0.28122460202642358 0.0227266330693351 0 -0.2616228781130911 0.046261857784770141 0 -0.27289376689965622 0.043829789139306671 0 -0.2690442914714482 0.03730496272152916 0 -0.27289376689965622 0.043829789139306671 0 -0.2690442914714482 0.03730496272152916 0 -0.27410684199087959 0.037471925183403622 0 -0.2690442914714482 0.03730496272152916 0 -0.27410684199087959 0.037471925183403622 0 -0.27766639094514212 0.032760521748692942 0 -0.27410684199087959 0.037471925183403622 0 -0.27981165175081169 0.035908610930695258 0 -0.2767131012652832 0.039134940442774428 0 -0.27410684199087959 0.037471925183403622 0 -0.27981165175081169 0.035908610930695258 0 -0.27766639094514212 0.032760521748692942 0 -0.27981165175081169 0.035908610930695258 0 -0.27991645634107132 0.041041039555036428 0 -0.2830089779963843 0.038537542282730437 0 -0.27981165175081169 0.035908610930695258 0 -0.2767131012652832 0.039134940442774428 0 -0.27991645634107132 0.041041039555036428 0 -0.27766639094514212 0.032760521748692942 0 -0.28395675106618778 0.029025847653393361 0 -0.28164482340980401 0.033171644561508271 0 -0.27981165175081169 0.035908610930695258 0 -0.27766639094514212 0.032760521748692942 0 -0.28164482340980401 0.033171644561508271 0 -0.27289376689965622 0.043829789139306671 0 -0.27984994746065239 0.044839012483504123 0 -0.27764699565948942 0.050231040303862377 0 -0.27289376689965622 0.043829789139306671 0 -0.2767131012652832 0.039134940442774428 0 -0.27991645634107132 0.041041039555036428 0 -0.27289376689965622 0.043829789139306671 0 -0.27410684199087959 0.037471925183403622 0 -0.2767131012652832 0.039134940442774428 0 -0.27289376689965622 0.043829789139306671 0 -0.27991645634107132 0.041041039555036428 0 -0.27984994746065239 0.044839012483504123 0 -0.27991645634107132 0.041041039555036428 0 -0.27984994746065239 0.044839012483504123 0 -0.2830591978258829 0.043830760245619237 0 -0.27222908922381739 0.069847792989204946 0 -0.28667401492767708 0.046288026050325892 0 -0.27222908922381739 0.069847792989204946 0 -0.27764699565948942 0.050231040303862377 0 -0.28667401492767708 0.046288026050325892 0 -0.27222908922381739 0.069847792989204946 0 -0.26074341561930559 0.062288317309811672 0 -0.26712463737870351 0.053784010837539413 0 -0.27984994746065239 0.044839012483504123 0 -0.27764699565948942 0.050231040303862377 0 -0.28158324324645251 0.047138896254624342 0 -0.27222908922381739 0.069847792989204946 0 -0.27764699565948942 0.050231040303862377 0 -0.26712463737870351 0.053784010837539413 0 -0.2616228781130911 0.046261857784770141 0 -0.27289376689965622 0.043829789139306671 0 -0.26712463737870351 0.053784010837539413 0 -0.27289376689965622 0.043829789139306671 0 -0.27764699565948942 0.050231040303862377 0 -0.26712463737870351 0.053784010837539413 0 -0.25711699077986211 -0.0050434881869386092 0 -0.25387848363640708 0.0078119237010146961 0 -0.26502915425932411 0.01454675379449127 0 -0.25711699077986211 -0.0050434881869386092 0 -0.25387848363640708 0.0078119237010146961 0 -0.24112100423828001 0.0065761508708656151 0 -0.25387848363640708 0.0078119237010146961 0 -0.26502915425932411 0.01454675379449127 0 -0.24932887458444769 0.01659400382985729 0 -0.26502915425932411 0.01454675379449127 0 -0.2469881834913138 0.032364494782173382 0 -0.25672787277622838 0.037606352579533028 0 -0.26097741403120639 0.027008092884210522 0 -0.27516444559795972 0.023514770380644409 0 -0.26502915425932411 0.01454675379449127 0 -0.26097741403120639 0.027008092884210522 0 -0.2469881834913138 0.032364494782173382 0 -0.26502915425932411 0.01454675379449127 0 -0.24932887458444769 0.01659400382985729 0 -0.2469881834913138 0.032364494782173382 0 -0.25672787277622838 0.037606352579533028 0 -0.27516444559795972 0.023514770380644409 0 -0.28122460202642358 0.0227266330693351 0 -0.26502915425932411 0.01454675379449127 0 -0.27516444559795972 0.023514770380644409 0 -0.28755397450123271 0.012611937282611049 0 -0.25672787277622838 0.037606352579533028 0 -0.28122460202642358 0.0227266330693351 0 -0.2690442914714482 0.03730496272152916 0 -0.27766639094514212 0.032760521748692942 0 -0.28122460202642358 0.0227266330693351 0 -0.27766639094514212 0.032760521748692942 0 -0.28122460202642358 0.0227266330693351 0 -0.28395675106618778 0.029025847653393361 0 -0.27516444559795972 0.023514770380644409 0 -0.28122460202642358 0.0227266330693351 0 -0.26502915425932411 0.01454675379449127 0 -0.26097741403120639 0.027008092884210522 0 -0.27516444559795972 0.023514770380644409 0 -0.28307012502733431 -0.0032709871931908031 0 -0.26502915425932411 0.01454675379449127 0 -0.28307012502733431 -0.0032709871931908031 0 -0.26502915425932411 0.01454675379449127 0 -0.28755397450123271 0.012611937282611049 0 -0.25711699077986211 -0.0050434881869386092 0 -0.28307012502733431 -0.0032709871931908031 0 -0.26502915425932411 0.01454675379449127 0 -0.28307012502733431 -0.0032709871931908031 0 -0.28755397450123271 0.012611937282611049 0 -0.29737265755826658 8.8263195202494378e-05 0 -0.28755397450123271 0.012611937282611049 0 -0.30005544269337497 0.01008058730900746 0 -0.29737265755826658 8.8263195202494378e-05 0 -0.28755397450123271 0.012611937282611049 0 -0.30232008094396889 0.019983117414068292 0 -0.30005544269337497 0.01008058730900746 0 -0.28122460202642358 0.0227266330693351 0 -0.28968606988953788 0.026982363075234609 0 -0.30232008094396889 0.019983117414068292 0 -0.28122460202642358 0.0227266330693351 0 -0.28755397450123271 0.012611937282611049 0 -0.30232008094396889 0.019983117414068292 0 -0.28122460202642358 0.0227266330693351 0 -0.30232008094396889 0.019983117414068292 0 -0.27516444559795972 0.023514770380644409 0 -0.28122460202642358 0.0227266330693351 0 -0.28755397450123271 0.012611937282611049 0 -0.28122460202642358 0.0227266330693351 0 -0.28395675106618778 0.029025847653393361 0 -0.28968606988953788 0.026982363075234609 0 -0.28395675106618778 0.029025847653393361 0 -0.28968606988953788 0.026982363075234609 0 -0.2870257051728653 0.031572969024670688 0 -0.28968606988953788 0.026982363075234609 0 -0.2986601217510032 0.024923214208264158 0 -0.28931549985866079 0.035292067456803293 0 -0.2986601217510032 0.024923214208264158 0 -0.31178741911830982 0.028489269759273111 0 -0.30232008094396889 0.019983117414068292 0 -0.28968606988953788 0.026982363075234609 0 -0.2986601217510032 0.024923214208264158 0 -0.30232008094396889 0.019983117414068292 0 -0.2986601217510032 0.024923214208264158 0 -0.31178741911830982 0.028489269759273111 0 -0.30409077424783532 0.035346285724573233 0 -0.30232008094396889 0.019983117414068292 0 -0.30005544269337497 0.01008058730900746 0 -0.31297505777003198 0.0076390313441479932 0 -0.30005544269337497 0.01008058730900746 0 -0.29737265755826658 8.8263195202494378e-05 0 -0.31297505777003198 0.0076390313441479932 0 -0.2911788486051014 0.065302019155482491 0 -0.28667401492767708 0.046288026050325892 0 -0.3070233397890908 0.059481660641063708 0 -0.28667401492767708 0.046288026050325892 0 -0.3070233397890908 0.059481660641063708 0 -0.2911788486051014 0.065302019155482491 0 -0.27222908922381739 0.069847792989204946 0 -0.28667401492767708 0.046288026050325892 0 -0.27764699565948942 0.050231040303862377 0 -0.28158324324645251 0.047138896254624342 0 -0.28667401492767708 0.046288026050325892 0 -0.28620630424195881 0.041166473634765069 0 -0.28667401492767708 0.046288026050325892 0 -0.28931549985866079 0.035292067456803293 0 -0.28158324324645251 0.047138896254624342 0 -0.28306682247889309 0.045623987119370081 0 -0.28667401492767708 0.046288026050325892 0 -0.27984994746065239 0.044839012483504123 0 -0.28158324324645251 0.047138896254624342 0 -0.28306682247889309 0.045623987119370081 0 -0.2986601217510032 0.024923214208264158 0 -0.28667401492767708 0.046288026050325892 0 -0.2986601217510032 0.024923214208264158 0 -0.28667401492767708 0.046288026050325892 0 -0.29798119189208699 0.037765130300838168 0 -0.28667401492767708 0.046288026050325892 0 -0.30249985664183238 0.044502995220189377 0 -0.29798119189208699 0.037765130300838168 0 -0.2986601217510032 0.024923214208264158 0 -0.28667401492767708 0.046288026050325892 0 -0.28931549985866079 0.035292067456803293 0 -0.28306682247889309 0.045623987119370081 0 -0.2849626412040358 0.044542177948159761 0 -0.28667401492767708 0.046288026050325892 0 -0.2849626412040358 0.044542177948159761 0 -0.2830591978258829 0.043830760245619237 0 -0.28620630424195881 0.041166473634765069 0 -0.28306682247889309 0.045623987119370081 0 -0.2849626412040358 0.044542177948159761 0 -0.2830591978258829 0.043830760245619237 0 -0.27984994746065239 0.044839012483504123 0 -0.28306682247889309 0.045623987119370081 0 -0.2830591978258829 0.043830760245619237 0 -0.27991645634107132 0.041041039555036428 0 -0.2830591978258829 0.043830760245619237 0 -0.28347242056842248 0.041232671800965633 0 -0.27991645634107132 0.041041039555036428 0 -0.28347242056842248 0.041232671800965633 0 -0.2830089779963843 0.038537542282730437 0 -0.28620630424195881 0.041166473634765069 0 -0.2830089779963843 0.038537542282730437 0 -0.28591882049351958 0.037496920321887582 0 -0.28347242056842248 0.041232671800965633 0 -0.28620630424195881 0.041166473634765069 0 -0.2830089779963843 0.038537542282730437 0 -0.2830591978258829 0.043830760245619237 0 -0.28347242056842248 0.041232671800965633 0 -0.28620630424195881 0.041166473634765069 0 -0.2849626412040358 0.044542177948159761 0 -0.28620630424195881 0.041166473634765069 0 -0.28667401492767708 0.046288026050325892 0 -0.28968606988953788 0.026982363075234609 0 -0.2870257051728653 0.031572969024670688 0 -0.28931549985866079 0.035292067456803293 0 -0.28395675106618778 0.029025847653393361 0 -0.28164482340980401 0.033171644561508271 0 -0.28514449987707458 0.034991597913251522 0 -0.27981165175081169 0.035908610930695258 0 -0.28164482340980401 0.033171644561508271 0 -0.28514449987707458 0.034991597913251522 0 -0.27981165175081169 0.035908610930695258 0 -0.28514449987707458 0.034991597913251522 0 -0.2830089779963843 0.038537542282730437 0 -0.28514449987707458 0.034991597913251522 0 -0.2830089779963843 0.038537542282730437 0 -0.28591882049351958 0.037496920321887582 0 -0.28620630424195881 0.041166473634765069 0 -0.28591882049351958 0.037496920321887582 0 -0.28931549985866079 0.035292067456803293 0 -0.28514449987707458 0.034991597913251522 0 -0.28591882049351958 0.037496920321887582 0 -0.28931549985866079 0.035292067456803293 0 -0.28395675106618778 0.029025847653393361 0 -0.28514449987707458 0.034991597913251522 0 -0.2870257051728653 0.031572969024670688 0 -0.28514449987707458 0.034991597913251522 0 -0.2870257051728653 0.031572969024670688 0 -0.28931549985866079 0.035292067456803293 0 -0.30249985664183238 0.044502995220189377 0 -0.30409077424783532 0.035346285724573233 0 -0.29798119189208699 0.037765130300838168 0 -0.2986601217510032 0.024923214208264158 0 -0.30409077424783532 0.035346285724573233 0 -0.29798119189208699 0.037765130300838168 0 -0.31178741911830982 0.028489269759273111 0 -0.30409077424783532 0.035346285724573233 0 -0.31350324650963901 0.039894549484648517 0 -0.30249985664183238 0.044502995220189377 0 -0.30409077424783532 0.035346285724573233 0 -0.31350324650963901 0.039894549484648517 0 -0.30249985664183238 0.044502995220189377 0 -0.3131875513292639 0.049235675593468281 0 -0.31350324650963901 0.039894549484648517 0 -0.28667401492767708 0.046288026050325892 0 -0.30249985664183238 0.044502995220189377 0 -0.3070233397890908 0.059481660641063708 0 -0.30249985664183238 0.044502995220189377 0 -0.3070233397890908 0.059481660641063708 0 -0.3131875513292639 0.049235675593468281 0 -0.3070233397890908 0.059481660641063708 0 -0.31981572879677289 0.056967695445120849 0 -0.3131875513292639 0.049235675593468281 0 -0.31981572879677289 0.056967695445120849 0 -0.32857602786020362 0.062011316819485129 0 -0.33076166325366901 0.052016888178076093 0 -0.31981572879677289 0.056967695445120849 0 -0.32309558490898449 0.045331477176318948 0 -0.33076166325366901 0.052016888178076093 0 -0.31981572879677289 0.056967695445120849 0 -0.3131875513292639 0.049235675593468281 0 -0.32309558490898449 0.045331477176318948 0 -0.3131875513292639 0.049235675593468281 0 -0.31350324650963901 0.039894549484648517 0 -0.32309558490898449 0.045331477176318948 0 -0.31178741911830982 0.028489269759273111 0 -0.31350324650963901 0.039894549484648517 0 -0.32603498020218258 0.033161357963433891 0 -0.31350324650963901 0.039894549484648517 0 -0.32603498020218258 0.033161357963433891 0 -0.32309558490898449 0.045331477176318948 0 -0.32309558490898449 0.045331477176318948 0 -0.33794386939698151 0.04274700230452666 0 -0.33076166325366901 0.052016888178076093 0 -0.32603498020218258 0.033161357963433891 0 -0.32309558490898449 0.045331477176318948 0 -0.33794386939698151 0.04274700230452666 0 -0.32603498020218258 0.033161357963433891 0 -0.33794386939698151 0.04274700230452666 0 -0.34040404498920279 0.02605438460834399 0 -0.33794386939698151 0.04274700230452666 0 -0.33713151278353848 0.058119365029304718 0 -0.35191999186056272 0.059178361333731569 0 -0.33713151278353848 0.058119365029304718 0 -0.32857602786020362 0.062011316819485129 0 -0.33076166325366901 0.052016888178076093 0 -0.33794386939698151 0.04274700230452666 0 -0.33713151278353848 0.058119365029304718 0 -0.33076166325366901 0.052016888178076093 0 -0.32689746706461698 -0.0057269288404516007 0 -0.31297505777003198 0.0076390313441479932 0 -0.32947571628997802 0.016451464447492181 0 -0.30232008094396889 0.019983117414068292 0 -0.31297505777003198 0.0076390313441479932 0 -0.32947571628997802 0.016451464447492181 0 -0.31178741911830982 0.028489269759273111 0 -0.30232008094396889 0.019983117414068292 0 -0.32947571628997802 0.016451464447492181 0 -0.31178741911830982 0.028489269759273111 0 -0.32603498020218258 0.033161357963433891 0 -0.32947571628997802 0.016451464447492181 0 -0.30232008094396889 0.019983117414068292 0 -0.32947571628997802 0.016451464447492181 0 -0.32947571628997802 0.016451464447492181 0 -0.34040404498920279 0.02605438460834399 0 -0.3566313516359878 0.01291981148092123 0 -0.32603498020218258 0.033161357963433891 0 -0.32947571628997802 0.016451464447492181 0 -0.34040404498920279 0.02605438460834399 0 -0.34473091958066099 -0.0023468171150456212 0 -0.32689746706461698 -0.0057269288404516007 0 -0.32947571628997802 0.016451464447492181 0 -0.32947571628997802 0.016451464447492181 0 -0.3566313516359878 0.01291981148092123 0 -0.34473091958066099 -0.0023468171150456212 0 -0.32947571628997802 0.016451464447492181 0 -0.3566313516359878 0.01291981148092123 0 -0.34040404498920279 0.02605438460834399 0 -0.35482518858775652 0.024137339725223569 0 -0.35508538069482182 0.040876677189008281 0 -0.34040404498920279 0.02605438460834399 0 -0.3566313516359878 0.01291981148092123 0 -0.35482518858775652 0.024137339725223569 0 -0.3566313516359878 0.01291981148092123 0 -0.35482518858775652 0.024137339725223569 0 -0.3566313516359878 0.01291981148092123 0 -0.35482518858775652 0.024137339725223569 0 -0.3720689649553926 0.02115963287041478 0 -0.35482518858775652 0.024137339725223569 0 -0.3720689649553926 0.02115963287041478 0 -0.3640684089471391 0.032611513910355681 0 -0.38488548360524572 0.0092452964966098956 0 -0.3566313516359878 0.01291981148092123 0 -0.3720689649553926 0.02115963287041478 0 -0.37270498551195169 -0.0023871038273499561 0 -0.38488548360524572 0.0092452964966098956 0 -0.3566313516359878 0.01291981148092123 0 -0.38488548360524572 0.0092452964966098956 0 -0.3566313516359878 0.01291981148092123 0 -0.33794386939698151 0.04274700230452666 0 -0.35191999186056272 0.059178361333731569 0 -0.35508538069482182 0.040876677189008281 0 -0.33794386939698151 0.04274700230452666 0 -0.34040404498920279 0.02605438460834399 0 -0.35508538069482182 0.040876677189008281 0 -0.35482518858775652 0.024137339725223569 0 -0.35508538069482182 0.040876677189008281 0 -0.3640684089471391 0.032611513910355681 0 -0.35508538069482182 0.040876677189008281 0 -0.37429410155058551 0.044272405856776123 0 -0.3640684089471391 0.032611513910355681 0 -0.3720689649553926 0.02115963287041478 0 -0.37429410155058551 0.044272405856776123 0 -0.3640684089471391 0.032611513910355681 0 -0.35191999186056272 0.059178361333731569 0 -0.37429410155058551 0.044272405856776123 0 -0.3686293405050669 0.06230068384109242 0 -0.37935735793272007 0.057056186903266248 0 -0.37429410155058551 0.044272405856776123 0 -0.3686293405050669 0.06230068384109242 0 -0.35191999186056272 0.059178361333731569 0 -0.37429410155058551 0.044272405856776123 0 -0.35191999186056272 0.059178361333731569 0 -0.35508538069482182 0.040876677189008281 0 -0.37429410155058551 0.044272405856776123 0 -0.35191999186056272 0.059178361333731569 0 -0.3686293405050669 0.06230068384109242 0 -0.36244550582904111 0.075519154736743893 0 -0.38024117111352551 0.072751322073184202 0 -0.3686293405050669 0.06230068384109242 0 -0.36244550582904111 0.075519154736743893 0 -0.35191999186056272 0.059178361333731569 0 -0.36244550582904111 0.075519154736743893 0 -0.34734926273449568 0.085627269672289397 0 -0.36244550582904111 0.075519154736743893 0 -0.34734926273449568 0.085627269672289397 0 -0.36524269744302318 0.097228609801523369 0 -0.34734926273449568 0.085627269672289397 0 -0.36524269744302318 0.097228609801523369 0 -0.38024117111352551 0.072751322073184202 0 -0.36524269744302318 0.097228609801523369 0 -0.38024117111352551 0.072751322073184202 0 -0.36244550582904111 0.075519154736743893 0 -0.36524269744302318 0.097228609801523369 0 -0.36524269744302318 0.097228609801523369 0 -0.37077471165323472 0.115364321114973 0 -0.3555754754559024 0.1126696742437561 0 -0.38009518116240287 0.1052850694385689 0 -0.36524269744302318 0.097228609801523369 0 -0.37077471165323472 0.115364321114973 0 -0.36524269744302318 0.097228609801523369 0 -0.3555754754559024 0.1126696742437561 0 -0.36759901610925139 0.1311606342906996 0 -0.37077471165323472 0.115364321114973 0 -0.3555754754559024 0.1126696742437561 0 -0.34599953411809647 0.12816714100866089 0 -0.3555754754559024 0.1126696742437561 0 -0.33484312055531912 0.1167533498392314 0 -0.3555754754559024 0.1126696742437561 0 -0.34336146110620652 0.1009544059545424 0 -0.33484312055531912 0.1167533498392314 0 -0.36759901610925139 0.1311606342906996 0 -0.34599953411809647 0.12816714100866089 0 -0.3555754754559024 0.1126696742437561 0 -0.34599953411809647 0.12816714100866089 0 -0.3555754754559024 0.1126696742437561 0 -0.34734926273449568 0.085627269672289397 0 -0.36524269744302318 0.097228609801523369 0 -0.34336146110620652 0.1009544059545424 0 -0.36524269744302318 0.097228609801523369 0 -0.3555754754559024 0.1126696742437561 0 -0.34336146110620652 0.1009544059545424 0 -0.34336146110620652 0.1009544059545424 0 -0.33484312055531912 0.1167533498392314 0 -0.32368670699254171 0.1053395586698018 0 -0.34336146110620652 0.1009544059545424 0 -0.32368670699254171 0.1053395586698018 0 -0.3335615576005293 0.088166360768287488 0 -0.34599953411809647 0.12816714100866089 0 -0.33484312055531912 0.1167533498392314 0 -0.33484312055531912 0.1167533498392314 0 -0.32368670699254171 0.1053395586698018 0 -0.33131715666630912 0.13065815096227221 0 -0.33484312055531912 0.1167533498392314 0 -0.3218002938732854 0.1220565968992518 0 -0.30757161865992089 0.1119860258990462 0 -0.3218002938732854 0.1220565968992518 0 -0.32368670699254171 0.1053395586698018 0 -0.33484312055531912 0.1167533498392314 0 -0.3218002938732854 0.1220565968992518 0 -0.32368670699254171 0.1053395586698018 0 -0.3218002938732854 0.1220565968992518 0 -0.32368670699254171 0.1053395586698018 0 -0.30757161865992089 0.1119860258990462 0 -0.31045471494455629 0.1229996177453869 0 -0.3218002938732854 0.1220565968992518 0 -0.31123526061835799 0.1019389938584869 0 -0.30757161865992089 0.1119860258990462 0 -0.32368670699254171 0.1053395586698018 0 -0.31152571871313123 0.092898017321946566 0 -0.32368670699254171 0.1053395586698018 0 -0.31123526061835799 0.1019389938584869 0 -0.31152571871313123 0.092898017321946566 0 -0.32368670699254171 0.1053395586698018 0 -0.32368670699254171 0.1053395586698018 0 -0.32702408109155001 0.075764377162850685 0 -0.30454748092631062 0.079564238289828282 0 -0.31647315485452199 0.082793556822227499 0 -0.32737266465050441 0.072675295231801634 0 -0.32368670699254171 0.1053395586698018 0 -0.31647315485452199 0.082793556822227499 0 -0.32702408109155001 0.075764377162850685 0 -0.31152571871313123 0.092898017321946566 0 -0.32368670699254171 0.1053395586698018 0 -0.31647315485452199 0.082793556822227499 0 -0.32368670699254171 0.1053395586698018 0 -0.32702408109155001 0.075764377162850685 0 -0.3335615576005293 0.088166360768287488 0 -0.31647315485452199 0.082793556822227499 0 -0.32702408109155001 0.075764377162850685 0 -0.30454748092631062 0.079564238289828282 0 -0.31456308282625361 0.071491110045490025 0 -0.32737266465050441 0.072675295231801634 0 -0.31981572879677289 0.056967695445120849 0 -0.32857602786020362 0.062011316819485129 0 -0.32737266465050441 0.072675295231801634 0 -0.30454748092631062 0.079564238289828282 0 -0.32737266465050441 0.072675295231801634 0 -0.3070233397890908 0.059481660641063708 0 -0.31456308282625361 0.071491110045490025 0 -0.32737266465050441 0.072675295231801634 0 -0.3070233397890908 0.059481660641063708 0 -0.31981572879677289 0.056967695445120849 0 -0.32737266465050441 0.072675295231801634 0 -0.3070233397890908 0.059481660641063708 0 -0.32737266465050441 0.072675295231801634 0 -0.32857602786020362 0.062011316819485129 0 -0.32737266465050441 0.072675295231801634 0 -0.31647315485452199 0.082793556822227499 0 -0.32737266465050441 0.072675295231801634 0 -0.32702408109155001 0.075764377162850685 0 -0.32737266465050441 0.072675295231801634 0 -0.32702408109155001 0.075764377162850685 0 -0.32954588217054132 0.074084316810689332 0 -0.32737266465050441 0.072675295231801634 0 -0.32702408109155001 0.075764377162850685 0 -0.35191999186056272 0.059178361333731569 0 -0.34734926273449568 0.085627269672289397 0 -0.32954588217054132 0.074084316810689332 0 -0.35191999186056272 0.059178361333731569 0 -0.32954588217054132 0.074084316810689332 0 -0.33053813681290162 0.072288938133952832 0 -0.35191999186056272 0.059178361333731569 0 -0.32954588217054132 0.074084316810689332 0 -0.33713151278353848 0.058119365029304718 0 -0.35191999186056272 0.059178361333731569 0 -0.33053813681290162 0.072288938133952832 0 -0.32702408109155001 0.075764377162850685 0 -0.32954588217054132 0.074084316810689332 0 -0.32737266465050441 0.072675295231801634 0 -0.32954588217054132 0.074084316810689332 0 -0.33053813681290162 0.072288938133952832 0 -0.32737266465050441 0.072675295231801634 0 -0.32954588217054132 0.074084316810689332 0 -0.32737266465050441 0.072675295231801634 0 -0.33053813681290162 0.072288938133952832 0 -0.32857602786020362 0.062011316819485129 0 -0.32737266465050441 0.072675295231801634 0 -0.33053813681290162 0.072288938133952832 0 -0.33713151278353848 0.058119365029304718 0 -0.32857602786020362 0.062011316819485129 0 -0.33053813681290162 0.072288938133952832 0 -0.34734926273449568 0.085627269672289397 0 -0.32954588217054132 0.074084316810689332 0 -0.34734926273449568 0.085627269672289397 0 -0.32954588217054132 0.074084316810689332 0 -0.3335615576005293 0.088166360768287488 0 -0.34734926273449568 0.085627269672289397 0 -0.34336146110620652 0.1009544059545424 0 -0.3335615576005293 0.088166360768287488 0 -0.32702408109155001 0.075764377162850685 0 -0.32954588217054132 0.074084316810689332 0 -0.3335615576005293 0.088166360768287488 0 -0.40304631363333959 0.48103171871706141 0 -0.38267347925831319 0.48278322966629611 0 -0.39020713720299838 0.46105820794495039 0 -0.40304631363333959 0.48103171871706141 0 -0.39540926732937809 0.49999999999999911 0 -0.38267347925831319 0.48278322966629611 0 -0.39540926732937809 0.49999999999999911 0 -0.38267347925831319 0.48278322966629611 0 -0.39540926732937809 0.49999999999999911 0 -0.38267347925831319 0.48278322966629611 0 -0.36832510650978573 0.5 0 -0.38267347925831319 0.48278322966629611 0 -0.36993769118724779 0.46556645933259372 0 -0.38267347925831319 0.48278322966629611 0 -0.39020713720299838 0.46105820794495039 0 -0.36993769118724779 0.46556645933259372 0 -0.39020713720299838 0.46105820794495039 0 -0.3737263941111979 0.4481661651078177 0 -0.36993769118724779 0.46556645933259372 0 -0.39020713720299838 0.46105820794495039 0 -0.38813123817600498 0.43682988999649991 0 -0.3737263941111979 0.4481661651078177 0 -0.38813123817600498 0.43682988999649991 0 -0.36315400087355582 0.42902657926615329 0 -0.3737263941111979 0.4481661651078177 0 -0.39020713720299838 0.46105820794495039 0 -0.40423565018245111 0.44632385705452637 0 -0.38813123817600498 0.43682988999649991 0 -0.39020713720299838 0.46105820794495039 0 -0.40423565018245111 0.44632385705452637 0 -0.41072970472887588 0.46318164433189651 0 -0.40304631363333959 0.48103171871706141 0 -0.39020713720299838 0.46105820794495039 0 -0.41072970472887588 0.46318164433189651 0 -0.41072970472887588 0.46318164433189651 0 -0.42691594893895329 0.4633700721849317 0 -0.42034467379268969 0.47704701833624591 0 -0.41072970472887588 0.46318164433189651 0 -0.42175474978260019 0.44440460871632709 0 -0.42691594893895329 0.4633700721849317 0 -0.40423565018245111 0.44632385705452637 0 -0.42175474978260019 0.44440460871632709 0 -0.4103554210217758 0.42614493428295852 0 -0.40423565018245111 0.44632385705452637 0 -0.41072970472887588 0.46318164433189651 0 -0.42175474978260019 0.44440460871632709 0 -0.42175474978260019 0.44440460871632709 0 -0.44209897442648888 0.45531897816221611 0 -0.4374051773249662 0.43676761643135947 0 -0.42175474978260019 0.44440460871632709 0 -0.42691594893895329 0.4633700721849317 0 -0.44209897442648888 0.45531897816221611 0 -0.42691594893895329 0.4633700721849317 0 -0.43677219983292742 0.47840520151670718 0 -0.44209897442648888 0.45531897816221611 0 -0.42691594893895329 0.4633700721849317 0 -0.43677219983292742 0.47840520151670718 0 -0.42034467379268969 0.47704701833624591 0 -0.40304631363333959 0.48103171871706141 0 -0.41072970472887588 0.46318164433189651 0 -0.42034467379268969 0.47704701833624591 0 -0.40304631363333959 0.48103171871706141 0 -0.39540926732937809 0.49999999999999911 0 -0.4228194807637603 0.5 0 -0.40304631363333959 0.48103171871706141 0 -0.42034467379268969 0.47704701833624591 0 -0.4228194807637603 0.5 0 -0.43677219983292742 0.47840520151670718 0 -0.42034467379268969 0.47704701833624591 0 -0.4228194807637603 0.5 0 -0.43677219983292742 0.47840520151670718 0 -0.4228194807637603 0.5 0 -0.45022969419814252 0.5 0 -0.43677219983292742 0.47840520151670718 0 -0.45022969419814252 0.5 0 -0.45524066622902393 0.47464455202210531 0 -0.43677219983292742 0.47840520151670718 0 -0.45524066622902393 0.47464455202210531 0 -0.44209897442648888 0.45531897816221611 0 -0.45524066622902393 0.47464455202210531 0 -0.46826505647435368 0.48599618068907718 0 -0.47291029707768339 0.47122622952671672 0 -0.45022969419814252 0.5 0 -0.46826505647435368 0.48599618068907718 0 -0.47763990763252478 0.49999999999999922 0 -0.45022969419814252 0.5 0 -0.45524066622902393 0.47464455202210531 0 -0.46826505647435368 0.48599618068907718 0 -0.46826505647435368 0.48599618068907718 0 -0.47763990763252478 0.49999999999999922 0 -0.48465281879081867 0.48553173681551892 0 -0.49276060597546811 0.46880464642702452 0 -0.5 0.5 0 -0.49999999999999878 0.45386912882544039 0 -0.47763990763252478 0.49999999999999922 0 -0.48465281879081867 0.48553173681551892 0 -0.48552121195093351 0.48374016402860648 0 -0.4773360846554458 0.45735289834261122 0 -0.46826505647435368 0.48599618068907718 0 -0.47291029707768339 0.47122622952671672 0 -0.48465281879081867 0.48553173681551892 0 -0.47291029707768339 0.47122622952671672 0 -0.48552121195093351 0.48374016402860648 0 -0.4773360846554458 0.45735289834261122 0 -0.47291029707768339 0.47122622952671672 0 -0.48465281879081867 0.48553173681551892 0 -0.47291029707768339 0.47122622952671672 0 -0.48552121195093351 0.48374016402860648 0 -0.48465281879081867 0.48553173681551892 0 -0.48552121195093351 0.48374016402860648 0 -0.49276060597546811 0.46880464642702452 0 -0.4773360846554458 0.45735289834261122 0 -0.48552121195093351 0.48374016402860648 0 -0.49276060597546811 0.46880464642702452 0 -0.5 0.5 0 -0.48552121195093351 0.48374016402860648 0 -0.49276060597546811 0.46880464642702452 0 -0.47763990763252478 0.49999999999999922 0 -0.4965289369294692 0.50000000000000056 0 -0.48465281879081867 0.48553173681551892 0 -0.48552121195093351 0.48374016402860648 0 -0.4965289369294692 0.50000000000000056 0 -0.48465281879081867 0.48553173681551892 0 -0.48552121195093351 0.48374016402860648 0 -0.5 0.5 0 -0.4965289369294692 0.50000000000000056 0 -0.4965289369294692 0.50000000000000056 0 -0.48465281879081867 0.48553173681551892 0 -0.48552121195093351 0.48374016402860648 0 -0.48465281879081867 0.48553173681551892 0 -0.48575808038287732 0.43790336064495061 0 -0.49999999999999878 0.45386912882544039 0 -0.4773360846554458 0.45735289834261122 0 -0.48575808038287732 0.43790336064495061 0 -0.49999999999999878 0.45386912882544039 0 -0.5 0.42821403361642812 0 -0.49276060597546811 0.46880464642702452 0 -0.49999999999999878 0.45386912882544039 0 -0.4773360846554458 0.45735289834261122 0 -0.49276060597546811 0.46880464642702452 0 -0.49999999999999878 0.45386912882544039 0 -0.47291029707768339 0.47122622952671672 0 -0.4773360846554458 0.45735289834261122 0 -0.461167775364548 0.45692072223791441 0 -0.4773360846554458 0.45735289834261122 0 -0.46915095735996198 0.43096563265661447 0 -0.4773360846554458 0.45735289834261122 0 -0.461167775364548 0.45692072223791441 0 -0.46915095735996198 0.43096563265661447 0 -0.48575808038287732 0.43790336064495061 0 -0.4773360846554458 0.45735289834261122 0 -0.46915095735996198 0.43096563265661447 0 -0.461167775364548 0.45692072223791441 0 -0.45180167763413781 0.44012918823781871 0 -0.46915095735996198 0.43096563265661447 0 -0.45524066622902393 0.47464455202210531 0 -0.47291029707768339 0.47122622952671672 0 -0.461167775364548 0.45692072223791441 0 -0.47291029707768339 0.47122622952671672 0 -0.461167775364548 0.45692072223791441 0 -0.45524066622902393 0.47464455202210531 0 -0.461167775364548 0.45692072223791441 0 -0.44209897442648888 0.45531897816221611 0 -0.44209897442648888 0.45531897816221611 0 -0.45180167763413781 0.44012918823781871 0 -0.4374051773249662 0.43676761643135947 0 -0.461167775364548 0.45692072223791441 0 -0.44209897442648888 0.45531897816221611 0 -0.45180167763413781 0.44012918823781871 0 -0.44918550369472382 0.4206729917009886 0 -0.4374051773249662 0.43676761643135947 0 -0.45180167763413781 0.44012918823781871 0 -0.44918550369472382 0.4206729917009886 0 -0.4374051773249662 0.43676761643135947 0 -0.44918550369472382 0.4206729917009886 0 -0.42989239842812937 0.42144468516808709 0 -0.4374051773249662 0.43676761643135947 0 -0.44918550369472382 0.4206729917009886 0 -0.44088443551859441 0.40080088049912022 0 -0.42989239842812937 0.42144468516808709 0 -0.44918550369472382 0.4206729917009886 0 -0.46096583006448028 0.40457836697061711 0 -0.44088443551859441 0.40080088049912022 0 -0.44918550369472382 0.4206729917009886 0 -0.46915095735996198 0.43096563265661447 0 -0.46096583006448028 0.40457836697061711 0 -0.44918550369472382 0.4206729917009886 0 -0.46096583006448028 0.40457836697061711 0 -0.46915095735996198 0.43096563265661447 0 -0.46096583006448028 0.40457836697061711 0 -0.45180167763413781 0.44012918823781871 0 -0.44918550369472382 0.4206729917009886 0 -0.46915095735996198 0.43096563265661447 0 -0.48575808038287732 0.43790336064495061 0 -0.46915095735996198 0.43096563265661447 0 -0.48246774961090388 0.41057354845126282 0 -0.46915095735996198 0.43096563265661447 0 -0.48246774961090388 0.41057354845126282 0 -0.46096583006448028 0.40457836697061711 0 -0.48246774961090388 0.41057354845126282 0 -0.5 0.42821403361642812 0 -0.5 0.40255893840741569 0 -0.48575808038287732 0.43790336064495061 0 -0.48246774961090388 0.41057354845126282 0 -0.5 0.42821403361642812 0 -0.48868671593507679 0.389172689003418 0 -0.5 0.37690384319840331 0 -0.5 0.40255893840741569 0 -0.48868671593507679 0.389172689003418 0 -0.5 0.37690384319840331 0 -0.48698861002149291 0.36902528764979958 0 -0.48246774961090388 0.41057354845126282 0 -0.48868671593507679 0.389172689003418 0 -0.5 0.40255893840741569 0 -0.48246774961090388 0.41057354845126282 0 -0.47397722004298709 0.38680182731020862 0 -0.46096583006448028 0.40457836697061711 0 -0.48246774961090388 0.41057354845126282 0 -0.48868671593507679 0.389172689003418 0 -0.47397722004298709 0.38680182731020862 0 -0.48868671593507679 0.389172689003418 0 -0.47397722004298709 0.38680182731020862 0 -0.48698861002149291 0.36902528764979958 0 -0.47397722004298709 0.38680182731020862 0 -0.48698861002149291 0.36902528764979958 0 -0.47397722004298709 0.38680182731020862 0 -0.4541157643698826 0.38249508140588878 0 -0.46744916710145351 0.36233295432545448 0 -0.47397722004298709 0.38680182731020862 0 -0.4541157643698826 0.38249508140588878 0 -0.46096583006448028 0.40457836697061711 0 -0.4541157643698826 0.38249508140588878 0 -0.46096583006448028 0.40457836697061711 0 -0.47397722004298709 0.38680182731020862 0 -0.46096583006448028 0.40457836697061711 0 -0.4541157643698826 0.38249508140588878 0 -0.46096583006448028 0.40457836697061711 0 -0.44088443551859441 0.40080088049912022 0 -0.4541157643698826 0.38249508140588878 0 -0.44088443551859441 0.40080088049912022 0 -0.43059387189781989 0.37769768539079379 0 -0.43059387189781989 0.37769768539079379 0 -0.40644958142225368 0.38265273145572959 0 -0.4197691032261166 0.39987707937776867 0 -0.40644958142225368 0.38265273145572959 0 -0.4197691032261166 0.39987707937776867 0 -0.40311392097725179 0.40759440467721092 0 -0.44088443551859441 0.40080088049912022 0 -0.43059387189781989 0.37769768539079379 0 -0.4197691032261166 0.39987707937776867 0 -0.44088443551859441 0.40080088049912022 0 -0.4197691032261166 0.39987707937776867 0 -0.42989239842812937 0.42144468516808709 0 -0.42175474978260019 0.44440460871632709 0 -0.42989239842812937 0.42144468516808709 0 -0.4374051773249662 0.43676761643135947 0 -0.42175474978260019 0.44440460871632709 0 -0.42989239842812937 0.42144468516808709 0 -0.4103554210217758 0.42614493428295852 0 -0.4197691032261166 0.39987707937776867 0 -0.4103554210217758 0.42614493428295852 0 -0.40311392097725179 0.40759440467721092 0 -0.4197691032261166 0.39987707937776867 0 -0.42989239842812937 0.42144468516808709 0 -0.4103554210217758 0.42614493428295852 0 -0.40311392097725179 0.40759440467721092 0 -0.38813123817600498 0.43682988999649991 0 -0.38412399488256571 0.41071001473331659 0 -0.40423565018245111 0.44632385705452637 0 -0.4103554210217758 0.42614493428295852 0 -0.38813123817600498 0.43682988999649991 0 -0.4103554210217758 0.42614493428295852 0 -0.40311392097725179 0.40759440467721092 0 -0.38813123817600498 0.43682988999649991 0 -0.38813123817600498 0.43682988999649991 0 -0.38412399488256571 0.41071001473331659 0 -0.36315400087355582 0.42902657926615329 0 -0.38813123817600498 0.43682988999649991 0 -0.38412399488256571 0.41071001473331659 0 -0.40311392097725179 0.40759440467721092 0 -0.38412399488256571 0.41071001473331659 0 -0.3801167515891265 0.38459013947013337 0 -0.38412399488256571 0.41071001473331659 0 -0.3801167515891265 0.38459013947013337 0 -0.40644958142225368 0.38265273145572959 0 -0.3801167515891265 0.38459013947013337 0 -0.39350161605782658 0.36358696194847029 0 -0.40644958142225368 0.38265273145572959 0 -0.40311392097725179 0.40759440467721092 0 -0.3801167515891265 0.38459013947013337 0 -0.40028817938283617 0.346378853632269 0 -0.38357264394909968 0.3470861079176043 0 -0.39191511095311399 0.33839499912706039 0 -0.40028817938283617 0.346378853632269 0 -0.39350161605782658 0.36358696194847029 0 -0.41160222478538089 0.3625701178700006 0 -0.40028817938283617 0.346378853632269 0 -0.39350161605782658 0.36358696194847029 0 -0.38357264394909968 0.3470861079176043 0 -0.40644958142225368 0.38265273145572959 0 -0.39350161605782658 0.36358696194847029 0 -0.41160222478538089 0.3625701178700006 0 -0.3801167515891265 0.38459013947013337 0 -0.39350161605782658 0.36358696194847029 0 -0.37610950829568718 0.35847026420695027 0 -0.3801167515891265 0.38459013947013337 0 -0.37610950829568718 0.35847026420695027 0 -0.39350161605782658 0.36358696194847029 0 -0.37610950829568718 0.35847026420695027 0 -0.38357264394909968 0.3470861079176043 0 -0.37610950829568718 0.35847026420695027 0 -0.38357264394909968 0.3470861079176043 0 -0.37210226500224802 0.33235038894376701 0 -0.38357264394909968 0.3470861079176043 0 -0.37801122455831537 0.33466161506834469 0 -0.37210226500224802 0.33235038894376701 0 -0.37801122455831537 0.33466161506834469 0 -0.37988950690253831 0.32115039749776503 0 -0.37210226500224802 0.33235038894376701 0 -0.38357264394909968 0.3470861079176043 0 -0.37801122455831537 0.33466161506834469 0 -0.39191511095311399 0.33839499912706039 0 -0.37988950690253831 0.32115039749776503 0 -0.38792122298394471 0.31012440631366589 0 -0.36809502170881048 0.30623051368058363 0 -0.37801122455831537 0.33466161506834469 0 -0.37988950690253831 0.32115039749776503 0 -0.40578839592220489 0.32545341989002391 0 -0.37988950690253831 0.32115039749776503 0 -0.40578839592220489 0.32545341989002391 0 -0.38792122298394471 0.31012440631366589 0 -0.40578839592220489 0.32545341989002391 0 -0.41550388896420792 0.3082608935010519 0 -0.38792122298394471 0.31012440631366589 0 -0.37801122455831537 0.33466161506834469 0 -0.40578839592220489 0.32545341989002391 0 -0.39191511095311399 0.33839499912706039 0 -0.40028817938283617 0.346378853632269 0 -0.40578839592220489 0.32545341989002391 0 -0.39191511095311399 0.33839499912706039 0 -0.37801122455831537 0.33466161506834469 0 -0.40578839592220489 0.32545341989002391 0 -0.40578839592220489 0.32545341989002391 0 -0.4177961012204402 0.3425862530475754 0 -0.42439142435235783 0.33065335198143342 0 -0.40028817938283617 0.346378853632269 0 -0.40578839592220489 0.32545341989002391 0 -0.4177961012204402 0.3425862530475754 0 -0.40578839592220489 0.32545341989002391 0 -0.43356556728609452 0.31624522471170302 0 -0.40578839592220489 0.32545341989002391 0 -0.43356556728609452 0.31624522471170302 0 -0.41550388896420792 0.3082608935010519 0 -0.40578839592220489 0.32545341989002391 0 -0.43356556728609452 0.31624522471170302 0 -0.42439142435235783 0.33065335198143342 0 -0.43356556728609452 0.31624522471170302 0 -0.44041563298069147 0.33832851027643129 0 -0.4177961012204402 0.3425862530475754 0 -0.42439142435235783 0.33065335198143342 0 -0.44041563298069147 0.33832851027643129 0 -0.43356556728609452 0.31624522471170302 0 -0.42439142435235783 0.33065335198143342 0 -0.44041563298069147 0.33832851027643129 0 -0.4177961012204402 0.3425862530475754 0 -0.42926192499857058 0.35686861037812939 0 -0.44041563298069147 0.33832851027643129 0 -0.4177961012204402 0.3425862530475754 0 -0.42926192499857058 0.35686861037812939 0 -0.41160222478538089 0.3625701178700006 0 -0.40028817938283617 0.346378853632269 0 -0.4177961012204402 0.3425862530475754 0 -0.41160222478538089 0.3625701178700006 0 -0.43059387189781989 0.37769768539079379 0 -0.40644958142225368 0.38265273145572959 0 -0.41160222478538089 0.3625701178700006 0 -0.43059387189781989 0.37769768539079379 0 -0.42926192499857058 0.35686861037812939 0 -0.41160222478538089 0.3625701178700006 0 -0.43059387189781989 0.37769768539079379 0 -0.42926192499857058 0.35686861037812939 0 -0.44726569867528709 0.36041179584116012 0 -0.4541157643698826 0.38249508140588878 0 -0.43059387189781989 0.37769768539079379 0 -0.44726569867528709 0.36041179584116012 0 -0.4541157643698826 0.38249508140588878 0 -0.44726569867528709 0.36041179584116012 0 -0.44726569867528709 0.36041179584116012 0 -0.44041563298069147 0.33832851027643129 0 -0.44726569867528709 0.36041179584116012 0 -0.45579753132706968 0.34310858426605539 0 -0.44041563298069147 0.33832851027643129 0 -0.42926192499857058 0.35686861037812939 0 -0.44726569867528709 0.36041179584116012 0 -0.44041563298069147 0.33832851027643129 0 -0.46744916710145351 0.36233295432545448 0 -0.47134545893234442 0.33954215408293192 0 -0.45579753132706968 0.34310858426605539 0 -0.44726569867528709 0.36041179584116012 0 -0.46744916710145351 0.36233295432545448 0 -0.45579753132706968 0.34310858426605539 0 -0.4541157643698826 0.38249508140588878 0 -0.44726569867528709 0.36041179584116012 0 -0.46744916710145351 0.36233295432545448 0 -0.47397722004298709 0.38680182731020862 0 -0.46744916710145351 0.36233295432545448 0 -0.48698861002149291 0.36902528764979958 0 -0.46744916710145351 0.36233295432545448 0 -0.48191652191014622 0.35105454999722102 0 -0.48698861002149291 0.36902528764979958 0 -0.46744916710145351 0.36233295432545448 0 -0.48191652191014622 0.35105454999722102 0 -0.47134545893234442 0.33954215408293192 0 -0.48191652191014622 0.35105454999722102 0 -0.49999999999999922 0.35124874798939087 0 -0.48195838640439498 0.33055969874632862 0 -0.48191652191014622 0.35105454999722102 0 -0.49999999999999922 0.35124874798939087 0 -0.48698861002149291 0.36902528764979958 0 -0.5 0.37690384319840331 0 -0.49999999999999922 0.35124874798939087 0 -0.48698861002149291 0.36902528764979958 0 -0.49999999999999922 0.35124874798939087 0 -0.48698861002149291 0.36902528764979958 0 -0.5 0.32768683280580402 0 -0.48195838640439498 0.33055969874632862 0 -0.48463302072095948 0.31103858110819099 0 -0.5 0.32768683280580402 0 -0.49999999999999922 0.30412491762221711 0 -0.48463302072095948 0.31103858110819099 0 -0.49999999999999922 0.35124874798939087 0 -0.5 0.32768683280580402 0 -0.48195838640439498 0.33055969874632862 0 -0.48191652191014622 0.35105454999722102 0 -0.47134545893234442 0.33954215408293192 0 -0.48195838640439498 0.33055969874632862 0 -0.47134545893234442 0.33954215408293192 0 -0.48195838640439498 0.33055969874632862 0 -0.46096294321431192 0.32453966003081819 0 -0.48195838640439498 0.33055969874632862 0 -0.47184084022127709 0.31519160705893839 0 -0.48463302072095948 0.31103858110819099 0 -0.48195838640439498 0.33055969874632862 0 -0.47184084022127709 0.31519160705893839 0 -0.46096294321431192 0.32453966003081819 0 -0.46096294321431192 0.32453966003081819 0 -0.4483704389727311 0.31133737623805419 0 -0.46317531065936768 0.30642952776440552 0 -0.47184084022127709 0.31519160705893839 0 -0.46096294321431192 0.32453966003081819 0 -0.46317531065936768 0.30642952776440552 0 -0.46096294321431192 0.32453966003081819 0 -0.45579753132706968 0.34310858426605539 0 -0.4477857969332682 0.32723376033037582 0 -0.47134545893234442 0.33954215408293192 0 -0.46096294321431192 0.32453966003081819 0 -0.45579753132706968 0.34310858426605539 0 -0.45579753132706968 0.34310858426605539 0 -0.44041563298069147 0.33832851027643129 0 -0.4477857969332682 0.32723376033037582 0 -0.43356556728609452 0.31624522471170302 0 -0.44041563298069147 0.33832851027643129 0 -0.4477857969332682 0.32723376033037582 0 -0.46096294321431192 0.32453966003081819 0 -0.4477857969332682 0.32723376033037582 0 -0.4483704389727311 0.31133737623805419 0 -0.43356556728609452 0.31624522471170302 0 -0.4477857969332682 0.32723376033037582 0 -0.4483704389727311 0.31133737623805419 0 -0.43356556728609452 0.31624522471170302 0 -0.4483704389727311 0.31133737623805419 0 -0.43356556728609452 0.31624522471170302 0 -0.44242997438043258 0.29818331794305719 0 -0.4483704389727311 0.31133737623805419 0 -0.44242997438043258 0.29818331794305719 0 -0.4483704389727311 0.31133737623805419 0 -0.45724254046750401 0.29289633963560441 0 -0.44242997438043258 0.29818331794305719 0 -0.45724254046750401 0.29289633963560441 0 -0.44709502225897019 0.27898112403352998 0 -0.44242997438043258 0.29818331794305719 0 -0.44709502225897019 0.27898112403352998 0 -0.4258763029168634 0.29145652509639419 0 -0.45724254046750401 0.29289633963560441 0 -0.4621648686957871 0.27954863626701848 0 -0.44709502225897019 0.27898112403352998 0 -0.45724254046750401 0.29289633963560441 0 -0.47054949907156268 0.30067061347121182 0 -0.47175130760677331 0.29035258872980502 0 -0.45724254046750401 0.29289633963560441 0 -0.46616461935737769 0.28541925382846212 0 -0.47175130760677331 0.29035258872980502 0 -0.46616461935737769 0.28541925382846212 0 -0.47014181034997859 0.28154478446743553 0 -0.4621648686957871 0.27954863626701848 0 -0.45724254046750401 0.29289633963560441 0 -0.46616461935737769 0.28541925382846212 0 -0.4621648686957871 0.27954863626701848 0 -0.4483704389727311 0.31133737623805419 0 -0.45724254046750401 0.29289633963560441 0 -0.46317531065936768 0.30642952776440552 0 -0.4483704389727311 0.31133737623805419 0 -0.46317531065936768 0.30642952776440552 0 -0.45724254046750401 0.29289633963560441 0 -0.46317531065936768 0.30642952776440552 0 -0.47054949907156268 0.30067061347121182 0 -0.47184084022127709 0.31519160705893839 0 -0.46317531065936768 0.30642952776440552 0 -0.47054949907156268 0.30067061347121182 0 -0.47184084022127709 0.31519160705893839 0 -0.47054949907156268 0.30067061347121182 0 -0.48463302072095948 0.31103858110819099 0 -0.48106814245057011 0.2977811747821984 0 -0.47054949907156268 0.30067061347121182 0 -0.48463302072095948 0.31103858110819099 0 -0.48118849857180318 0.28952417035131328 0 -0.4899573759701063 0.2930568355795109 0 -0.47513202129013971 0.27182067767221202 0 -0.4899573759701063 0.2930568355795109 0 -0.48666587880290563 0.28635983582137609 0 -0.47513202129013971 0.27182067767221202 0 -0.48106814245057011 0.2977811747821984 0 -0.47054949907156268 0.30067061347121182 0 -0.47175130760677331 0.29035258872980502 0 -0.4899573759701063 0.2930568355795109 0 -0.47513202129013971 0.27182067767221202 0 -0.47175130760677331 0.29035258872980502 0 -0.47412866551006982 0.28188364642434077 0 -0.48118849857180318 0.28952417035131328 0 -0.46616461935737769 0.28541925382846212 0 -0.47175130760677331 0.29035258872980502 0 -0.47014181034997859 0.28154478446743553 0 -0.47175130760677331 0.29035258872980502 0 -0.47014181034997859 0.28154478446743553 0 -0.47412866551006982 0.28188364642434077 0 -0.48106814245057011 0.2977811747821984 0 -0.48118849857180318 0.28952417035131328 0 -0.4899573759701063 0.2930568355795109 0 -0.48106814245057011 0.2977811747821984 0 -0.47175130760677331 0.29035258872980502 0 -0.48118849857180318 0.28952417035131328 0 -0.4899573759701063 0.2930568355795109 0 -0.48666587880290563 0.28635983582137609 0 -0.49999999999999922 0.30412491762221711 0 -0.48666587880290563 0.28635983582137609 0 -0.49999999999999922 0.30412491762221711 0 -0.48666587880290563 0.28635983582137609 0 -0.49999999999999922 0.30412491762221711 0 -0.5 0.27966643840130467 0 -0.4899573759701063 0.2930568355795109 0 -0.49999999999999922 0.30412491762221711 0 -0.48889416198954511 0.30195683474549589 0 -0.49999999999999922 0.30412491762221711 0 -0.48463302072095948 0.31103858110819099 0 -0.48889416198954511 0.30195683474549589 0 -0.48106814245057011 0.2977811747821984 0 -0.48463302072095948 0.31103858110819099 0 -0.48889416198954511 0.30195683474549589 0 -0.48106814245057011 0.2977811747821984 0 -0.4899573759701063 0.2930568355795109 0 -0.48889416198954511 0.30195683474549589 0 -0.5 0.2552079591803923 0 -0.4887242040858702 0.26913385947008373 0 -0.48288939512325202 0.25591489506307508 0 -0.5 0.2552079591803923 0 -0.5 0.27966643840130467 0 -0.4887242040858702 0.26913385947008373 0 -0.48666587880290563 0.28635983582137609 0 -0.5 0.27966643840130467 0 -0.4887242040858702 0.26913385947008373 0 -0.48666587880290563 0.28635983582137609 0 -0.4887242040858702 0.26913385947008373 0 -0.47513202129013971 0.27182067767221202 0 -0.4887242040858702 0.26913385947008373 0 -0.47284619850372389 0.26893925322632489 0 -0.47513202129013971 0.27182067767221202 0 -0.47412866551006982 0.28188364642434077 0 -0.48118849857180318 0.28952417035131328 0 -0.47513202129013971 0.27182067767221202 0 -0.48666587880290563 0.28635983582137609 0 -0.47513202129013971 0.27182067767221202 0 -0.47412866551006982 0.28188364642434077 0 -0.47223438083894398 0.27683971184509348 0 -0.47513202129013971 0.27182067767221202 0 -0.47223438083894398 0.27683971184509348 0 -0.47513202129013971 0.27182067767221202 0 -0.46834621717151559 0.27500646692773012 0 -0.47014181034997859 0.28154478446743553 0 -0.47412866551006982 0.28188364642434077 0 -0.47223438083894398 0.27683971184509348 0 -0.47014181034997859 0.28154478446743553 0 -0.47223438083894398 0.27683971184509348 0 -0.46834621717151559 0.27500646692773012 0 -0.47284619850372389 0.26893925322632489 0 -0.47513202129013971 0.27182067767221202 0 -0.46186269579001787 0.26594222533104639 0 -0.47284619850372389 0.26893925322632489 0 -0.47513202129013971 0.27182067767221202 0 -0.47284619850372389 0.26893925322632489 0 -0.48288939512325202 0.25591489506307508 0 -0.45999763640871932 0.25082967221969332 0 -0.4887242040858702 0.26913385947008373 0 -0.47284619850372389 0.26893925322632489 0 -0.48288939512325202 0.25591489506307508 0 -0.45999763640871932 0.25082967221969332 0 -0.46186269579001787 0.26594222533104639 0 -0.44524550226303911 0.25832923819999348 0 -0.47284619850372389 0.26893925322632489 0 -0.45999763640871932 0.25082967221969332 0 -0.47284619850372389 0.26893925322632489 0 -0.45999763640871932 0.25082967221969332 0 -0.46186269579001787 0.26594222533104639 0 -0.47014181034997859 0.28154478446743553 0 -0.4621648686957871 0.27954863626701848 0 -0.46834621717151559 0.27500646692773012 0 -0.4621648686957871 0.27954863626701848 0 -0.46834621717151559 0.27500646692773012 0 -0.46186269579001787 0.26594222533104639 0 -0.47513202129013971 0.27182067767221202 0 -0.46834621717151559 0.27500646692773012 0 -0.46186269579001787 0.26594222533104639 0 -0.4621648686957871 0.27954863626701848 0 -0.46186269579001787 0.26594222533104639 0 -0.44709502225897019 0.27898112403352998 0 -0.44709502225897019 0.27898112403352998 0 -0.44524550226303911 0.25832923819999348 0 -0.43339782156586643 0.26886529903976469 0 -0.46186269579001787 0.26594222533104639 0 -0.44709502225897019 0.27898112403352998 0 -0.44524550226303911 0.25832923819999348 0 -0.44560827905632949 0.24271538667895121 0 -0.45999763640871932 0.25082967221969332 0 -0.44524550226303911 0.25832923819999348 0 -0.43764155441091662 0.2474698448891208 0 -0.44524550226303911 0.25832923819999348 0 -0.43101067031675672 0.25352811813177728 0 -0.44524550226303911 0.25832923819999348 0 -0.43101067031675672 0.25352811813177728 0 -0.43339782156586643 0.26886529903976469 0 -0.42295797343655511 0.25530983657629841 0 -0.41818703854763078 0.26666782548108581 0 -0.43339782156586643 0.26886529903976469 0 -0.43101067031675672 0.25352811813177728 0 -0.42295797343655511 0.25530983657629841 0 -0.43339782156586643 0.26886529903976469 0 -0.42169656257412352 0.24560881436308679 0 -0.43101067031675672 0.25352811813177728 0 -0.42295797343655511 0.25530983657629841 0 -0.41049777417839811 0.24187912586577739 0 -0.41201954839353078 0.25527644679037031 0 -0.41818703854763078 0.26666782548108581 0 -0.41049777417839811 0.24187912586577739 0 -0.42295797343655511 0.25530983657629841 0 -0.41818703854763078 0.26666782548108581 0 -0.41049777417839811 0.24187912586577739 0 -0.41818703854763078 0.26666782548108581 0 -0.41818703854763078 0.26666782548108581 0 -0.43339782156586643 0.26886529903976469 0 -0.4258763029168634 0.29145652509639419 0 -0.44709502225897019 0.27898112403352998 0 -0.43339782156586643 0.26886529903976469 0 -0.4258763029168634 0.29145652509639419 0 -0.41818703854763078 0.26666782548108581 0 -0.4258763029168634 0.29145652509639419 0 -0.43356556728609452 0.31624522471170302 0 -0.4258763029168634 0.29145652509639419 0 -0.41550388896420792 0.3082608935010519 0 -0.43356556728609452 0.31624522471170302 0 -0.4258763029168634 0.29145652509639419 0 -0.43356556728609452 0.31624522471170302 0 -0.44242997438043258 0.29818331794305719 0 -0.4258763029168634 0.29145652509639419 0 -0.41818703854763078 0.26666782548108581 0 -0.4258763029168634 0.29145652509639419 0 -0.40282458405385418 0.28924609732658391 0 -0.4258763029168634 0.29145652509639419 0 -0.41550388896420792 0.3082608935010519 0 -0.40282458405385418 0.28924609732658391 0 -0.40282458405385418 0.28924609732658391 0 -0.38792122298394471 0.31012440631366589 0 -0.38221679023231769 0.29081359385931482 0 -0.40282458405385418 0.28924609732658391 0 -0.38221679023231769 0.29081359385931482 0 -0.38808755693616992 0.26791446625537008 0 -0.41550388896420792 0.3082608935010519 0 -0.40282458405385418 0.28924609732658391 0 -0.38792122298394471 0.31012440631366589 0 -0.38792122298394471 0.31012440631366589 0 -0.38221679023231769 0.29081359385931482 0 -0.36809502170881048 0.30623051368058363 0 -0.38792122298394471 0.31012440631366589 0 -0.36809502170881048 0.30623051368058363 0 -0.38808755693616992 0.26791446625537008 0 -0.36415556547880917 0.28055248572037028 0 -0.38221679023231769 0.29081359385931482 0 -0.38808755693616992 0.26791446625537008 0 -0.36415556547880917 0.28055248572037028 0 -0.38800319934906952 0.24665280124930841 0 -0.38808755693616992 0.26791446625537008 0 -0.3750328804877176 0.25176355644521631 0 -0.38800319934906952 0.24665280124930841 0 -0.39943013983217052 0.24932329527852759 0 -0.38808755693616992 0.26791446625537008 0 -0.41201954839353078 0.25527644679037031 0 -0.38808755693616992 0.26791446625537008 0 -0.39943013983217052 0.24932329527852759 0 -0.41201954839353078 0.25527644679037031 0 -0.38808755693616992 0.26791446625537008 0 -0.41201954839353078 0.25527644679037031 0 -0.41818703854763078 0.26666782548108581 0 -0.38808755693616992 0.26791446625537008 0 -0.41818703854763078 0.26666782548108581 0 -0.40282458405385418 0.28924609732658391 0 -0.38808755693616992 0.26791446625537008 0 -0.35202986818561588 0.27098361669367749 0 -0.34600243239081169 0.28022400552687471 0 -0.36415556547880917 0.28055248572037028 0 -0.35202986818561588 0.27098361669367749 0 -0.36146175279537218 0.26299376863698259 0 -0.36415556547880917 0.28055248572037028 0 -0.35202986818561588 0.27098361669367749 0 -0.34600243239081169 0.28022400552687471 0 -0.33958018557312558 0.27193148714224419 0 -0.35202986818561588 0.27098361669367749 0 -0.34894940468996088 0.25921633644191561 0 -0.33958018557312558 0.27193148714224419 0 -0.36080613551101243 0.24625516983038101 0 -0.34894940468996088 0.25921633644191561 0 -0.36146175279537218 0.26299376863698259 0 -0.35202986818561588 0.27098361669367749 0 -0.34894940468996088 0.25921633644191561 0 -0.36146175279537218 0.26299376863698259 0 -0.38808755693616992 0.26791446625537008 0 -0.3750328804877176 0.25176355644521631 0 -0.36146175279537218 0.26299376863698259 0 -0.36080613551101243 0.24625516983038101 0 -0.3750328804877176 0.25176355644521631 0 -0.36146175279537218 0.26299376863698259 0 -0.38808755693616992 0.26791446625537008 0 -0.36146175279537218 0.26299376863698259 0 -0.36415556547880917 0.28055248572037028 0 -0.36146175279537218 0.26299376863698259 0 -0.36415556547880917 0.28055248572037028 0 -0.36415556547880917 0.28055248572037028 0 -0.36809502170881048 0.30623051368058363 0 -0.35661927260970488 0.29504726726565372 0 -0.36415556547880917 0.28055248572037028 0 -0.36809502170881048 0.30623051368058363 0 -0.38221679023231769 0.29081359385931482 0 -0.36415556547880917 0.28055248572037028 0 -0.36809502170881048 0.30623051368058363 0 -0.36809502170881048 0.30623051368058363 0 -0.34599324163287087 0.30188969430618978 0 -0.36809502170881048 0.30623051368058363 0 -0.34599324163287087 0.30188969430618978 0 -0.35661927260970488 0.29504726726565372 0 -0.36809502170881048 0.30623051368058363 0 -0.34599324163287087 0.30188969430618978 0 -0.34988982350802222 0.31392634990688079 0 -0.34599324163287087 0.30188969430618978 0 -0.33741714017944952 0.31515170799550563 0 -0.34988982350802222 0.31392634990688079 0 -0.34599324163287087 0.30188969430618978 0 -0.35661927260970488 0.29504726726565372 0 -0.3393891464362534 0.2936311501723366 0 -0.36415556547880917 0.28055248572037028 0 -0.35661927260970488 0.29504726726565372 0 -0.3393891464362534 0.2936311501723366 0 -0.34600243239081169 0.28022400552687471 0 -0.36415556547880917 0.28055248572037028 0 -0.3393891464362534 0.2936311501723366 0 -0.36415556547880917 0.28055248572037028 0 -0.3393891464362534 0.2936311501723366 0 -0.34600243239081169 0.28022400552687471 0 -0.3393891464362534 0.2936311501723366 0 -0.33416526251888001 0.28332858008847289 0 -0.3393891464362534 0.2936311501723366 0 -0.33416526251888001 0.28332858008847289 0 -0.32389146155693121 0.2975488749317966 0 -0.34599324163287087 0.30188969430618978 0 -0.32857498606856139 0.3093066279339316 0 -0.33741714017944952 0.31515170799550563 0 -0.34599324163287087 0.30188969430618978 0 -0.32389146155693121 0.2975488749317966 0 -0.34599324163287087 0.30188969430618978 0 -0.3393891464362534 0.2936311501723366 0 -0.32389146155693121 0.2975488749317966 0 -0.34599324163287087 0.30188969430618978 0 -0.32857498606856139 0.3093066279339316 0 -0.32389146155693121 0.2975488749317966 0 -0.32857498606856139 0.3093066279339316 0 -0.32389146155693121 0.2975488749317966 0 -0.31269679704613063 0.31033727053138899 0 -0.32389146155693121 0.2975488749317966 0 -0.31269679704613063 0.31033727053138899 0 -0.30178968148099139 0.29320805555740342 0 -0.33416526251888001 0.28332858008847289 0 -0.32389146155693121 0.2975488749317966 0 -0.3225562991956718 0.27678904332863158 0 -0.32389146155693121 0.2975488749317966 0 -0.3225562991956718 0.27678904332863158 0 -0.30874552042000503 0.28050075535045249 0 -0.32389146155693121 0.2975488749317966 0 -0.30178968148099139 0.29320805555740342 0 -0.3225562991956718 0.27678904332863158 0 -0.30874552042000503 0.28050075535045249 0 -0.31161480662120428 0.26787827210159032 0 -0.3225562991956718 0.27678904332863158 0 -0.32138296026510121 0.25856386911959972 0 -0.31161480662120428 0.26787827210159032 0 -0.33416526251888001 0.28332858008847289 0 -0.3225562991956718 0.27678904332863158 0 -0.33958018557312558 0.27193148714224419 0 -0.3225562991956718 0.27678904332863158 0 -0.33958018557312558 0.27193148714224419 0 -0.33464169824699341 0.25956843252168788 0 -0.34600243239081169 0.28022400552687471 0 -0.33416526251888001 0.28332858008847289 0 -0.33958018557312558 0.27193148714224419 0 -0.34438917182896528 0.24274931929121821 0 -0.34894940468996088 0.25921633644191561 0 -0.33464169824699341 0.25956843252168788 0 -0.34894940468996088 0.25921633644191561 0 -0.33958018557312558 0.27193148714224419 0 -0.33464169824699341 0.25956843252168788 0 -0.3293642339759455 0.2460546291707954 0 -0.33464169824699341 0.25956843252168788 0 -0.32138296026510121 0.25856386911959972 0 -0.3225562991956718 0.27678904332863158 0 -0.33464169824699341 0.25956843252168788 0 -0.32138296026510121 0.25856386911959972 0 -0.31511224971917429 0.24568480614046351 0 -0.3293642339759455 0.2460546291707954 0 -0.32138296026510121 0.25856386911959972 0 -0.32138296026510121 0.25856386911959972 0 -0.30708462869667008 0.25624224894010761 0 -0.31161480662120428 0.26787827210159032 0 -0.31511224971917429 0.24568480614046351 0 -0.32138296026510121 0.25856386911959972 0 -0.30708462869667008 0.25624224894010761 0 -0.30226790202873161 0.2434327375369861 0 -0.30708462869667008 0.25624224894010761 0 -0.28752303105369142 0.25191910753971841 0 -0.30708462869667008 0.25624224894010761 0 -0.29830462452857348 0.26729544376915998 0 -0.28752303105369142 0.25191910753971841 0 -0.30708462869667008 0.25624224894010761 0 -0.31161480662120428 0.26787827210159032 0 -0.29830462452857348 0.26729544376915998 0 -0.30874552042000503 0.28050075535045249 0 -0.29830462452857348 0.26729544376915998 0 -0.29186188727804052 0.28047390914805492 0 -0.30874552042000503 0.28050075535045249 0 -0.31161480662120428 0.26787827210159032 0 -0.29830462452857348 0.26729544376915998 0 -0.29186188727804052 0.28047390914805492 0 -0.28405019552332 0.26702126615887278 0 -0.27430838335822533 0.27733208569580708 0 -0.29830462452857348 0.26729544376915998 0 -0.29186188727804052 0.28047390914805492 0 -0.28405019552332 0.26702126615887278 0 -0.29830462452857348 0.26729544376915998 0 -0.28405019552332 0.26702126615887278 0 -0.28752303105369142 0.25191910753971841 0 -0.28405019552332 0.26702126615887278 0 -0.28752303105369142 0.25191910753971841 0 -0.27248078784189822 0.25956753337072158 0 -0.27015985268551662 0.24635523071495319 0 -0.28752303105369142 0.25191910753971841 0 -0.27248078784189822 0.25956753337072158 0 -0.27015985268551662 0.24635523071495319 0 -0.27248078784189822 0.25956753337072158 0 -0.25756984743672601 0.25405066201242432 0 -0.28405019552332 0.26702126615887278 0 -0.27248078784189822 0.25956753337072158 0 -0.27430838335822533 0.27733208569580708 0 -0.27248078784189822 0.25956753337072158 0 -0.27430838335822533 0.27733208569580708 0 -0.26208560380398971 0.26445997059876258 0 -0.27430838335822533 0.27733208569580708 0 -0.26161071782463741 0.2768396436739875 0 -0.26208560380398971 0.26445997059876258 0 -0.2511181134432684 0.26142353709154531 0 -0.25098223944118497 0.28556577139340422 0 -0.24981942206895019 0.26562454250119227 0 -0.26161071782463741 0.2768396436739875 0 -0.25644916862827011 0.27207223068942488 0 -0.26208560380398971 0.26445997059876258 0 -0.2511181134432684 0.26142353709154531 0 -0.25098223944118497 0.28556577139340422 0 -0.25644916862827011 0.27207223068942488 0 -0.2511181134432684 0.26142353709154531 0 -0.25098223944118497 0.28556577139340422 0 -0.26161071782463741 0.2768396436739875 0 -0.25644916862827011 0.27207223068942488 0 -0.25098223944118497 0.28556577139340422 0 -0.25644916862827011 0.27207223068942488 0 -0.2511181134432684 0.26142353709154531 0 -0.26208560380398971 0.26445997059876258 0 -0.2511181134432684 0.26142353709154531 0 -0.25756984743672601 0.25405066201242432 0 -0.26208560380398971 0.26445997059876258 0 -0.2511181134432684 0.26142353709154531 0 -0.25756984743672601 0.25405066201242432 0 -0.24684282635724339 0.25633103538601471 0 -0.25756984743672601 0.25405066201242432 0 -0.24684282635724339 0.25633103538601471 0 -0.24576283243991379 0.2469610899906661 0 -0.27248078784189822 0.25956753337072158 0 -0.25756984743672601 0.25405066201242432 0 -0.26208560380398971 0.26445997059876258 0 -0.25084636543910172 0.30970800569526308 0 -0.26835176407964678 0.29793272598297998 0 -0.26239514480106818 0.31853336627015277 0 -0.25084636543910172 0.30970800569526308 0 -0.25098223944118497 0.28556577139340422 0 -0.25084636543910172 0.30970800569526308 0 -0.25098223944118497 0.28556577139340422 0 -0.26835176407964678 0.29793272598297998 0 -0.26835176407964678 0.29793272598297998 0 -0.26239514480106818 0.31853336627015277 0 -0.26161071782463741 0.2768396436739875 0 -0.25098223944118497 0.28556577139340422 0 -0.26835176407964678 0.29793272598297998 0 -0.27430838335822533 0.27733208569580708 0 -0.26835176407964678 0.29793272598297998 0 -0.27430838335822533 0.27733208569580708 0 -0.26161071782463741 0.2768396436739875 0 -0.26835176407964678 0.29793272598297998 0 -0.27430838335822533 0.27733208569580708 0 -0.26835176407964678 0.29793272598297998 0 -0.28518435161535521 0.29792234553033331 0 -0.26835176407964678 0.29793272598297998 0 -0.27762176152417739 0.31345559073422991 0 -0.26239514480106818 0.31853336627015277 0 -0.26835176407964678 0.29793272598297998 0 -0.28518435161535521 0.29792234553033331 0 -0.27762176152417739 0.31345559073422991 0 -0.28518435161535521 0.29792234553033331 0 -0.29431165657194369 0.31517046946119881 0 -0.27762176152417739 0.31345559073422991 0 -0.28518435161535521 0.29792234553033331 0 -0.30178968148099139 0.29320805555740342 0 -0.29431165657194369 0.31517046946119881 0 -0.29186188727804052 0.28047390914805492 0 -0.28518435161535521 0.29792234553033331 0 -0.30178968148099139 0.29320805555740342 0 -0.29186188727804052 0.28047390914805492 0 -0.27430838335822533 0.27733208569580708 0 -0.28518435161535521 0.29792234553033331 0 -0.30874552042000503 0.28050075535045249 0 -0.29186188727804052 0.28047390914805492 0 -0.30178968148099139 0.29320805555740342 0 -0.32389146155693121 0.2975488749317966 0 -0.30874552042000503 0.28050075535045249 0 -0.30178968148099139 0.29320805555740342 0 -0.31269679704613063 0.31033727053138899 0 -0.30178968148099139 0.29320805555740342 0 -0.29431165657194369 0.31517046946119881 0 -0.31269679704613063 0.31033727053138899 0 -0.30725799773026052 0.32457035512324273 0 -0.29431165657194369 0.31517046946119881 0 -0.30725799773026052 0.32457035512324273 0 -0.29553425392170263 0.32858852080070827 0 -0.29431165657194369 0.31517046946119881 0 -0.30188891199378792 0.33703735187443118 0 -0.28569054556725021 0.34074470932282419 0 -0.30327148127906928 0.34898843961162079 0 -0.30188891199378792 0.33703735187443118 0 -0.30327148127906928 0.34898843961162079 0 -0.31529847511118858 0.3373087157213927 0 -0.30725799773026052 0.32457035512324273 0 -0.30188891199378792 0.33703735187443118 0 -0.31529847511118858 0.3373087157213927 0 -0.30725799773026052 0.32457035512324273 0 -0.30188891199378792 0.33703735187443118 0 -0.29553425392170263 0.32858852080070827 0 -0.30188891199378792 0.33703735187443118 0 -0.29553425392170263 0.32858852080070827 0 -0.28569054556725021 0.34074470932282419 0 -0.28569054556725021 0.34074470932282419 0 -0.28384234437893441 0.32618282389412062 0 -0.2748570329284476 0.3327887361674538 0 -0.29553425392170263 0.32858852080070827 0 -0.28569054556725021 0.34074470932282419 0 -0.28384234437893441 0.32618282389412062 0 -0.29431165657194369 0.31517046946119881 0 -0.28384234437893441 0.32618282389412062 0 -0.27762176152417739 0.31345559073422991 0 -0.29553425392170263 0.32858852080070827 0 -0.29431165657194369 0.31517046946119881 0 -0.28384234437893441 0.32618282389412062 0 -0.27762176152417739 0.31345559073422991 0 -0.2730716706663095 0.32437805084736793 0 -0.26239514480106818 0.31853336627015277 0 -0.2730716706663095 0.32437805084736793 0 -0.26664206969891979 0.3309297371708827 0 -0.26239514480106818 0.31853336627015277 0 -0.28384234437893441 0.32618282389412062 0 -0.2730716706663095 0.32437805084736793 0 -0.2748570329284476 0.3327887361674538 0 -0.28384234437893441 0.32618282389412062 0 -0.27762176152417739 0.31345559073422991 0 -0.2730716706663095 0.32437805084736793 0 -0.28569054556725021 0.34074470932282419 0 -0.2748570329284476 0.3327887361674538 0 -0.26831999124379019 0.34051584608641089 0 -0.2730716706663095 0.32437805084736793 0 -0.2748570329284476 0.3327887361674538 0 -0.26664206969891979 0.3309297371708827 0 -0.2748570329284476 0.3327887361674538 0 -0.26831999124379019 0.34051584608641089 0 -0.26664206969891979 0.3309297371708827 0 -0.25643852552248603 0.33913400655732462 0 -0.25071049143702001 0.3338502399971221 0 -0.25315969641128461 0.35047365677233222 0 -0.26664206969891979 0.3309297371708827 0 -0.25643852552248603 0.33913400655732462 0 -0.26239514480106818 0.31853336627015277 0 -0.25071049143702001 0.3338502399971221 0 -0.25060363716947359 0.35283621762095613 0 -0.25643852552248603 0.33913400655732462 0 -0.26239514480106818 0.31853336627015277 0 -0.25643852552248603 0.33913400655732462 0 -0.25071049143702001 0.3338502399971221 0 -0.26239514480106818 0.31853336627015277 0 -0.26831999124379019 0.34051584608641089 0 -0.26664206969891979 0.3309297371708827 0 -0.25643852552248603 0.33913400655732462 0 -0.25643852552248603 0.33913400655732462 0 -0.25071049143702001 0.3338502399971221 0 -0.25084636543910172 0.30970800569526308 0 -0.25071049143702001 0.3338502399971221 0 -0.25084636543910172 0.30970800569526308 0 -0.25071049143702001 0.3338502399971221 0 -0.26239514480106818 0.31853336627015277 0 -0.250496782901929 0.3718221952447901 0 -0.25060363716947359 0.35283621762095613 0 -0.26069710304919619 0.36143184194031358 0 -0.250496782901929 0.3718221952447901 0 -0.25060363716947359 0.35283621762095613 0 -0.26069710304919619 0.36143184194031358 0 -0.250496782901929 0.3718221952447901 0 -0.26422948239870248 0.37509138042392931 0 -0.26069710304919619 0.36143184194031358 0 -0.25060363716947359 0.35283621762095613 0 -0.25315969641128461 0.35047365677233222 0 -0.25071049143702001 0.3338502399971221 0 -0.25060363716947359 0.35283621762095613 0 -0.25315969641128461 0.35047365677233222 0 -0.26069710304919619 0.36143184194031358 0 -0.25315969641128461 0.35047365677233222 0 -0.27031123964796661 0.35193075006510932 0 -0.25643852552248603 0.33913400655732462 0 -0.25315969641128461 0.35047365677233222 0 -0.27031123964796661 0.35193075006510932 0 -0.25643852552248603 0.33913400655732462 0 -0.25315969641128461 0.35047365677233222 0 -0.26831999124379019 0.34051584608641089 0 -0.25643852552248603 0.33913400655732462 0 -0.27031123964796661 0.35193075006510932 0 -0.25643852552248603 0.33913400655732462 0 -0.27031123964796661 0.35193075006510932 0 -0.27031123964796661 0.35193075006510932 0 -0.2753817797658214 0.36643685151476518 0 -0.28794684371694901 0.35826194001788159 0 -0.28569054556725021 0.34074470932282419 0 -0.26831999124379019 0.34051584608641089 0 -0.27031123964796661 0.35193075006510932 0 -0.2753817797658214 0.36643685151476518 0 -0.28789572496285609 0.37307344308227097 0 -0.27636321575548212 0.38475222853743618 0 -0.26069710304919619 0.36143184194031358 0 -0.27031123964796661 0.35193075006510932 0 -0.2753817797658214 0.36643685151476518 0 -0.26069710304919619 0.36143184194031358 0 -0.2753817797658214 0.36643685151476518 0 -0.26422948239870248 0.37509138042392931 0 -0.28789572496285609 0.37307344308227097 0 -0.28794684371694901 0.35826194001788159 0 -0.30394441675966882 0.36854018466046262 0 -0.2753817797658214 0.36643685151476518 0 -0.28789572496285609 0.37307344308227097 0 -0.28794684371694901 0.35826194001788159 0 -0.28569054556725021 0.34074470932282419 0 -0.28794684371694901 0.35826194001788159 0 -0.30327148127906928 0.34898843961162079 0 -0.28569054556725021 0.34074470932282419 0 -0.27031123964796661 0.35193075006510932 0 -0.28794684371694901 0.35826194001788159 0 -0.30327148127906928 0.34898843961162079 0 -0.3171754047561422 0.35458486639084202 0 -0.31529847511118858 0.3373087157213927 0 -0.28794684371694901 0.35826194001788159 0 -0.30327148127906928 0.34898843961162079 0 -0.30394441675966882 0.36854018466046262 0 -0.30327148127906928 0.34898843961162079 0 -0.30394441675966882 0.36854018466046262 0 -0.3171754047561422 0.35458486639084202 0 -0.30394441675966882 0.36854018466046262 0 -0.32361925979346612 0.36854974420076309 0 -0.31556915904358218 0.38657072672341181 0 -0.30394441675966882 0.36854018466046262 0 -0.32361925979346612 0.36854974420076309 0 -0.3171754047561422 0.35458486639084202 0 -0.32361925979346612 0.36854974420076309 0 -0.32773723049893161 0.35724799445062511 0 -0.3171754047561422 0.35458486639084202 0 -0.32361925979346612 0.36854974420076309 0 -0.33988733859344777 0.359162083886092 0 -0.32773723049893161 0.35724799445062511 0 -0.32361925979346612 0.36854974420076309 0 -0.33988733859344777 0.359162083886092 0 -0.3392524786849585 0.38412875664447382 0 -0.33988733859344777 0.359162083886092 0 -0.32879939827828147 0.34693709025490083 0 -0.3415952604339399 0.34273843785191382 0 -0.33988733859344777 0.359162083886092 0 -0.32879939827828147 0.34693709025490083 0 -0.32773723049893161 0.35724799445062511 0 -0.32879939827828147 0.34693709025490083 0 -0.3171754047561422 0.35458486639084202 0 -0.31529847511118858 0.3373087157213927 0 -0.32879939827828147 0.34693709025490083 0 -0.32773723049893161 0.35724799445062511 0 -0.3171754047561422 0.35458486639084202 0 -0.31529847511118858 0.3373087157213927 0 -0.3228762899274244 0.32160559190477689 0 -0.33177139157103269 0.33390831654154202 0 -0.32879939827828147 0.34693709025490083 0 -0.31529847511118858 0.3373087157213927 0 -0.33177139157103269 0.33390831654154202 0 -0.32857498606856139 0.3093066279339316 0 -0.31269679704613063 0.31033727053138899 0 -0.3228762899274244 0.32160559190477689 0 -0.30725799773026052 0.32457035512324273 0 -0.31529847511118858 0.3373087157213927 0 -0.3228762899274244 0.32160559190477689 0 -0.31269679704613063 0.31033727053138899 0 -0.30725799773026052 0.32457035512324273 0 -0.3228762899274244 0.32160559190477689 0 -0.32857498606856139 0.3093066279339316 0 -0.3228762899274244 0.32160559190477689 0 -0.33741714017944952 0.31515170799550563 0 -0.3228762899274244 0.32160559190477689 0 -0.33732018299170768 0.32455587894072557 0 -0.33177139157103269 0.33390831654154202 0 -0.3228762899274244 0.32160559190477689 0 -0.33732018299170768 0.32455587894072557 0 -0.33741714017944952 0.31515170799550563 0 -0.33732018299170768 0.32455587894072557 0 -0.34348159288519492 0.33052356949882572 0 -0.34423625753653209 0.32151897868030938 0 -0.33732018299170768 0.32455587894072557 0 -0.33741714017944952 0.31515170799550563 0 -0.34423625753653209 0.32151897868030938 0 -0.32879939827828147 0.34693709025490083 0 -0.33177139157103269 0.33390831654154202 0 -0.3415952604339399 0.34273843785191382 0 -0.33732018299170768 0.32455587894072557 0 -0.33177139157103269 0.33390831654154202 0 -0.34348159288519492 0.33052356949882572 0 -0.33177139157103269 0.33390831654154202 0 -0.34348159288519492 0.33052356949882572 0 -0.3415952604339399 0.34273843785191382 0 -0.34348159288519492 0.33052356949882572 0 -0.3415952604339399 0.34273843785191382 0 -0.35016543829187191 0.33682193203612559 0 -0.3415952604339399 0.34273843785191382 0 -0.35016543829187191 0.33682193203612559 0 -0.35599199192014591 0.34933502284941648 0 -0.34348159288519492 0.33052356949882572 0 -0.35016543829187191 0.33682193203612559 0 -0.3528047437465926 0.32618348849175732 0 -0.35016543829187191 0.33682193203612559 0 -0.3528047437465926 0.32618348849175732 0 -0.35947642936789509 0.33656460367472951 0 -0.3528047437465926 0.32618348849175732 0 -0.36354058803228612 0.32672127273212342 0 -0.35947642936789509 0.33656460367472951 0 -0.35016543829187191 0.33682193203612559 0 -0.35947642936789509 0.33656460367472951 0 -0.35599199192014591 0.34933502284941648 0 -0.36809502170881048 0.30623051368058363 0 -0.34988982350802222 0.31392634990688079 0 -0.35923476335483429 0.31883815158480128 0 -0.33741714017944952 0.31515170799550563 0 -0.34988982350802222 0.31392634990688079 0 -0.34423625753653209 0.32151897868030938 0 -0.34348159288519492 0.33052356949882572 0 -0.34423625753653209 0.32151897868030938 0 -0.3528047437465926 0.32618348849175732 0 -0.34988982350802222 0.31392634990688079 0 -0.34423625753653209 0.32151897868030938 0 -0.3528047437465926 0.32618348849175732 0 -0.3528047437465926 0.32618348849175732 0 -0.35923476335483429 0.31883815158480128 0 -0.36354058803228612 0.32672127273212342 0 -0.34988982350802222 0.31392634990688079 0 -0.3528047437465926 0.32618348849175732 0 -0.35923476335483429 0.31883815158480128 0 -0.36809502170881048 0.30623051368058363 0 -0.37210226500224802 0.33235038894376701 0 -0.36809502170881048 0.30623051368058363 0 -0.35923476335483429 0.31883815158480128 0 -0.36354058803228612 0.32672127273212342 0 -0.37988950690253831 0.32115039749776503 0 -0.36809502170881048 0.30623051368058363 0 -0.37210226500224802 0.33235038894376701 0 -0.36809502170881048 0.30623051368058363 0 -0.36354058803228612 0.32672127273212342 0 -0.37210226500224802 0.33235038894376701 0 -0.36585362119529491 0.34245448512050602 0 -0.35947642936789509 0.33656460367472951 0 -0.35599199192014591 0.34933502284941648 0 -0.36585362119529491 0.34245448512050602 0 -0.35947642936789509 0.33656460367472951 0 -0.36541205144607608 0.33502691209609242 0 -0.36354058803228612 0.32672127273212342 0 -0.36541205144607608 0.33502691209609242 0 -0.37210226500224802 0.33235038894376701 0 -0.36354058803228612 0.32672127273212342 0 -0.35947642936789509 0.33656460367472951 0 -0.36541205144607608 0.33502691209609242 0 -0.36585362119529491 0.34245448512050602 0 -0.36541205144607608 0.33502691209609242 0 -0.37210226500224802 0.33235038894376701 0 -0.37610950829568718 0.35847026420695027 0 -0.36585362119529491 0.34245448512050602 0 -0.35599199192014591 0.34933502284941648 0 -0.37610950829568718 0.35847026420695027 0 -0.36585362119529491 0.34245448512050602 0 -0.37210226500224802 0.33235038894376701 0 -0.37610950829568718 0.35847026420695027 0 -0.37210226500224802 0.33235038894376701 0 -0.37610950829568718 0.35847026420695027 0 -0.35838502315271342 0.37252211672071511 0 -0.35599199192014591 0.34933502284941648 0 -0.3801167515891265 0.38459013947013337 0 -0.37610950829568718 0.35847026420695027 0 -0.35838502315271342 0.37252211672071511 0 -0.33988733859344777 0.359162083886092 0 -0.35838502315271342 0.37252211672071511 0 -0.35599199192014591 0.34933502284941648 0 -0.33988733859344777 0.359162083886092 0 -0.35838502315271342 0.37252211672071511 0 -0.3392524786849585 0.38412875664447382 0 -0.33988733859344777 0.359162083886092 0 -0.3415952604339399 0.34273843785191382 0 -0.35599199192014591 0.34933502284941648 0 -0.35949966679445178 0.40074016082869329 0 -0.34227984579676812 0.40136609326450862 0 -0.3392524786849585 0.38412875664447382 0 -0.35838502315271342 0.37252211672071511 0 -0.35949966679445178 0.40074016082869329 0 -0.3392524786849585 0.38412875664447382 0 -0.3801167515891265 0.38459013947013337 0 -0.35838502315271342 0.37252211672071511 0 -0.35949966679445178 0.40074016082869329 0 -0.38412399488256571 0.41071001473331659 0 -0.3801167515891265 0.38459013947013337 0 -0.35949966679445178 0.40074016082869329 0 -0.38412399488256571 0.41071001473331659 0 -0.35949966679445178 0.40074016082869329 0 -0.36315400087355582 0.42902657926615329 0 -0.36315400087355582 0.42902657926615329 0 -0.34022867540111212 0.4184747672813483 0 -0.33770266362614682 0.44341836049708161 0 -0.35949966679445178 0.40074016082869329 0 -0.36315400087355582 0.42902657926615329 0 -0.34022867540111212 0.4184747672813483 0 -0.35949966679445178 0.40074016082869329 0 -0.34022867540111212 0.4184747672813483 0 -0.34227984579676812 0.40136609326450862 0 -0.34022867540111212 0.4184747672813483 0 -0.3252975372866635 0.4042841789853398 0 -0.34227984579676812 0.40136609326450862 0 -0.34022867540111212 0.4184747672813483 0 -0.31787564489296039 0.42464845623230157 0 -0.33770266362614682 0.44341836049708161 0 -0.31787564489296039 0.42464845623230157 0 -0.31724092462984632 0.44190983540169898 0 -0.33770266362614682 0.44341836049708161 0 -0.34022867540111212 0.4184747672813483 0 -0.31787564489296039 0.42464845623230157 0 -0.3252975372866635 0.4042841789853398 0 -0.31787564489296039 0.42464845623230157 0 -0.3252975372866635 0.4042841789853398 0 -0.30630648517294501 0.40503919635636693 0 -0.3252975372866635 0.4042841789853398 0 -0.31556915904358218 0.38657072672341181 0 -0.30630648517294501 0.40503919635636693 0 -0.3252975372866635 0.4042841789853398 0 -0.3392524786849585 0.38412875664447382 0 -0.31556915904358218 0.38657072672341181 0 -0.3252975372866635 0.4042841789853398 0 -0.34227984579676812 0.40136609326450862 0 -0.3392524786849585 0.38412875664447382 0 -0.32361925979346612 0.36854974420076309 0 -0.3392524786849585 0.38412875664447382 0 -0.31556915904358218 0.38657072672341181 0 -0.30394441675966882 0.36854018466046262 0 -0.31556915904358218 0.38657072672341181 0 -0.2958423688163595 0.38737601068080929 0 -0.31556915904358218 0.38657072672341181 0 -0.30630648517294501 0.40503919635636693 0 -0.2958423688163595 0.38737601068080929 0 -0.30630648517294501 0.40503919635636693 0 -0.2958423688163595 0.38737601068080929 0 -0.28591968086624558 0.40798132048442709 0 -0.2958423688163595 0.38737601068080929 0 -0.27636321575548212 0.38475222853743618 0 -0.28591968086624558 0.40798132048442709 0 -0.28789572496285609 0.37307344308227097 0 -0.2958423688163595 0.38737601068080929 0 -0.27636321575548212 0.38475222853743618 0 -0.28789572496285609 0.37307344308227097 0 -0.30394441675966882 0.36854018466046262 0 -0.2958423688163595 0.38737601068080929 0 -0.27636321575548212 0.38475222853743618 0 -0.25889553870457782 0.38855518854165888 0 -0.26422948239870248 0.37509138042392931 0 -0.2753817797658214 0.36643685151476518 0 -0.27636321575548212 0.38475222853743618 0 -0.26422948239870248 0.37509138042392931 0 -0.27636321575548212 0.38475222853743618 0 -0.26524093782465069 0.40619421076883749 0 -0.28591968086624558 0.40798132048442709 0 -0.27636321575548212 0.38475222853743618 0 -0.26524093782465069 0.40619421076883749 0 -0.25889553870457782 0.38855518854165888 0 -0.26524093782465069 0.40619421076883749 0 -0.25889553870457782 0.38855518854165888 0 -0.24201359713416321 0.39665038542121078 0 -0.26524093782465069 0.40619421076883749 0 -0.2483309124674721 0.41556930014001242 0 -0.24201359713416321 0.39665038542121078 0 -0.250496782901929 0.3718221952447901 0 -0.25889553870457782 0.38855518854165888 0 -0.24201359713416321 0.39665038542121078 0 -0.250496782901929 0.3718221952447901 0 -0.25889553870457782 0.38855518854165888 0 -0.26422948239870248 0.37509138042392931 0 -0.25401131793137388 0.43538056804770819 0 -0.2695822164152043 0.42383600576416691 0 -0.2483309124674721 0.41556930014001242 0 -0.26524093782465069 0.40619421076883749 0 -0.2695822164152043 0.42383600576416691 0 -0.2483309124674721 0.41556930014001242 0 -0.26524093782465069 0.40619421076883749 0 -0.2695822164152043 0.42383600576416691 0 -0.28591968086624558 0.40798132048442709 0 -0.2695822164152043 0.42383600576416691 0 -0.28632220274265557 0.42829315461865369 0 -0.28591968086624558 0.40798132048442709 0 -0.25401131793137388 0.43538056804770819 0 -0.2695822164152043 0.42383600576416691 0 -0.277668246658828 0.44959748052536269 0 -0.2695822164152043 0.42383600576416691 0 -0.28632220274265557 0.42829315461865369 0 -0.277668246658828 0.44959748052536269 0 -0.28632220274265557 0.42829315461865369 0 -0.30020557578007512 0.42145403943686871 0 -0.29982271388715109 0.44246683022202049 0 -0.28632220274265557 0.42829315461865369 0 -0.28591968086624558 0.40798132048442709 0 -0.30020557578007512 0.42145403943686871 0 -0.30630648517294501 0.40503919635636693 0 -0.28591968086624558 0.40798132048442709 0 -0.30020557578007512 0.42145403943686871 0 -0.31787564489296039 0.42464845623230157 0 -0.30630648517294501 0.40503919635636693 0 -0.30020557578007512 0.42145403943686871 0 -0.31787564489296039 0.42464845623230157 0 -0.30020557578007512 0.42145403943686871 0 -0.29982271388715109 0.44246683022202049 0 -0.31787564489296039 0.42464845623230157 0 -0.29982271388715109 0.44246683022202049 0 -0.31724092462984632 0.44190983540169898 0 -0.29982271388715109 0.44246683022202049 0 -0.31813221171879108 0.45965240438685429 0 -0.31724092462984632 0.44190983540169898 0 -0.29982271388715109 0.44246683022202049 0 -0.30087499912039828 0.47120618644917051 0 -0.31813221171879108 0.45965240438685429 0 -0.277668246658828 0.44959748052536269 0 -0.28093505756274578 0.47968144024143922 0 -0.30087499912039828 0.47120618644917051 0 -0.29982271388715109 0.44246683022202049 0 -0.277668246658828 0.44959748052536269 0 -0.30087499912039828 0.47120618644917051 0 -0.28632220274265557 0.42829315461865369 0 -0.29982271388715109 0.44246683022202049 0 -0.277668246658828 0.44959748052536269 0 -0.277668246658828 0.44959748052536269 0 -0.26214580686302158 0.47235495924064169 0 -0.28093505756274578 0.47968144024143922 0 -0.277668246658828 0.44959748052536269 0 -0.25722645377067632 0.45345931032334169 0 -0.26214580686302158 0.47235495924064169 0 -0.25722645377067632 0.45345931032334169 0 -0.26214580686302158 0.47235495924064169 0 -0.23870557573557691 0.46324276575941831 0 -0.25401131793137388 0.43538056804770819 0 -0.25722645377067632 0.45345931032334169 0 -0.24058306835946849 0.44544341381884922 0 -0.25401131793137388 0.43538056804770819 0 -0.277668246658828 0.44959748052536269 0 -0.25722645377067632 0.45345931032334169 0 -0.259988463231416 0.5 0 -0.26214580686302158 0.47235495924064169 0 -0.24344532656400819 0.48259785241929221 0 -0.259988463231416 0.5 0 -0.26214580686302158 0.47235495924064169 0 -0.28093505756274578 0.47968144024143922 0 -0.259988463231416 0.5 0 -0.28093505756274578 0.47968144024143922 0 -0.28707262405100842 0.5 0 -0.28093505756274578 0.47968144024143922 0 -0.28707262405100842 0.5 0 -0.30087499912039828 0.47120618644917051 0 -0.30087499912039828 0.47120618644917051 0 -0.31415678487060078 0.5 0 -0.31990207569244061 0.48174442234140608 0 -0.28707262405100842 0.5 0 -0.30087499912039828 0.47120618644917051 0 -0.31415678487060078 0.5 0 -0.31415678487060078 0.5 0 -0.34124094569019331 0.5 0 -0.31990207569244061 0.48174442234140608 0 -0.34124094569019331 0.5 0 -0.33478656399222229 0.46971418999410169 0 -0.31990207569244061 0.48174442234140608 0 -0.34124094569019331 0.5 0 -0.33478656399222229 0.46971418999410169 0 -0.35478302609998941 0.48211126954856498 0 -0.30087499912039828 0.47120618644917051 0 -0.31990207569244061 0.48174442234140608 0 -0.31813221171879108 0.45965240438685429 0 -0.33478656399222229 0.46971418999410169 0 -0.31990207569244061 0.48174442234140608 0 -0.31813221171879108 0.45965240438685429 0 -0.31813221171879108 0.45965240438685429 0 -0.31724092462984632 0.44190983540169898 0 -0.33770266362614682 0.44341836049708161 0 -0.33478656399222229 0.46971418999410169 0 -0.31813221171879108 0.45965240438685429 0 -0.33770266362614682 0.44341836049708161 0 -0.33478656399222229 0.46971418999410169 0 -0.33770266362614682 0.44341836049708161 0 -0.35270519871091788 0.46499496032599769 0 -0.36315400087355582 0.42902657926615329 0 -0.33770266362614682 0.44341836049708161 0 -0.35720190311618238 0.44834968899889122 0 -0.33770266362614682 0.44341836049708161 0 -0.35270519871091788 0.46499496032599769 0 -0.35720190311618238 0.44834968899889122 0 -0.36315400087355582 0.42902657926615329 0 -0.35720190311618238 0.44834968899889122 0 -0.3737263941111979 0.4481661651078177 0 -0.35720190311618238 0.44834968899889122 0 -0.3737263941111979 0.4481661651078177 0 -0.36993769118724779 0.46556645933259372 0 -0.35270519871091788 0.46499496032599769 0 -0.35720190311618238 0.44834968899889122 0 -0.36993769118724779 0.46556645933259372 0 -0.35720190311618238 0.44834968899889122 0 -0.36993769118724779 0.46556645933259372 0 -0.38267347925831319 0.48278322966629611 0 -0.36993769118724779 0.46556645933259372 0 -0.35478302609998941 0.48211126954856498 0 -0.38267347925831319 0.48278322966629611 0 -0.36832510650978573 0.5 0 -0.35478302609998941 0.48211126954856498 0 -0.34124094569019331 0.5 0 -0.36832510650978573 0.5 0 -0.35478302609998941 0.48211126954856498 0 -0.35270519871091788 0.46499496032599769 0 -0.36993769118724779 0.46556645933259372 0 -0.35478302609998941 0.48211126954856498 0 -0.33478656399222229 0.46971418999410169 0 -0.35270519871091788 0.46499496032599769 0 -0.35478302609998941 0.48211126954856498 0 -0.15165181995304619 0.50000000000000056 0 -0.1336487021684617 0.47338411471126329 0 -0.15726607220616201 0.47044918300272037 0 -0.15165181995304619 0.50000000000000056 0 -0.15726607220616201 0.47044918300272037 0 -0.15165181995304619 0.50000000000000056 0 -0.1336487021684617 0.47338411471126329 0 -0.1235756014926902 0.5 0 -0.1336487021684617 0.47338411471126329 0 -0.13387323922996239 0.44772970367230969 0 -0.1506295296714078 0.45387960623914397 0 -0.1336487021684617 0.47338411471126329 0 -0.13387323922996239 0.44772970367230969 0 -0.1108702535502611 0.45993849312646862 0 -0.13387323922996239 0.44772970367230969 0 -0.1506295296714078 0.45387960623914397 0 -0.1568762249096636 0.43552091421815092 0 -0.13387323922996239 0.44772970367230969 0 -0.1568762249096636 0.43552091421815092 0 -0.1336487021684617 0.47338411471126329 0 -0.1506295296714078 0.45387960623914397 0 -0.15726607220616201 0.47044918300272037 0 -0.17007216422655261 0.45276160293713541 0 -0.17196737652032401 0.4639101942667152 0 -0.15726607220616201 0.47044918300272037 0 -0.16288032445927761 0.44089836600544002 0 -0.15726607220616201 0.47044918300272037 0 -0.1506295296714078 0.45387960623914397 0 -0.16288032445927761 0.44089836600544002 0 -0.15726607220616201 0.47044918300272037 0 -0.16288032445927761 0.44089836600544002 0 -0.17007216422655261 0.45276160293713541 0 -0.15726607220616201 0.47044918300272037 0 -0.16288032445927761 0.44089836600544002 0 -0.17007216422655261 0.45276160293713541 0 -0.17579510875970819 0.43704560256610248 0 -0.1506295296714078 0.45387960623914397 0 -0.16288032445927761 0.44089836600544002 0 -0.1568762249096636 0.43552091421815092 0 -0.17007216422655261 0.45276160293713541 0 -0.18245193918729141 0.45150466884469898 0 -0.17579510875970819 0.43704560256610248 0 -0.18245193918729141 0.45150466884469898 0 -0.1855752447913179 0.44033029961624343 0 -0.17579510875970819 0.43704560256610248 0 -0.18245193918729141 0.45150466884469898 0 -0.17196737652032401 0.4639101942667152 0 -0.18572073576584891 0.47582897924695378 0 -0.17007216422655261 0.45276160293713541 0 -0.18245193918729141 0.45150466884469898 0 -0.17196737652032401 0.4639101942667152 0 -0.18572073576584891 0.47582897924695378 0 -0.15726607220616201 0.47044918300272037 0 -0.17873598077263861 0.5 0 -0.17196737652032401 0.4639101942667152 0 -0.18572073576584891 0.47582897924695378 0 -0.15726607220616201 0.47044918300272037 0 -0.15165181995304619 0.50000000000000056 0 -0.15726607220616201 0.47044918300272037 0 -0.17873598077263861 0.5 0 -0.18572073576584891 0.47582897924695378 0 -0.17873598077263861 0.5 0 -0.20582014159223119 0.5 0 -0.18572073576584891 0.47582897924695378 0 -0.20323074653435061 0.47720246358419999 0 -0.2020718799557927 0.45670660674145591 0 -0.18572073576584891 0.47582897924695378 0 -0.20323074653435061 0.47720246358419999 0 -0.20582014159223119 0.5 0 -0.20323074653435061 0.47720246358419999 0 -0.21931022882352971 0.47627426834839071 0 -0.2020718799557927 0.45670660674145591 0 -0.20323074653435061 0.47720246358419999 0 -0.20582014159223119 0.5 0 -0.21931022882352971 0.47627426834839071 0 -0.23290430241182361 0.5 0 -0.21931022882352971 0.47627426834839071 0 -0.24344532656400819 0.48259785241929221 0 -0.20582014159223119 0.5 0 -0.23290430241182361 0.5 0 -0.21931022882352971 0.47627426834839071 0 -0.21931022882352971 0.47627426834839071 0 -0.24344532656400819 0.48259785241929221 0 -0.23870557573557691 0.46324276575941831 0 -0.26214580686302158 0.47235495924064169 0 -0.24344532656400819 0.48259785241929221 0 -0.23870557573557691 0.46324276575941831 0 -0.259988463231416 0.5 0 -0.23290430241182361 0.5 0 -0.24344532656400819 0.48259785241929221 0 -0.25722645377067632 0.45345931032334169 0 -0.24058306835946849 0.44544341381884922 0 -0.23870557573557691 0.46324276575941831 0 -0.24058306835946849 0.44544341381884922 0 -0.23870557573557691 0.46324276575941831 0 -0.22354435929246491 0.45098881701814542 0 -0.21931022882352971 0.47627426834839071 0 -0.23870557573557691 0.46324276575941831 0 -0.22354435929246491 0.45098881701814542 0 -0.24058306835946849 0.44544341381884922 0 -0.22354435929246491 0.45098881701814542 0 -0.2318047242998863 0.42667601459587617 0 -0.22354435929246491 0.45098881701814542 0 -0.209979223196853 0.43885503617000421 0 -0.2318047242998863 0.42667601459587617 0 -0.22354435929246491 0.45098881701814542 0 -0.209979223196853 0.43885503617000421 0 -0.2020718799557927 0.45670660674145591 0 -0.21931022882352971 0.47627426834839071 0 -0.22354435929246491 0.45098881701814542 0 -0.2020718799557927 0.45670660674145591 0 -0.18245193918729141 0.45150466884469898 0 -0.18572073576584891 0.47582897924695378 0 -0.2020718799557927 0.45670660674145591 0 -0.18245193918729141 0.45150466884469898 0 -0.2020718799557927 0.45670660674145591 0 -0.1945947981074424 0.4439085344435878 0 -0.209979223196853 0.43885503617000421 0 -0.2020718799557927 0.45670660674145591 0 -0.1945947981074424 0.4439085344435878 0 -0.18245193918729141 0.45150466884469898 0 -0.1855752447913179 0.44033029961624343 0 -0.1945947981074424 0.4439085344435878 0 -0.1855752447913179 0.44033029961624343 0 -0.1945947981074424 0.4439085344435878 0 -0.1878725369811805 0.43069836363247621 0 -0.209979223196853 0.43885503617000421 0 -0.1945947981074424 0.4439085344435878 0 -0.19957910978056209 0.42828274604945088 0 -0.1945947981074424 0.4439085344435878 0 -0.1878725369811805 0.43069836363247621 0 -0.19957910978056209 0.42828274604945088 0 -0.1878725369811805 0.43069836363247621 0 -0.1942377064620418 0.41836279174142121 0 -0.1822891775359648 0.41918948176282228 0 -0.1878725369811805 0.43069836363247621 0 -0.19957910978056209 0.42828274604945088 0 -0.1942377064620418 0.41836279174142121 0 -0.19957910978056209 0.42828274604945088 0 -0.1942377064620418 0.41836279174142121 0 -0.20996718599776179 0.41519103568783899 0 -0.20996718599776179 0.41519103568783899 0 -0.20571050350867229 0.40483505352756871 0 -0.1881296476956372 0.40370605677980181 0 -0.20996718599776179 0.41519103568783899 0 -0.1881296476956372 0.40370605677980181 0 -0.1942377064620418 0.41836279174142121 0 -0.20996718599776179 0.41519103568783899 0 -0.1881296476956372 0.40370605677980181 0 -0.1942377064620418 0.41836279174142121 0 -0.1881296476956372 0.40370605677980181 0 -0.1822891775359648 0.41918948176282228 0 -0.20996718599776179 0.41519103568783899 0 -0.216728988259835 0.4094386630936569 0 -0.20571050350867229 0.40483505352756871 0 -0.209979223196853 0.43885503617000421 0 -0.21201192968815699 0.42685167996971429 0 -0.2318047242998863 0.42667601459587617 0 -0.20996718599776179 0.41519103568783899 0 -0.21201192968815699 0.42685167996971429 0 -0.2318047242998863 0.42667601459587617 0 -0.209979223196853 0.43885503617000421 0 -0.19957910978056209 0.42828274604945088 0 -0.21201192968815699 0.42685167996971429 0 -0.19957910978056209 0.42828274604945088 0 -0.20996718599776179 0.41519103568783899 0 -0.21201192968815699 0.42685167996971429 0 -0.216728988259835 0.4094386630936569 0 -0.2318047242998863 0.42667601459587617 0 -0.22352502327652091 0.40341435441177348 0 -0.2318047242998863 0.42667601459587617 0 -0.23558329887394541 0.40890089458443968 0 -0.22352502327652091 0.40341435441177348 0 -0.20996718599776179 0.41519103568783899 0 -0.2318047242998863 0.42667601459587617 0 -0.20996718599776179 0.41519103568783899 0 -0.216728988259835 0.4094386630936569 0 -0.2318047242998863 0.42667601459587617 0 -0.2318047242998863 0.42667601459587617 0 -0.2483309124674721 0.41556930014001242 0 -0.23558329887394541 0.40890089458443968 0 -0.2483309124674721 0.41556930014001242 0 -0.23558329887394541 0.40890089458443968 0 -0.24201359713416321 0.39665038542121078 0 -0.25401131793137388 0.43538056804770819 0 -0.2318047242998863 0.42667601459587617 0 -0.2483309124674721 0.41556930014001242 0 -0.25401131793137388 0.43538056804770819 0 -0.24058306835946849 0.44544341381884922 0 -0.2318047242998863 0.42667601459587617 0 -0.250496782901929 0.3718221952447901 0 -0.24201359713416321 0.39665038542121078 0 -0.2339080281715907 0.38039705942742202 0 -0.24201359713416321 0.39665038542121078 0 -0.22945179096740401 0.39270878644935958 0 -0.2339080281715907 0.38039705942742202 0 -0.23558329887394541 0.40890089458443968 0 -0.24201359713416321 0.39665038542121078 0 -0.22945179096740401 0.39270878644935958 0 -0.23558329887394541 0.40890089458443968 0 -0.22945179096740401 0.39270878644935958 0 -0.22352502327652091 0.40341435441177348 0 -0.22945179096740401 0.39270878644935958 0 -0.22352502327652091 0.40341435441177348 0 -0.21731790985254121 0.38778886761130499 0 -0.22945179096740401 0.39270878644935958 0 -0.2339080281715907 0.38039705942742202 0 -0.21731790985254121 0.38778886761130499 0 -0.2339080281715907 0.38039705942742202 0 -0.21731790985254121 0.38778886761130499 0 -0.2254545155883764 0.37043384888213893 0 -0.21731790985254121 0.38778886761130499 0 -0.21263750421633379 0.39707685724522718 0 -0.19906682091173011 0.38422214417330769 0 -0.21731790985254121 0.38778886761130499 0 -0.19906682091173011 0.38422214417330769 0 -0.203644913737972 0.37136948633973083 0 -0.21263750421633379 0.39707685724522718 0 -0.20571050350867229 0.40483505352756871 0 -0.19906682091173011 0.38422214417330769 0 -0.216728988259835 0.4094386630936569 0 -0.21263750421633379 0.39707685724522718 0 -0.20571050350867229 0.40483505352756871 0 -0.216728988259835 0.4094386630936569 0 -0.22352502327652091 0.40341435441177348 0 -0.21263750421633379 0.39707685724522718 0 -0.22352502327652091 0.40341435441177348 0 -0.21731790985254121 0.38778886761130499 0 -0.21263750421633379 0.39707685724522718 0 -0.20571050350867229 0.40483505352756871 0 -0.19906682091173011 0.38422214417330769 0 -0.20571050350867229 0.40483505352756871 0 -0.187824374506946 0.39072298017398788 0 -0.1881296476956372 0.40370605677980181 0 -0.20571050350867229 0.40483505352756871 0 -0.187824374506946 0.39072298017398788 0 -0.19906682091173011 0.38422214417330769 0 -0.187824374506946 0.39072298017398788 0 -0.19906682091173011 0.38422214417330769 0 -0.18276527337887599 0.37876225420738668 0 -0.19906682091173011 0.38422214417330769 0 -0.18276527337887599 0.37876225420738668 0 -0.19242313831478711 0.36360923481904689 0 -0.18276527337887599 0.37876225420738668 0 -0.16797475219175551 0.37746985686870071 0 -0.16629210939351269 0.39222107787176458 0 -0.187824374506946 0.39072298017398788 0 -0.18276527337887599 0.37876225420738668 0 -0.16629210939351269 0.39222107787176458 0 -0.16797475219175551 0.37746985686870071 0 -0.16629210939351269 0.39222107787176458 0 -0.14445457109138829 0.38073609896372712 0 -0.16629210939351269 0.39222107787176458 0 -0.169122049502857 0.41083259864175059 0 -0.1512282743022082 0.41239009238706981 0 -0.1881296476956372 0.40370605677980181 0 -0.16629210939351269 0.39222107787176458 0 -0.187824374506946 0.39072298017398788 0 -0.1881296476956372 0.40370605677980181 0 -0.16629210939351269 0.39222107787176458 0 -0.1881296476956372 0.40370605677980181 0 -0.16629210939351269 0.39222107787176458 0 -0.169122049502857 0.41083259864175059 0 -0.1881296476956372 0.40370605677980181 0 -0.1822891775359648 0.41918948176282228 0 -0.169122049502857 0.41083259864175059 0 -0.1822891775359648 0.41918948176282228 0 -0.17120094206872019 0.42556751428132428 0 -0.169122049502857 0.41083259864175059 0 -0.1855752447913179 0.44033029961624343 0 -0.1878725369811805 0.43069836363247621 0 -0.17579510875970819 0.43704560256610248 0 -0.1878725369811805 0.43069836363247621 0 -0.17928944133639341 0.4281252405606813 0 -0.17579510875970819 0.43704560256610248 0 -0.1878725369811805 0.43069836363247621 0 -0.1822891775359648 0.41918948176282228 0 -0.17928944133639341 0.4281252405606813 0 -0.1822891775359648 0.41918948176282228 0 -0.17928944133639341 0.4281252405606813 0 -0.17120094206872019 0.42556751428132428 0 -0.17928944133639341 0.4281252405606813 0 -0.17579510875970819 0.43704560256610248 0 -0.17120094206872019 0.42556751428132428 0 -0.16288032445927761 0.44089836600544002 0 -0.17579510875970819 0.43704560256610248 0 -0.16522037057308939 0.43224501657120601 0 -0.17579510875970819 0.43704560256610248 0 -0.16522037057308939 0.43224501657120601 0 -0.17120094206872019 0.42556751428132428 0 -0.16522037057308939 0.43224501657120601 0 -0.17120094206872019 0.42556751428132428 0 -0.15908195412450959 0.42289067844272232 0 -0.16522037057308939 0.43224501657120601 0 -0.15908195412450959 0.42289067844272232 0 -0.1568762249096636 0.43552091421815092 0 -0.16288032445927761 0.44089836600544002 0 -0.16522037057308939 0.43224501657120601 0 -0.1568762249096636 0.43552091421815092 0 -0.15908195412450959 0.42289067844272232 0 -0.169122049502857 0.41083259864175059 0 -0.1512282743022082 0.41239009238706981 0 -0.17120094206872019 0.42556751428132428 0 -0.15908195412450959 0.42289067844272232 0 -0.169122049502857 0.41083259864175059 0 -0.15908195412450959 0.42289067844272232 0 -0.1512282743022082 0.41239009238706981 0 -0.1474050061719695 0.42891616905103269 0 -0.1512282743022082 0.41239009238706981 0 -0.13349362306147741 0.41026982318073418 0 -0.1448762817651435 0.39705377611025999 0 -0.13387323922996239 0.44772970367230969 0 -0.1568762249096636 0.43552091421815092 0 -0.1474050061719695 0.42891616905103269 0 -0.1512282743022082 0.41239009238706981 0 -0.1474050061719695 0.42891616905103269 0 -0.13596533829350371 0.42604945653491072 0 -0.15908195412450959 0.42289067844272232 0 -0.1568762249096636 0.43552091421815092 0 -0.1474050061719695 0.42891616905103269 0 -0.13596533829350371 0.42604945653491072 0 -0.12280002593257081 0.42101724561730641 0 -0.12021413394562799 0.4360530644539134 0 -0.13387323922996239 0.44772970367230969 0 -0.1474050061719695 0.42891616905103269 0 -0.13596533829350371 0.42604945653491072 0 -0.13387323922996239 0.44772970367230969 0 -0.13596533829350371 0.42604945653491072 0 -0.12021413394562799 0.4360530644539134 0 -0.1512282743022082 0.41239009238706981 0 -0.13596533829350371 0.42604945653491072 0 -0.13349362306147741 0.41026982318073418 0 -0.13596533829350371 0.42604945653491072 0 -0.13349362306147741 0.41026982318073418 0 -0.12280002593257081 0.42101724561730641 0 -0.13349362306147741 0.41026982318073418 0 -0.12903497142443171 0.3945632124047147 0 -0.1448762817651435 0.39705377611025999 0 -0.13349362306147741 0.41026982318073418 0 -0.12903497142443171 0.3945632124047147 0 -0.1136153717574758 0.40839032584570301 0 -0.12903497142443171 0.3945632124047147 0 -0.14445457109138829 0.38073609896372712 0 -0.1448762817651435 0.39705377611025999 0 -0.12903497142443171 0.3945632124047147 0 -0.14445457109138829 0.38073609896372712 0 -0.12723652003124869 0.37168063902463838 0 -0.14445457109138829 0.38073609896372712 0 -0.12723652003124869 0.37168063902463838 0 -0.12903497142443171 0.3945632124047147 0 -0.14445457109138829 0.38073609896372712 0 -0.16629210939351269 0.39222107787176458 0 -0.14445457109138829 0.38073609896372712 0 -0.16629210939351269 0.39222107787176458 0 -0.14445457109138829 0.38073609896372712 0 -0.1448762817651435 0.39705377611025999 0 -0.16629210939351269 0.39222107787176458 0 -0.1512282743022082 0.41239009238706981 0 -0.1448762817651435 0.39705377611025999 0 -0.14594023192357911 0.36359079204500422 0 -0.1571133195922674 0.35027030975541779 0 -0.16407133212888539 0.36314529336119761 0 -0.14438995261079571 0.35195769850154762 0 -0.13362159450644689 0.3425294743322938 0 -0.14728956502674331 0.33905252649504108 0 -0.14438995261079571 0.35195769850154762 0 -0.14728956502674331 0.33905252649504108 0 -0.1571133195922674 0.35027030975541779 0 -0.14438995261079571 0.35195769850154762 0 -0.14594023192357911 0.36359079204500422 0 -0.1571133195922674 0.35027030975541779 0 -0.14445457109138829 0.38073609896372712 0 -0.16407133212888539 0.36314529336119761 0 -0.14445457109138829 0.38073609896372712 0 -0.14594023192357911 0.36359079204500422 0 -0.16407133212888539 0.36314529336119761 0 -0.14594023192357911 0.36359079204500422 0 -0.12723652003124869 0.37168063902463838 0 -0.13031811986116321 0.35709426495866547 0 -0.14445457109138829 0.38073609896372712 0 -0.14594023192357911 0.36359079204500422 0 -0.12723652003124869 0.37168063902463838 0 -0.14438995261079571 0.35195769850154762 0 -0.14594023192357911 0.36359079204500422 0 -0.13031811986116321 0.35709426495866547 0 -0.14438995261079571 0.35195769850154762 0 -0.13031811986116321 0.35709426495866547 0 -0.13362159450644689 0.3425294743322938 0 -0.13031811986116321 0.35709426495866547 0 -0.13362159450644689 0.3425294743322938 0 -0.11924372915088351 0.34740833971929302 0 -0.13362159450644689 0.3425294743322938 0 -0.1227337675384178 0.33210561891118429 0 -0.11924372915088351 0.34740833971929302 0 -0.13362159450644689 0.3425294743322938 0 -0.1374415507153533 0.32735451444365332 0 -0.1227337675384178 0.33210561891118429 0 -0.13362159450644689 0.3425294743322938 0 -0.1374415507153533 0.32735451444365332 0 -0.14728956502674331 0.33905252649504108 0 -0.1260164701007396 0.31398711991216111 0 -0.1374415507153533 0.32735451444365332 0 -0.14565870413464291 0.30964317866708618 0 -0.1260164701007396 0.31398711991216111 0 -0.1374415507153533 0.32735451444365332 0 -0.1227337675384178 0.33210561891118429 0 -0.1374415507153533 0.32735451444365332 0 -0.15093419523913321 0.32641324372628272 0 -0.14565870413464291 0.30964317866708618 0 -0.15093419523913321 0.32641324372628272 0 -0.16373149668713879 0.32002219785020308 0 -0.14565870413464291 0.30964317866708618 0 -0.1374415507153533 0.32735451444365332 0 -0.15093419523913321 0.32641324372628272 0 -0.14728956502674331 0.33905252649504108 0 -0.15093419523913321 0.32641324372628272 0 -0.14728956502674331 0.33905252649504108 0 -0.16023677749646309 0.33578991821105181 0 -0.14728956502674331 0.33905252649504108 0 -0.16023677749646309 0.33578991821105181 0 -0.1571133195922674 0.35027030975541779 0 -0.16023677749646309 0.33578991821105181 0 -0.17114795697373081 0.33203244877781118 0 -0.16373149668713879 0.32002219785020308 0 -0.16023677749646309 0.33578991821105181 0 -0.17114795697373081 0.33203244877781118 0 -0.16922822491608669 0.34632965526895998 0 -0.17114795697373081 0.33203244877781118 0 -0.16373149668713879 0.32002219785020308 0 -0.17955582234504819 0.32368667472580109 0 -0.15093419523913321 0.32641324372628272 0 -0.16023677749646309 0.33578991821105181 0 -0.16373149668713879 0.32002219785020308 0 -0.17955582234504819 0.32368667472580109 0 -0.1862012084000825 0.31561300953630222 0 -0.18298746342391661 0.33433379783304029 0 -0.16373149668713879 0.32002219785020308 0 -0.17955582234504819 0.32368667472580109 0 -0.17408800317388839 0.31216795441764539 0 -0.1862012084000825 0.31561300953630222 0 -0.18298746342391661 0.33433379783304029 0 -0.17955582234504819 0.32368667472580109 0 -0.1862012084000825 0.31561300953630222 0 -0.17408800317388839 0.31216795441764539 0 -0.17114795697373081 0.33203244877781118 0 -0.18298746342391661 0.33433379783304029 0 -0.16922822491608669 0.34632965526895998 0 -0.17114795697373081 0.33203244877781118 0 -0.17955582234504819 0.32368667472580109 0 -0.18298746342391661 0.33433379783304029 0 -0.17955582234504819 0.32368667472580109 0 -0.18298746342391661 0.33433379783304029 0 -0.18298746342391661 0.33433379783304029 0 -0.18770530086935211 0.34897151632604351 0 -0.18298746342391661 0.33433379783304029 0 -0.1781586350086023 0.36246281091740451 0 -0.18770530086935211 0.34897151632604351 0 -0.18298746342391661 0.33433379783304029 0 -0.16922822491608669 0.34632965526895998 0 -0.1781586350086023 0.36246281091740451 0 -0.18298746342391661 0.33433379783304029 0 -0.1781586350086023 0.36246281091740451 0 -0.1781586350086023 0.36246281091740451 0 -0.19242313831478711 0.36360923481904689 0 -0.18770530086935211 0.34897151632604351 0 -0.16922822491608669 0.34632965526895998 0 -0.16407133212888539 0.36314529336119761 0 -0.1781586350086023 0.36246281091740451 0 -0.16922822491608669 0.34632965526895998 0 -0.1571133195922674 0.35027030975541779 0 -0.16407133212888539 0.36314529336119761 0 -0.16023677749646309 0.33578991821105181 0 -0.16922822491608669 0.34632965526895998 0 -0.1571133195922674 0.35027030975541779 0 -0.16797475219175551 0.37746985686870071 0 -0.14445457109138829 0.38073609896372712 0 -0.16407133212888539 0.36314529336119761 0 -0.16797475219175551 0.37746985686870071 0 -0.16407133212888539 0.36314529336119761 0 -0.1781586350086023 0.36246281091740451 0 -0.18276527337887599 0.37876225420738668 0 -0.16797475219175551 0.37746985686870071 0 -0.1781586350086023 0.36246281091740451 0 -0.18276527337887599 0.37876225420738668 0 -0.1781586350086023 0.36246281091740451 0 -0.19242313831478711 0.36360923481904689 0 -0.19242313831478711 0.36360923481904689 0 -0.20113857542568489 0.34993486803138951 0 -0.203644913737972 0.37136948633973083 0 -0.18276527337887599 0.37876225420738668 0 -0.19242313831478711 0.36360923481904689 0 -0.19906682091173011 0.38422214417330769 0 -0.19242313831478711 0.36360923481904689 0 -0.19906682091173011 0.38422214417330769 0 -0.19242313831478711 0.36360923481904689 0 -0.203644913737972 0.37136948633973083 0 -0.18770530086935211 0.34897151632604351 0 -0.20113857542568489 0.34993486803138951 0 -0.1955046973531317 0.33928085566837252 0 -0.19242313831478711 0.36360923481904689 0 -0.18770530086935211 0.34897151632604351 0 -0.19242313831478711 0.36360923481904689 0 -0.18770530086935211 0.34897151632604351 0 -0.20113857542568489 0.34993486803138951 0 -0.19242313831478711 0.36360923481904689 0 -0.20113857542568489 0.34993486803138951 0 -0.21358596119456419 0.36202468442751889 0 -0.22164696370016501 0.34360080399243631 0 -0.20985401253658459 0.3362605012437333 0 -0.21358596119456419 0.36202468442751889 0 -0.20985401253658459 0.3362605012437333 0 -0.20113857542568489 0.34993486803138951 0 -0.21358596119456419 0.36202468442751889 0 -0.20985401253658459 0.3362605012437333 0 -0.20113857542568489 0.34993486803138951 0 -0.203644913737972 0.37136948633973083 0 -0.21358596119456419 0.36202468442751889 0 -0.21731790985254121 0.38778886761130499 0 -0.21358596119456419 0.36202468442751889 0 -0.21731790985254121 0.38778886761130499 0 -0.203644913737972 0.37136948633973083 0 -0.21358596119456419 0.36202468442751889 0 -0.21731790985254121 0.38778886761130499 0 -0.21358596119456419 0.36202468442751889 0 -0.2254545155883764 0.37043384888213893 0 -0.2339080281715907 0.38039705942742202 0 -0.2254545155883764 0.37043384888213893 0 -0.23435008490500181 0.36624304083439552 0 -0.2254545155883764 0.37043384888213893 0 -0.23435008490500181 0.36624304083439552 0 -0.2281105938181841 0.35571559211005288 0 -0.21358596119456419 0.36202468442751889 0 -0.2254545155883764 0.37043384888213893 0 -0.2281105938181841 0.35571559211005288 0 -0.21358596119456419 0.36202468442751889 0 -0.2281105938181841 0.35571559211005288 0 -0.22164696370016501 0.34360080399243631 0 -0.22939315349619629 0.34388652722778518 0 -0.2281105938181841 0.35571559211005288 0 -0.22164696370016501 0.34360080399243631 0 -0.22939315349619629 0.34388652722778518 0 -0.2281105938181841 0.35571559211005288 0 -0.23636787486068711 0.34739623142496218 0 -0.22939315349619629 0.34388652722778518 0 -0.23636787486068711 0.34739623142496218 0 -0.23727510613773431 0.340087560978801 0 -0.23435008490500181 0.36624304083439552 0 -0.2281105938181841 0.35571559211005288 0 -0.2399048346749009 0.35602606120747038 0 -0.2281105938181841 0.35571559211005288 0 -0.2399048346749009 0.35602606120747038 0 -0.23636787486068711 0.34739623142496218 0 -0.2399048346749009 0.35602606120747038 0 -0.23636787486068711 0.34739623142496218 0 -0.24334870600043351 0.34410609922429147 0 -0.23636787486068711 0.34739623142496218 0 -0.24334870600043351 0.34410609922429147 0 -0.23727510613773431 0.340087560978801 0 -0.25060363716947359 0.35283621762095613 0 -0.2399048346749009 0.35602606120747038 0 -0.24334870600043351 0.34410609922429147 0 -0.250496782901929 0.3718221952447901 0 -0.25060363716947359 0.35283621762095613 0 -0.2399048346749009 0.35602606120747038 0 -0.250496782901929 0.3718221952447901 0 -0.23435008490500181 0.36624304083439552 0 -0.2399048346749009 0.35602606120747038 0 -0.250496782901929 0.3718221952447901 0 -0.2339080281715907 0.38039705942742202 0 -0.23435008490500181 0.36624304083439552 0 -0.25084636543910172 0.30970800569526308 0 -0.25071049143702001 0.3338502399971221 0 -0.2383294437526535 0.32242946896836538 0 -0.25084636543910172 0.30970800569526308 0 -0.2383294437526535 0.32242946896836538 0 -0.23813938290674341 0.30775359013160147 0 -0.25071049143702001 0.3338502399971221 0 -0.2383294437526535 0.32242946896836538 0 -0.25071049143702001 0.3338502399971221 0 -0.24284223163421301 0.33776155856287071 0 -0.24003462296166411 0.33300233405126822 0 -0.25071049143702001 0.3338502399971221 0 -0.25060363716947359 0.35283621762095613 0 -0.24334870600043351 0.34410609922429147 0 -0.25071049143702001 0.3338502399971221 0 -0.2383294437526535 0.32242946896836538 0 -0.24003462296166411 0.33300233405126822 0 -0.25071049143702001 0.3338502399971221 0 -0.24334870600043351 0.34410609922429147 0 -0.24284223163421301 0.33776155856287071 0 -0.23727510613773431 0.340087560978801 0 -0.24003462296166411 0.33300233405126822 0 -0.23189923291610051 0.33542592734011972 0 -0.24334870600043351 0.34410609922429147 0 -0.24284223163421301 0.33776155856287071 0 -0.23727510613773431 0.340087560978801 0 -0.24284223163421301 0.33776155856287071 0 -0.23727510613773431 0.340087560978801 0 -0.24003462296166411 0.33300233405126822 0 -0.2383294437526535 0.32242946896836538 0 -0.24003462296166411 0.33300233405126822 0 -0.23189923291610051 0.33542592734011972 0 -0.2383294437526535 0.32242946896836538 0 -0.23189923291610051 0.33542592734011972 0 -0.22471610744818979 0.32954886882206241 0 -0.22939315349619629 0.34388652722778518 0 -0.23189923291610051 0.33542592734011972 0 -0.22164696370016501 0.34360080399243631 0 -0.22939315349619629 0.34388652722778518 0 -0.23727510613773431 0.340087560978801 0 -0.23189923291610051 0.33542592734011972 0 -0.22164696370016501 0.34360080399243631 0 -0.22471610744818979 0.32954886882206241 0 -0.20985401253658459 0.3362605012437333 0 -0.23189923291610051 0.33542592734011972 0 -0.22164696370016501 0.34360080399243631 0 -0.22471610744818979 0.32954886882206241 0 -0.22471610744818979 0.32954886882206241 0 -0.20985401253658459 0.3362605012437333 0 -0.22594839606828609 0.31100869793960978 0 -0.2383294437526535 0.32242946896836538 0 -0.22471610744818979 0.32954886882206241 0 -0.22594839606828609 0.31100869793960978 0 -0.2383294437526535 0.32242946896836538 0 -0.22594839606828609 0.31100869793960978 0 -0.2383294437526535 0.32242946896836538 0 -0.22594839606828609 0.31100869793960978 0 -0.23813938290674341 0.30775359013160147 0 -0.20709746399172091 0.31723016932501041 0 -0.20985401253658459 0.3362605012437333 0 -0.20709746399172091 0.31723016932501041 0 -0.20985401253658459 0.3362605012437333 0 -0.22594839606828609 0.31100869793960978 0 -0.20709746399172091 0.31723016932501041 0 -0.20985401253658459 0.3362605012437333 0 -0.19583813451012169 0.32690359490765691 0 -0.20985401253658459 0.3362605012437333 0 -0.22594839606828609 0.31100869793960978 0 -0.20113857542568489 0.34993486803138951 0 -0.20985401253658459 0.3362605012437333 0 -0.20113857542568489 0.34993486803138951 0 -0.20985401253658459 0.3362605012437333 0 -0.1955046973531317 0.33928085566837252 0 -0.20985401253658459 0.3362605012437333 0 -0.1955046973531317 0.33928085566837252 0 -0.19583813451012169 0.32690359490765691 0 -0.18298746342391661 0.33433379783304029 0 -0.1955046973531317 0.33928085566837252 0 -0.19583813451012169 0.32690359490765691 0 -0.18298746342391661 0.33433379783304029 0 -0.18770530086935211 0.34897151632604351 0 -0.1955046973531317 0.33928085566837252 0 -0.1862012084000825 0.31561300953630222 0 -0.18298746342391661 0.33433379783304029 0 -0.19583813451012169 0.32690359490765691 0 -0.20709746399172091 0.31723016932501041 0 -0.1966430434959883 0.31671386474529678 0 -0.19743536708202791 0.30710868521221779 0 -0.20709746399172091 0.31723016932501041 0 -0.1966430434959883 0.31671386474529678 0 -0.19583813451012169 0.32690359490765691 0 -0.1862012084000825 0.31561300953630222 0 -0.1966430434959883 0.31671386474529678 0 -0.19743536708202791 0.30710868521221779 0 -0.1862012084000825 0.31561300953630222 0 -0.1966430434959883 0.31671386474529678 0 -0.19583813451012169 0.32690359490765691 0 -0.1862012084000825 0.31561300953630222 0 -0.18941495337624881 0.29689222123956432 0 -0.19743536708202791 0.30710868521221779 0 -0.1862012084000825 0.31561300953630222 0 -0.18941495337624881 0.29689222123956432 0 -0.20709746399172091 0.31723016932501041 0 -0.19743536708202791 0.30710868521221779 0 -0.20434091544685459 0.2981998374062878 0 -0.18941495337624881 0.29689222123956432 0 -0.19743536708202791 0.30710868521221779 0 -0.18941495337624881 0.29689222123956432 0 -0.19743536708202791 0.30710868521221779 0 -0.20434091544685459 0.2981998374062878 0 -0.18941495337624881 0.29689222123956432 0 -0.20434091544685459 0.2981998374062878 0 -0.1923172054106215 0.27998594948428529 0 -0.20913280073945401 0.29549732371194742 0 -0.1923172054106215 0.27998594948428529 0 -0.18941495337624881 0.29689222123956432 0 -0.1923172054106215 0.27998594948428529 0 -0.20913280073945401 0.29549732371194742 0 -0.20434091544685459 0.2981998374062878 0 -0.1923172054106215 0.27998594948428529 0 -0.20913280073945401 0.29549732371194742 0 -0.21514248390724269 0.28459674552138792 0 -0.1923172054106215 0.27998594948428529 0 -0.20913280073945401 0.29549732371194742 0 -0.21514248390724269 0.28459674552138792 0 -0.2231970662998381 0.2944740731970702 0 -0.20913280073945401 0.29549732371194742 0 -0.21232558112347841 0.30675806584664961 0 -0.22594839606828609 0.31100869793960978 0 -0.20913280073945401 0.29549732371194742 0 -0.22594839606828609 0.31100869793960978 0 -0.20709746399172091 0.31723016932501041 0 -0.20434091544685459 0.2981998374062878 0 -0.21232558112347841 0.30675806584664961 0 -0.20709746399172091 0.31723016932501041 0 -0.20434091544685459 0.2981998374062878 0 -0.20709746399172091 0.31723016932501041 0 -0.21232558112347841 0.30675806584664961 0 -0.22594839606828609 0.31100869793960978 0 -0.20913280073945401 0.29549732371194742 0 -0.20434091544685459 0.2981998374062878 0 -0.21232558112347841 0.30675806584664961 0 -0.20913280073945401 0.29549732371194742 0 -0.22594839606828609 0.31100869793960978 0 -0.2231970662998381 0.2944740731970702 0 -0.22594839606828609 0.31100869793960978 0 -0.2231970662998381 0.2944740731970702 0 -0.237247862684038 0.29328003452978951 0 -0.22594839606828609 0.31100869793960978 0 -0.237247862684038 0.29328003452978951 0 -0.23813938290674341 0.30775359013160147 0 -0.22594839606828609 0.31100869793960978 0 -0.237247862684038 0.29328003452978951 0 -0.21514248390724269 0.28459674552138792 0 -0.2231970662998381 0.2944740731970702 0 -0.227029360490791 0.2809033647187632 0 -0.237247862684038 0.29328003452978951 0 -0.2367117788978359 0.28331597312392209 0 -0.227029360490791 0.2809033647187632 0 -0.2231970662998381 0.2944740731970702 0 -0.237247862684038 0.29328003452978951 0 -0.227029360490791 0.2809033647187632 0 -0.25084636543910172 0.30970800569526308 0 -0.25098223944118497 0.28556577139340422 0 -0.237247862684038 0.29328003452978951 0 -0.25098223944118497 0.28556577139340422 0 -0.237247862684038 0.29328003452978951 0 -0.2367117788978359 0.28331597312392209 0 -0.25098223944118497 0.28556577139340422 0 -0.2367117788978359 0.28331597312392209 0 -0.24310022421335481 0.27867018639881042 0 -0.25084636543910172 0.30970800569526308 0 -0.237247862684038 0.29328003452978951 0 -0.23813938290674341 0.30775359013160147 0 -0.2410711574876746 0.26181972073814058 0 -0.23591182662198429 0.25471420996969779 0 -0.24684282635724339 0.25633103538601471 0 -0.23591182662198429 0.25471420996969779 0 -0.24684282635724339 0.25633103538601471 0 -0.24576283243991379 0.2469610899906661 0 -0.2410711574876746 0.26181972073814058 0 -0.24721287983928411 0.26129970892922322 0 -0.24981942206895019 0.26562454250119227 0 -0.2511181134432684 0.26142353709154531 0 -0.24684282635724339 0.25633103538601471 0 -0.24721287983928411 0.26129970892922322 0 -0.2410711574876746 0.26181972073814058 0 -0.24684282635724339 0.25633103538601471 0 -0.24721287983928411 0.26129970892922322 0 -0.2511181134432684 0.26142353709154531 0 -0.24721287983928411 0.26129970892922322 0 -0.24981942206895019 0.26562454250119227 0 -0.25098223944118497 0.28556577139340422 0 -0.24981942206895019 0.26562454250119227 0 -0.24576368514549929 0.2748265986927374 0 -0.24981942206895019 0.26562454250119227 0 -0.2251995291591925 0.27053422063923921 0 -0.24981942206895019 0.26562454250119227 0 -0.24576368514549929 0.2748265986927374 0 -0.23859375755288539 0.27351658223123571 0 -0.2410711574876746 0.26181972073814058 0 -0.24981942206895019 0.26562454250119227 0 -0.2251995291591925 0.27053422063923921 0 -0.24981942206895019 0.26562454250119227 0 -0.23859375755288539 0.27351658223123571 0 -0.2251995291591925 0.27053422063923921 0 -0.25098223944118497 0.28556577139340422 0 -0.24576368514549929 0.2748265986927374 0 -0.24310022421335481 0.27867018639881042 0 -0.24576368514549929 0.2748265986927374 0 -0.24310022421335481 0.27867018639881042 0 -0.23859375755288539 0.27351658223123571 0 -0.2367117788978359 0.28331597312392209 0 -0.23859375755288539 0.27351658223123571 0 -0.2318836065251762 0.27706753517829003 0 -0.2367117788978359 0.28331597312392209 0 -0.24310022421335481 0.27867018639881042 0 -0.23859375755288539 0.27351658223123571 0 -0.23859375755288539 0.27351658223123571 0 -0.2318836065251762 0.27706753517829003 0 -0.2251995291591925 0.27053422063923921 0 -0.2367117788978359 0.28331597312392209 0 -0.2318836065251762 0.27706753517829003 0 -0.227029360490791 0.2809033647187632 0 -0.2318836065251762 0.27706753517829003 0 -0.227029360490791 0.2809033647187632 0 -0.2251995291591925 0.27053422063923921 0 -0.21514248390724269 0.28459674552138792 0 -0.227029360490791 0.2809033647187632 0 -0.2251995291591925 0.27053422063923921 0 -0.227029360490791 0.2809033647187632 0 -0.2251995291591925 0.27053422063923921 0 -0.2410711574876746 0.26181972073814058 0 -0.23591182662198429 0.25471420996969779 0 -0.2251995291591925 0.27053422063923921 0 -0.2251995291591925 0.27053422063923921 0 -0.21045523589429579 0.26090403759842867 0 -0.22115523807837759 0.24761635045506819 0 -0.23591182662198429 0.25471420996969779 0 -0.2251995291591925 0.27053422063923921 0 -0.22115523807837759 0.24761635045506819 0 -0.2251995291591925 0.27053422063923921 0 -0.22115523807837759 0.24761635045506819 0 -0.21045523589429579 0.26090403759842867 0 -0.22115523807837759 0.24761635045506819 0 -0.19944164800203401 0.24874023338186729 0 -0.2251995291591925 0.27053422063923921 0 -0.2090156072010925 0.27376160461352089 0 -0.2251995291591925 0.27053422063923921 0 -0.21045523589429579 0.26090403759842867 0 -0.2090156072010925 0.27376160461352089 0 -0.21514248390724269 0.28459674552138792 0 -0.2090156072010925 0.27376160461352089 0 -0.1923172054106215 0.27998594948428529 0 -0.21514248390724269 0.28459674552138792 0 -0.2251995291591925 0.27053422063923921 0 -0.2090156072010925 0.27376160461352089 0 -0.21045523589429579 0.26090403759842867 0 -0.2090156072010925 0.27376160461352089 0 -0.1974641570307826 0.263867778902448 0 -0.2090156072010925 0.27376160461352089 0 -0.19283168524299291 0.27698898858780491 0 -0.2090156072010925 0.27376160461352089 0 -0.19283168524299291 0.27698898858780491 0 -0.1923172054106215 0.27998594948428529 0 -0.2090156072010925 0.27376160461352089 0 -0.19283168524299291 0.27698898858780491 0 -0.1974641570307826 0.263867778902448 0 -0.19283168524299291 0.27698898858780491 0 -0.18973723420461619 0.27760608138622239 0 -0.18973723420461619 0.27760608138622239 0 -0.1923172054106215 0.27998594948428529 0 -0.19283168524299291 0.27698898858780491 0 -0.18973723420461619 0.27760608138622239 0 -0.1923172054106215 0.27998594948428529 0 -0.19283168524299291 0.27698898858780491 0 -0.1923172054106215 0.27998594948428529 0 -0.1974641570307826 0.263867778902448 0 -0.17105153145254101 0.26036964565936288 0 -0.19944164800203401 0.24874023338186729 0 -0.21045523589429579 0.26090403759842867 0 -0.1974641570307826 0.263867778902448 0 -0.19944164800203401 0.24874023338186729 0 -0.17105153145254101 0.26036964565936288 0 -0.15236582870046669 0.24313320993250201 0 -0.17105153145254101 0.26036964565936288 0 -0.16213836921782121 0.26214710090358301 0 -0.15236582870046669 0.24313320993250201 0 -0.16213836921782121 0.26214710090358301 0 -0.17636749085253539 0.28027226425255403 0 -0.15021504766293819 0.285487562266038 0 -0.17105153145254101 0.26036964565936288 0 -0.16213836921782121 0.26214710090358301 0 -0.17636749085253539 0.28027226425255403 0 -0.16213836921782121 0.26214710090358301 0 -0.17636749085253539 0.28027226425255403 0 -0.19283168524299291 0.27698898858780491 0 -0.18973723420461619 0.27760608138622239 0 -0.17105153145254101 0.26036964565936288 0 -0.18973723420461619 0.27760608138622239 0 -0.17105153145254101 0.26036964565936288 0 -0.17636749085253539 0.28027226425255403 0 -0.18973723420461619 0.27760608138622239 0 -0.1923172054106215 0.27998594948428529 0 -0.17636749085253539 0.28027226425255403 0 -0.18973723420461619 0.27760608138622239 0 -0.17105153145254101 0.26036964565936288 0 -0.19283168524299291 0.27698898858780491 0 -0.1974641570307826 0.263867778902448 0 -0.17105153145254101 0.26036964565936288 0 -0.18973723420461619 0.27760608138622239 0 -0.17636749085253539 0.28027226425255403 0 -0.18941495337624881 0.29689222123956432 0 -0.17636749085253539 0.28027226425255403 0 -0.1776358325085256 0.30078618340567709 0 -0.18941495337624881 0.29689222123956432 0 -0.17636749085253539 0.28027226425255403 0 -0.17636749085253539 0.28027226425255403 0 -0.1776358325085256 0.30078618340567709 0 -0.16387005653142001 0.30095397246104261 0 -0.18941495337624881 0.29689222123956432 0 -0.1923172054106215 0.27998594948428529 0 -0.17636749085253539 0.28027226425255403 0 -0.1862012084000825 0.31561300953630222 0 -0.18941495337624881 0.29689222123956432 0 -0.1776358325085256 0.30078618340567709 0 -0.1776358325085256 0.30078618340567709 0 -0.17408800317388839 0.31216795441764539 0 -0.16387005653142001 0.30095397246104261 0 -0.1862012084000825 0.31561300953630222 0 -0.1776358325085256 0.30078618340567709 0 -0.17408800317388839 0.31216795441764539 0 -0.16373149668713879 0.32002219785020308 0 -0.17408800317388839 0.31216795441764539 0 -0.16387005653142001 0.30095397246104261 0 -0.16373149668713879 0.32002219785020308 0 -0.16387005653142001 0.30095397246104261 0 -0.14565870413464291 0.30964317866708618 0 -0.17636749085253539 0.28027226425255403 0 -0.16387005653142001 0.30095397246104261 0 -0.15021504766293819 0.285487562266038 0 -0.17636749085253539 0.28027226425255403 0 -0.15021504766293819 0.285487562266038 0 -0.16387005653142001 0.30095397246104261 0 -0.15021504766293819 0.285487562266038 0 -0.14565870413464291 0.30964317866708618 0 -0.1260164701007396 0.31398711991216111 0 -0.14565870413464291 0.30964317866708618 0 -0.1240626044733409 0.2907028602795218 0 -0.15021504766293819 0.285487562266038 0 -0.1240626044733409 0.2907028602795218 0 -0.15021504766293819 0.285487562266038 0 -0.12789499875574531 0.26903991405042249 0 -0.1240626044733409 0.2907028602795218 0 -0.15021504766293819 0.285487562266038 0 -0.14565870413464291 0.30964317866708618 0 -0.1240626044733409 0.2907028602795218 0 -0.14448070470343841 0.26136136076834349 0 -0.12721968414440549 0.2455771021429605 0 -0.14790924758310689 0.24402193755461199 0 -0.12789499875574531 0.26903991405042249 0 -0.14448070470343841 0.26136136076834349 0 -0.12721968414440549 0.2455771021429605 0 -0.16213836921782121 0.26214710090358301 0 -0.14448070470343841 0.26136136076834349 0 -0.14790924758310689 0.24402193755461199 0 -0.16213836921782121 0.26214710090358301 0 -0.14790924758310689 0.24402193755461199 0 -0.16213836921782121 0.26214710090358301 0 -0.15021504766293819 0.285487562266038 0 -0.14448070470343841 0.26136136076834349 0 -0.15021504766293819 0.285487562266038 0 -0.12789499875574531 0.26903991405042249 0 -0.14448070470343841 0.26136136076834349 0 -0.10784131015380299 0.27585772000047071 0 -0.1119693805131567 0.25879082909416579 0 -0.091305149529036497 0.2638843022881236 0 -0.10784131015380299 0.27585772000047071 0 -0.090836204849159038 0.27975907297724512 0 -0.091305149529036497 0.2638843022881236 0 -0.1119693805131567 0.25879082909416579 0 -0.091305149529036497 0.2638843022881236 0 -0.10558575998279331 0.2395951069888522 0 -0.12789499875574531 0.26903991405042249 0 -0.1119693805131567 0.25879082909416579 0 -0.12721968414440549 0.2455771021429605 0 -0.12789499875574531 0.26903991405042249 0 -0.10784131015380299 0.27585772000047071 0 -0.1119693805131567 0.25879082909416579 0 -0.12789499875574531 0.26903991405042249 0 -0.10784131015380299 0.27585772000047071 0 -0.1240626044733409 0.2907028602795218 0 -0.1240626044733409 0.2907028602795218 0 -0.097910161283743607 0.29591815829300572 0 -0.10784131015380299 0.27585772000047071 0 -0.1240626044733409 0.2907028602795218 0 -0.097910161283743607 0.29591815829300572 0 -0.1260164701007396 0.31398711991216111 0 -0.1240626044733409 0.2907028602795218 0 -0.11249723525766681 0.30617326807396511 0 -0.1240626044733409 0.2907028602795218 0 -0.11249723525766681 0.30617326807396511 0 -0.097910161283743607 0.29591815829300572 0 -0.11249723525766681 0.30617326807396511 0 -0.097910161283743607 0.29591815829300572 0 -0.1004348164767503 0.31581038741161049 0 -0.097910161283743607 0.29591815829300572 0 -0.08721229157611958 0.31045220392240719 0 -0.1004348164767503 0.31581038741161049 0 -0.10784131015380299 0.27585772000047071 0 -0.097910161283743607 0.29591815829300572 0 -0.090836204849159038 0.27975907297724512 0 -0.097910161283743607 0.29591815829300572 0 -0.071757718094146605 0.3011334563064908 0 -0.077173205773593295 0.28993924801943871 0 -0.097910161283743607 0.29591815829300572 0 -0.077173205773593295 0.28993924801943871 0 -0.090836204849159038 0.27975907297724512 0 -0.097910161283743607 0.29591815829300572 0 -0.071757718094146605 0.3011334563064908 0 -0.097910161283743607 0.29591815829300572 0 -0.08721229157611958 0.31045220392240719 0 -0.071757718094146605 0.3011334563064908 0 -0.071757718094146605 0.3011334563064908 0 -0.054455613558730798 0.31426458222795789 0 -0.065137345857709056 0.31481824891229621 0 -0.075251720224832619 0.31203591335375491 0 -0.071757718094146605 0.3011334563064908 0 -0.065137345857709056 0.31481824891229621 0 -0.08721229157611958 0.31045220392240719 0 -0.075251720224832619 0.31203591335375491 0 -0.071757718094146605 0.3011334563064908 0 -0.071757718094146605 0.3011334563064908 0 -0.065137345857709056 0.31481824891229621 0 -0.071757718094146605 0.3011334563064908 0 -0.077173205773593295 0.28993924801943871 0 -0.06080475961015145 0.2856005811419543 0 -0.077173205773593295 0.28993924801943871 0 -0.077857174952733366 0.27390158193974778 0 -0.06080475961015145 0.2856005811419543 0 -0.071757718094146605 0.3011334563064908 0 -0.077173205773593295 0.28993924801943871 0 -0.077857174952733366 0.27390158193974778 0 -0.064122449016705579 0.26839918266156121 0 -0.06080475961015145 0.2856005811419543 0 -0.077173205773593295 0.28993924801943871 0 -0.077857174952733366 0.27390158193974778 0 -0.090836204849159038 0.27975907297724512 0 -0.077857174952733366 0.27390158193974778 0 -0.090836204849159038 0.27975907297724512 0 -0.091305149529036497 0.2638843022881236 0 -0.091305149529036497 0.2638843022881236 0 -0.071779765096984249 0.25408557527859887 0 -0.083137910724795955 0.2382034600321912 0 -0.091305149529036497 0.2638843022881236 0 -0.083137910724795955 0.2382034600321912 0 -0.077857174952733366 0.27390158193974778 0 -0.091305149529036497 0.2638843022881236 0 -0.071779765096984249 0.25408557527859887 0 -0.077857174952733366 0.27390158193974778 0 -0.064122449016705579 0.26839918266156121 0 -0.071779765096984249 0.25408557527859887 0 -0.064122449016705579 0.26839918266156121 0 -0.071779765096984249 0.25408557527859887 0 -0.058313427807731563 0.25881312895783298 0 -0.071779765096984249 0.25408557527859887 0 -0.058313427807731563 0.25881312895783298 0 -0.056671169016731943 0.24775010090833799 0 -0.064122449016705579 0.26839918266156121 0 -0.058313427807731563 0.25881312895783298 0 -0.05482873670990418 0.26962516283839921 0 -0.058313427807731563 0.25881312895783298 0 -0.05482873670990418 0.26962516283839921 0 -0.046318512574401977 0.25457591497919663 0 -0.046548454718403971 0.25110670294478082 0 -0.046318512574401977 0.25457591497919663 0 -0.056671169016731943 0.24775010090833799 0 -0.058313427807731563 0.25881312895783298 0 -0.046318512574401977 0.25457591497919663 0 -0.056671169016731943 0.24775010090833799 0 -0.046318512574401977 0.25457591497919663 0 -0.056671169016731943 0.24775010090833799 0 -0.05482873670990418 0.26962516283839921 0 -0.044584534540530338 0.28073700645145078 0 -0.06080475961015145 0.2856005811419543 0 -0.064122449016705579 0.26839918266156121 0 -0.05482873670990418 0.26962516283839921 0 -0.06080475961015145 0.2856005811419543 0 -0.05482873670990418 0.26962516283839921 0 -0.044584534540530338 0.28073700645145078 0 -0.046318512574401977 0.25457591497919663 0 -0.044584534540530338 0.28073700645145078 0 -0.032097881560439127 0.26395199964038901 0 -0.030742914591505351 0.27746855753245558 0 -0.044584534540530338 0.28073700645145078 0 -0.046318512574401977 0.25457591497919663 0 -0.044584534540530338 0.28073700645145078 0 -0.046318512574401977 0.25457591497919663 0 -0.032097881560439127 0.26395199964038901 0 -0.032097881560439127 0.26395199964038901 0 -0.037795280898350561 0.2513280305738731 0 -0.024284486608463499 0.2455600174416373 0 -0.046548454718403971 0.25110670294478082 0 -0.046318512574401977 0.25457591497919663 0 -0.037795280898350561 0.2513280305738731 0 -0.046548454718403971 0.25110670294478082 0 -0.046318512574401977 0.25457591497919663 0 -0.046318512574401977 0.25457591497919663 0 -0.032097881560439127 0.26395199964038901 0 -0.046318512574401977 0.25457591497919663 0 -0.032097881560439127 0.26395199964038901 0 -0.037795280898350561 0.2513280305738731 0 -0.017877250546478651 0.27332808430158512 0 -0.024284486608463499 0.2455600174416373 0 -0.017877250546478651 0.27332808430158512 0 -0.01103314285855006 0.25712562694631952 0 -0.024284486608463499 0.2455600174416373 0 -0.032097881560439127 0.26395199964038901 0 -0.017877250546478651 0.27332808430158512 0 -0.024284486608463499 0.2455600174416373 0 -0.030742914591505351 0.27746855753245558 0 -0.017877250546478651 0.27332808430158512 0 -0.028339015408820511 0.29000336158942919 0 -0.032097881560439127 0.26395199964038901 0 -0.017877250546478651 0.27332808430158512 0 -0.032097881560439127 0.26395199964038901 0 -0.030742914591505351 0.27746855753245558 0 -0.017877250546478651 0.27332808430158512 0 -0.017877250546478651 0.27332808430158512 0 -0.0022759046787402489 0.2704760391756087 0 0.0030998190152937352 0.28715888969705672 0 -0.017877250546478651 0.27332808430158512 0 -0.0022759046787402489 0.2704760391756087 0 -0.01103314285855006 0.25712562694631952 0 -0.017877250546478651 0.27332808430158512 0 0.0030998190152937352 0.28715888969705672 0 -0.0022759046787402489 0.2704760391756087 0 -0.01103314285855006 0.25712562694631952 0 0.0033967451803710411 0.25877395175208318 0 -0.01103314285855006 0.25712562694631952 0 -0.007813930522529676 0.24326673244151301 0 0.0033967451803710411 0.25877395175208318 0 -0.02334096461446861 0.31078868417224992 0 0.0024005012337594972 0.29782548745049181 0 -0.02334096461446861 0.31078868417224992 0 -0.013893339964737459 0.3126727214574343 0 0.0024005012337594972 0.29782548745049181 0 -0.011691990564697351 0.30013413781028098 0 -0.02334096461446861 0.31078868417224992 0 0.0024005012337594972 0.29782548745049181 0 -0.013893339964737459 0.3126727214574343 0 0.00095179914183931018 0.31269552729647332 0 0.0024005012337594972 0.29782548745049181 0 -0.017877250546478651 0.27332808430158512 0 -0.011691990564697351 0.30013413781028098 0 -0.011691990564697351 0.30013413781028098 0 -0.0059110236117029162 0.29074795285857052 0 0.0024005012337594972 0.29782548745049181 0 -0.017877250546478651 0.27332808430158512 0 -0.011691990564697351 0.30013413781028098 0 -0.0059110236117029162 0.29074795285857052 0 -0.017877250546478651 0.27332808430158512 0 -0.0059110236117029162 0.29074795285857052 0 0.0030998190152937352 0.28715888969705672 0 -0.0059110236117029162 0.29074795285857052 0 0.0030998190152937352 0.28715888969705672 0 0.0024005012337594972 0.29782548745049181 0 -0.017877250546478651 0.27332808430158512 0 -0.011691990564697351 0.30013413781028098 0 -0.028339015408820511 0.29000336158942919 0 -0.011691990564697351 0.30013413781028098 0 -0.028339015408820511 0.29000336158942919 0 -0.023364308256282669 0.3007278889291648 0 -0.023364308256282669 0.3007278889291648 0 -0.02334096461446861 0.31078868417224992 0 -0.042850556506657943 0.30689809792370498 0 -0.011691990564697351 0.30013413781028098 0 -0.023364308256282669 0.3007278889291648 0 -0.02334096461446861 0.31078868417224992 0 -0.02334096461446861 0.31078868417224992 0 -0.013893339964737459 0.3126727214574343 0 -0.02334096461446861 0.31078868417224992 0 -0.042850556506657943 0.30689809792370498 0 -0.028339015408820511 0.29000336158942919 0 -0.023364308256282669 0.3007278889291648 0 -0.042850556506657943 0.30689809792370498 0 -0.044584534540530338 0.28073700645145078 0 -0.042850556506657943 0.30689809792370498 0 -0.044584534540530338 0.28073700645145078 0 -0.028339015408820511 0.29000336158942919 0 -0.042850556506657943 0.30689809792370498 0 -0.044584534540530338 0.28073700645145078 0 -0.030742914591505351 0.27746855753245558 0 -0.028339015408820511 0.29000336158942919 0 -0.044584534540530338 0.28073700645145078 0 -0.042850556506657943 0.30689809792370498 0 -0.06080475961015145 0.2856005811419543 0 -0.071757718094146605 0.3011334563064908 0 -0.042850556506657943 0.30689809792370498 0 -0.071757718094146605 0.3011334563064908 0 -0.042850556506657943 0.30689809792370498 0 -0.06080475961015145 0.2856005811419543 0 -0.071757718094146605 0.3011334563064908 0 -0.042850556506657943 0.30689809792370498 0 -0.054455613558730798 0.31426458222795789 0 -0.054455613558730798 0.31426458222795789 0 -0.05851697362127041 0.32850304151810111 0 -0.041970848129010717 0.32017054479846269 0 -0.05851697362127041 0.32850304151810111 0 -0.041970848129010717 0.32017054479846269 0 -0.054455613558730798 0.31426458222795789 0 -0.05851697362127041 0.32850304151810111 0 -0.065137345857709056 0.31481824891229621 0 -0.05851697362127041 0.32850304151810111 0 -0.065137345857709056 0.31481824891229621 0 -0.05851697362127041 0.32850304151810111 0 -0.04033789598073563 0.34480742582362861 0 -0.048613688288056213 0.34897385510094331 0 -0.05851697362127041 0.32850304151810111 0 -0.041970848129010717 0.32017054479846269 0 -0.04033789598073563 0.34480742582362861 0 -0.05851697362127041 0.32850304151810111 0 -0.048613688288056213 0.34897385510094331 0 -0.067847662761113023 0.3332019020873675 0 -0.05851697362127041 0.32850304151810111 0 -0.048613688288056213 0.34897385510094331 0 -0.041970848129010717 0.32017054479846269 0 -0.04033789598073563 0.34480742582362861 0 -0.041970848129010717 0.32017054479846269 0 -0.027559866075150971 0.33669640918873139 0 -0.04033789598073563 0.34480742582362861 0 -0.02334096461446861 0.31078868417224992 0 -0.042850556506657943 0.30689809792370498 0 -0.041970848129010717 0.32017054479846269 0 -0.02334096461446861 0.31078868417224992 0 -0.041970848129010717 0.32017054479846269 0 -0.042850556506657943 0.30689809792370498 0 -0.054455613558730798 0.31426458222795789 0 -0.041970848129010717 0.32017054479846269 0 -0.042850556506657943 0.30689809792370498 0 -0.041970848129010717 0.32017054479846269 0 -0.041970848129010717 0.32017054479846269 0 -0.020373852569907789 0.32473365710577201 0 -0.027559866075150971 0.33669640918873139 0 -0.02334096461446861 0.31078868417224992 0 -0.041970848129010717 0.32017054479846269 0 -0.020373852569907789 0.32473365710577201 0 -0.02334096461446861 0.31078868417224992 0 -0.020373852569907789 0.32473365710577201 0 -0.013893339964737459 0.3126727214574343 0 -0.027559866075150971 0.33669640918873139 0 -0.012100946328944999 0.33891911017462029 0 -0.023015787367155371 0.3548513080411741 0 -0.020373852569907789 0.32473365710577201 0 -0.027559866075150971 0.33669640918873139 0 -0.012100946328944999 0.33891911017462029 0 -0.012100946328944999 0.33891911017462029 0 -0.0052017203771913519 0.32444035380948522 0 0.004118414419445467 0.33624226263263202 0 -0.020373852569907789 0.32473365710577201 0 -0.012100946328944999 0.33891911017462029 0 -0.0052017203771913519 0.32444035380948522 0 -0.012100946328944999 0.33891911017462029 0 -0.0030939446421977329 0.34951316078348549 0 0.004118414419445467 0.33624226263263202 0 -0.0052017203771913519 0.32444035380948522 0 -0.013893339964737459 0.3126727214574343 0 0.00095179914183931018 0.31269552729647332 0 -0.020373852569907789 0.32473365710577201 0 -0.0052017203771913519 0.32444035380948522 0 -0.013893339964737459 0.3126727214574343 0 -0.0049972874963579344 0.36554509623529041 0 -0.020772463272694108 0.36867510407158749 0 -0.01955340442581684 0.38407397650504238 0 -0.0049972874963579344 0.36554509623529041 0 -0.0030939446421977329 0.34951316078348549 0 -0.023015787367155371 0.3548513080411741 0 -0.012100946328944999 0.33891911017462029 0 -0.0030939446421977329 0.34951316078348549 0 -0.023015787367155371 0.3548513080411741 0 -0.027559866075150971 0.33669640918873139 0 -0.023015787367155371 0.3548513080411741 0 -0.04033789598073563 0.34480742582362861 0 -0.020772463272694108 0.36867510407158749 0 -0.038710402954841662 0.36944466868378528 0 -0.01955340442581684 0.38407397650504238 0 -0.0049972874963579344 0.36554509623529041 0 -0.023015787367155371 0.3548513080411741 0 -0.020772463272694108 0.36867510407158749 0 -0.023015787367155371 0.3548513080411741 0 -0.020772463272694108 0.36867510407158749 0 -0.038710402954841662 0.36944466868378528 0 -0.038710402954841662 0.36944466868378528 0 -0.04033789598073563 0.34480742582362861 0 -0.023015787367155371 0.3548513080411741 0 -0.038710402954841662 0.36944466868378528 0 -0.04033789598073563 0.34480742582362861 0 -0.038710402954841662 0.36944466868378528 0 -0.048613688288056213 0.34897385510094331 0 -0.038710402954841662 0.36944466868378528 0 -0.04033789598073563 0.34480742582362861 0 -0.048613688288056213 0.34897385510094331 0 -0.048613688288056213 0.34897385510094331 0 -0.069791972136034663 0.35237929312573352 0 -0.067847662761113023 0.3332019020873675 0 -0.048613688288056213 0.34897385510094331 0 -0.057450685403362262 0.36804532819760549 0 -0.069791972136034663 0.35237929312573352 0 -0.038710402954841662 0.36944466868378528 0 -0.057450685403362262 0.36804532819760549 0 -0.049555370339348967 0.38296364534111321 0 -0.038710402954841662 0.36944466868378528 0 -0.048613688288056213 0.34897385510094331 0 -0.057450685403362262 0.36804532819760549 0 -0.057450685403362262 0.36804532819760549 0 -0.074989623249726897 0.3711857087620743 0 -0.069791972136034663 0.35237929312573352 0 -0.057450685403362262 0.36804532819760549 0 -0.074989623249726897 0.3711857087620743 0 -0.063405162028239953 0.38438567306724192 0 -0.089772437027565308 0.35192725344477649 0 -0.092580215381882616 0.37535731539208089 0 -0.074989623249726897 0.3711857087620743 0 -0.089772437027565308 0.35192725344477649 0 -0.092580215381882616 0.37535731539208089 0 -0.089772437027565308 0.35192725344477649 0 -0.069791972136034663 0.35237929312573352 0 -0.079958356432305061 0.34122007099805157 0 -0.074989623249726897 0.3711857087620743 0 -0.089772437027565308 0.35192725344477649 0 -0.069791972136034663 0.35237929312573352 0 -0.069791972136034663 0.35237929312573352 0 -0.067847662761113023 0.3332019020873675 0 -0.079958356432305061 0.34122007099805157 0 -0.05851697362127041 0.32850304151810111 0 -0.067847662761113023 0.3332019020873675 0 -0.074751805356653267 0.32365122682733621 0 -0.067847662761113023 0.3332019020873675 0 -0.074751805356653267 0.32365122682733621 0 -0.079958356432305061 0.34122007099805157 0 -0.05851697362127041 0.32850304151810111 0 -0.067847662761113023 0.3332019020873675 0 -0.05851697362127041 0.32850304151810111 0 -0.065137345857709056 0.31481824891229621 0 -0.074751805356653267 0.32365122682733621 0 -0.075251720224832619 0.31203591335375491 0 -0.065137345857709056 0.31481824891229621 0 -0.074751805356653267 0.32365122682733621 0 -0.08721229157611958 0.31045220392240719 0 -0.086964658673247999 0.32849719149747197 0 -0.1004348164767503 0.31581038741161049 0 -0.08721229157611958 0.31045220392240719 0 -0.074751805356653267 0.32365122682733621 0 -0.086964658673247999 0.32849719149747197 0 -0.08721229157611958 0.31045220392240719 0 -0.075251720224832619 0.31203591335375491 0 -0.074751805356653267 0.32365122682733621 0 -0.089772437027565308 0.35192725344477649 0 -0.086964658673247999 0.32849719149747197 0 -0.089772437027565308 0.35192725344477649 0 -0.086964658673247999 0.32849719149747197 0 -0.079958356432305061 0.34122007099805157 0 -0.089772437027565308 0.35192725344477649 0 -0.086964658673247999 0.32849719149747197 0 -0.10431959358470801 0.33587822358525737 0 -0.074751805356653267 0.32365122682733621 0 -0.086964658673247999 0.32849719149747197 0 -0.079958356432305061 0.34122007099805157 0 -0.086964658673247999 0.32849719149747197 0 -0.10431959358470801 0.33587822358525737 0 -0.1004348164767503 0.31581038741161049 0 -0.10431959358470801 0.33587822358525737 0 -0.1004348164767503 0.31581038741161049 0 -0.1133477930162728 0.32143874372158648 0 -0.11249723525766681 0.30617326807396511 0 -0.1004348164767503 0.31581038741161049 0 -0.1133477930162728 0.32143874372158648 0 -0.1260164701007396 0.31398711991216111 0 -0.1133477930162728 0.32143874372158648 0 -0.1227337675384178 0.33210561891118429 0 -0.1260164701007396 0.31398711991216111 0 -0.11249723525766681 0.30617326807396511 0 -0.1133477930162728 0.32143874372158648 0 -0.10431959358470801 0.33587822358525737 0 -0.1227337675384178 0.33210561891118429 0 -0.11924372915088351 0.34740833971929302 0 -0.10431959358470801 0.33587822358525737 0 -0.1133477930162728 0.32143874372158648 0 -0.1227337675384178 0.33210561891118429 0 -0.10431959358470801 0.33587822358525737 0 -0.11924372915088351 0.34740833971929302 0 -0.1093813198946372 0.36332172338807878 0 -0.13031811986116321 0.35709426495866547 0 -0.11924372915088351 0.34740833971929302 0 -0.1093813198946372 0.36332172338807878 0 -0.12723652003124869 0.37168063902463838 0 -0.13031811986116321 0.35709426495866547 0 -0.1093813198946372 0.36332172338807878 0 -0.12723652003124869 0.37168063902463838 0 -0.1093813198946372 0.36332172338807878 0 -0.1111128118616504 0.38520818915009247 0 -0.1093813198946372 0.36332172338807878 0 -0.1111128118616504 0.38520818915009247 0 -0.092580215381882616 0.37535731539208089 0 -0.089772437027565308 0.35192725344477649 0 -0.1093813198946372 0.36332172338807878 0 -0.092580215381882616 0.37535731539208089 0 -0.089772437027565308 0.35192725344477649 0 -0.10431959358470801 0.33587822358525737 0 -0.1093813198946372 0.36332172338807878 0 -0.095387993736199925 0.39878737733938541 0 -0.1111128118616504 0.38520818915009247 0 -0.1136153717574758 0.40839032584570301 0 -0.095387993736199925 0.39878737733938541 0 -0.092580215381882616 0.37535731539208089 0 -0.095387993736199925 0.39878737733938541 0 -0.1111128118616504 0.38520818915009247 0 -0.092580215381882616 0.37535731539208089 0 -0.12903497142443171 0.3945632124047147 0 -0.12723652003124869 0.37168063902463838 0 -0.1111128118616504 0.38520818915009247 0 -0.12903497142443171 0.3945632124047147 0 -0.1111128118616504 0.38520818915009247 0 -0.1136153717574758 0.40839032584570301 0 -0.12903497142443171 0.3945632124047147 0 -0.1136153717574758 0.40839032584570301 0 -0.13349362306147741 0.41026982318073418 0 -0.12280002593257081 0.42101724561730641 0 -0.1136153717574758 0.40839032584570301 0 -0.12280002593257081 0.42101724561730641 0 -0.1136153717574758 0.40839032584570301 0 -0.1107116626047691 0.42432355807127059 0 -0.12280002593257081 0.42101724561730641 0 -0.12021413394562799 0.4360530644539134 0 -0.1107116626047691 0.42432355807127059 0 -0.12021413394562799 0.4360530644539134 0 -0.1107116626047691 0.42432355807127059 0 -0.1058374587406376 0.43267956545934738 0 -0.098579020799236958 0.42541553395563708 0 -0.098195772090518413 0.42221743928668959 0 -0.086171404837756746 0.44007121827702772 0 -0.1107116626047691 0.42432355807127059 0 -0.1058374587406376 0.43267956545934738 0 -0.098579020799236958 0.42541553395563708 0 -0.1107116626047691 0.42432355807127059 0 -0.098579020799236958 0.42541553395563708 0 -0.098195772090518413 0.42221743928668959 0 -0.098579020799236958 0.42541553395563708 0 -0.098195772090518413 0.42221743928668959 0 -0.098579020799236958 0.42541553395563708 0 -0.086171404837756746 0.44007121827702772 0 -0.097730432952944854 0.43754098998523339 0 -0.1058374587406376 0.43267956545934738 0 -0.098579020799236958 0.42541553395563708 0 -0.097730432952944854 0.43754098998523339 0 -0.1136153717574758 0.40839032584570301 0 -0.1107116626047691 0.42432355807127059 0 -0.098195772090518413 0.42221743928668959 0 -0.095387993736199925 0.39878737733938541 0 -0.1136153717574758 0.40839032584570301 0 -0.098195772090518413 0.42221743928668959 0 -0.095387993736199925 0.39878737733938541 0 -0.098195772090518413 0.42221743928668959 0 -0.1136153717574758 0.40839032584570301 0 -0.098195772090518413 0.42221743928668959 0 -0.095387993736199925 0.39878737733938541 0 -0.098195772090518413 0.42221743928668959 0 -0.084573997002272736 0.41186039909247579 0 -0.098195772090518413 0.42221743928668959 0 -0.084573997002272736 0.41186039909247579 0 -0.081359505028013424 0.42461139485528188 0 -0.084573997002272736 0.41186039909247579 0 -0.081359505028013424 0.42461139485528188 0 -0.070368204758249189 0.41651934542149999 0 -0.098195772090518413 0.42221743928668959 0 -0.081359505028013424 0.42461139485528188 0 -0.077007573054062084 0.44121738987004949 0 -0.098195772090518413 0.42221743928668959 0 -0.077007573054062084 0.44121738987004949 0 -0.086171404837756746 0.44007121827702772 0 -0.098195772090518413 0.42221743928668959 0 -0.077007573054062084 0.44121738987004949 0 -0.081359505028013424 0.42461139485528188 0 -0.073486434680947565 0.43061404474116582 0 -0.077007573054062084 0.44121738987004949 0 -0.073486434680947565 0.43061404474116582 0 -0.062456382226270292 0.43019076706740872 0 -0.077007573054062084 0.44121738987004949 0 -0.081359505028013424 0.42461139485528188 0 -0.073486434680947565 0.43061404474116582 0 -0.070368204758249189 0.41651934542149999 0 -0.073486434680947565 0.43061404474116582 0 -0.070368204758249189 0.41651934542149999 0 -0.062456382226270292 0.43019076706740872 0 -0.084573997002272736 0.41186039909247579 0 -0.070368204758249189 0.41651934542149999 0 -0.076937267521276623 0.39501938934500791 0 -0.076937267521276623 0.39501938934500791 0 -0.063405162028239953 0.38438567306724192 0 -0.05505981138771484 0.40155224322745509 0 -0.070368204758249189 0.41651934542149999 0 -0.076937267521276623 0.39501938934500791 0 -0.05505981138771484 0.40155224322745509 0 -0.095387993736199925 0.39878737733938541 0 -0.084573997002272736 0.41186039909247579 0 -0.076937267521276623 0.39501938934500791 0 -0.095387993736199925 0.39878737733938541 0 -0.076937267521276623 0.39501938934500791 0 -0.092580215381882616 0.37535731539208089 0 -0.074989623249726897 0.3711857087620743 0 -0.076937267521276623 0.39501938934500791 0 -0.092580215381882616 0.37535731539208089 0 -0.074989623249726897 0.3711857087620743 0 -0.076937267521276623 0.39501938934500791 0 -0.063405162028239953 0.38438567306724192 0 -0.063405162028239953 0.38438567306724192 0 -0.049555370339348967 0.38296364534111321 0 -0.05505981138771484 0.40155224322745509 0 -0.057450685403362262 0.36804532819760549 0 -0.063405162028239953 0.38438567306724192 0 -0.049555370339348967 0.38296364534111321 0 -0.049555370339348967 0.38296364534111321 0 -0.05505981138771484 0.40155224322745509 0 -0.037079563161761267 0.39396695452529162 0 -0.037079563161761267 0.39396695452529162 0 -0.035454182491059839 0.4184896022017886 0 -0.05505981138771484 0.40155224322745509 0 -0.037079563161761267 0.39396695452529162 0 -0.035454182491059839 0.4184896022017886 0 -0.038710402954841662 0.36944466868378528 0 -0.037079563161761267 0.39396695452529162 0 -0.01955340442581684 0.38407397650504238 0 -0.038710402954841662 0.36944466868378528 0 -0.037079563161761267 0.39396695452529162 0 -0.038710402954841662 0.36944466868378528 0 -0.049555370339348967 0.38296364534111321 0 -0.037079563161761267 0.39396695452529162 0 -0.037079563161761267 0.39396695452529162 0 -0.01955340442581684 0.38407397650504238 0 -0.019113032061241299 0.40300194971928233 0 -0.037079563161761267 0.39396695452529162 0 -0.019113032061241299 0.40300194971928233 0 -0.035454182491059839 0.4184896022017886 0 -0.019113032061241299 0.40300194971928233 0 -0.0042199237379966347 0.41101358895474333 0 0.0027925262936207111 0.39050332549856021 0 -0.01955340442581684 0.38407397650504238 0 -0.019113032061241299 0.40300194971928233 0 0.0027925262936207111 0.39050332549856021 0 -0.0049972874963579344 0.36554509623529041 0 -0.01955340442581684 0.38407397650504238 0 0.0027925262936207111 0.39050332549856021 0 -0.01955340442581684 0.38407397650504238 0 0.0027925262936207111 0.39050332549856021 0 -0.01352845722574446 0.44344937860321332 0 0.0073172739108585006 0.42975307863013051 0 -0.01322315845464332 0.43211717733298349 0 -0.01352845722574446 0.44344937860321332 0 0.0073172739108585006 0.42975307863013051 0 -0.01322315845464332 0.43211717733298349 0 -0.0067742407384930236 0.42448665263340601 0 0.0073172739108585006 0.42975307863013051 0 -0.01322315845464332 0.43211717733298349 0 -0.0067742407384930236 0.42448665263340601 0 -0.017145377558779779 0.42086874668495788 0 -0.019113032061241299 0.40300194971928233 0 -0.0042199237379966347 0.41101358895474333 0 -0.017145377558779779 0.42086874668495788 0 -0.0067742407384930236 0.42448665263340601 0 -0.0042199237379966347 0.41101358895474333 0 0.0067986671371902249 0.41785678209978799 0 -0.0067742407384930236 0.42448665263340601 0 -0.0042199237379966347 0.41101358895474333 0 -0.017145377558779779 0.42086874668495788 0 -0.019113032061241299 0.40300194971928233 0 -0.017145377558779779 0.42086874668495788 0 -0.035454182491059839 0.4184896022017886 0 -0.017145377558779779 0.42086874668495788 0 -0.023636576413323961 0.43570623240416861 0 -0.035454182491059839 0.4184896022017886 0 -0.023636576413323961 0.43570623240416861 0 -0.035454182491059839 0.4184896022017886 0 -0.033828801820358398 0.44301224987828558 0 -0.01322315845464332 0.43211717733298349 0 -0.017145377558779779 0.42086874668495788 0 -0.023636576413323961 0.43570623240416861 0 -0.01322315845464332 0.43211717733298349 0 -0.023636576413323961 0.43570623240416861 0 -0.01352845722574446 0.44344937860321332 0 -0.035454182491059839 0.4184896022017886 0 -0.053799339169060982 0.41904631350453558 0 -0.047624429396552398 0.43075054924721701 0 -0.035454182491059839 0.4184896022017886 0 -0.033828801820358398 0.44301224987828558 0 -0.035454182491059839 0.4184896022017886 0 -0.047624429396552398 0.43075054924721701 0 -0.033828801820358398 0.44301224987828558 0 -0.070368204758249189 0.41651934542149999 0 -0.05505981138771484 0.40155224322745509 0 -0.053799339169060982 0.41904631350453558 0 -0.05505981138771484 0.40155224322745509 0 -0.035454182491059839 0.4184896022017886 0 -0.053799339169060982 0.41904631350453558 0 -0.070368204758249189 0.41651934542149999 0 -0.053799339169060982 0.41904631350453558 0 -0.062456382226270292 0.43019076706740872 0 -0.047624429396552398 0.43075054924721701 0 -0.062456382226270292 0.43019076706740872 0 -0.053566598483283302 0.4441492834054121 0 -0.053799339169060982 0.41904631350453558 0 -0.047624429396552398 0.43075054924721701 0 -0.062456382226270292 0.43019076706740872 0 -0.055044978512382048 0.45121972094898988 0 -0.053566598483283302 0.4441492834054121 0 -0.077007573054062084 0.44121738987004949 0 -0.055044978512382048 0.45121972094898988 0 -0.053566598483283302 0.4441492834054121 0 -0.044466738952878927 0.45103352477225872 0 -0.059616308409503473 0.45681254112666059 0 -0.056416004043780887 0.47295567566716668 0 -0.067340738967387459 0.46662081815581219 0 -0.059616308409503473 0.45681254112666059 0 -0.052539849587583787 0.45799475036872012 0 -0.042225043764944688 0.4724076923832714 0 -0.059616308409503473 0.45681254112666059 0 -0.042225043764944688 0.4724076923832714 0 -0.056416004043780887 0.47295567566716668 0 -0.059616308409503473 0.45681254112666059 0 -0.042225043764944688 0.4724076923832714 0 -0.055044978512382048 0.45121972094898988 0 -0.059616308409503473 0.45681254112666059 0 -0.052539849587583787 0.45799475036872012 0 -0.055044978512382048 0.45121972094898988 0 -0.052539849587583787 0.45799475036872012 0 -0.044466738952878927 0.45103352477225872 0 -0.052539849587583787 0.45799475036872012 0 -0.031056644268640961 0.45472269219739619 0 -0.052539849587583787 0.45799475036872012 0 -0.044466738952878927 0.45103352477225872 0 -0.031056644268640961 0.45472269219739619 0 -0.052539849587583787 0.45799475036872012 0 -0.039058446192913529 0.46315594988136388 0 -0.031056644268640961 0.45472269219739619 0 -0.052539849587583787 0.45799475036872012 0 -0.039058446192913529 0.46315594988136388 0 -0.042225043764944688 0.4724076923832714 0 -0.039058446192913529 0.46315594988136388 0 -0.030412247150484691 0.46749866457606809 0 -0.042225043764944688 0.4724076923832714 0 -0.039058446192913529 0.46315594988136388 0 -0.031056644268640961 0.45472269219739619 0 -0.030412247150484691 0.46749866457606809 0 -0.053566598483283302 0.4441492834054121 0 -0.044466738952878927 0.45103352477225872 0 -0.030125623912504531 0.44708117694077498 0 -0.047624429396552398 0.43075054924721701 0 -0.053566598483283302 0.4441492834054121 0 -0.033828801820358398 0.44301224987828558 0 -0.053566598483283302 0.4441492834054121 0 -0.033828801820358398 0.44301224987828558 0 -0.030125623912504531 0.44708117694077498 0 -0.053566598483283302 0.4441492834054121 0 -0.030125623912504531 0.44708117694077498 0 -0.044466738952878927 0.45103352477225872 0 -0.030125623912504531 0.44708117694077498 0 -0.031056644268640961 0.45472269219739619 0 -0.030125623912504531 0.44708117694077498 0 -0.031056644268640961 0.45472269219739619 0 -0.009573438949698098 0.45145063402607227 0 -0.019281915575762729 0.4445389672086188 0 -0.030125623912504531 0.44708117694077498 0 -0.0066846493417257596 0.45001307047613781 0 -0.031056644268640961 0.45472269219739619 0 -0.009573438949698098 0.45145063402607227 0 -0.030125623912504531 0.44708117694077498 0 -0.0066846493417257596 0.45001307047613781 0 -0.026591568123590991 0.44239801239031529 0 -0.019281915575762729 0.4445389672086188 0 -0.030125623912504531 0.44708117694077498 0 -0.023636576413323961 0.43570623240416861 0 -0.033828801820358398 0.44301224987828558 0 -0.026591568123590991 0.44239801239031529 0 -0.033828801820358398 0.44301224987828558 0 -0.026591568123590991 0.44239801239031529 0 -0.030125623912504531 0.44708117694077498 0 -0.023636576413323961 0.43570623240416861 0 -0.019281915575762729 0.4445389672086188 0 -0.01352845722574446 0.44344937860321332 0 -0.023636576413323961 0.43570623240416861 0 -0.026591568123590991 0.44239801239031529 0 -0.019281915575762729 0.4445389672086188 0 -0.031056644268640961 0.45472269219739619 0 -0.01812634520737394 0.45806471471820209 0 -0.009573438949698098 0.45145063402607227 0 -0.031056644268640961 0.45472269219739619 0 -0.02592831667851813 0.46094871183352959 0 -0.01812634520737394 0.45806471471820209 0 -0.030412247150484691 0.46749866457606809 0 -0.02592831667851813 0.46094871183352959 0 -0.01954394728917911 0.46383925839982709 0 -0.031056644268640961 0.45472269219739619 0 -0.030412247150484691 0.46749866457606809 0 -0.02592831667851813 0.46094871183352959 0 -0.030412247150484691 0.46749866457606809 0 -0.01954394728917911 0.46383925839982709 0 -0.01514388568352576 0.47487812654414469 0 -0.01954394728917911 0.46383925839982709 0 -0.01812634520737394 0.45806471471820209 0 -0.011149553870592631 0.46162763697650411 0 -0.02592831667851813 0.46094871183352959 0 -0.01954394728917911 0.46383925839982709 0 -0.01812634520737394 0.45806471471820209 0 -0.01812634520737394 0.45806471471820209 0 -0.01136815492304049 0.45732725459221818 0 -0.009573438949698098 0.45145063402607227 0 -0.01812634520737394 0.45806471471820209 0 -0.01136815492304049 0.45732725459221818 0 -0.011149553870592631 0.46162763697650411 0 -0.01136815492304049 0.45732725459221818 0 -0.011149553870592631 0.46162763697650411 0 -0.0066232816644972974 0.45816603264809419 0 -0.01136815492304049 0.45732725459221818 0 -0.0066232816644972974 0.45816603264809419 0 -0.009573438949698098 0.45145063402607227 0 -0.011149553870592631 0.46162763697650411 0 -0.003574898900869121 0.46641913614822939 0 -0.01514388568352576 0.47487812654414469 0 -0.01954394728917911 0.46383925839982709 0 -0.011149553870592631 0.46162763697650411 0 -0.01514388568352576 0.47487812654414469 0 -0.011149553870592631 0.46162763697650411 0 -0.003574898900869121 0.46641913614822939 0 -0.0066232816644972974 0.45816603264809419 0 -0.003574898900869121 0.46641913614822939 0 -0.0066232816644972974 0.45816603264809419 0 0.0020319651117476308 0.45548602699397461 0 -0.0066232816644972974 0.45816603264809419 0 -0.009573438949698098 0.45145063402607227 0 0.0020319651117476308 0.45548602699397461 0 -0.030125623912504531 0.44708117694077498 0 -0.0066846493417257596 0.45001307047613781 0 -0.009573438949698098 0.45145063402607227 0 -0.0066846493417257596 0.45001307047613781 0 -0.003748043497315653 0.44185195729638199 0 -0.0096479453063887978 0.44560171516307101 0 -0.0066846493417257596 0.45001307047613781 0 -0.009573438949698098 0.45145063402607227 0 0.01190976636924432 0.44817857585474519 0 -0.003748043497315653 0.44185195729638199 0 -0.01352845722574446 0.44344937860321332 0 0.0073172739108585006 0.42975307863013051 0 -0.0066846493417257596 0.45001307047613781 0 -0.003748043497315653 0.44185195729638199 0 0.0033943469686279252 0.44021789138280099 0 -0.019281915575762729 0.4445389672086188 0 -0.01352845722574446 0.44344937860321332 0 -0.0096479453063887978 0.44560171516307101 0 -0.003748043497315653 0.44185195729638199 0 -0.01352845722574446 0.44344937860321332 0 -0.0096479453063887978 0.44560171516307101 0 -0.019281915575762729 0.4445389672086188 0 -0.0066846493417257596 0.45001307047613781 0 -0.0096479453063887978 0.44560171516307101 0 -0.011270727651266131 0.5 0 -0.00058110225286438612 0.48428626097126221 0 -0.01514388568352576 0.47487812654414469 0 -0.003574898900869121 0.46641913614822939 0 -0.00058110225286438612 0.48428626097126221 0 -0.01514388568352576 0.47487812654414469 0 -0.030412247150484691 0.46749866457606809 0 -0.01514388568352576 0.47487812654414469 0 -0.03071960514364213 0.48342638072335142 0 -0.011270727651266131 0.5 0 -0.01514388568352576 0.47487812654414469 0 -0.03071960514364213 0.48342638072335142 0 -0.011270727651266131 0.5 0 -0.03071960514364213 0.48342638072335142 0 -0.03934694611162215 0.5 0 -0.03071960514364213 0.48342638072335142 0 -0.03934694611162215 0.5 0 -0.0497899883508576 0.48567563066572988 0 -0.030412247150484691 0.46749866457606809 0 -0.03071960514364213 0.48342638072335142 0 -0.042225043764944688 0.4724076923832714 0 -0.03071960514364213 0.48342638072335142 0 -0.042225043764944688 0.4724076923832714 0 -0.0497899883508576 0.48567563066572988 0 -0.042225043764944688 0.4724076923832714 0 -0.056416004043780887 0.47295567566716668 0 -0.0497899883508576 0.48567563066572988 0 -0.056416004043780887 0.47295567566716668 0 -0.0497899883508576 0.48567563066572988 0 -0.06346420805266384 0.48183145370705149 0 -0.056416004043780887 0.47295567566716668 0 -0.06346420805266384 0.48183145370705149 0 -0.067340738967387459 0.46662081815581219 0 -0.03934694611162215 0.5 0 -0.0497899883508576 0.48567563066572988 0 -0.067423164571978167 0.5 0 -0.0497899883508576 0.48567563066572988 0 -0.067423164571978167 0.5 0 -0.06346420805266384 0.48183145370705149 0 -0.067423164571978167 0.5 0 -0.078525677063489716 0.48671990614618688 0 -0.06346420805266384 0.48183145370705149 0 -0.078525677063489716 0.48671990614618688 0 -0.087867267870559818 0.47214728258062738 0 -0.095499383032334184 0.5 0 -0.067423164571978167 0.5 0 -0.078525677063489716 0.48671990614618688 0 -0.095499383032334184 0.5 0 -0.078525677063489716 0.48671990614618688 0 -0.087867267870559818 0.47214728258062738 0 -0.067340738967387459 0.46662081815581219 0 -0.078525677063489716 0.48671990614618688 0 -0.06346420805266384 0.48183145370705149 0 -0.067340738967387459 0.46662081815581219 0 -0.087867267870559818 0.47214728258062738 0 -0.067340738967387459 0.46662081815581219 0 -0.0787942891731572 0.45846778656579118 0 -0.059616308409503473 0.45681254112666059 0 -0.067340738967387459 0.46662081815581219 0 -0.069801507624116854 0.45839440406565801 0 -0.059616308409503473 0.45681254112666059 0 -0.069801507624116854 0.45839440406565801 0 -0.073454693946419305 0.45167647041436809 0 -0.069801507624116854 0.45839440406565801 0 -0.073454693946419305 0.45167647041436809 0 -0.0787942891731572 0.45846778656579118 0 -0.067340738967387459 0.46662081815581219 0 -0.069801507624116854 0.45839440406565801 0 -0.0787942891731572 0.45846778656579118 0 -0.059616308409503473 0.45681254112666059 0 -0.077007573054062084 0.44121738987004949 0 -0.059616308409503473 0.45681254112666059 0 -0.073454693946419305 0.45167647041436809 0 -0.077007573054062084 0.44121738987004949 0 -0.055044978512382048 0.45121972094898988 0 -0.059616308409503473 0.45681254112666059 0 -0.077007573054062084 0.44121738987004949 0 -0.062456382226270292 0.43019076706740872 0 -0.053566598483283302 0.4441492834054121 0 -0.077007573054062084 0.44121738987004949 0 -0.053566598483283302 0.4441492834054121 0 -0.077007573054062084 0.44121738987004949 0 -0.073454693946419305 0.45167647041436809 0 -0.077007573054062084 0.44121738987004949 0 -0.083788292533836531 0.44837340532024023 0 -0.077007573054062084 0.44121738987004949 0 -0.083788292533836531 0.44837340532024023 0 -0.086171404837756746 0.44007121827702772 0 -0.077007573054062084 0.44121738987004949 0 -0.086171404837756746 0.44007121827702772 0 -0.073454693946419305 0.45167647041436809 0 -0.083788292533836531 0.44837340532024023 0 -0.0787942891731572 0.45846778656579118 0 -0.083788292533836531 0.44837340532024023 0 -0.092922514793163713 0.44503963356716469 0 -0.093147701290967791 0.45512886314845219 0 -0.083788292533836531 0.44837340532024023 0 -0.092922514793163713 0.44503963356716469 0 -0.086171404837756746 0.44007121827702772 0 -0.092922514793163713 0.44503963356716469 0 -0.086171404837756746 0.44007121827702772 0 -0.097730432952944854 0.43754098998523339 0 -0.087867267870559818 0.47214728258062738 0 -0.0787942891731572 0.45846778656579118 0 -0.093147701290967791 0.45512886314845219 0 -0.083788292533836531 0.44837340532024023 0 -0.0787942891731572 0.45846778656579118 0 -0.093147701290967791 0.45512886314845219 0 -0.087867267870559818 0.47214728258062738 0 -0.093147701290967791 0.45512886314845219 0 -0.1108702535502611 0.45993849312646862 0 -0.087867267870559818 0.47214728258062738 0 -0.1108702535502611 0.45993849312646862 0 -0.093147701290967791 0.45512886314845219 0 -0.1037747423503127 0.44408369110486989 0 -0.1108702535502611 0.45993849312646862 0 -0.092922514793163713 0.44503963356716469 0 -0.097730432952944854 0.43754098998523339 0 -0.1037747423503127 0.44408369110486989 0 -0.092922514793163713 0.44503963356716469 0 -0.093147701290967791 0.45512886314845219 0 -0.1037747423503127 0.44408369110486989 0 -0.1058374587406376 0.43267956545934738 0 -0.097730432952944854 0.43754098998523339 0 -0.1037747423503127 0.44408369110486989 0 -0.12021413394562799 0.4360530644539134 0 -0.1037747423503127 0.44408369110486989 0 -0.1108702535502611 0.45993849312646862 0 -0.12021413394562799 0.4360530644539134 0 -0.1058374587406376 0.43267956545934738 0 -0.1037747423503127 0.44408369110486989 0 -0.13387323922996239 0.44772970367230969 0 -0.12021413394562799 0.4360530644539134 0 -0.1108702535502611 0.45993849312646862 0 -0.13387323922996239 0.44772970367230969 0 -0.1108702535502611 0.45993849312646862 0 -0.1336487021684617 0.47338411471126329 0 -0.1108702535502611 0.45993849312646862 0 -0.1102922416228614 0.48109397808367182 0 -0.1102922416228614 0.48109397808367182 0 -0.1235756014926902 0.5 0 -0.095499383032334184 0.5 0 -0.1336487021684617 0.47338411471126329 0 -0.1102922416228614 0.48109397808367182 0 -0.1235756014926902 0.5 0 -0.087867267870559818 0.47214728258062738 0 -0.1102922416228614 0.48109397808367182 0 -0.095499383032334184 0.5 0 -0.087867267870559818 0.47214728258062738 0 -0.1108702535502611 0.45993849312646862 0 -0.1102922416228614 0.48109397808367182 0 -0.1615263432913194 0.093414377031829282 0 -0.1653943518879479 0.07705718564816702 0 -0.1801124182337572 0.082519046563171189 0 -0.1615263432913194 0.093414377031829282 0 -0.1653943518879479 0.07705718564816702 0 -0.15008600919550291 0.084145662838912283 0 -0.1615263432913194 0.093414377031829282 0 -0.1801124182337572 0.082519046563171189 0 -0.1653943518879479 0.07705718564816702 0 -0.15306191295181901 0.068060725772289166 0 -0.16872255943858691 0.062267062150228057 0 -0.1653943518879479 0.07705718564816702 0 -0.17929741708178651 0.070276558549099297 0 -0.16872255943858691 0.062267062150228057 0 -0.17929741708178651 0.070276558549099297 0 -0.1801124182337572 0.082519046563171189 0 -0.19869849317619509 0.071623716094513262 0 -0.1653943518879479 0.07705718564816702 0 -0.17929741708178651 0.070276558549099297 0 -0.1801124182337572 0.082519046563171189 0 -0.17929741708178651 0.070276558549099297 0 -0.16872255943858691 0.062267062150228057 0 -0.17935912865399059 0.061406674725839563 0 -0.17929741708178651 0.070276558549099297 0 -0.17935912865399059 0.061406674725839563 0 -0.18925542820241489 0.064250954829674523 0 -0.1801124182337572 0.082519046563171189 0 -0.1834852500184771 0.099592353727081806 0 -0.19810252862190739 0.088414298959830606 0 -0.1615263432913194 0.093414377031829282 0 -0.1801124182337572 0.082519046563171189 0 -0.1834852500184771 0.099592353727081806 0 -0.1834852500184771 0.099592353727081806 0 -0.1853636735861918 0.1138590345434215 0 -0.19136727676067411 0.10793713612736271 0 -0.1834852500184771 0.099592353727081806 0 -0.1853636735861918 0.1138590345434215 0 -0.1698393634831121 0.1118596645567826 0 -0.1853636735861918 0.1138590345434215 0 -0.1698393634831121 0.1118596645567826 0 -0.1766431588597642 0.12811299154076769 0 -0.1853636735861918 0.1138590345434215 0 -0.1912675993957357 0.12663670856189449 0 -0.1766431588597642 0.12811299154076769 0 -0.1698393634831121 0.1118596645567826 0 -0.1583030911603899 0.12969428748023801 0 -0.1766431588597642 0.12811299154076769 0 -0.1698393634831121 0.1118596645567826 0 -0.155354688043116 0.1126712590819855 0 -0.1583030911603899 0.12969428748023801 0 -0.1615263432913194 0.093414377031829282 0 -0.1698393634831121 0.1118596645567826 0 -0.155354688043116 0.1126712590819855 0 -0.1615263432913194 0.093414377031829282 0 -0.1834852500184771 0.099592353727081806 0 -0.1698393634831121 0.1118596645567826 0 -0.1615263432913194 0.093414377031829282 0 -0.1429402683488816 0.1043097075004874 0 -0.15008600919550291 0.084145662838912283 0 -0.1615263432913194 0.093414377031829282 0 -0.1429402683488816 0.1043097075004874 0 -0.1615263432913194 0.093414377031829282 0 -0.1429402683488816 0.1043097075004874 0 -0.155354688043116 0.1126712590819855 0 -0.1429402683488816 0.1043097075004874 0 -0.155354688043116 0.1126712590819855 0 -0.1408358023417238 0.1209998072913291 0 -0.155354688043116 0.1126712590819855 0 -0.1408358023417238 0.1209998072913291 0 -0.1583030911603899 0.12969428748023801 0 -0.1408358023417238 0.1209998072913291 0 -0.12506301964603311 0.1094262372133947 0 -0.12398598136492869 0.13100789879496769 0 -0.1429402683488816 0.1043097075004874 0 -0.1408358023417238 0.1209998072913291 0 -0.12506301964603311 0.1094262372133947 0 -0.1429402683488816 0.1043097075004874 0 -0.12951989144348419 0.097220536079384398 0 -0.1361665156206468 0.087404182570708006 0 -0.1429402683488816 0.1043097075004874 0 -0.12506301964603311 0.1094262372133947 0 -0.12951989144348419 0.097220536079384398 0 -0.12951989144348419 0.097220536079384398 0 -0.125906628105493 0.083365698268132032 0 -0.1361665156206468 0.087404182570708006 0 -0.125906628105493 0.083365698268132032 0 -0.1361665156206468 0.087404182570708006 0 -0.12834605662634721 0.072266526114831392 0 -0.1361665156206468 0.087404182570708006 0 -0.12834605662634721 0.072266526114831392 0 -0.1429402683488816 0.1043097075004874 0 -0.1361665156206468 0.087404182570708006 0 -0.15008600919550291 0.084145662838912283 0 -0.1361665156206468 0.087404182570708006 0 -0.15008600919550291 0.084145662838912283 0 -0.14142666307240301 0.074627798509992946 0 -0.15008600919550291 0.084145662838912283 0 -0.15306191295181901 0.068060725772289166 0 -0.14142666307240301 0.074627798509992946 0 -0.1653943518879479 0.07705718564816702 0 -0.15008600919550291 0.084145662838912283 0 -0.15306191295181901 0.068060725772289166 0 -0.15306191295181901 0.068060725772289166 0 -0.14142666307240301 0.074627798509992946 0 -0.1395648507119292 0.059840329627522018 0 -0.12834605662634721 0.072266526114831392 0 -0.1395648507119292 0.059840329627522018 0 -0.1205255976320482 0.057128869658954487 0 -0.14142666307240301 0.074627798509992946 0 -0.12834605662634721 0.072266526114831392 0 -0.1395648507119292 0.059840329627522018 0 -0.1361665156206468 0.087404182570708006 0 -0.14142666307240301 0.074627798509992946 0 -0.12834605662634721 0.072266526114831392 0 -0.1395648507119292 0.059840329627522018 0 -0.13869054020032839 0.038886227580515798 0 -0.1205255976320482 0.057128869658954487 0 -0.13869054020032839 0.038886227580515798 0 -0.1210030289991592 0.029133994451375551 0 -0.1205255976320482 0.057128869658954487 0 -0.13869054020032839 0.038886227580515798 0 -0.15617431980022789 0.048300867822866217 0 -0.15662630983978501 0.02244401221477944 0 -0.15306191295181901 0.068060725772289166 0 -0.1395648507119292 0.059840329627522018 0 -0.15617431980022789 0.048300867822866217 0 -0.1395648507119292 0.059840329627522018 0 -0.13869054020032839 0.038886227580515798 0 -0.15617431980022789 0.048300867822866217 0 -0.1443311252151166 -0.003638598460695623 0 -0.1369471047226144 0.017271905492138029 0 -0.1214804603662699 0.001139119243796668 0 -0.1369471047226144 0.017271905492138029 0 -0.1214804603662699 0.001139119243796668 0 -0.1210030289991592 0.029133994451375551 0 -0.13869054020032839 0.038886227580515798 0 -0.1369471047226144 0.017271905492138029 0 -0.1210030289991592 0.029133994451375551 0 -0.13869054020032839 0.038886227580515798 0 -0.1369471047226144 0.017271905492138029 0 -0.15662630983978501 0.02244401221477944 0 -0.1443311252151166 -0.003638598460695623 0 -0.1671412108519178 0.0077694809268749956 0 -0.15662630983978501 0.02244401221477944 0 -0.1443311252151166 -0.003638598460695623 0 -0.1369471047226144 0.017271905492138029 0 -0.15662630983978501 0.02244401221477944 0 -0.1671412108519178 0.0077694809268749956 0 -0.15662630983978501 0.02244401221477944 0 -0.1719731909556253 0.021424501641915471 0 -0.15662630983978501 0.02244401221477944 0 -0.1719731909556253 0.021424501641915471 0 -0.16950544301467829 0.03533698880967083 0 -0.18444364190580459 0.031000256857277069 0 -0.1719731909556253 0.021424501641915471 0 -0.18214934916594089 0.010571769400975029 0 -0.18444364190580459 0.031000256857277069 0 -0.1719731909556253 0.021424501641915471 0 -0.16950544301467829 0.03533698880967083 0 -0.1671817900639633 -0.0084163161651879936 0 -0.1671412108519178 0.0077694809268749956 0 -0.18214934916594089 0.010571769400975029 0 -0.1671817900639633 -0.0084163161651879936 0 -0.18214934916594089 0.010571769400975029 0 -0.1912466489785683 0.00016841418813751639 0 -0.1671412108519178 0.0077694809268749956 0 -0.1719731909556253 0.021424501641915471 0 -0.18214934916594089 0.010571769400975029 0 -0.15617431980022789 0.048300867822866217 0 -0.16872255943858691 0.062267062150228057 0 -0.18016110989317391 0.048832123374356377 0 -0.15306191295181901 0.068060725772289166 0 -0.15617431980022789 0.048300867822866217 0 -0.16872255943858691 0.062267062150228057 0 -0.15617431980022789 0.048300867822866217 0 -0.16950544301467829 0.03533698880967083 0 -0.18016110989317391 0.048832123374356377 0 -0.15617431980022789 0.048300867822866217 0 -0.15662630983978501 0.02244401221477944 0 -0.16950544301467829 0.03533698880967083 0 -0.18444364190580459 0.031000256857277069 0 -0.16950544301467829 0.03533698880967083 0 -0.18016110989317391 0.048832123374356377 0 -0.18444364190580459 0.031000256857277069 0 -0.18016110989317391 0.048832123374356377 0 -0.19429275612357291 0.043726165799394832 0 -0.16872255943858691 0.062267062150228057 0 -0.18016110989317391 0.048832123374356377 0 -0.17935912865399059 0.061406674725839563 0 -0.18016110989317391 0.048832123374356377 0 -0.17935912865399059 0.061406674725839563 0 -0.18925542820241489 0.064250954829674523 0 -0.2026380972920159 0.057333408598238968 0 -0.19429275612357291 0.043726165799394832 0 -0.18925542820241489 0.064250954829674523 0 -0.18016110989317391 0.048832123374356377 0 -0.19429275612357291 0.043726165799394832 0 -0.18925542820241489 0.064250954829674523 0 -0.2026380972920159 0.057333408598238968 0 -0.19429275612357291 0.043726165799394832 0 -0.20987964598786871 0.041494968815448542 0 -0.19429275612357291 0.043726165799394832 0 -0.20987964598786871 0.041494968815448542 0 -0.19937861346015989 0.019445282321373509 0 -0.18444364190580459 0.031000256857277069 0 -0.19429275612357291 0.043726165799394832 0 -0.19937861346015989 0.019445282321373509 0 -0.20987964598786871 0.041494968815448542 0 -0.21713263439329741 0.025273893313404971 0 -0.22894721272330379 0.050182235769855733 0 -0.2026380972920159 0.057333408598238968 0 -0.21877089916805609 0.052759833755306573 0 -0.21396144052407459 0.062676434013928528 0 -0.2026380972920159 0.057333408598238968 0 -0.20987964598786871 0.041494968815448542 0 -0.21877089916805609 0.052759833755306573 0 -0.1912466489785683 0.00016841418813751639 0 -0.19937861346015989 0.019445282321373509 0 -0.20531805606329009 0.00036555085695480488 0 -0.18214934916594089 0.010571769400975029 0 -0.1912466489785683 0.00016841418813751639 0 -0.19937861346015989 0.019445282321373509 0 -0.18444364190580459 0.031000256857277069 0 -0.18214934916594089 0.010571769400975029 0 -0.19937861346015989 0.019445282321373509 0 -0.20987964598786871 0.041494968815448542 0 -0.19937861346015989 0.019445282321373509 0 -0.21713263439329741 0.025273893313404971 0 -0.2238085592651001 -0.0028981095783687872 0 -0.20531805606329009 0.00036555085695480488 0 -0.22455669537540571 0.01010658766249826 0 -0.21713263439329741 0.025273893313404971 0 -0.20531805606329009 0.00036555085695480488 0 -0.22455669537540571 0.01010658766249826 0 -0.21713263439329741 0.025273893313404971 0 -0.20531805606329009 0.00036555085695480488 0 -0.19937861346015989 0.019445282321373509 0 -0.21713263439329741 0.025273893313404971 0 -0.20531805606329009 0.00036555085695480488 0 -0.2238085592651001 -0.0028981095783687872 0 -0.22455669537540571 0.01010658766249826 0 -0.24112100423828001 0.0065761508708656151 0 -0.22455669537540571 0.01010658766249826 0 -0.23540322291706101 0.021215452849634692 0 -0.24112100423828001 0.0065761508708656151 0 -0.21713263439329741 0.025273893313404971 0 -0.23540322291706101 0.021215452849634692 0 -0.23178890754556719 0.033301721186282572 0 -0.21713263439329741 0.025273893313404971 0 -0.22455669537540571 0.01010658766249826 0 -0.23540322291706101 0.021215452849634692 0 -0.24932887458444769 0.01659400382985729 0 -0.23540322291706101 0.021215452849634692 0 -0.2469881834913138 0.032364494782173382 0 -0.23540322291706101 0.021215452849634692 0 -0.23178890754556719 0.033301721186282572 0 -0.2469881834913138 0.032364494782173382 0 -0.24932887458444769 0.01659400382985729 0 -0.23540322291706101 0.021215452849634692 0 -0.24112100423828001 0.0065761508708656151 0 -0.25387848363640708 0.0078119237010146961 0 -0.24932887458444769 0.01659400382985729 0 -0.24112100423828001 0.0065761508708656151 0 -0.22922438787195401 0.053729151933343898 0 -0.22999676977155409 0.063194527798152017 0 -0.21396144052407459 0.062676434013928528 0 -0.20987964598786871 0.041494968815448542 0 -0.22894721272330379 0.050182235769855733 0 -0.21877089916805609 0.052759833755306573 0 -0.22922438787195401 0.053729151933343898 0 -0.22894721272330379 0.050182235769855733 0 -0.22922438787195401 0.053729151933343898 0 -0.22894721272330379 0.050182235769855733 0 -0.23047807406321491 0.051233798146065407 0 -0.22922438787195401 0.053729151933343898 0 -0.23148396184079331 0.055530392426785868 0 -0.22894721272330379 0.050182235769855733 0 -0.23295050186971539 0.046228481283648037 0 -0.23047807406321491 0.051233798146065407 0 -0.23216836627059911 0.052003364339932301 0 -0.23295050186971539 0.046228481283648037 0 -0.22894721272330379 0.050182235769855733 0 -0.23047807406321491 0.051233798146065407 0 -0.23295050186971539 0.046228481283648037 0 -0.23216836627059911 0.052003364339932301 0 -0.23295050186971539 0.046228481283648037 0 -0.23216836627059911 0.052003364339932301 0 -0.23148396184079331 0.055530392426785868 0 -0.23556340468008641 0.055503765740993291 0 -0.22922438787195401 0.053729151933343898 0 -0.23047807406321491 0.051233798146065407 0 -0.23216836627059911 0.052003364339932301 0 -0.22922438787195401 0.053729151933343898 0 -0.23216836627059911 0.052003364339932301 0 -0.23148396184079331 0.055530392426785868 0 -0.23216836627059911 0.052003364339932301 0 -0.23148396184079331 0.055530392426785868 0 -0.22922438787195401 0.053729151933343898 0 -0.23216836627059911 0.052003364339932301 0 -0.23148396184079331 0.055530392426785868 0 -0.23589823948593239 0.064836889553624544 0 -0.23148396184079331 0.055530392426785868 0 -0.23589823948593239 0.064836889553624544 0 -0.22999676977155409 0.063194527798152017 0 -0.22922438787195401 0.053729151933343898 0 -0.22999676977155409 0.063194527798152017 0 -0.22922438787195401 0.053729151933343898 0 -0.23148396184079331 0.055530392426785868 0 -0.22999676977155409 0.063194527798152017 0 -0.23148396184079331 0.055530392426785868 0 -0.22999676977155409 0.063194527798152017 0 -0.22922438787195401 0.053729151933343898 0 -0.21877089916805609 0.052759833755306573 0 -0.21396144052407459 0.062676434013928528 0 -0.22922438787195401 0.053729151933343898 0 -0.21396144052407459 0.062676434013928528 0 -0.22922438787195401 0.053729151933343898 0 -0.22894721272330379 0.050182235769855733 0 -0.21877089916805609 0.052759833755306573 0 -0.21713263439329741 0.025273893313404971 0 -0.22894721272330379 0.050182235769855733 0 -0.23178890754556719 0.033301721186282572 0 -0.21713263439329741 0.025273893313404971 0 -0.22894721272330379 0.050182235769855733 0 -0.22894721272330379 0.050182235769855733 0 -0.23178890754556719 0.033301721186282572 0 -0.23295050186971539 0.046228481283648037 0 -0.25672787277622838 0.037606352579533028 0 -0.23216836627059911 0.052003364339932301 0 -0.23295050186971539 0.046228481283648037 0 -0.25672787277622838 0.037606352579533028 0 -0.23295050186971539 0.046228481283648037 0 -0.2469881834913138 0.032364494782173382 0 -0.23295050186971539 0.046228481283648037 0 -0.2469881834913138 0.032364494782173382 0 -0.25672787277622838 0.037606352579533028 0 -0.23216836627059911 0.052003364339932301 0 -0.23178890754556719 0.033301721186282572 0 -0.23295050186971539 0.046228481283648037 0 -0.2469881834913138 0.032364494782173382 0 -0.25672787277622838 0.037606352579533028 0 -0.23216836627059911 0.052003364339932301 0 -0.24928111109321671 0.05138839801411961 0 -0.23216836627059911 0.052003364339932301 0 -0.24928111109321671 0.05138839801411961 0 -0.2395871883369815 0.054639560641357783 0 -0.24928111109321671 0.05138839801411961 0 -0.2395871883369815 0.054639560641357783 0 -0.2449647134364602 0.057684182601810297 0 -0.23216836627059911 0.052003364339932301 0 -0.2395871883369815 0.054639560641357783 0 -0.23556340468008641 0.055503765740993291 0 -0.23148396184079331 0.055530392426785868 0 -0.23901410227196901 0.059841745555894978 0 -0.23589823948593239 0.064836889553624544 0 -0.2395871883369815 0.054639560641357783 0 -0.23556340468008641 0.055503765740993291 0 -0.23901410227196901 0.059841745555894978 0 -0.23148396184079331 0.055530392426785868 0 -0.23556340468008641 0.055503765740993291 0 -0.23901410227196901 0.059841745555894978 0 -0.2395871883369815 0.054639560641357783 0 -0.23901410227196901 0.059841745555894978 0 -0.2449647134364602 0.057684182601810297 0 -0.23901410227196901 0.059841745555894978 0 -0.2449647134364602 0.057684182601810297 0 -0.2460355414916098 0.06438805142209772 0 -0.25231231530705539 0.059153595136949899 0 -0.24928111109321671 0.05138839801411961 0 -0.2449647134364602 0.057684182601810297 0 -0.25231231530705539 0.059153595136949899 0 -0.2449647134364602 0.057684182601810297 0 -0.2460355414916098 0.06438805142209772 0 -0.24026304500723389 0.073200481230648123 0 -0.23589823948593239 0.064836889553624544 0 -0.23142894383528961 0.080745516271751361 0 -0.25386986552330743 0.066842973137095488 0 -0.2460355414916098 0.06438805142209772 0 -0.24668382099116071 0.071844604538094575 0 -0.2460355414916098 0.06438805142209772 0 -0.24668382099116071 0.071844604538094575 0 -0.24139259435971441 0.06707770334091831 0 -0.24668382099116071 0.071844604538094575 0 -0.24026304500723389 0.073200481230648123 0 -0.24604912306543311 0.080523902294998853 0 -0.25278755826924437 0.074628024693822348 0 -0.24668382099116071 0.071844604538094575 0 -0.24604912306543311 0.080523902294998853 0 -0.24668382099116071 0.071844604538094575 0 -0.24026304500723389 0.073200481230648123 0 -0.24139259435971441 0.06707770334091831 0 -0.24026304500723389 0.073200481230648123 0 -0.23589823948593239 0.064836889553624544 0 -0.24139259435971441 0.06707770334091831 0 -0.23901410227196901 0.059841745555894978 0 -0.23589823948593239 0.064836889553624544 0 -0.24139259435971441 0.06707770334091831 0 -0.23901410227196901 0.059841745555894978 0 -0.2460355414916098 0.06438805142209772 0 -0.24139259435971441 0.06707770334091831 0 -0.24271441100659549 0.090101187136648969 0 -0.23142894383528961 0.080745516271751361 0 -0.2328611178990268 0.098296504745350594 0 -0.25003483723942149 0.090593342685627937 0 -0.24271441100659549 0.090101187136648969 0 -0.24769751127296649 0.094413649185785292 0 -0.25003483723942149 0.090593342685627937 0 -0.25167662679445962 0.093306264048713838 0 -0.24769751127296649 0.094413649185785292 0 -0.25003483723942149 0.090593342685627937 0 -0.24271441100659549 0.090101187136648969 0 -0.2475815008793627 0.086357991239860973 0 -0.24271441100659549 0.090101187136648969 0 -0.2475815008793627 0.086357991239860973 0 -0.24604912306543311 0.080523902294998853 0 -0.25274690811870781 0.086675881116122316 0 -0.2475815008793627 0.086357991239860973 0 -0.24604912306543311 0.080523902294998853 0 -0.24026304500723389 0.073200481230648123 0 -0.24604912306543311 0.080523902294998853 0 -0.23142894383528961 0.080745516271751361 0 -0.24271441100659549 0.090101187136648969 0 -0.24604912306543311 0.080523902294998853 0 -0.23142894383528961 0.080745516271751361 0 -0.23142894383528961 0.080745516271751361 0 -0.2328611178990268 0.098296504745350594 0 -0.23142894383528961 0.080745516271751361 0 -0.22445841794141519 0.091736018193623273 0 -0.2328611178990268 0.098296504745350594 0 -0.23142894383528961 0.080745516271751361 0 -0.22445841794141519 0.091736018193623273 0 -0.22999676977155409 0.063194527798152017 0 -0.22445841794141519 0.091736018193623273 0 -0.219998770948962 0.074821711787443207 0 -0.22999676977155409 0.063194527798152017 0 -0.22445841794141519 0.091736018193623273 0 -0.22999676977155409 0.063194527798152017 0 -0.23142894383528961 0.080745516271751361 0 -0.22999676977155409 0.063194527798152017 0 -0.219998770948962 0.074821711787443207 0 -0.22999676977155409 0.063194527798152017 0 -0.21396144052407459 0.062676434013928528 0 -0.23589823948593239 0.064836889553624544 0 -0.23142894383528961 0.080745516271751361 0 -0.22999676977155409 0.063194527798152017 0 -0.219998770948962 0.074821711787443207 0 -0.21396144052407459 0.062676434013928528 0 -0.21157845555880489 0.081679867144068663 0 -0.21396144052407459 0.062676434013928528 0 -0.21157845555880489 0.081679867144068663 0 -0.19869849317619509 0.071623716094513262 0 -0.21396144052407459 0.062676434013928528 0 -0.19869849317619509 0.071623716094513262 0 -0.2026380972920159 0.057333408598238968 0 -0.21396144052407459 0.062676434013928528 0 -0.19869849317619509 0.071623716094513262 0 -0.21157845555880489 0.081679867144068663 0 -0.19869849317619509 0.071623716094513262 0 -0.22445841794141519 0.091736018193623273 0 -0.219998770948962 0.074821711787443207 0 -0.21157845555880489 0.081679867144068663 0 -0.22445841794141519 0.091736018193623273 0 -0.21157845555880489 0.081679867144068663 0 -0.21346847219250389 0.092535557235829596 0 -0.22445841794141519 0.091736018193623273 0 -0.21157845555880489 0.081679867144068663 0 -0.21157845555880489 0.081679867144068663 0 -0.21346847219250389 0.092535557235829596 0 -0.19810252862190739 0.088414298959830606 0 -0.1801124182337572 0.082519046563171189 0 -0.19810252862190739 0.088414298959830606 0 -0.19869849317619509 0.071623716094513262 0 -0.21157845555880489 0.081679867144068663 0 -0.19810252862190739 0.088414298959830606 0 -0.19869849317619509 0.071623716094513262 0 -0.1801124182337572 0.082519046563171189 0 -0.19869849317619509 0.071623716094513262 0 -0.17929741708178651 0.070276558549099297 0 -0.18925542820241489 0.064250954829674523 0 -0.19869849317619509 0.071623716094513262 0 -0.18925542820241489 0.064250954829674523 0 -0.19869849317619509 0.071623716094513262 0 -0.2026380972920159 0.057333408598238968 0 -0.18925542820241489 0.064250954829674523 0 -0.19869849317619509 0.071623716094513262 0 -0.1985099755744168 0.1147442421900528 0 -0.20127208255170639 0.1025352529943193 0 -0.2087784866382536 0.1118631144104844 0 -0.1985099755744168 0.1147442421900528 0 -0.20816908580158069 0.1244865609872005 0 -0.2020600906015344 0.12735145056233779 0 -0.1985099755744168 0.1147442421900528 0 -0.1912675993957357 0.12663670856189449 0 -0.2020600906015344 0.12735145056233779 0 -0.1853636735861918 0.1138590345434215 0 -0.1985099755744168 0.1147442421900528 0 -0.1912675993957357 0.12663670856189449 0 -0.1853636735861918 0.1138590345434215 0 -0.1985099755744168 0.1147442421900528 0 -0.19136727676067411 0.10793713612736271 0 -0.1834852500184771 0.099592353727081806 0 -0.19136727676067411 0.10793713612736271 0 -0.20127208255170639 0.1025352529943193 0 -0.1834852500184771 0.099592353727081806 0 -0.19810252862190739 0.088414298959830606 0 -0.20127208255170639 0.1025352529943193 0 -0.1985099755744168 0.1147442421900528 0 -0.19136727676067411 0.10793713612736271 0 -0.20127208255170639 0.1025352529943193 0 -0.20127208255170639 0.1025352529943193 0 -0.21364301165476041 0.1031180170650589 0 -0.2087784866382536 0.1118631144104844 0 -0.21346847219250389 0.092535557235829596 0 -0.19810252862190739 0.088414298959830606 0 -0.20127208255170639 0.1025352529943193 0 -0.21346847219250389 0.092535557235829596 0 -0.20127208255170639 0.1025352529943193 0 -0.21364301165476041 0.1031180170650589 0 -0.22445841794141519 0.091736018193623273 0 -0.21346847219250389 0.092535557235829596 0 -0.21364301165476041 0.1031180170650589 0 -0.21364301165476041 0.1031180170650589 0 -0.2087784866382536 0.1118631144104844 0 -0.21959803082422391 0.1167836671112515 0 -0.1985099755744168 0.1147442421900528 0 -0.2087784866382536 0.1118631144104844 0 -0.20816908580158069 0.1244865609872005 0 -0.2087784866382536 0.1118631144104844 0 -0.20816908580158069 0.1244865609872005 0 -0.21959803082422391 0.1167836671112515 0 -0.2328611178990268 0.098296504745350594 0 -0.23468258878916651 0.1206182430084112 0 -0.21959803082422391 0.1167836671112515 0 -0.2328611178990268 0.098296504745350594 0 -0.23468258878916651 0.1206182430084112 0 -0.21959803082422391 0.1167836671112515 0 -0.23468258878916651 0.1206182430084112 0 -0.22618356906195949 0.1337965492146341 0 -0.22445841794141519 0.091736018193623273 0 -0.21959803082422391 0.1167836671112515 0 -0.2328611178990268 0.098296504745350594 0 -0.22445841794141519 0.091736018193623273 0 -0.21364301165476041 0.1031180170650589 0 -0.21959803082422391 0.1167836671112515 0 -0.22445841794141519 0.091736018193623273 0 -0.21959803082422391 0.1167836671112515 0 -0.22445841794141519 0.091736018193623273 0 -0.2328611178990268 0.098296504745350594 0 -0.25310246796619779 0.1141001280538462 0 -0.2328611178990268 0.098296504745350594 0 -0.24517623637591121 0.099726830501934247 0 -0.25310246796619779 0.1141001280538462 0 -0.2328611178990268 0.098296504745350594 0 -0.24163840983492721 0.11445101107666671 0 -0.25310246796619779 0.1141001280538462 0 -0.2328611178990268 0.098296504745350594 0 -0.24271441100659549 0.090101187136648969 0 -0.2328611178990268 0.098296504745350594 0 -0.24517623637591121 0.099726830501934247 0 -0.24271441100659549 0.090101187136648969 0 -0.24517623637591121 0.099726830501934247 0 -0.24769751127296649 0.094413649185785292 0 -0.25135192691430541 0.097572050828468287 0 -0.25180394650241178 0.1045642170394553 0 -0.24517623637591121 0.099726830501934247 0 -0.25135192691430541 0.097572050828468287 0 -0.24517623637591121 0.099726830501934247 0 -0.24769751127296649 0.094413649185785292 0 -0.2328611178990268 0.098296504745350594 0 -0.23468258878916651 0.1206182430084112 0 -0.24163840983492721 0.11445101107666671 0 -0.23468258878916651 0.1206182430084112 0 -0.24163840983492721 0.11445101107666671 0 -0.24590746468531891 0.1247891684990587 0 -0.25310246796619779 0.1141001280538462 0 -0.24163840983492721 0.11445101107666671 0 -0.24590746468531891 0.1247891684990587 0 -0.24590746468531891 0.1247891684990587 0 -0.2481917006010628 0.13789668201824959 0 -0.23650405967930729 0.14293998127147189 0 -0.23468258878916651 0.1206182430084112 0 -0.24590746468531891 0.1247891684990587 0 -0.23650405967930729 0.14293998127147189 0 -0.23468258878916651 0.1206182430084112 0 -0.23650405967930729 0.14293998127147189 0 -0.25463776971401092 0.13014661482008091 0 -0.24590746468531891 0.1247891684990587 0 -0.2481917006010628 0.13789668201824959 0 -0.21959803082422391 0.1167836671112515 0 -0.22618356906195949 0.1337965492146341 0 -0.21473764370703169 0.14183131602887961 0 -0.23468258878916651 0.1206182430084112 0 -0.22618356906195949 0.1337965492146341 0 -0.23650405967930729 0.14293998127147189 0 -0.22618356906195949 0.1337965492146341 0 -0.22561515207211669 0.14375794732975969 0 -0.23650405967930729 0.14293998127147189 0 -0.22618356906195949 0.1337965492146341 0 -0.22561515207211669 0.14375794732975969 0 -0.21473764370703169 0.14183131602887961 0 -0.22503533584016841 0.15646394280405321 0 -0.2183739272353302 0.16063584741549319 0 -0.21473764370703169 0.14183131602887961 0 -0.23650405967930729 0.14293998127147189 0 -0.23832553056944819 0.16526171953453239 0 -0.22503533584016841 0.15646394280405321 0 -0.22561515207211669 0.14375794732975969 0 -0.22503533584016841 0.15646394280405321 0 -0.21473764370703169 0.14183131602887961 0 -0.22561515207211669 0.14375794732975969 0 -0.23650405967930729 0.14293998127147189 0 -0.22503533584016841 0.15646394280405321 0 -0.25503682607026862 0.14707709813031819 0 -0.23650405967930729 0.14293998127147189 0 -0.23832553056944819 0.16526171953453239 0 -0.25503682607026862 0.14707709813031819 0 -0.2481917006010628 0.13789668201824959 0 -0.23650405967930729 0.14293998127147189 0 -0.23650405967930729 0.14293998127147189 0 -0.23832553056944819 0.16526171953453239 0 -0.25289265241827069 0.16341854715930401 0 -0.25503682607026862 0.14707709813031819 0 -0.23832553056944819 0.16526171953453239 0 -0.25289265241827069 0.16341854715930401 0 -0.23832553056944819 0.16526171953453239 0 -0.2369555370044529 0.17244340194576721 0 -0.25289265241827069 0.16341854715930401 0 -0.23859942120126901 0.1757335947001929 0 -0.2369555370044529 0.17244340194576721 0 -0.23832553056944819 0.16526171953453239 0 -0.2369555370044529 0.17244340194576721 0 -0.23048256541008391 0.17170558215754561 0 -0.2579699139197833 0.18982802377094771 0 -0.25163171938660761 0.17735375730289479 0 -0.2384155526975317 0.1825900503846197 0 -0.25289265241827069 0.16341854715930401 0 -0.23859942120126901 0.1757335947001929 0 -0.2384155526975317 0.1825900503846197 0 -0.2579699139197833 0.18982802377094771 0 -0.2384155526975317 0.1825900503846197 0 -0.25289265241827069 0.16341854715930401 0 -0.2384155526975317 0.1825900503846197 0 -0.25163171938660761 0.17735375730289479 0 -0.25289265241827069 0.16341854715930401 0 -0.2384155526975317 0.1825900503846197 0 -0.23859942120126901 0.1757335947001929 0 -0.2369555370044529 0.17244340194576721 0 -0.22893162268570669 0.18077751216261789 0 -0.23859942120126901 0.1757335947001929 0 -0.23561787269664569 0.18629491753308261 0 -0.22893162268570669 0.18077751216261789 0 -0.23859942120126901 0.1757335947001929 0 -0.2384155526975317 0.1825900503846197 0 -0.23561787269664569 0.18629491753308261 0 -0.2384155526975317 0.1825900503846197 0 -0.23561787269664569 0.18629491753308261 0 -0.2384155526975317 0.1825900503846197 0 -0.23561787269664569 0.18629491753308261 0 -0.2426729641886802 0.1903481751555707 0 -0.23561787269664569 0.18629491753308261 0 -0.22893162268570669 0.18077751216261789 0 -0.23085498372682789 0.19002610499888239 0 -0.22893162268570669 0.18077751216261789 0 -0.23085498372682789 0.19002610499888239 0 -0.22325040123533491 0.1895590962848944 0 -0.22893162268570669 0.18077751216261789 0 -0.22378181250987811 0.1743616750796472 0 -0.23048256541008391 0.17170558215754561 0 -0.2369555370044529 0.17244340194576721 0 -0.22893162268570669 0.18077751216261789 0 -0.23048256541008391 0.17170558215754561 0 -0.22378181250987811 0.1743616750796472 0 -0.21887462049738879 0.18137060478010061 0 -0.2167223073448348 0.17153758061094551 0 -0.22893162268570669 0.18077751216261789 0 -0.22378181250987811 0.1743616750796472 0 -0.21887462049738879 0.18137060478010061 0 -0.22893162268570669 0.18077751216261789 0 -0.21887462049738879 0.18137060478010061 0 -0.22325040123533491 0.1895590962848944 0 -0.23832553056944819 0.16526171953453239 0 -0.22549709269477661 0.1664674326870805 0 -0.22503533584016841 0.15646394280405321 0 -0.23832553056944819 0.16526171953453239 0 -0.23048256541008391 0.17170558215754561 0 -0.22549709269477661 0.1664674326870805 0 -0.22378181250987811 0.1743616750796472 0 -0.23048256541008391 0.17170558215754561 0 -0.22549709269477661 0.1664674326870805 0 -0.22549709269477661 0.1664674326870805 0 -0.2183739272353302 0.16063584741549319 0 -0.2167223073448348 0.17153758061094551 0 -0.22378181250987811 0.1743616750796472 0 -0.22549709269477661 0.1664674326870805 0 -0.2167223073448348 0.17153758061094551 0 -0.22549709269477661 0.1664674326870805 0 -0.22503533584016841 0.15646394280405321 0 -0.2183739272353302 0.16063584741549319 0 -0.2183739272353302 0.16063584741549319 0 -0.20987725658983949 0.1668789649465075 0 -0.21473764370703169 0.14183131602887961 0 -0.20800407047319799 0.17309234960470021 0 -0.1994768767020606 0.15591464753081799 0 -0.20278765502794099 0.1465831303297758 0 -0.20987725658983949 0.1668789649465075 0 -0.20800407047319799 0.17309234960470021 0 -0.20278765502794099 0.1465831303297758 0 -0.20800407047319799 0.17309234960470021 0 -0.20278765502794099 0.1465831303297758 0 -0.2167223073448348 0.17153758061094551 0 -0.20987725658983949 0.1668789649465075 0 -0.20800407047319799 0.17309234960470021 0 -0.2183739272353302 0.16063584741549319 0 -0.2167223073448348 0.17153758061094551 0 -0.20987725658983949 0.1668789649465075 0 -0.20800407047319799 0.17309234960470021 0 -0.2125575087353804 0.19889541493779869 0 -0.20800407047319799 0.17309234960470021 0 -0.19896520991234801 0.18501531621692011 0 -0.2125575087353804 0.19889541493779869 0 -0.21887462049738879 0.18137060478010061 0 -0.20800407047319799 0.17309234960470021 0 -0.2125575087353804 0.19889541493779869 0 -0.21887462049738879 0.18137060478010061 0 -0.2167223073448348 0.17153758061094551 0 -0.20800407047319799 0.17309234960470021 0 -0.20800407047319799 0.17309234960470021 0 -0.19896520991234801 0.18501531621692011 0 -0.1994914274879305 0.17413488279241041 0 -0.19896520991234801 0.18501531621692011 0 -0.1994914274879305 0.17413488279241041 0 -0.19181532393298709 0.1731583243687764 0 -0.19896520991234801 0.18501531621692011 0 -0.19181532393298709 0.1731583243687764 0 -0.18460025507250691 0.18514613380938491 0 -0.20800407047319799 0.17309234960470021 0 -0.19799420607166379 0.16683286112932641 0 -0.1994768767020606 0.15591464753081799 0 -0.19799420607166379 0.16683286112932641 0 -0.1904415195361896 0.15883867644372771 0 -0.1994768767020606 0.15591464753081799 0 -0.20800407047319799 0.17309234960470021 0 -0.1994914274879305 0.17413488279241041 0 -0.19799420607166379 0.16683286112932641 0 -0.1994914274879305 0.17413488279241041 0 -0.19181532393298709 0.1731583243687764 0 -0.19799420607166379 0.16683286112932641 0 -0.19181532393298709 0.1731583243687764 0 -0.19799420607166379 0.16683286112932641 0 -0.1904415195361896 0.15883867644372771 0 -0.20278765502794099 0.1465831303297758 0 -0.187658757813182 0.1375258777643171 0 -0.175362569021739 0.1501639589546892 0 -0.20278765502794099 0.1465831303297758 0 -0.175362569021739 0.1501639589546892 0 -0.1904415195361896 0.15883867644372771 0 -0.20278765502794099 0.1465831303297758 0 -0.175362569021739 0.1501639589546892 0 -0.1904415195361896 0.15883867644372771 0 -0.1994768767020606 0.15591464753081799 0 -0.20278765502794099 0.1465831303297758 0 -0.20278765502794099 0.1465831303297758 0 -0.187658757813182 0.1375258777643171 0 -0.19736993993932531 0.13822665477047011 0 -0.20278765502794099 0.1465831303297758 0 -0.19736993993932531 0.13822665477047011 0 -0.20473523166986751 0.14165519220418479 0 -0.187658757813182 0.1375258777643171 0 -0.1912675993957357 0.12663670856189449 0 -0.19736993993932531 0.13822665477047011 0 -0.1912675993957357 0.12663670856189449 0 -0.2020600906015344 0.12735145056233779 0 -0.19736993993932531 0.13822665477047011 0 -0.19736993993932531 0.13822665477047011 0 -0.20533028746402421 0.13434557562019711 0 -0.20473523166986751 0.14165519220418479 0 -0.2020600906015344 0.12735145056233779 0 -0.19736993993932531 0.13822665477047011 0 -0.20533028746402421 0.13434557562019711 0 -0.21959803082422391 0.1167836671112515 0 -0.21473764370703169 0.14183131602887961 0 -0.20533028746402421 0.13434557562019711 0 -0.21473764370703169 0.14183131602887961 0 -0.20473523166986751 0.14165519220418479 0 -0.20816908580158069 0.1244865609872005 0 -0.21959803082422391 0.1167836671112515 0 -0.21473764370703169 0.14183131602887961 0 -0.20816908580158069 0.1244865609872005 0 -0.20533028746402421 0.13434557562019711 0 -0.21473764370703169 0.14183131602887961 0 -0.20816908580158069 0.1244865609872005 0 -0.2020600906015344 0.12735145056233779 0 -0.20533028746402421 0.13434557562019711 0 -0.20987725658983949 0.1668789649465075 0 -0.21473764370703169 0.14183131602887961 0 -0.20987725658983949 0.1668789649465075 0 -0.20278765502794099 0.1465831303297758 0 -0.21473764370703169 0.14183131602887961 0 -0.20278765502794099 0.1465831303297758 0 -0.21473764370703169 0.14183131602887961 0 -0.20473523166986751 0.14165519220418479 0 -0.22115523807837759 0.24761635045506819 0 -0.23345114801457459 0.24393903691603169 0 -0.23188951053060999 0.23120038218359931 0 -0.22115523807837759 0.24761635045506819 0 -0.21711094699756389 0.22469848027089701 0 -0.22115523807837759 0.24761635045506819 0 -0.23188951053060999 0.23120038218359931 0 -0.2217137585848373 0.2260937734246872 0 -0.23591182662198429 0.25471420996969779 0 -0.22115523807837759 0.24761635045506819 0 -0.23345114801457459 0.24393903691603169 0 -0.23591182662198429 0.25471420996969779 0 -0.23345114801457459 0.24393903691603169 0 -0.24576283243991379 0.2469610899906661 0 -0.25727446498661333 0.2401380287912471 0 -0.24576283243991379 0.2469610899906661 0 -0.24309810023854081 0.23319810524693099 0 -0.23345114801457459 0.24393903691603169 0 -0.24576283243991379 0.2469610899906661 0 -0.24309810023854081 0.23319810524693099 0 -0.23345114801457459 0.24393903691603169 0 -0.24309810023854081 0.23319810524693099 0 -0.23188951053060999 0.23120038218359931 0 -0.24309810023854081 0.23319810524693099 0 -0.2444306604235445 0.22090815078701381 0 -0.23188951053060999 0.23120038218359931 0 -0.26085771608034458 0.22339010348049329 0 -0.24309810023854081 0.23319810524693099 0 -0.2444306604235445 0.22090815078701381 0 -0.2444306604235445 0.22090815078701381 0 -0.2321168869259648 0.21981742647546559 0 -0.23188951053060999 0.23120038218359931 0 -0.2321168869259648 0.21981742647546559 0 -0.22759385243190799 0.22408027189142629 0 -0.23188951053060999 0.23120038218359931 0 -0.22115523807837759 0.24761635045506819 0 -0.2217137585848373 0.2260937734246872 0 -0.21711094699756389 0.22469848027089701 0 -0.2321168869259648 0.21981742647546559 0 -0.22759385243190799 0.22408027189142629 0 -0.2244243244823757 0.21997004802469469 0 -0.22759385243190799 0.22408027189142629 0 -0.23188951053060999 0.23120038218359931 0 -0.2217137585848373 0.2260937734246872 0 -0.2217137585848373 0.2260937734246872 0 -0.21711094699756389 0.22469848027089701 0 -0.2217137585848373 0.2260937734246872 0 -0.2244243244823757 0.21997004802469469 0 -0.21711094699756389 0.22469848027089701 0 -0.22759385243190799 0.22408027189142629 0 -0.2217137585848373 0.2260937734246872 0 -0.2244243244823757 0.21997004802469469 0 -0.2244243244823757 0.21997004802469469 0 -0.2237837590532725 0.21097567381174889 0 -0.21711094699756389 0.22469848027089701 0 -0.2237837590532725 0.21097567381174889 0 -0.2387141920704354 0.20925329949084381 0 -0.2298272291951608 0.1990441283757407 0 -0.2321168869259648 0.21981742647546559 0 -0.2244243244823757 0.21997004802469469 0 -0.2237837590532725 0.21097567381174889 0 -0.2321168869259648 0.21981742647546559 0 -0.2237837590532725 0.21097567381174889 0 -0.2387141920704354 0.20925329949084381 0 -0.2444306604235445 0.22090815078701381 0 -0.2321168869259648 0.21981742647546559 0 -0.2387141920704354 0.20925329949084381 0 -0.25393341091484428 0.20848588961241249 0 -0.2444306604235445 0.22090815078701381 0 -0.2387141920704354 0.20925329949084381 0 -0.25393341091484428 0.20848588961241249 0 -0.2387141920704354 0.20925329949084381 0 -0.24470030986413349 0.19880256041608771 0 -0.2387141920704354 0.20925329949084381 0 -0.23767817009767139 0.2010996412286383 0 -0.2298272291951608 0.1990441283757407 0 -0.2387141920704354 0.20925329949084381 0 -0.23767817009767139 0.2010996412286383 0 -0.24470030986413349 0.19880256041608771 0 -0.23767817009767139 0.2010996412286383 0 -0.23664779282129109 0.19445487063807651 0 -0.2298272291951608 0.1990441283757407 0 -0.2579699139197833 0.18982802377094771 0 -0.2384155526975317 0.1825900503846197 0 -0.2426729641886802 0.1903481751555707 0 -0.23767817009767139 0.2010996412286383 0 -0.24470030986413349 0.19880256041608771 0 -0.23664779282129109 0.19445487063807651 0 -0.2579699139197833 0.18982802377094771 0 -0.24470030986413349 0.19880256041608771 0 -0.2426729641886802 0.1903481751555707 0 -0.23561787269664569 0.18629491753308261 0 -0.23664779282129109 0.19445487063807651 0 -0.23085498372682789 0.19002610499888239 0 -0.23561787269664569 0.18629491753308261 0 -0.2426729641886802 0.1903481751555707 0 -0.23664779282129109 0.19445487063807651 0 -0.24470030986413349 0.19880256041608771 0 -0.2426729641886802 0.1903481751555707 0 -0.23664779282129109 0.19445487063807651 0 -0.2298272291951608 0.1990441283757407 0 -0.22325040123533491 0.1895590962848944 0 -0.2125575087353804 0.19889541493779869 0 -0.23085498372682789 0.19002610499888239 0 -0.2298272291951608 0.1990441283757407 0 -0.22325040123533491 0.1895590962848944 0 -0.2237837590532725 0.21097567381174889 0 -0.2298272291951608 0.1990441283757407 0 -0.2125575087353804 0.19889541493779869 0 -0.23664779282129109 0.19445487063807651 0 -0.23085498372682789 0.19002610499888239 0 -0.2298272291951608 0.1990441283757407 0 -0.21887462049738879 0.18137060478010061 0 -0.22325040123533491 0.1895590962848944 0 -0.2125575087353804 0.19889541493779869 0 -0.19896520991234801 0.18501531621692011 0 -0.2125575087353804 0.19889541493779869 0 -0.18960291894468639 0.20011985355979969 0 -0.19896520991234801 0.18501531621692011 0 -0.18960291894468639 0.20011985355979969 0 -0.18460025507250691 0.18514613380938491 0 -0.2125575087353804 0.19889541493779869 0 -0.18960291894468639 0.20011985355979969 0 -0.2065896637995932 0.2132518566623425 0 -0.18960291894468639 0.20011985355979969 0 -0.19148352902467211 0.2169298023293883 0 -0.2065896637995932 0.2132518566623425 0 -0.2237837590532725 0.21097567381174889 0 -0.2125575087353804 0.19889541493779869 0 -0.21711094699756389 0.22469848027089701 0 -0.19148352902467211 0.2169298023293883 0 -0.2065896637995932 0.2132518566623425 0 -0.21711094699756389 0.22469848027089701 0 -0.2125575087353804 0.19889541493779869 0 -0.2065896637995932 0.2132518566623425 0 -0.21711094699756389 0.22469848027089701 0 -0.2125575087353804 0.19889541493779869 0 -0.21711094699756389 0.22469848027089701 0 -0.19148352902467211 0.2169298023293883 0 -0.21711094699756389 0.22469848027089701 0 -0.21711094699756389 0.22469848027089701 0 -0.1994092324572411 0.23278387756504729 0 -0.2103623441420561 0.2381076269455922 0 -0.19148352902467211 0.2169298023293883 0 -0.21711094699756389 0.22469848027089701 0 -0.1994092324572411 0.23278387756504729 0 -0.19148352902467211 0.2169298023293883 0 -0.1994092324572411 0.23278387756504729 0 -0.17593999972424981 0.23632351607906099 0 -0.1994092324572411 0.23278387756504729 0 -0.19944164800203401 0.24874023338186729 0 -0.2103623441420561 0.2381076269455922 0 -0.1994092324572411 0.23278387756504729 0 -0.19944164800203401 0.24874023338186729 0 -0.17593999972424981 0.23632351607906099 0 -0.22115523807837759 0.24761635045506819 0 -0.19944164800203401 0.24874023338186729 0 -0.2103623441420561 0.2381076269455922 0 -0.22115523807837759 0.24761635045506819 0 -0.21711094699756389 0.22469848027089701 0 -0.2103623441420561 0.2381076269455922 0 -0.17593999972424981 0.23632351607906099 0 -0.15298553753555699 0.22371476389517711 0 -0.15236582870046669 0.24313320993250201 0 -0.17105153145254101 0.26036964565936288 0 -0.17593999972424981 0.23632351607906099 0 -0.15236582870046669 0.24313320993250201 0 -0.17105153145254101 0.26036964565936288 0 -0.19944164800203401 0.24874023338186729 0 -0.17593999972424981 0.23632351607906099 0 -0.19148352902467211 0.2169298023293883 0 -0.17593999972424981 0.23632351607906099 0 -0.1658561110517795 0.2091611243878819 0 -0.17593999972424981 0.23632351607906099 0 -0.1658561110517795 0.2091611243878819 0 -0.15298553753555699 0.22371476389517711 0 -0.19148352902467211 0.2169298023293883 0 -0.1658561110517795 0.2091611243878819 0 -0.18960291894468639 0.20011985355979969 0 -0.19148352902467211 0.2169298023293883 0 -0.1658561110517795 0.2091611243878819 0 -0.18960291894468639 0.20011985355979969 0 -0.167550715313834 0.1918663410477926 0 -0.18460025507250691 0.18514613380938491 0 -0.18960291894468639 0.20011985355979969 0 -0.1658561110517795 0.2091611243878819 0 -0.167550715313834 0.1918663410477926 0 -0.1658561110517795 0.2091611243878819 0 -0.167550715313834 0.1918663410477926 0 -0.14022869307888691 0.20139244644637549 0 -0.167550715313834 0.1918663410477926 0 -0.14022869307888691 0.20139244644637549 0 -0.15572633340097611 0.17902352062049251 0 -0.14022869307888691 0.20139244644637549 0 -0.1210648557906355 0.18183180557805109 0 -0.1182512125764474 0.20624330701752069 0 -0.13368012594839249 0.22589677420564111 0 -0.1182512125764474 0.20624330701752069 0 -0.14022869307888691 0.20139244644637549 0 -0.13368012594839249 0.22589677420564111 0 -0.1182512125764474 0.20624330701752069 0 -0.1658561110517795 0.2091611243878819 0 -0.14022869307888691 0.20139244644637549 0 -0.15298553753555699 0.22371476389517711 0 -0.14022869307888691 0.20139244644637549 0 -0.15298553753555699 0.22371476389517711 0 -0.13368012594839249 0.22589677420564111 0 -0.1658561110517795 0.2091611243878819 0 -0.14022869307888691 0.20139244644637549 0 -0.15298553753555699 0.22371476389517711 0 -0.13368012594839249 0.22589677420564111 0 -0.15236582870046669 0.24313320993250201 0 -0.13368012594839249 0.22589677420564111 0 -0.12721968414440549 0.2455771021429605 0 -0.1174983335233204 0.2271936358600119 0 -0.13368012594839249 0.22589677420564111 0 -0.122423585484396 0.21551329338135461 0 -0.13368012594839249 0.22589677420564111 0 -0.12721968414440549 0.2455771021429605 0 -0.14790924758310689 0.24402193755461199 0 -0.13368012594839249 0.22589677420564111 0 -0.14790924758310689 0.24402193755461199 0 -0.16213836921782121 0.26214710090358301 0 -0.15236582870046669 0.24313320993250201 0 -0.14790924758310689 0.24402193755461199 0 -0.13368012594839249 0.22589677420564111 0 -0.15236582870046669 0.24313320993250201 0 -0.14790924758310689 0.24402193755461199 0 -0.13368012594839249 0.22589677420564111 0 -0.15236582870046669 0.24313320993250201 0 -0.175362569021739 0.1501639589546892 0 -0.14793748301553691 0.15374478757960261 0 -0.1583030911603899 0.12969428748023801 0 -0.175362569021739 0.1501639589546892 0 -0.14793748301553691 0.15374478757960261 0 -0.1583030911603899 0.12969428748023801 0 -0.1766431588597642 0.12811299154076769 0 -0.175362569021739 0.1501639589546892 0 -0.187658757813182 0.1375258777643171 0 -0.1766431588597642 0.12811299154076769 0 -0.175362569021739 0.1501639589546892 0 -0.187658757813182 0.1375258777643171 0 -0.1912675993957357 0.12663670856189449 0 -0.1766431588597642 0.12811299154076769 0 -0.19181532393298709 0.1731583243687764 0 -0.1904415195361896 0.15883867644372771 0 -0.1732930912852087 0.17035924690736501 0 -0.1904415195361896 0.15883867644372771 0 -0.175362569021739 0.1501639589546892 0 -0.1732930912852087 0.17035924690736501 0 -0.167550715313834 0.1918663410477926 0 -0.1732930912852087 0.17035924690736501 0 -0.18460025507250691 0.18514613380938491 0 -0.19181532393298709 0.1731583243687764 0 -0.1732930912852087 0.17035924690736501 0 -0.18460025507250691 0.18514613380938491 0 -0.167550715313834 0.1918663410477926 0 -0.1732930912852087 0.17035924690736501 0 -0.15572633340097611 0.17902352062049251 0 -0.1732930912852087 0.17035924690736501 0 -0.15572633340097611 0.17902352062049251 0 -0.14793748301553691 0.15374478757960261 0 -0.175362569021739 0.1501639589546892 0 -0.1732930912852087 0.17035924690736501 0 -0.14793748301553691 0.15374478757960261 0 -0.15572633340097611 0.17902352062049251 0 -0.13793178937941011 0.17289213373085549 0 -0.14793748301553691 0.15374478757960261 0 -0.14022869307888691 0.20139244644637549 0 -0.15572633340097611 0.17902352062049251 0 -0.13793178937941011 0.17289213373085549 0 -0.14022869307888691 0.20139244644637549 0 -0.13793178937941011 0.17289213373085549 0 -0.1210648557906355 0.18183180557805109 0 -0.13793178937941011 0.17289213373085549 0 -0.14793748301553691 0.15374478757960261 0 -0.1205123970093349 0.15732561620451599 0 -0.13793178937941011 0.17289213373085549 0 -0.1205123970093349 0.15732561620451599 0 -0.1210648557906355 0.18183180557805109 0 -0.14793748301553691 0.15374478757960261 0 -0.13909370923214939 0.1388022571424441 0 -0.1205123970093349 0.15732561620451599 0 -0.13909370923214939 0.1388022571424441 0 -0.12398598136492869 0.13100789879496769 0 -0.1205123970093349 0.15732561620451599 0 -0.14793748301553691 0.15374478757960261 0 -0.1205123970093349 0.15732561620451599 0 -0.1583030911603899 0.12969428748023801 0 -0.14793748301553691 0.15374478757960261 0 -0.13909370923214939 0.1388022571424441 0 -0.1408358023417238 0.1209998072913291 0 -0.1583030911603899 0.12969428748023801 0 -0.13909370923214939 0.1388022571424441 0 -0.1408358023417238 0.1209998072913291 0 -0.13909370923214939 0.1388022571424441 0 -0.12398598136492869 0.13100789879496769 0 -0.12398598136492869 0.13100789879496769 0 -0.1073534305116972 0.13826593196258721 0 -0.1085029924844529 0.1214971155989984 0 -0.1073534305116972 0.13826593196258721 0 -0.092985493832317995 0.12661057504261911 0 -0.089830333224346831 0.14524480669373269 0 -0.1073534305116972 0.13826593196258721 0 -0.092985493832317995 0.12661057504261911 0 -0.1085029924844529 0.1214971155989984 0 -0.1073534305116972 0.13826593196258721 0 -0.10227573286036069 0.15457149335675521 0 -0.089830333224346831 0.14524480669373269 0 -0.1073534305116972 0.13826593196258721 0 -0.10227573286036069 0.15457149335675521 0 -0.1205123970093349 0.15732561620451599 0 -0.12398598136492869 0.13100789879496769 0 -0.1073534305116972 0.13826593196258721 0 -0.1205123970093349 0.15732561620451599 0 -0.1205123970093349 0.15732561620451599 0 -0.1210648557906355 0.18183180557805109 0 -0.1057699967032147 0.1683928043593807 0 -0.10227573286036069 0.15457149335675521 0 -0.1205123970093349 0.15732561620451599 0 -0.1057699967032147 0.1683928043593807 0 -0.1210648557906355 0.18183180557805109 0 -0.1028222992045021 0.18658983982940039 0 -0.1057699967032147 0.1683928043593807 0 -0.1028222992045021 0.18658983982940039 0 -0.1057699967032147 0.1683928043593807 0 -0.087393385832556861 0.16693637264128 0 -0.1028222992045021 0.18658983982940039 0 -0.087393385832556861 0.16693637264128 0 -0.10227573286036069 0.15457149335675521 0 -0.1057699967032147 0.1683928043593807 0 -0.087393385832556861 0.16693637264128 0 -0.087393385832556861 0.16693637264128 0 -0.074564074155944834 0.17097858777847219 0 -0.074883798166198237 0.15040480519561289 0 -0.087393385832556861 0.16693637264128 0 -0.074564074155944834 0.17097858777847219 0 -0.085103559352579947 0.18954905227074781 0 -0.1028222992045021 0.18658983982940039 0 -0.087393385832556861 0.16693637264128 0 -0.085103559352579947 0.18954905227074781 0 -0.06680343311631487 0.18684177552032649 0 -0.074564074155944834 0.17097858777847219 0 -0.085103559352579947 0.18954905227074781 0 -0.06680343311631487 0.18684177552032649 0 -0.0586361943120743 0.16116093326439401 0 -0.06680343311631487 0.18684177552032649 0 -0.074564074155944834 0.17097858777847219 0 -0.0586361943120743 0.16116093326439401 0 -0.074564074155944834 0.17097858777847219 0 -0.074883798166198237 0.15040480519561289 0 -0.0586361943120743 0.16116093326439401 0 -0.074883798166198237 0.15040480519561289 0 -0.063506284182025224 0.14479054002619121 0 -0.0586361943120743 0.16116093326439401 0 -0.074883798166198237 0.15040480519561289 0 -0.063506284182025224 0.14479054002619121 0 -0.069455362820356775 0.1343210041789441 0 -0.063506284182025224 0.14479054002619121 0 -0.069455362820356775 0.1343210041789441 0 -0.057397040699055449 0.1307934839347896 0 -0.074883798166198237 0.15040480519561289 0 -0.069455362820356775 0.1343210041789441 0 -0.082430698817967357 0.13423844416147609 0 -0.069455362820356775 0.1343210041789441 0 -0.057397040699055449 0.1307934839347896 0 -0.065195297096173499 0.1198109512060332 0 -0.069455362820356775 0.1343210041789441 0 -0.065195297096173499 0.1198109512060332 0 -0.078629740882777521 0.1222791211214732 0 -0.069455362820356775 0.1343210041789441 0 -0.082430698817967357 0.13423844416147609 0 -0.078629740882777521 0.1222791211214732 0 -0.082430698817967357 0.13423844416147609 0 -0.092985493832317995 0.12661057504261911 0 -0.089830333224346831 0.14524480669373269 0 -0.082430698817967357 0.13423844416147609 0 -0.092985493832317995 0.12661057504261911 0 -0.078629740882777521 0.1222791211214732 0 -0.087393385832556861 0.16693637264128 0 -0.074883798166198237 0.15040480519561289 0 -0.089830333224346831 0.14524480669373269 0 -0.10227573286036069 0.15457149335675521 0 -0.087393385832556861 0.16693637264128 0 -0.089830333224346831 0.14524480669373269 0 -0.074883798166198237 0.15040480519561289 0 -0.082430698817967357 0.13423844416147609 0 -0.089830333224346831 0.14524480669373269 0 -0.12721968414440549 0.2455771021429605 0 -0.10558575998279331 0.2395951069888522 0 -0.1174983335233204 0.2271936358600119 0 -0.1119693805131567 0.25879082909416579 0 -0.12721968414440549 0.2455771021429605 0 -0.10558575998279331 0.2395951069888522 0 -0.10558575998279331 0.2395951069888522 0 -0.1174983335233204 0.2271936358600119 0 -0.1056140152342562 0.22321708176865629 0 -0.13368012594839249 0.22589677420564111 0 -0.1174983335233204 0.2271936358600119 0 -0.122423585484396 0.21551329338135461 0 -0.1174983335233204 0.2271936358600119 0 -0.1118260847923512 0.216215749455033 0 -0.122423585484396 0.21551329338135461 0 -0.1174983335233204 0.2271936358600119 0 -0.1056140152342562 0.22321708176865629 0 -0.1118260847923512 0.216215749455033 0 -0.10558575998279331 0.2395951069888522 0 -0.1056140152342562 0.22321708176865629 0 -0.092017450447487437 0.22314074532682429 0 -0.1056140152342562 0.22321708176865629 0 -0.1029938007188307 0.21121379570075161 0 -0.092017450447487437 0.22314074532682429 0 -0.1029938007188307 0.21121379570075161 0 -0.090698199583317679 0.20787156946647031 0 -0.092017450447487437 0.22314074532682429 0 -0.1029938007188307 0.21121379570075161 0 -0.099533569729458163 0.1997422289425059 0 -0.090698199583317679 0.20787156946647031 0 -0.1029938007188307 0.21121379570075161 0 -0.1118260847923512 0.216215749455033 0 -0.1111670450203997 0.20512981255706811 0 -0.1029938007188307 0.21121379570075161 0 -0.1111670450203997 0.20512981255706811 0 -0.099533569729458163 0.1997422289425059 0 -0.1056140152342562 0.22321708176865629 0 -0.1029938007188307 0.21121379570075161 0 -0.1118260847923512 0.216215749455033 0 -0.1118260847923512 0.216215749455033 0 -0.122423585484396 0.21551329338135461 0 -0.1111670450203997 0.20512981255706811 0 -0.13368012594839249 0.22589677420564111 0 -0.122423585484396 0.21551329338135461 0 -0.1182512125764474 0.20624330701752069 0 -0.122423585484396 0.21551329338135461 0 -0.1182512125764474 0.20624330701752069 0 -0.1111670450203997 0.20512981255706811 0 -0.122423585484396 0.21551329338135461 0 -0.1111670450203997 0.20512981255706811 0 -0.1210648557906355 0.18183180557805109 0 -0.1028222992045021 0.18658983982940039 0 -0.1182512125764474 0.20624330701752069 0 -0.1028222992045021 0.18658983982940039 0 -0.1182512125764474 0.20624330701752069 0 -0.1028222992045021 0.18658983982940039 0 -0.1182512125764474 0.20624330701752069 0 -0.1111670450203997 0.20512981255706811 0 -0.1028222992045021 0.18658983982940039 0 -0.099533569729458163 0.1997422289425059 0 -0.085103559352579947 0.18954905227074781 0 -0.1028222992045021 0.18658983982940039 0 -0.1111670450203997 0.20512981255706811 0 -0.099533569729458163 0.1997422289425059 0 -0.099533569729458163 0.1997422289425059 0 -0.085103559352579947 0.18954905227074781 0 -0.090698199583317679 0.20787156946647031 0 -0.06680343311631487 0.18684177552032649 0 -0.074970671920555412 0.21252261777625889 0 -0.06680343311631487 0.18684177552032649 0 -0.085103559352579947 0.18954905227074781 0 -0.074970671920555412 0.21252261777625889 0 -0.06680343311631487 0.18684177552032649 0 -0.074970671920555412 0.21252261777625889 0 -0.053185208147485688 0.21138324511808579 0 -0.074970671920555412 0.21252261777625889 0 -0.090698199583317679 0.20787156946647031 0 -0.092017450447487437 0.22314074532682429 0 -0.085103559352579947 0.18954905227074781 0 -0.074970671920555412 0.21252261777625889 0 -0.090698199583317679 0.20787156946647031 0 -0.10558575998279331 0.2395951069888522 0 -0.092017450447487437 0.22314074532682429 0 -0.083137910724795955 0.2382034600321912 0 -0.074970671920555412 0.21252261777625889 0 -0.083137910724795955 0.2382034600321912 0 -0.074970671920555412 0.21252261777625889 0 -0.092017450447487437 0.22314074532682429 0 -0.083137910724795955 0.2382034600321912 0 -0.074970671920555412 0.21252261777625889 0 -0.083137910724795955 0.2382034600321912 0 -0.062169035486259697 0.2330803501179996 0 -0.074970671920555412 0.21252261777625889 0 -0.062169035486259697 0.2330803501179996 0 -0.053185208147485688 0.21138324511808579 0 -0.071779765096984249 0.25408557527859887 0 -0.056671169016731943 0.24775010090833799 0 -0.062169035486259697 0.2330803501179996 0 -0.071779765096984249 0.25408557527859887 0 -0.083137910724795955 0.2382034600321912 0 -0.062169035486259697 0.2330803501179996 0 -0.091305149529036497 0.2638843022881236 0 -0.10558575998279331 0.2395951069888522 0 -0.083137910724795955 0.2382034600321912 0 -0.037795280898350561 0.2513280305738731 0 -0.039308831678602177 0.2393087885772105 0 -0.024284486608463499 0.2455600174416373 0 -0.039308831678602177 0.2393087885772105 0 -0.05041498357178166 0.2398569671077658 0 -0.047377426958910548 0.2280388929904999 0 -0.046548454718403971 0.25110670294478082 0 -0.037795280898350561 0.2513280305738731 0 -0.039308831678602177 0.2393087885772105 0 -0.046548454718403971 0.25110670294478082 0 -0.039308831678602177 0.2393087885772105 0 -0.05041498357178166 0.2398569671077658 0 -0.046548454718403971 0.25110670294478082 0 -0.056671169016731943 0.24775010090833799 0 -0.05041498357178166 0.2398569671077658 0 -0.056671169016731943 0.24775010090833799 0 -0.05041498357178166 0.2398569671077658 0 -0.062169035486259697 0.2330803501179996 0 -0.05041498357178166 0.2398569671077658 0 -0.047377426958910548 0.2280388929904999 0 -0.062169035486259697 0.2330803501179996 0 -0.047377426958910548 0.2280388929904999 0 -0.062169035486259697 0.2330803501179996 0 -0.053185208147485688 0.21138324511808579 0 -0.039308831678602177 0.2393087885772105 0 -0.030691722670445731 0.2177919505816891 0 -0.024284486608463499 0.2455600174416373 0 -0.047377426958910548 0.2280388929904999 0 -0.053185208147485688 0.21138324511808579 0 -0.030691722670445731 0.2177919505816891 0 -0.039308831678602177 0.2393087885772105 0 -0.047377426958910548 0.2280388929904999 0 -0.030691722670445731 0.2177919505816891 0 -0.037098958732427932 0.19002388372174089 0 -0.030691722670445731 0.2177919505816891 0 -0.053185208147485688 0.21138324511808579 0 -0.037098958732427932 0.19002388372174089 0 -0.030691722670445731 0.2177919505816891 0 -0.06680343311631487 0.18684177552032649 0 -0.053185208147485688 0.21138324511808579 0 -0.037098958732427932 0.19002388372174089 0 -0.037098958732427932 0.19002388372174089 0 -0.012016315984388209 0.19148809495752769 0 -0.030691722670445731 0.2177919505816891 0 -0.012016315984388209 0.19148809495752769 0 -0.00078976531720923197 0.2136809048407739 0 -0.030691722670445731 0.2177919505816891 0 -0.030691722670445731 0.2177919505816891 0 -0.024284486608463499 0.2455600174416373 0 -0.030691722670445731 0.2177919505816891 0 -0.014230507631414219 0.22977437458730379 0 -0.024284486608463499 0.2455600174416373 0 -0.00078976531720923197 0.2136809048407739 0 -0.030691722670445731 0.2177919505816891 0 -0.014230507631414219 0.22977437458730379 0 -0.00078976531720923197 0.2136809048407739 0 -3.2549045462602551e-05 0.23058914978319819 0 -0.014230507631414219 0.22977437458730379 0 -0.014230507631414219 0.22977437458730379 0 -0.007813930522529676 0.24326673244151301 0 -0.024284486608463499 0.2455600174416373 0 -0.01103314285855006 0.25712562694631952 0 -0.007813930522529676 0.24326673244151301 0 -0.024284486608463499 0.2455600174416373 0 -3.2549045462602551e-05 0.23058914978319819 0 -0.014230507631414219 0.22977437458730379 0 -0.007813930522529676 0.24326673244151301 0 -0.042708053766182051 0.15079556582021289 0 -0.035143362331403791 0.14118918786974091 0 -0.052052082764500067 0.1428810954018431 0 -0.042708053766182051 0.15079556582021289 0 -0.035143362331403791 0.14118918786974091 0 -0.028026404224671422 0.1547683861373724 0 -0.042708053766182051 0.15079556582021289 0 -0.043506194794410133 0.1622558168617928 0 -0.028026404224671422 0.1547683861373724 0 -0.035143362331403791 0.14118918786974091 0 -0.043020654794723293 0.12567829603724001 0 -0.052052082764500067 0.1428810954018431 0 -0.035143362331403791 0.14118918786974091 0 -0.043020654794723293 0.12567829603724001 0 -0.03083642676724677 0.1290442558421642 0 -0.043020654794723293 0.12567829603724001 0 -0.057397040699055449 0.1307934839347896 0 -0.052052082764500067 0.1428810954018431 0 -0.063506284182025224 0.14479054002619121 0 -0.057397040699055449 0.1307934839347896 0 -0.052052082764500067 0.1428810954018431 0 -0.063506284182025224 0.14479054002619121 0 -0.052052082764500067 0.1428810954018431 0 -0.0586361943120743 0.16116093326439401 0 -0.042708053766182051 0.15079556582021289 0 -0.052052082764500067 0.1428810954018431 0 -0.0586361943120743 0.16116093326439401 0 -0.042708053766182051 0.15079556582021289 0 -0.0586361943120743 0.16116093326439401 0 -0.043506194794410133 0.1622558168617928 0 -0.0586361943120743 0.16116093326439401 0 -0.052022782001159583 0.17675373879584391 0 -0.043506194794410133 0.1622558168617928 0 -0.06680343311631487 0.18684177552032649 0 -0.0586361943120743 0.16116093326439401 0 -0.052022782001159583 0.17675373879584391 0 -0.06680343311631487 0.18684177552032649 0 -0.037098958732427932 0.19002388372174089 0 -0.052022782001159583 0.17675373879584391 0 -0.037098958732427932 0.19002388372174089 0 -0.043506194794410133 0.1622558168617928 0 -0.037098958732427932 0.19002388372174089 0 -0.052022782001159583 0.17675373879584391 0 -0.043506194794410133 0.1622558168617928 0 -0.037098958732427932 0.19002388372174089 0 -0.043506194794410133 0.1622558168617928 0 -0.019774128906819548 0.17028181431902839 0 -0.019774128906819548 0.17028181431902839 0 -0.009253095414459938 0.15745665820900681 0 -0.028026404224671422 0.1547683861373724 0 -0.043506194794410133 0.1622558168617928 0 -0.019774128906819548 0.17028181431902839 0 -0.028026404224671422 0.1547683861373724 0 -0.037098958732427932 0.19002388372174089 0 -0.012016315984388209 0.19148809495752769 0 -0.019774128906819548 0.17028181431902839 0 -0.012016315984388209 0.19148809495752769 0 -0.019774128906819548 0.17028181431902839 0 0.0042580274973764596 0.16729757514871291 0 -0.019774128906819548 0.17028181431902839 0 -0.009253095414459938 0.15745665820900681 0 0.0042580274973764596 0.16729757514871291 0 -0.009253095414459938 0.15745665820900681 0 0.00084220697436023547 0.14612644831665261 0 0.0042580274973764596 0.16729757514871291 0 -0.009253095414459938 0.15745665820900681 0 -0.018365406532637511 0.14315176395679091 0 0.00084220697436023547 0.14612644831665261 0 -0.009253095414459938 0.15745665820900681 0 -0.018365406532637511 0.14315176395679091 0 -0.028026404224671422 0.1547683861373724 0 -0.035143362331403791 0.14118918786974091 0 -0.018365406532637511 0.14315176395679091 0 -0.028026404224671422 0.1547683861373724 0 -0.018365406532637511 0.14315176395679091 0 -0.03083642676724677 0.1290442558421642 0 -0.009481673031653589 0.13048530100956751 0 -0.03083642676724677 0.1290442558421642 0 -0.009481673031653589 0.13048530100956751 0 -0.022191533483037498 0.1198219503745199 0 -0.035143362331403791 0.14118918786974091 0 -0.018365406532637511 0.14315176395679091 0 -0.03083642676724677 0.1290442558421642 0 -0.018365406532637511 0.14315176395679091 0 -0.009481673031653589 0.13048530100956751 0 0.00084220697436023547 0.14612644831665261 0 -0.009481673031653589 0.13048530100956751 0 -0.00078185640840130674 0.11669548164798831 0 -0.022191533483037498 0.1198219503745199 0 -0.00078185640840130674 0.11669548164798831 0 -0.022191533483037498 0.1198219503745199 0 -0.017472868268318571 0.1100799543423731 0 -0.00078185640840130674 0.11669548164798831 0 -0.018541346678207841 0.098495318773912405 0 0.0033166190407995372 0.097387433176455679 0 -0.00078185640840130674 0.11669548164798831 0 -0.018541346678207841 0.098495318773912405 0 -0.017472868268318571 0.1100799543423731 0 -0.00078185640840130674 0.11669548164798831 0 -0.018541346678207841 0.098495318773912405 0 -0.018541346678207841 0.098495318773912405 0 -0.02837673650362765 0.1053070665730718 0 -0.017472868268318571 0.1100799543423731 0 -0.027706854198341568 0.093901951135413469 0 -0.02837673650362765 0.1053070665730718 0 -0.037297843027387041 0.097493304422415078 0 -0.018541346678207841 0.098495318773912405 0 -0.027706854198341568 0.093901951135413469 0 -0.02837673650362765 0.1053070665730718 0 -0.02837673650362765 0.1053070665730718 0 -0.022191533483037498 0.1198219503745199 0 -0.037899112541610033 0.1143258221758941 0 -0.03083642676724677 0.1290442558421642 0 -0.022191533483037498 0.1198219503745199 0 -0.037899112541610033 0.1143258221758941 0 -0.02837673650362765 0.1053070665730718 0 -0.022191533483037498 0.1198219503745199 0 -0.017472868268318571 0.1100799543423731 0 -0.0039662095927586486 0.079405288483660783 0 -0.02246966117977723 0.085237903679715274 0 -0.018850212058418619 0.067953516637131797 0 -0.001047307761182732 0.063758492390303623 0 -0.0039662095927586486 0.079405288483660783 0 -0.018850212058418619 0.067953516637131797 0 -0.018541346678207841 0.098495318773912405 0 -0.02246966117977723 0.085237903679715274 0 0.0033166190407995372 0.097387433176455679 0 -0.02246966117977723 0.085237903679715274 0 0.0033166190407995372 0.097387433176455679 0 -0.0039662095927586486 0.079405288483660783 0 -0.02246966117977723 0.085237903679715274 0 0.0033166190407995372 0.097387433176455679 0 -0.018541346678207841 0.098495318773912405 0 -0.027706854198341568 0.093901951135413469 0 -0.02246966117977723 0.085237903679715274 0 -0.027706854198341568 0.093901951135413469 0 -0.02246966117977723 0.085237903679715274 0 -0.036232695868107442 0.083416293675290465 0 -0.02246966117977723 0.085237903679715274 0 -0.02781055358593626 0.075567279221349468 0 -0.036232695868107442 0.083416293675290465 0 -0.018850212058418619 0.067953516637131797 0 -0.034857822763611497 0.068615807253472424 0 -0.032915788465108363 0.053066760077506749 0 -0.02246966117977723 0.085237903679715274 0 -0.018850212058418619 0.067953516637131797 0 -0.02781055358593626 0.075567279221349468 0 -0.018850212058418619 0.067953516637131797 0 -0.02781055358593626 0.075567279221349468 0 -0.034857822763611497 0.068615807253472424 0 -0.034857822763611497 0.068615807253472424 0 -0.049666822889221689 0.071803043032954358 0 -0.044774993172052142 0.062300317006643707 0 -0.02781055358593626 0.075567279221349468 0 -0.034857822763611497 0.068615807253472424 0 -0.036232695868107442 0.083416293675290465 0 -0.034857822763611497 0.068615807253472424 0 -0.036232695868107442 0.083416293675290465 0 -0.049666822889221689 0.071803043032954358 0 -0.036232695868107442 0.083416293675290465 0 -0.05374104701792954 0.083579320226110629 0 -0.048411374119597818 0.094338348839666658 0 -0.036232695868107442 0.083416293675290465 0 -0.05374104701792954 0.083579320226110629 0 -0.049666822889221689 0.071803043032954358 0 -0.027706854198341568 0.093901951135413469 0 -0.036232695868107442 0.083416293675290465 0 -0.037297843027387041 0.097493304422415078 0 -0.036232695868107442 0.083416293675290465 0 -0.037297843027387041 0.097493304422415078 0 -0.048411374119597818 0.094338348839666658 0 -0.05374104701792954 0.083579320226110629 0 -0.06403758641551649 0.095147477480342968 0 -0.065815324502105782 0.078041395612038947 0 -0.05374104701792954 0.083579320226110629 0 -0.048411374119597818 0.094338348839666658 0 -0.06403758641551649 0.095147477480342968 0 -0.05374104701792954 0.083579320226110629 0 -0.049666822889221689 0.071803043032954358 0 -0.065815324502105782 0.078041395612038947 0 -0.049666822889221689 0.071803043032954358 0 -0.059273007394157952 0.063711485941029281 0 -0.065815324502105782 0.078041395612038947 0 -0.049666822889221689 0.071803043032954358 0 -0.059273007394157952 0.063711485941029281 0 -0.044774993172052142 0.062300317006643707 0 -0.043020654794723293 0.12567829603724001 0 -0.037899112541610033 0.1143258221758941 0 -0.051152562536553897 0.1172790167584858 0 -0.043020654794723293 0.12567829603724001 0 -0.03083642676724677 0.1290442558421642 0 -0.037899112541610033 0.1143258221758941 0 -0.037899112541610033 0.1143258221758941 0 -0.037297843027387041 0.097493304422415078 0 -0.052418030678694057 0.105656865223362 0 -0.02837673650362765 0.1053070665730718 0 -0.037899112541610033 0.1143258221758941 0 -0.037297843027387041 0.097493304422415078 0 -0.037297843027387041 0.097493304422415078 0 -0.052418030678694057 0.105656865223362 0 -0.048411374119597818 0.094338348839666658 0 -0.052418030678694057 0.105656865223362 0 -0.048411374119597818 0.094338348839666658 0 -0.06403758641551649 0.095147477480342968 0 -0.052418030678694057 0.105656865223362 0 -0.063335964568026523 0.1082585049326218 0 -0.06403758641551649 0.095147477480342968 0 -0.051152562536553897 0.1172790167584858 0 -0.065195297096173499 0.1198109512060332 0 -0.063335964568026523 0.1082585049326218 0 -0.052418030678694057 0.105656865223362 0 -0.051152562536553897 0.1172790167584858 0 -0.063335964568026523 0.1082585049326218 0 -0.037899112541610033 0.1143258221758941 0 -0.052418030678694057 0.105656865223362 0 -0.051152562536553897 0.1172790167584858 0 -0.043020654794723293 0.12567829603724001 0 -0.057397040699055449 0.1307934839347896 0 -0.051152562536553897 0.1172790167584858 0 -0.057397040699055449 0.1307934839347896 0 -0.051152562536553897 0.1172790167584858 0 -0.065195297096173499 0.1198109512060332 0 -0.065195297096173499 0.1198109512060332 0 -0.074492385036055028 0.1070320906758606 0 -0.063335964568026523 0.1082585049326218 0 -0.065195297096173499 0.1198109512060332 0 -0.078629740882777521 0.1222791211214732 0 -0.074492385036055028 0.1070320906758606 0 -0.078629740882777521 0.1222791211214732 0 -0.086170346243718943 0.1110940852195938 0 -0.074492385036055028 0.1070320906758606 0 -0.092985493832317995 0.12661057504261911 0 -0.086170346243718943 0.1110940852195938 0 -0.098632596965611941 0.11343876646720311 0 -0.092985493832317995 0.12661057504261911 0 -0.078629740882777521 0.1222791211214732 0 -0.086170346243718943 0.1110940852195938 0 -0.09242010571970817 0.1005107197305172 0 -0.079627407702713995 0.096941312981804806 0 -0.088894809951645573 0.08850881077914366 0 -0.086170346243718943 0.1110940852195938 0 -0.09242010571970817 0.1005107197305172 0 -0.079627407702713995 0.096941312981804806 0 -0.086170346243718943 0.1110940852195938 0 -0.09242010571970817 0.1005107197305172 0 -0.098632596965611941 0.11343876646720311 0 -0.086170346243718943 0.1110940852195938 0 -0.079627407702713995 0.096941312981804806 0 -0.074492385036055028 0.1070320906758606 0 -0.079627407702713995 0.096941312981804806 0 -0.074492385036055028 0.1070320906758606 0 -0.06403758641551649 0.095147477480342968 0 -0.074492385036055028 0.1070320906758606 0 -0.063335964568026523 0.1082585049326218 0 -0.06403758641551649 0.095147477480342968 0 -0.06403758641551649 0.095147477480342968 0 -0.075528881472442369 0.086656284003517881 0 -0.065815324502105782 0.078041395612038947 0 -0.075528881472442369 0.086656284003517881 0 -0.065815324502105782 0.078041395612038947 0 -0.084112076410270992 0.076941203475554526 0 -0.079627407702713995 0.096941312981804806 0 -0.06403758641551649 0.095147477480342968 0 -0.075528881472442369 0.086656284003517881 0 -0.065815324502105782 0.078041395612038947 0 -0.076944259246367053 0.065298788598432203 0 -0.084112076410270992 0.076941203475554526 0 -0.059273007394157952 0.063711485941029281 0 -0.065815324502105782 0.078041395612038947 0 -0.076944259246367053 0.065298788598432203 0 -0.076944259246367053 0.065298788598432203 0 -0.084112076410270992 0.076941203475554526 0 -0.091283010285193283 0.066190219689471252 0 -0.084112076410270992 0.076941203475554526 0 -0.091283010285193283 0.066190219689471252 0 -0.098745606022185933 0.077832413919909069 0 -0.079627407702713995 0.096941312981804806 0 -0.075528881472442369 0.086656284003517881 0 -0.088894809951645573 0.08850881077914366 0 -0.075528881472442369 0.086656284003517881 0 -0.084112076410270992 0.076941203475554526 0 -0.088894809951645573 0.08850881077914366 0 -0.084112076410270992 0.076941203475554526 0 -0.088894809951645573 0.08850881077914366 0 -0.098745606022185933 0.077832413919909069 0 -0.09242010571970817 0.1005107197305172 0 -0.088894809951645573 0.08850881077914366 0 -0.10293478238255201 0.092170930563558545 0 -0.088894809951645573 0.08850881077914366 0 -0.10293478238255201 0.092170930563558545 0 -0.098745606022185933 0.077832413919909069 0 -0.10293478238255201 0.092170930563558545 0 -0.098745606022185933 0.077832413919909069 0 -0.10977956638755081 0.083178580850524944 0 -0.091283010285193283 0.066190219689471252 0 -0.098745606022185933 0.077832413919909069 0 -0.1032518664639878 0.062312963010208867 0 -0.098745606022185933 0.077832413919909069 0 -0.1105603549001737 0.07236994627064039 0 -0.1032518664639878 0.062312963010208867 0 -0.098745606022185933 0.077832413919909069 0 -0.1105603549001737 0.07236994627064039 0 -0.10977956638755081 0.083178580850524944 0 -0.12023726309661199 0.074035780041575183 0 -0.1205255976320482 0.057128869658954487 0 -0.12834605662634721 0.072266526114831392 0 -0.12023726309661199 0.074035780041575183 0 -0.1205255976320482 0.057128869658954487 0 -0.1105603549001737 0.07236994627064039 0 -0.1205255976320482 0.057128869658954487 0 -0.1032518664639878 0.062312963010208867 0 -0.1105603549001737 0.07236994627064039 0 -0.12023726309661199 0.074035780041575183 0 -0.1205255976320482 0.057128869658954487 0 -0.1105603549001737 0.07236994627064039 0 -0.12023726309661199 0.074035780041575183 0 -0.1178058644985864 0.08181741425638063 0 -0.125906628105493 0.083365698268132032 0 -0.12834605662634721 0.072266526114831392 0 -0.12023726309661199 0.074035780041575183 0 -0.12834605662634721 0.072266526114831392 0 -0.1205255976320482 0.057128869658954487 0 -0.10293478238255201 0.092170930563558545 0 -0.10977956638755081 0.083178580850524944 0 -0.1177693279908696 0.092528142380592315 0 -0.1105603549001737 0.07236994627064039 0 -0.10977956638755081 0.083178580850524944 0 -0.1178058644985864 0.08181741425638063 0 -0.10977956638755081 0.083178580850524944 0 -0.1178058644985864 0.08181741425638063 0 -0.1177693279908696 0.092528142380592315 0 -0.125906628105493 0.083365698268132032 0 -0.1178058644985864 0.08181741425638063 0 -0.1177693279908696 0.092528142380592315 0 -0.125906628105493 0.083365698268132032 0 -0.12023726309661199 0.074035780041575183 0 -0.1178058644985864 0.08181741425638063 0 -0.12951989144348419 0.097220536079384398 0 -0.125906628105493 0.083365698268132032 0 -0.1177693279908696 0.092528142380592315 0 -0.12506301964603311 0.1094262372133947 0 -0.1177693279908696 0.092528142380592315 0 -0.1077307271854764 0.10461129645246869 0 -0.12506301964603311 0.1094262372133947 0 -0.12951989144348419 0.097220536079384398 0 -0.1177693279908696 0.092528142380592315 0 -0.10293478238255201 0.092170930563558545 0 -0.1177693279908696 0.092528142380592315 0 -0.1077307271854764 0.10461129645246869 0 -0.12506301964603311 0.1094262372133947 0 -0.1085029924844529 0.1214971155989984 0 -0.1077307271854764 0.10461129645246869 0 -0.12506301964603311 0.1094262372133947 0 -0.12398598136492869 0.13100789879496769 0 -0.1085029924844529 0.1214971155989984 0 -0.1085029924844529 0.1214971155989984 0 -0.098632596965611941 0.11343876646720311 0 -0.1077307271854764 0.10461129645246869 0 -0.092985493832317995 0.12661057504261911 0 -0.1085029924844529 0.1214971155989984 0 -0.098632596965611941 0.11343876646720311 0 -0.09242010571970817 0.1005107197305172 0 -0.098632596965611941 0.11343876646720311 0 -0.1077307271854764 0.10461129645246869 0 -0.09242010571970817 0.1005107197305172 0 -0.10293478238255201 0.092170930563558545 0 -0.1077307271854764 0.10461129645246869 0 -0.094512981239103039 0.0067775986195027756 0 -0.1110032756635398 0.01496194752267575 0 -0.1075192894355755 0.031953234139228757 0 -0.094512981239103039 0.0067775986195027756 0 -0.1075192894355755 0.031953234139228757 0 -0.086470914304292115 0.019850005814814851 0 -0.094512981239103039 0.0067775986195027756 0 -0.1075192894355755 0.031953234139228757 0 -0.094512981239103039 0.0067775986195027756 0 -0.1110032756635398 0.01496194752267575 0 -0.1214804603662699 0.001139119243796668 0 -0.094512981239103039 0.0067775986195027756 0 -0.1214804603662699 0.001139119243796668 0 -0.1214804603662699 0.001139119243796668 0 -0.1210030289991592 0.029133994451375551 0 -0.1110032756635398 0.01496194752267575 0 -0.1214804603662699 0.001139119243796668 0 -0.1210030289991592 0.029133994451375551 0 -0.1110032756635398 0.01496194752267575 0 -0.1210030289991592 0.029133994451375551 0 -0.1075192894355755 0.031953234139228757 0 -0.1210030289991592 0.029133994451375551 0 -0.1205255976320482 0.057128869658954487 0 -0.1075192894355755 0.031953234139228757 0 -0.1205255976320482 0.057128869658954487 0 -0.10571386546416491 0.050354833804229573 0 -0.1075192894355755 0.031953234139228757 0 -0.1210030289991592 0.029133994451375551 0 -0.1205255976320482 0.057128869658954487 0 -0.1205255976320482 0.057128869658954487 0 -0.1075192894355755 0.031953234139228757 0 -0.1205255976320482 0.057128869658954487 0 -0.1032518664639878 0.062312963010208867 0 -0.10571386546416491 0.050354833804229573 0 -0.091283010285193283 0.066190219689471252 0 -0.1032518664639878 0.062312963010208867 0 -0.091558708325047838 0.050024268408526189 0 -0.1032518664639878 0.062312963010208867 0 -0.10571386546416491 0.050354833804229573 0 -0.091558708325047838 0.050024268408526189 0 -0.10571386546416491 0.050354833804229573 0 -0.1075192894355755 0.031953234139228757 0 -0.091558708325047838 0.050024268408526189 0 -0.080228388697100722 0.035919835009108378 0 -0.091558708325047838 0.050024268408526189 0 -0.069905459270395195 0.050142229991191792 0 -0.1075192894355755 0.031953234139228757 0 -0.080228388697100722 0.035919835009108378 0 -0.091558708325047838 0.050024268408526189 0 -0.076944259246367053 0.065298788598432203 0 -0.091558708325047838 0.050024268408526189 0 -0.069905459270395195 0.050142229991191792 0 -0.076944259246367053 0.065298788598432203 0 -0.091283010285193283 0.066190219689471252 0 -0.091558708325047838 0.050024268408526189 0 -0.059273007394157952 0.063711485941029281 0 -0.076944259246367053 0.065298788598432203 0 -0.069905459270395195 0.050142229991191792 0 -0.080228388697100722 0.035919835009108378 0 -0.069905459270395195 0.050142229991191792 0 -0.059887864529913848 0.034120207089474511 0 -0.072520971161518261 0.02305809429806532 0 -0.062571097247878418 0.01137307137717016 0 -0.059887864529913848 0.034120207089474511 0 -0.080228388697100722 0.035919835009108378 0 -0.072520971161518261 0.02305809429806532 0 -0.059887864529913848 0.034120207089474511 0 -0.072520971161518261 0.02305809429806532 0 -0.077484462793116299 0.012718309462907919 0 -0.062571097247878418 0.01137307137717016 0 -0.080228388697100722 0.035919835009108378 0 -0.072520971161518261 0.02305809429806532 0 -0.086470914304292115 0.019850005814814851 0 -0.1075192894355755 0.031953234139228757 0 -0.080228388697100722 0.035919835009108378 0 -0.086470914304292115 0.019850005814814851 0 -0.072520971161518261 0.02305809429806532 0 -0.086470914304292115 0.019850005814814851 0 -0.077484462793116299 0.012718309462907919 0 -0.081202616950677903 -0.0014108215933112159 0 -0.094512981239103039 0.0067775986195027756 0 -0.088578328381693994 0.0080184419916505146 0 -0.094512981239103039 0.0067775986195027756 0 -0.088578328381693994 0.0080184419916505146 0 -0.094512981239103039 0.0067775986195027756 0 -0.086470914304292115 0.019850005814814851 0 -0.088578328381693994 0.0080184419916505146 0 -0.086470914304292115 0.019850005814814851 0 -0.088578328381693994 0.0080184419916505146 0 -0.077484462793116299 0.012718309462907919 0 -0.081202616950677903 -0.0014108215933112159 0 -0.088578328381693994 0.0080184419916505146 0 -0.077484462793116299 0.012718309462907919 0 -0.081202616950677903 -0.0014108215933112159 0 -0.077484462793116299 0.012718309462907919 0 -0.062571097247878418 0.01137307137717016 0 -0.081202616950677903 -0.0014108215933112159 0 -0.063641141463562895 -0.0049251060214543247 0 -0.062571097247878418 0.01137307137717016 0 -0.081202616950677903 -0.0014108215933112159 0 -0.062571097247878418 0.01137307137717016 0 -0.062571097247878418 0.01137307137717016 0 -0.04798784309583224 0.0098791939000671507 0 -0.043939577545078927 0.024156964347651539 0 -0.063641141463562895 -0.0049251060214543247 0 -0.062571097247878418 0.01137307137717016 0 -0.054863487566188522 0.0033556939330056578 0 -0.045253868457480508 -0.0029043835237603558 0 -0.054863487566188522 0.0033556939330056578 0 -0.04798784309583224 0.0098791939000671507 0 -0.062571097247878418 0.01137307137717016 0 -0.054863487566188522 0.0033556939330056578 0 -0.04798784309583224 0.0098791939000671507 0 -0.062571097247878418 0.01137307137717016 0 -0.043939577545078927 0.024156964347651539 0 -0.062571097247878418 0.01137307137717016 0 -0.043939577545078927 0.024156964347651539 0 -0.059887864529913848 0.034120207089474511 0 -0.04798784309583224 0.0098791939000671507 0 -0.043939577545078927 0.024156964347651539 0 -0.033256188948365267 0.0137561586009755 0 -0.043939577545078927 0.024156964347651539 0 -0.033256188948365267 0.0137561586009755 0 -0.021807003057079041 0.022299460600404761 0 -0.043939577545078927 0.024156964347651539 0 -0.025308057842279508 0.036940857318132868 0 -0.031571753622779378 -0.00083557407611478001 0 -0.045253868457480508 -0.0029043835237603558 0 -0.033256188948365267 0.0137561586009755 0 -0.045253868457480508 -0.0029043835237603558 0 -0.04798784309583224 0.0098791939000671507 0 -0.033256188948365267 0.0137561586009755 0 -0.045253868457480508 -0.0029043835237603558 0 -0.033256188948365267 0.0137561586009755 0 -0.059273007394157952 0.063711485941029281 0 -0.069905459270395195 0.050142229991191792 0 -0.051540527429783767 0.05177879490058019 0 -0.059273007394157952 0.063711485941029281 0 -0.051540527429783767 0.05177879490058019 0 -0.044774993172052142 0.062300317006643707 0 -0.043939577545078927 0.024156964347651539 0 -0.059887864529913848 0.034120207089474511 0 -0.042718363162432882 0.040012716746669168 0 -0.069905459270395195 0.050142229991191792 0 -0.051540527429783767 0.05177879490058019 0 -0.059887864529913848 0.034120207089474511 0 -0.051540527429783767 0.05177879490058019 0 -0.059887864529913848 0.034120207089474511 0 -0.042718363162432882 0.040012716746669168 0 -0.042718363162432882 0.040012716746669168 0 -0.032915788465108363 0.053066760077506749 0 -0.025308057842279508 0.036940857318132868 0 -0.043939577545078927 0.024156964347651539 0 -0.042718363162432882 0.040012716746669168 0 -0.025308057842279508 0.036940857318132868 0 -0.051540527429783767 0.05177879490058019 0 -0.032915788465108363 0.053066760077506749 0 -0.044774993172052142 0.062300317006643707 0 -0.051540527429783767 0.05177879490058019 0 -0.042718363162432882 0.040012716746669168 0 -0.032915788465108363 0.053066760077506749 0 -0.034857822763611497 0.068615807253472424 0 -0.032915788465108363 0.053066760077506749 0 -0.044774993172052142 0.062300317006643707 0 -0.018850212058418619 0.067953516637131797 0 -0.032915788465108363 0.053066760077506749 0 -0.006676538139480187 0.049724750288614138 0 -0.025308057842279508 0.036940857318132868 0 -0.006676538139480187 0.049724750288614138 0 -0.032915788465108363 0.053066760077506749 0 -0.025308057842279508 0.036940857318132868 0 -0.006676538139480187 0.049724750288614138 0 -0.025308057842279508 0.036940857318132868 0 -0.006676538139480187 0.049724750288614138 0 -0.010772776383862301 0.031150803109888631 0 -0.006676538139480187 0.049724750288614138 0 -0.010772776383862301 0.031150803109888631 0 0.0050739895803026142 0.031227134755342539 0 -0.001047307761182732 0.063758492390303623 0 -0.018850212058418619 0.067953516637131797 0 -0.006676538139480187 0.049724750288614138 0 -0.031571753622779378 -0.00083557407611478001 0 -0.033256188948365267 0.0137561586009755 0 -0.019503699567590939 0.0072620669748936556 0 -0.033256188948365267 0.0137561586009755 0 -0.019503699567590939 0.0072620669748936556 0 -0.021807003057079041 0.022299460600404761 0 -0.043939577545078927 0.024156964347651539 0 -0.025308057842279508 0.036940857318132868 0 -0.021807003057079041 0.022299460600404761 0 -0.025308057842279508 0.036940857318132868 0 -0.021807003057079041 0.022299460600404761 0 -0.010772776383862301 0.031150803109888631 0 -0.010772776383862301 0.031150803109888631 0 -0.0051462724607754069 0.01556181258694881 0 0.0050739895803026142 0.031227134755342539 0 -0.021807003057079041 0.022299460600404761 0 -0.010772776383862301 0.031150803109888631 0 -0.0051462724607754069 0.01556181258694881 0 -0.019503699567590939 0.0072620669748936556 0 -0.021807003057079041 0.022299460600404761 0 -0.0051462724607754069 0.01556181258694881 0 -0.019503699567590939 0.0072620669748936556 0 -0.0051462724607754069 0.01556181258694881 0 -0.0062950599919664469 0.001842533104863542 0 -0.0051462724607754069 0.01556181258694881 0 -0.0062950599919664469 0.001842533104863542 0 0.0029948208537307168 0.0048516543320618116 0 0.01387820488690315 0.01121806494355861 0 0.0029948208537307168 0.0048516543320618116 0 0.0067479369879116582 -0.007765601535749676 0 -0.0051462724607754069 0.01556181258694881 0 0.01387820488690315 0.01121806494355861 0 0.0029948208537307168 0.0048516543320618116 0 0.01387820488690315 0.01121806494355861 0 0.0050739895803026142 0.031227134755342539 0 0.02442868311041866 0.028713419009121149 0 -0.0051462724607754069 0.01556181258694881 0 0.01387820488690315 0.01121806494355861 0 0.0050739895803026142 0.031227134755342539 0 0.01387820488690315 0.01121806494355861 0 0.02442868311041866 0.028713419009121149 0 0.031324863945243517 0.01327605084201881 0 0.01387820488690315 0.01121806494355861 0 0.031324863945243517 0.01327605084201881 0 0.030887095042777851 -0.0053979945756472223 0 -0.001047307761182732 0.063758492390303623 0 0.01372008329173764 0.049797983227316343 0 0.014369140410961099 0.070728457611155149 0 -0.001047307761182732 0.063758492390303623 0 -0.006676538139480187 0.049724750288614138 0 0.01372008329173764 0.049797983227316343 0 0.0050739895803026142 0.031227134755342539 0 0.02442868311041866 0.028713419009121149 0 0.01372008329173764 0.049797983227316343 0 -0.006676538139480187 0.049724750288614138 0 0.0050739895803026142 0.031227134755342539 0 0.01372008329173764 0.049797983227316343 0 0.02442868311041866 0.028713419009121149 0 0.01372008329173764 0.049797983227316343 0 0.034028936747319431 0.044882855766176191 0 0.01372008329173764 0.049797983227316343 0 0.026370804355880021 0.059558175805789718 0 0.034028936747319431 0.044882855766176191 0 0.01372008329173764 0.049797983227316343 0 0.026370804355880021 0.059558175805789718 0 0.014369140410961099 0.070728457611155149 0 0.026370804355880021 0.059558175805789718 0 0.042310241831293269 0.061028712993570627 0 0.034028936747319431 0.044882855766176191 0 0.042310241831293269 0.061028712993570627 0 0.034028936747319431 0.044882855766176191 0 0.052638667691320459 0.04666299386977979 0 0.034028936747319431 0.044882855766176191 0 0.052638667691320459 0.04666299386977979 0 0.044705140203266561 0.023535849691479569 0 0.02442868311041866 0.028713419009121149 0 0.034028936747319431 0.044882855766176191 0 0.044705140203266561 0.023535849691479569 0 0.052638667691320459 0.04666299386977979 0 0.060625178771498457 0.02869919835856263 0 0.072316942454508315 0.053248258692658 0 0.052638667691320459 0.04666299386977979 0 0.044705140203266561 0.023535849691479569 0 0.060625178771498457 0.02869919835856263 0 0.042310241831293269 0.061028712993570627 0 0.052638667691320459 0.04666299386977979 0 0.058754992362182533 0.071046000583958643 0 0.052638667691320459 0.04666299386977979 0 0.072316942454508315 0.053248258692658 0 0.058754992362182533 0.071046000583958643 0 0.043319234528787789 0.0082185119832953596 0 0.031324863945243517 0.01327605084201881 0 0.030887095042777851 -0.0053979945756472223 0 0.043319234528787789 0.0082185119832953596 0 0.031324863945243517 0.01327605084201881 0 0.044705140203266561 0.023535849691479569 0 0.02442868311041866 0.028713419009121149 0 0.031324863945243517 0.01327605084201881 0 0.044705140203266561 0.023535849691479569 0 0.060625178771498457 0.02869919835856263 0 0.054652820355006959 0.0127090415741704 0 0.069849000103755332 0.0093878172246722492 0 0.044705140203266561 0.023535849691479569 0 0.060625178771498457 0.02869919835856263 0 0.054652820355006959 0.0127090415741704 0 0.054652820355006959 0.0127090415741704 0 0.069849000103755332 0.0093878172246722492 0 0.055026253097644043 -0.0030303876155447721 0 0.043319234528787789 0.0082185119832953596 0 0.054652820355006959 0.0127090415741704 0 0.055026253097644043 -0.0030303876155447721 0 0.043319234528787789 0.0082185119832953596 0 0.044705140203266561 0.023535849691479569 0 0.054652820355006959 0.0127090415741704 0 0.069849000103755332 0.0093878172246722492 0 0.055026253097644043 -0.0030303876155447721 0 0.079165411152510134 -0.0006627806554415724 0 0.069849000103755332 0.0093878172246722492 0 0.078404543128650306 0.013081039729022539 0 0.074388392633871814 0.022318553786625391 0 0.069849000103755332 0.0093878172246722492 0 0.082614512544974095 0.0044026668066610014 0 0.078404543128650306 0.013081039729022539 0 0.069849000103755332 0.0093878172246722492 0 0.082614512544974095 0.0044026668066610014 0 0.079165411152510134 -0.0006627806554415724 0 0.082614512544974095 0.0044026668066610014 0 0.079165411152510134 -0.0006627806554415724 0 0.082614512544974095 0.0044026668066610014 0 0.085470256183996229 -0.00046654070803734749 0 0.079165411152510134 -0.0006627806554415724 0 0.082614512544974095 0.0044026668066610014 0 0.078404543128650306 0.013081039729022539 0 0.086766267231999983 0.016215121098131509 0 0.082614512544974095 0.0044026668066610014 0 0.086766267231999983 0.016215121098131509 0 0.095662718955640602 0.0052042782372958701 0 0.095662718955640602 0.0052042782372958701 0 0.089028829084301347 -0.0041578778281385412 0 0.085470256183996229 -0.00046654070803734749 0 0.082614512544974095 0.0044026668066610014 0 0.095662718955640602 0.0052042782372958701 0 0.085470256183996229 -0.00046654070803734749 0 0.074388392633871814 0.022318553786625391 0 0.082342331119114959 0.038385469540318823 0 0.099214882432765453 0.032325112172015752 0 0.074388392633871814 0.022318553786625391 0 0.099214882432765453 0.032325112172015752 0 0.086766267231999983 0.016215121098131509 0 0.074388392633871814 0.022318553786625391 0 0.099214882432765453 0.032325112172015752 0 0.078404543128650306 0.013081039729022539 0 0.086766267231999983 0.016215121098131509 0 0.074388392633871814 0.022318553786625391 0 0.060625178771498457 0.02869919835856263 0 0.074388392633871814 0.022318553786625391 0 0.082342331119114959 0.038385469540318823 0 0.060625178771498457 0.02869919835856263 0 0.069849000103755332 0.0093878172246722492 0 0.074388392633871814 0.022318553786625391 0 0.060625178771498457 0.02869919835856263 0 0.072316942454508315 0.053248258692658 0 0.082342331119114959 0.038385469540318823 0 0.072316942454508315 0.053248258692658 0 0.082342331119114959 0.038385469540318823 0 0.102736586766782 0.059213389984976571 0 0.072316942454508315 0.053248258692658 0 0.102736586766782 0.059213389984976571 0 0.084519861752082842 0.071564755975294742 0 0.082342331119114959 0.038385469540318823 0 0.099214882432765453 0.032325112172015752 0 0.102736586766782 0.059213389984976571 0 0.099214882432765453 0.032325112172015752 0 0.102736586766782 0.059213389984976571 0 0.1229686904089954 0.041899315706827082 0 0.099214882432765453 0.032325112172015752 0 0.102736586766782 0.059213389984976571 0 0.102736586766782 0.059213389984976571 0 0.1229686904089954 0.041899315706827082 0 0.12647649614080439 0.066031546948844902 0 0.099214882432765453 0.032325112172015752 0 0.1229686904089954 0.041899315706827082 0 0.124160826029419 0.030945114514448101 0 0.099214882432765453 0.032325112172015752 0 0.1229686904089954 0.041899315706827082 0 0.099214882432765453 0.032325112172015752 0 0.124160826029419 0.030945114514448101 0 0.11244638993619691 0.01717910750657747 0 0.124160826029419 0.030945114514448101 0 0.11244638993619691 0.01717910750657747 0 0.1293806280457086 0.01488261943344992 0 0.11244638993619691 0.01717910750657747 0 0.1214108478999421 0.0053438791373986898 0 0.1100384861595171 0.00069035143238784728 0 0.11244638993619691 0.01717910750657747 0 0.1214108478999421 0.0053438791373986898 0 0.1293806280457086 0.01488261943344992 0 0.11244638993619691 0.01717910750657747 0 0.1100384861595171 0.00069035143238784728 0 0.095662718955640602 0.0052042782372958701 0 0.099214882432765453 0.032325112172015752 0 0.095662718955640602 0.0052042782372958701 0 0.086766267231999983 0.016215121098131509 0 0.099214882432765453 0.032325112172015752 0 0.095662718955640602 0.0052042782372958701 0 0.099214882432765453 0.032325112172015752 0 0.11244638993619691 0.01717910750657747 0 0.095662718955640602 0.0052042782372958701 0 0.109779995434813 0.11298994561089851 0 0.1062582911007975 0.08610166779793757 0 0.109779995434813 0.11298994561089851 0 0.1062582911007975 0.08610166779793757 0 0.082530241940860657 0.1022202838690994 0 0.109779995434813 0.11298994561089851 0 0.11996834035404071 0.099770275904319056 0 0.12636607456785731 0.1221464216715525 0 0.109779995434813 0.11298994561089851 0 0.11996834035404071 0.099770275904319056 0 0.1062582911007975 0.08610166779793757 0 0.1062582911007975 0.08610166779793757 0 0.12647649614080439 0.066031546948844902 0 0.1300682397425193 0.086482910789789397 0 0.11996834035404071 0.099770275904319056 0 0.1062582911007975 0.08610166779793757 0 0.1300682397425193 0.086482910789789397 0 0.102736586766782 0.059213389984976571 0 0.1062582911007975 0.08610166779793757 0 0.12647649614080439 0.066031546948844902 0 0.102736586766782 0.059213389984976571 0 0.1062582911007975 0.08610166779793757 0 0.084519861752082842 0.071564755975294742 0 0.102736586766782 0.059213389984976571 0 0.1062582911007975 0.08610166779793757 0 0.084519861752082842 0.071564755975294742 0 0.070793331995997549 0.086034400941550557 0 0.082530241940860657 0.1022202838690994 0 0.1062582911007975 0.08610166779793757 0 0.084519861752082842 0.071564755975294742 0 0.082530241940860657 0.1022202838690994 0 0.072316942454508315 0.053248258692658 0 0.084519861752082842 0.071564755975294742 0 0.058754992362182533 0.071046000583958643 0 0.084519861752082842 0.071564755975294742 0 0.070793331995997549 0.086034400941550557 0 0.058754992362182533 0.071046000583958643 0 0.082530241940860657 0.1022202838690994 0 0.054889179481952828 0.12168649216993629 0 0.054129657182349411 0.096524449079782804 0 0.082530241940860657 0.1022202838690994 0 0.054889179481952828 0.12168649216993629 0 0.087318318411701734 0.13380167905485171 0 0.109779995434813 0.11298994561089851 0 0.082530241940860657 0.1022202838690994 0 0.087318318411701734 0.13380167905485171 0 0.070793331995997549 0.086034400941550557 0 0.082530241940860657 0.1022202838690994 0 0.054129657182349411 0.096524449079782804 0 0.054129657182349411 0.096524449079782804 0 0.034576243627725968 0.082258432535074116 0 0.029102899261376179 0.109536962673196 0 0.054889179481952828 0.12168649216993629 0 0.054129657182349411 0.096524449079782804 0 0.029102899261376179 0.109536962673196 0 0.054889179481952828 0.12168649216993629 0 0.029102899261376179 0.109536962673196 0 0.037460388783358112 0.13267365478648119 0 0.054889179481952828 0.12168649216993629 0 0.029102899261376179 0.109536962673196 0 0.070793331995997549 0.086034400941550557 0 0.054129657182349411 0.096524449079782804 0 0.058754992362182533 0.071046000583958643 0 0.054129657182349411 0.096524449079782804 0 0.058754992362182533 0.071046000583958643 0 0.034576243627725968 0.082258432535074116 0 0.026370804355880021 0.059558175805789718 0 0.042310241831293269 0.061028712993570627 0 0.034576243627725968 0.082258432535074116 0 0.042310241831293269 0.061028712993570627 0 0.058754992362182533 0.071046000583958643 0 0.034576243627725968 0.082258432535074116 0 0.026370804355880021 0.059558175805789718 0 0.034576243627725968 0.082258432535074116 0 0.014369140410961099 0.070728457611155149 0 0.034576243627725968 0.082258432535074116 0 0.01748222836476556 0.087299767585561294 0 0.029102899261376179 0.109536962673196 0 0.034576243627725968 0.082258432535074116 0 0.01748222836476556 0.087299767585561294 0 0.014369140410961099 0.070728457611155149 0 -0.0039662095927586486 0.079405288483660783 0 0.01748222836476556 0.087299767585561294 0 0.0033166190407995372 0.097387433176455679 0 -0.0039662095927586486 0.079405288483660783 0 0.01748222836476556 0.087299767585561294 0 0.014369140410961099 0.070728457611155149 0 -0.001047307761182732 0.063758492390303623 0 -0.0039662095927586486 0.079405288483660783 0 0.014369140410961099 0.070728457611155149 0 0.01748222836476556 0.087299767585561294 0 0.029102899261376179 0.109536962673196 0 0.0033166190407995372 0.097387433176455679 0 0.029102899261376179 0.109536962673196 0 0.0033166190407995372 0.097387433176455679 0 -0.00078185640840130674 0.11669548164798831 0 0.029102899261376179 0.109536962673196 0 0.0033166190407995372 0.097387433176455679 0 -0.00078185640840130674 0.11669548164798831 0 0.029102899261376179 0.109536962673196 0 0.016977633861405189 0.1348956445220641 0 -0.00078185640840130674 0.11669548164798831 0 0.016977633861405189 0.1348956445220641 0 -0.009481673031653589 0.13048530100956751 0 -0.00078185640840130674 0.11669548164798831 0 0.016977633861405189 0.1348956445220641 0 -0.009481673031653589 0.13048530100956751 0 0.016977633861405189 0.1348956445220641 0 0.00084220697436023547 0.14612644831665261 0 0.016977633861405189 0.1348956445220641 0 0.037460388783358112 0.13267365478648119 0 0.034737124131211751 0.15309580739614001 0 0.029102899261376179 0.109536962673196 0 0.016977633861405189 0.1348956445220641 0 0.037460388783358112 0.13267365478648119 0 0.016977633861405189 0.1348956445220641 0 0.016644498617335159 0.15477884087771471 0 0.034737124131211751 0.15309580739614001 0 0.016977633861405189 0.1348956445220641 0 0.034737124131211751 0.15309580739614001 0 0.016644498617335159 0.15477884087771471 0 0.00084220697436023547 0.14612644831665261 0 0.0042580274973764596 0.16729757514871291 0 0.016977633861405189 0.1348956445220641 0 0.016644498617335159 0.15477884087771471 0 0.00084220697436023547 0.14612644831665261 0 0.0042580274973764596 0.16729757514871291 0 0.026407500622322201 0.17247872900500391 0 0.01334010153624462 0.1928979393227658 0 -0.012016315984388209 0.19148809495752769 0 0.0042580274973764596 0.16729757514871291 0 0.01334010153624462 0.1928979393227658 0 0.026407500622322201 0.17247872900500391 0 0.01334010153624462 0.1928979393227658 0 0.037568587885799268 0.19167367418152051 0 0.016644498617335159 0.15477884087771471 0 0.026407500622322201 0.17247872900500391 0 0.034737124131211751 0.15309580739614001 0 0.016644498617335159 0.15477884087771471 0 0.0042580274973764596 0.16729757514871291 0 0.026407500622322201 0.17247872900500391 0 0.026407500622322201 0.17247872900500391 0 0.052496614401018382 0.1712959702702159 0 0.034737124131211751 0.15309580739614001 0 0.052496614401018382 0.1712959702702159 0 0.034737124131211751 0.15309580739614001 0 0.026407500622322201 0.17247872900500391 0 0.052496614401018382 0.1712959702702159 0 0.037568587885799268 0.19167367418152051 0 0.052496614401018382 0.1712959702702159 0 0.037568587885799268 0.19167367418152051 0 0.057624213002125869 0.18968927961081769 0 0.052496614401018382 0.1712959702702159 0 0.057624213002125869 0.18968927961081769 0 0.071421856731581593 0.17169681366825429 0 0.052496614401018382 0.1712959702702159 0 0.060277655020686688 0.14817836803328871 0 0.034737124131211751 0.15309580739614001 0 0.052496614401018382 0.1712959702702159 0 0.060277655020686688 0.14817836803328871 0 0.071421856731581593 0.17169681366825429 0 0.054889179481952828 0.12168649216993629 0 0.060277655020686688 0.14817836803328871 0 0.037460388783358112 0.13267365478648119 0 0.060277655020686688 0.14817836803328871 0 0.037460388783358112 0.13267365478648119 0 0.034737124131211751 0.15309580739614001 0 0.028033626719301839 0.240932199164862 0 0.010391909727619849 0.24352254585138039 0 0.019972720471145022 0.25855598480310032 0 0.028033626719301839 0.240932199164862 0 0.010391909727619849 0.24352254585138039 0 0.014212747114380669 0.22835734584383099 0 -0.007813930522529676 0.24326673244151301 0 0.010391909727619849 0.24352254585138039 0 0.0033967451803710411 0.25877395175208318 0 -3.2549045462602551e-05 0.23058914978319819 0 -0.007813930522529676 0.24326673244151301 0 0.010391909727619849 0.24352254585138039 0 -0.00078976531720923197 0.2136809048407739 0 -3.2549045462602551e-05 0.23058914978319819 0 0.014212747114380669 0.22835734584383099 0 -0.00078976531720923197 0.2136809048407739 0 0.014212747114380669 0.22835734584383099 0 0.02744584893043657 0.21474725704730499 0 -3.2549045462602551e-05 0.23058914978319819 0 0.010391909727619849 0.24352254585138039 0 0.014212747114380669 0.22835734584383099 0 0.028033626719301839 0.240932199164862 0 0.014212747114380669 0.22835734584383099 0 0.02744584893043657 0.21474725704730499 0 -0.00078976531720923197 0.2136809048407739 0 0.02744584893043657 0.21474725704730499 0 0.01334010153624462 0.1928979393227658 0 -0.012016315984388209 0.19148809495752769 0 -0.00078976531720923197 0.2136809048407739 0 0.01334010153624462 0.1928979393227658 0 0.02744584893043657 0.21474725704730499 0 0.01334010153624462 0.1928979393227658 0 0.037568587885799268 0.19167367418152051 0 0.057624213002125869 0.18968927961081769 0 0.053934131761635799 0.21091596526091019 0 0.075482128182303987 0.1974822838275623 0 0.037568587885799268 0.19167367418152051 0 0.057624213002125869 0.18968927961081769 0 0.053934131761635799 0.21091596526091019 0 0.02744584893043657 0.21474725704730499 0 0.053934131761635799 0.21091596526091019 0 0.044155629847342448 0.2286609326401991 0 0.02744584893043657 0.21474725704730499 0 0.037568587885799268 0.19167367418152051 0 0.053934131761635799 0.21091596526091019 0 0.028033626719301839 0.240932199164862 0 0.02744584893043657 0.21474725704730499 0 0.044155629847342448 0.2286609326401991 0 0.053934131761635799 0.21091596526091019 0 0.044155629847342448 0.2286609326401991 0 0.061711769826515411 0.2290120250323765 0 0.044155629847342448 0.2286609326401991 0 0.061711769826515411 0.2290120250323765 0 0.053250727671044683 0.24692070682097381 0 0.028033626719301839 0.240932199164862 0 0.044155629847342448 0.2286609326401991 0 0.053250727671044683 0.24692070682097381 0 0.028033626719301839 0.240932199164862 0 0.053250727671044683 0.24692070682097381 0 0.036158601502326443 0.25942679963651238 0 0.053250727671044683 0.24692070682097381 0 0.080552186918931123 0.24029775552065941 0 0.06728731251324771 0.26155180763872837 0 0.061711769826515411 0.2290120250323765 0 0.053250727671044683 0.24692070682097381 0 0.080552186918931123 0.24029775552065941 0 0.061711769826515411 0.2290120250323765 0 0.080552186918931123 0.24029775552065941 0 0.076666172933622975 0.2182647649191401 0 0.053934131761635799 0.21091596526091019 0 0.061711769826515411 0.2290120250323765 0 0.076666172933622975 0.2182647649191401 0 0.080552186918931123 0.24029775552065941 0 0.076666172933622975 0.2182647649191401 0 0.104181545898428 0.22986029279277179 0 0.076666172933622975 0.2182647649191401 0 0.09719874524444852 0.2092311601827449 0 0.104181545898428 0.22986029279277179 0 0.076666172933622975 0.2182647649191401 0 0.075482128182303987 0.1974822838275623 0 0.09719874524444852 0.2092311601827449 0 0.053934131761635799 0.21091596526091019 0 0.076666172933622975 0.2182647649191401 0 0.075482128182303987 0.1974822838275623 0 0.075482128182303987 0.1974822838275623 0 0.09719874524444852 0.2092311601827449 0 0.095270698669135206 0.17866224871954511 0 0.1203451084368593 0.19365477904978151 0 0.09719874524444852 0.2092311601827449 0 0.095270698669135206 0.17866224871954511 0 0.1203451084368593 0.19365477904978151 0 0.12386681277087511 0.22054305686274259 0 0.1203451084368593 0.19365477904978151 0 0.09719874524444852 0.2092311601827449 0 0.12386681277087511 0.22054305686274259 0 0.09719874524444852 0.2092311601827449 0 0.12386681277087511 0.22054305686274259 0 0.09719874524444852 0.2092311601827449 0 0.104181545898428 0.22986029279277179 0 0.12386681277087511 0.22054305686274259 0 0.104181545898428 0.22986029279277179 0 0.12386681277087511 0.22054305686274259 0 0.1270380358660114 0.24475540392587211 0 0.104181545898428 0.22986029279277179 0 0.1270380358660114 0.24475540392587211 0 0.1093331819624868 0.25102113547634142 0 0.080552186918931123 0.24029775552065941 0 0.104181545898428 0.22986029279277179 0 0.1093331819624868 0.25102113547634142 0 0.054889179481952828 0.12168649216993629 0 0.060277655020686688 0.14817836803328871 0 0.087318318411701734 0.13380167905485171 0 0.087318318411701734 0.13380167905485171 0 0.083276830223888085 0.15681639171324069 0 0.1015272041825902 0.15503914347816669 0 0.060277655020686688 0.14817836803328871 0 0.087318318411701734 0.13380167905485171 0 0.083276830223888085 0.15681639171324069 0 0.060277655020686688 0.14817836803328871 0 0.071421856731581593 0.17169681366825429 0 0.083276830223888085 0.15681639171324069 0 0.057624213002125869 0.18968927961081769 0 0.075482128182303987 0.1974822838275623 0 0.071421856731581593 0.17169681366825429 0 0.075482128182303987 0.1974822838275623 0 0.071421856731581593 0.17169681366825429 0 0.095270698669135206 0.17866224871954511 0 0.071421856731581593 0.17169681366825429 0 0.083276830223888085 0.15681639171324069 0 0.095270698669135206 0.17866224871954511 0 0.083276830223888085 0.15681639171324069 0 0.095270698669135206 0.17866224871954511 0 0.1015272041825902 0.15503914347816669 0 0.095270698669135206 0.17866224871954511 0 0.11682340410284391 0.16676650123682041 0 0.1015272041825902 0.15503914347816669 0 0.1203451084368593 0.19365477904978151 0 0.095270698669135206 0.17866224871954511 0 0.11682340410284391 0.16676650123682041 0 0.1203451084368593 0.19365477904978151 0 0.11682340410284391 0.16676650123682041 0 0.13375550098952541 0.18323465703212749 0 0.1203451084368593 0.19365477904978151 0 0.11682340410284391 0.16676650123682041 0 0.11682340410284391 0.16676650123682041 0 0.1133016997688284 0.13987822342385939 0 0.11682340410284391 0.16676650123682041 0 0.1015272041825902 0.15503914347816669 0 0.1133016997688284 0.13987822342385939 0 0.1133016997688284 0.13987822342385939 0 0.13192108949184689 0.1360176465807631 0 0.12938772243545721 0.15328353279606161 0 0.11682340410284391 0.16676650123682041 0 0.1133016997688284 0.13987822342385939 0 0.12938772243545721 0.15328353279606161 0 0.087318318411701734 0.13380167905485171 0 0.1015272041825902 0.15503914347816669 0 0.1133016997688284 0.13987822342385939 0 0.109779995434813 0.11298994561089851 0 0.087318318411701734 0.13380167905485171 0 0.1133016997688284 0.13987822342385939 0 0.1133016997688284 0.13987822342385939 0 0.13192108949184689 0.1360176465807631 0 0.12636607456785731 0.1221464216715525 0 0.109779995434813 0.11298994561089851 0 0.1133016997688284 0.13987822342385939 0 0.12636607456785731 0.1221464216715525 0 0.109779995434813 0.11298994561089851 0 0.1133016997688284 0.13987822342385939 0 0.13192108949184689 0.1360176465807631 0 0.12636607456785731 0.1221464216715525 0 0.14647884947618059 0.12071617029720801 0 0.1440711012109113 0.14406388471513401 0 0.14647884947618059 0.12071617029720801 0 0.13192108949184689 0.1360176465807631 0 0.1440711012109113 0.14406388471513401 0 0.14647884947618059 0.12071617029720801 0 0.1440711012109113 0.14406388471513401 0 0.159194612010683 0.1382513873305814 0 0.14647884947618059 0.12071617029720801 0 0.159194612010683 0.1382513873305814 0 0.14647884947618059 0.12071617029720801 0 0.1542466336729385 0.1537978437726519 0 0.1440711012109113 0.14406388471513401 0 0.141663352945641 0.16741159913305989 0 0.1440711012109113 0.14406388471513401 0 0.141663352945641 0.16741159913305989 0 0.1542466336729385 0.1537978437726519 0 0.1440711012109113 0.14406388471513401 0 0.159194612010683 0.1382513873305814 0 0.13192108949184689 0.1360176465807631 0 0.1440711012109113 0.14406388471513401 0 0.12938772243545721 0.15328353279606161 0 0.1440711012109113 0.14406388471513401 0 0.12938772243545721 0.15328353279606161 0 0.141663352945641 0.16741159913305989 0 0.11682340410284391 0.16676650123682041 0 0.12938772243545721 0.15328353279606161 0 0.141663352945641 0.16741159913305989 0 0.11682340410284391 0.16676650123682041 0 0.13375550098952541 0.18323465703212749 0 0.141663352945641 0.16741159913305989 0 0.14897637017689039 0.18699356339451789 0 0.141663352945641 0.16741159913305989 0 0.16141570587308979 0.17850155688284039 0 0.13375550098952541 0.18323465703212749 0 0.14897637017689039 0.18699356339451789 0 0.141663352945641 0.16741159913305989 0 0.1542466336729385 0.1537978437726519 0 0.141663352945641 0.16741159913305989 0 0.16253969023777351 0.1634819727905607 0 0.141663352945641 0.16741159913305989 0 0.16253969023777351 0.1634819727905607 0 0.16141570587308979 0.17850155688284039 0 0.1542466336729385 0.1537978437726519 0 0.16253969023777351 0.1634819727905607 0 0.16188590228102839 0.15283812651918899 0 0.16253969023777351 0.1634819727905607 0 0.17116277762399229 0.16834497550308339 0 0.16141570587308979 0.17850155688284039 0 0.16253969023777351 0.1634819727905607 0 0.17116277762399229 0.16834497550308339 0 0.17191037454518551 0.15578660436395469 0 0.16253969023777351 0.1634819727905607 0 0.17191037454518551 0.15578660436395469 0 0.16188590228102839 0.15283812651918899 0 0.17116277762399229 0.16834497550308339 0 0.16141570587308979 0.17850155688284039 0 0.17701821718956831 0.18399603038908791 0 0.16141570587308979 0.17850155688284039 0 0.17701821718956831 0.18399603038908791 0 0.16846854498877051 0.19454264721076109 0 0.17701821718956831 0.18399603038908791 0 0.1851883089901773 0.17409706444183171 0 0.19503871967546621 0.18820276821948451 0 0.17116277762399229 0.16834497550308339 0 0.17701821718956831 0.18399603038908791 0 0.1851883089901773 0.17409706444183171 0 0.1851883089901773 0.17409706444183171 0 0.17191037454518551 0.15578660436395469 0 0.18340251857755249 0.16142252558938719 0 0.17191037454518551 0.15578660436395469 0 0.1935542829762191 0.15362671504051439 0 0.1851883089901773 0.17409706444183171 0 0.18340251857755249 0.16142252558938719 0 0.17191037454518551 0.15578660436395469 0 0.17116277762399229 0.16834497550308339 0 0.1851883089901773 0.17409706444183171 0 0.17191037454518551 0.15578660436395469 0 0.17191037454518551 0.15578660436395469 0 0.1935542829762191 0.15362671504051439 0 0.17191037454518551 0.15578660436395469 0 0.18259458238141979 0.13747634843422049 0 0.1935542829762191 0.15362671504051439 0 0.18259458238141979 0.13747634843422049 0 0.16726094536460689 0.1228299305600818 0 0.18350704471910301 0.1217198166855607 0 0.159194612010683 0.1382513873305814 0 0.14647884947618059 0.12071617029720801 0 0.16726094536460689 0.1228299305600818 0 0.18259458238141979 0.13747634843422049 0 0.159194612010683 0.1382513873305814 0 0.16726094536460689 0.1228299305600818 0 0.17191037454518551 0.15578660436395469 0 0.18259458238141979 0.13747634843422049 0 0.159194612010683 0.1382513873305814 0 0.17191037454518551 0.15578660436395469 0 0.159194612010683 0.1382513873305814 0 0.16188590228102839 0.15283812651918899 0 0.1542466336729385 0.1537978437726519 0 0.159194612010683 0.1382513873305814 0 0.16188590228102839 0.15283812651918899 0 0.17191037454518551 0.15578660436395469 0 0.159194612010683 0.1382513873305814 0 0.1544129974181003 0.24112206451564719 0 0.14605826640042149 0.22995609102382769 0 0.16824972002996769 0.23936912518491271 0 0.15545367683749339 0.24915944651673361 0 0.14917857366095319 0.2452766123623791 0 0.14834124733852899 0.25481535152466089 0 0.15545367683749339 0.24915944651673361 0 0.14917857366095319 0.2452766123623791 0 0.1544129974181003 0.24112206451564719 0 0.1544129974181003 0.24112206451564719 0 0.14727254116454169 0.2389792542151479 0 0.14605826640042149 0.22995609102382769 0 0.14917857366095319 0.2452766123623791 0 0.1544129974181003 0.24112206451564719 0 0.14727254116454169 0.2389792542151479 0 0.14727254116454169 0.2389792542151479 0 0.14075468666138641 0.2432733873217367 0 0.14605826640042149 0.22995609102382769 0 0.14917857366095319 0.2452766123623791 0 0.14727254116454169 0.2389792542151479 0 0.14075468666138641 0.2432733873217367 0 0.14917857366095319 0.2452766123623791 0 0.14075468666138641 0.2432733873217367 0 0.14834124733852899 0.25481535152466089 0 0.14075468666138641 0.2432733873217367 0 0.1270380358660114 0.24475540392587211 0 0.13808013415381551 0.25579043559821119 0 0.14075468666138641 0.2432733873217367 0 0.1270380358660114 0.24475540392587211 0 0.14605826640042149 0.22995609102382769 0 0.12386681277087511 0.22054305686274259 0 0.14605826640042149 0.22995609102382769 0 0.12386681277087511 0.22054305686274259 0 0.1270380358660114 0.24475540392587211 0 0.14605826640042149 0.22995609102382769 0 0.12386681277087511 0.22054305686274259 0 0.14605826640042149 0.22995609102382769 0 0.14601611119491781 0.20768584244060681 0 0.12386681277087511 0.22054305686274259 0 0.1270380358660114 0.24475540392587211 0 0.14605826640042149 0.22995609102382769 0 0.14601611119491781 0.20768584244060681 0 0.15713291561244291 0.22352748381275969 0 0.14601611119491781 0.20768584244060681 0 0.1637743253936389 0.20875531131489719 0 0.15713291561244291 0.22352748381275969 0 0.14601611119491781 0.20768584244060681 0 0.15713291561244291 0.22352748381275969 0 0.14601611119491781 0.20768584244060681 0 0.15574010206637129 0.19846872123074921 0 0.1637743253936389 0.20875531131489719 0 0.1203451084368593 0.19365477904978151 0 0.12386681277087511 0.22054305686274259 0 0.14601611119491781 0.20768584244060681 0 0.1203451084368593 0.19365477904978151 0 0.13375550098952541 0.18323465703212749 0 0.14601611119491781 0.20768584244060681 0 0.14897637017689039 0.18699356339451789 0 0.14601611119491781 0.20768584244060681 0 0.15574010206637129 0.19846872123074921 0 0.14897637017689039 0.18699356339451789 0 0.16141570587308979 0.17850155688284039 0 0.15574010206637129 0.19846872123074921 0 0.13375550098952541 0.18323465703212749 0 0.14897637017689039 0.18699356339451789 0 0.14601611119491781 0.20768584244060681 0 0.16846854498877051 0.19454264721076109 0 0.1808352459859135 0.20028717007652611 0 0.1637743253936389 0.20875531131489719 0 0.16141570587308979 0.17850155688284039 0 0.15574010206637129 0.19846872123074921 0 0.16846854498877051 0.19454264721076109 0 0.15574010206637129 0.19846872123074921 0 0.16846854498877051 0.19454264721076109 0 0.1637743253936389 0.20875531131489719 0 0.17701821718956831 0.18399603038908791 0 0.16846854498877051 0.19454264721076109 0 0.1808352459859135 0.20028717007652611 0 0.17701821718956831 0.18399603038908791 0 0.1808352459859135 0.20028717007652611 0 0.19503871967546621 0.18820276821948451 0 0.17508772503121839 0.21970296953943649 0 0.19808492578584699 0.21062098117233921 0 0.1808352459859135 0.20028717007652611 0 0.17508772503121839 0.21970296953943649 0 0.19808492578584699 0.21062098117233921 0 0.1808352459859135 0.20028717007652611 0 0.1637743253936389 0.20875531131489719 0 0.17508772503121839 0.21970296953943649 0 0.1637743253936389 0.20875531131489719 0 0.15713291561244291 0.22352748381275969 0 0.17508772503121839 0.21970296953943649 0 0.14605826640042149 0.22995609102382769 0 0.15713291561244291 0.22352748381275969 0 0.16824972002996769 0.23936912518491271 0 0.15713291561244291 0.22352748381275969 0 0.17323214675815871 0.23106363957976181 0 0.16824972002996769 0.23936912518491271 0 0.15713291561244291 0.22352748381275969 0 0.16824972002996769 0.23936912518491271 0 0.15713291561244291 0.22352748381275969 0 0.17508772503121839 0.21970296953943649 0 0.17323214675815871 0.23106363957976181 0 0.17508772503121839 0.21970296953943649 0 0.1854914459002705 0.22956468347656059 0 0.19808492578584699 0.21062098117233921 0 0.17508772503121839 0.21970296953943649 0 0.1854914459002705 0.22956468347656059 0 0.17323214675815871 0.23106363957976181 0 0.1854914459002705 0.22956468347656059 0 0.17323214675815871 0.23106363957976181 0 0.17932360034006919 0.2355267001512418 0 0.17306879962208779 0.24141325269376701 0 0.16824972002996769 0.23936912518491271 0 0.18367957179935351 0.26135693471862592 0 0.17306879962208779 0.24141325269376701 0 0.18550200907975981 0.24006522485487791 0 0.18367957179935351 0.26135693471862592 0 0.17323214675815871 0.23106363957976181 0 0.17932360034006919 0.2355267001512418 0 0.17306879962208779 0.24141325269376701 0 0.17932360034006919 0.2355267001512418 0 0.17306879962208779 0.24141325269376701 0 0.18550200907975981 0.24006522485487791 0 0.1854914459002705 0.22956468347656059 0 0.17932360034006919 0.2355267001512418 0 0.18550200907975981 0.24006522485487791 0 0.14605826640042149 0.22995609102382769 0 0.16824972002996769 0.23936912518491271 0 0.16824972002996769 0.23936912518491271 0 0.16045156868999699 0.24544123882834579 0 0.1636898804744267 0.2521143190960895 0 0.17306879962208779 0.24141325269376701 0 0.16824972002996769 0.23936912518491271 0 0.17323214675815871 0.23106363957976181 0 0.17306879962208779 0.24141325269376701 0 0.16824972002996769 0.23936912518491271 0 0.1544129974181003 0.24112206451564719 0 0.16824972002996769 0.23936912518491271 0 0.16045156868999699 0.24544123882834579 0 0.15545367683749339 0.24915944651673361 0 0.1544129974181003 0.24112206451564719 0 0.16045156868999699 0.24544123882834579 0 0.15545367683749339 0.24915944651673361 0 0.16045156868999699 0.24544123882834579 0 0.1636898804744267 0.2521143190960895 0 0.20159519547554139 0.23903066266214679 0 0.21919886520734619 0.2403169612113584 0 0.21274613146189911 0.25314486768171252 0 0.18550200907975981 0.24006522485487791 0 0.20159519547554139 0.23903066266214679 0 0.18367957179935351 0.26135693471862592 0 0.1854914459002705 0.22956468347656059 0 0.18550200907975981 0.24006522485487791 0 0.20159519547554139 0.23903066266214679 0 0.1854914459002705 0.22956468347656059 0 0.20159519547554139 0.23903066266214679 0 0.19808492578584699 0.21062098117233921 0 0.20159519547554139 0.23903066266214679 0 0.21371037268551801 0.2191408852740635 0 0.21919886520734619 0.2403169612113584 0 0.20159519547554139 0.23903066266214679 0 0.21371037268551801 0.2191408852740635 0 0.19808492578584699 0.21062098117233921 0 0.19808492578584699 0.21062098117233921 0 0.22108212654047471 0.20153899280523949 0 0.21371037268551801 0.2191408852740635 0 0.19808492578584699 0.21062098117233921 0 0.22108212654047471 0.20153899280523949 0 0.1808352459859135 0.20028717007652611 0 0.19808492578584699 0.21062098117233921 0 0.19503871967546621 0.18820276821948451 0 0.19808492578584699 0.21062098117233921 0 0.19503871967546621 0.18820276821948451 0 0.20780667441750289 0.1938436007000171 0 0.19503871967546621 0.18820276821948451 0 0.20780667441750289 0.1938436007000171 0 0.20631077842347639 0.18347027772256791 0 0.19808492578584699 0.21062098117233921 0 0.20780667441750289 0.1938436007000171 0 0.22108212654047471 0.20153899280523949 0 0.22108212654047471 0.20153899280523949 0 0.21574125106575551 0.18309721784768451 0 0.20780667441750289 0.1938436007000171 0 0.22108212654047471 0.20153899280523949 0 0.21574125106575551 0.18309721784768451 0 0.22108212654047471 0.20153899280523949 0 0.2295499039140175 0.1884229882144256 0 0.21574125106575551 0.18309721784768451 0 0.22108212654047471 0.20153899280523949 0 0.2295499039140175 0.1884229882144256 0 0.24425773743936141 0.19230443312710871 0 0.22108212654047471 0.20153899280523949 0 0.24425773743936141 0.19230443312710871 0 0.2295499039140175 0.1884229882144256 0 0.24425773743936141 0.19230443312710871 0 0.2417356951409825 0.18311319968291831 0 0.22108212654047471 0.20153899280523949 0 0.24425773743936141 0.19230443312710871 0 0.2382859998793227 0.20578940046460781 0 0.24425773743936141 0.19230443312710871 0 0.24903039543617861 0.19050174285036769 0 0.2417356951409825 0.18311319968291831 0 0.24425773743936141 0.19230443312710871 0 0.24903039543617861 0.19050174285036769 0 0.24425773743936141 0.19230443312710871 0 0.24902852560950459 0.19362444833452189 0 0.24425773743936141 0.19230443312710871 0 0.24902852560950459 0.19362444833452189 0 0.24903039543617861 0.19050174285036769 0 0.24902852560950459 0.19362444833452189 0 0.24903039543617861 0.19050174285036769 0 0.24425773743936141 0.19230443312710871 0 0.24902852560950459 0.19362444833452189 0 0.2382859998793227 0.20578940046460781 0 0.24902852560950459 0.19362444833452189 0 0.2490151916809821 0.21589278594043401 0 0.2382859998793227 0.20578940046460781 0 0.24902852560950459 0.19362444833452189 0 0.2490151916809821 0.21589278594043401 0 0.2490151916809821 0.21589278594043401 0 0.2382859998793227 0.20578940046460781 0 0.2280464181262909 0.22558634211573481 0 0.22108212654047471 0.20153899280523949 0 0.2280464181262909 0.22558634211573481 0 0.21371037268551801 0.2191408852740635 0 0.22108212654047471 0.20153899280523949 0 0.2280464181262909 0.22558634211573481 0 0.22108212654047471 0.20153899280523949 0 0.2382859998793227 0.20578940046460781 0 0.2280464181262909 0.22558634211573481 0 0.21371037268551801 0.2191408852740635 0 0.2280464181262909 0.22558634211573481 0 0.21919886520734619 0.2403169612113584 0 0.2490151916809821 0.21589278594043401 0 0.24900185775245859 0.23816112354634611 0 0.2490151916809821 0.21589278594043401 0 0.2280464181262909 0.22558634211573481 0 0.24900185775245859 0.23816112354634611 0 0.2280464181262909 0.22558634211573481 0 0.24900185775245859 0.23816112354634611 0 0.235010709712107 0.2496336914262304 0 0.24900185775245859 0.23816112354634611 0 0.235010709712107 0.2496336914262304 0 0.2280464181262909 0.22558634211573481 0 0.235010709712107 0.2496336914262304 0 0.235010709712107 0.2496336914262304 0 0.21919886520734619 0.2403169612113584 0 0.22442050993853929 0.25831752390469193 0 0.2280464181262909 0.22558634211573481 0 0.235010709712107 0.2496336914262304 0 0.21919886520734619 0.2403169612113584 0 0.21519819140725249 0.1514668257170734 0 0.1935542829762191 0.15362671504051439 0 0.202643864221764 0.14201176453063721 0 0.21519819140725249 0.1514668257170734 0 0.1935542829762191 0.15362671504051439 0 0.21519819140725249 0.1514668257170734 0 0.21746732015830189 0.13768426067999881 0 0.202643864221764 0.14201176453063721 0 0.21746732015830189 0.13768426067999881 0 0.19809254047831831 0.12606158496636399 0 0.21345168339593201 0.1224182181591526 0 0.21746732015830189 0.13768426067999881 0 0.19809254047831831 0.12606158496636399 0 0.202643864221764 0.14201176453063721 0 0.21746732015830189 0.13768426067999881 0 0.19809254047831831 0.12606158496636399 0 0.18259458238141979 0.13747634843422049 0 0.19809254047831831 0.12606158496636399 0 0.18350704471910301 0.1217198166855607 0 0.18259458238141979 0.13747634843422049 0 0.19809254047831831 0.12606158496636399 0 0.202643864221764 0.14201176453063721 0 0.18259458238141979 0.13747634843422049 0 0.1935542829762191 0.15362671504051439 0 0.202643864221764 0.14201176453063721 0 0.1935542829762191 0.15362671504051439 0 0.19817958217136691 0.17238258733392331 0 0.20826356948100841 0.16407908762708759 0 0.18340251857755249 0.16142252558938719 0 0.1935542829762191 0.15362671504051439 0 0.19817958217136691 0.17238258733392331 0 0.1851883089901773 0.17409706444183171 0 0.18340251857755249 0.16142252558938719 0 0.19817958217136691 0.17238258733392331 0 0.19503871967546621 0.18820276821948451 0 0.19817958217136691 0.17238258733392331 0 0.20631077842347639 0.18347027772256791 0 0.1851883089901773 0.17409706444183171 0 0.19503871967546621 0.18820276821948451 0 0.19817958217136691 0.17238258733392331 0 0.20780667441750289 0.1938436007000171 0 0.20631077842347639 0.18347027772256791 0 0.21574125106575551 0.18309721784768451 0 0.19817958217136691 0.17238258733392331 0 0.20631077842347639 0.18347027772256791 0 0.21244882767018211 0.17630108394836749 0 0.20631077842347639 0.18347027772256791 0 0.21244882767018211 0.17630108394836749 0 0.21574125106575551 0.18309721784768451 0 0.21519819140725249 0.1514668257170734 0 0.1935542829762191 0.15362671504051439 0 0.20826356948100841 0.16407908762708759 0 0.19817958217136691 0.17238258733392331 0 0.21244882767018211 0.17630108394836749 0 0.20826356948100841 0.16407908762708759 0 0.21244882767018211 0.17630108394836749 0 0.20826356948100841 0.16407908762708759 0 0.22084765267806189 0.1646615872569083 0 0.21519819140725249 0.1514668257170734 0 0.20826356948100841 0.16407908762708759 0 0.22084765267806189 0.1646615872569083 0 0.22084765267806189 0.1646615872569083 0 0.2274641019493554 0.15709231370273091 0 0.2369684638738212 0.1629339054433093 0 0.22084765267806189 0.1646615872569083 0 0.23074460794613441 0.17505718349595359 0 0.2369684638738212 0.1629339054433093 0 0.21519819140725249 0.1514668257170734 0 0.22084765267806189 0.1646615872569083 0 0.2274641019493554 0.15709231370273091 0 0.2274641019493554 0.15709231370273091 0 0.2369684638738212 0.1629339054433093 0 0.236842099838286 0.14930693639363299 0 0.21244882767018211 0.17630108394836749 0 0.22084765267806189 0.1646615872569083 0 0.23074460794613441 0.17505718349595359 0 0.21244882767018211 0.17630108394836749 0 0.21574125106575551 0.18309721784768451 0 0.23074460794613441 0.17505718349595359 0 0.21244882767018211 0.17630108394836749 0 0.23074460794613441 0.17505718349595359 0 0.2295499039140175 0.1884229882144256 0 0.21574125106575551 0.18309721784768451 0 0.23074460794613441 0.17505718349595359 0 0.2295499039140175 0.1884229882144256 0 0.23074460794613441 0.17505718349595359 0 0.2417356951409825 0.18311319968291831 0 0.23074460794613441 0.17505718349595359 0 0.24904038822208679 0.1738132830435398 0 0.2417356951409825 0.18311319968291831 0 0.24903039543617861 0.19050174285036769 0 0.24904038822208679 0.1738132830435398 0 0.2417356951409825 0.18311319968291831 0 0.23074460794613441 0.17505718349595359 0 0.24904038822208679 0.1738132830435398 0 0.24903039543617861 0.19050174285036769 0 0.24904038822208679 0.1738132830435398 0 0.24904038822208679 0.1738132830435398 0 0.24905067688038751 0.15663070132046111 0 0.24904038822208679 0.1738132830435398 0 0.2369684638738212 0.1629339054433093 0 0.24905067688038751 0.15663070132046111 0 0.23074460794613441 0.17505718349595359 0 0.24904038822208679 0.1738132830435398 0 0.2369684638738212 0.1629339054433093 0 0.2369684638738212 0.1629339054433093 0 0.24905067688038751 0.15663070132046111 0 0.236842099838286 0.14930693639363299 0 0.24905067688038751 0.15663070132046111 0 0.24905579205058739 0.14808810738716141 0 0.236842099838286 0.14930693639363299 0 0.24905067688038751 0.15663070132046111 0 0.236842099838286 0.14930693639363299 0 0.24905067688038751 0.15663070132046111 0 0.24905579205058739 0.14808810738716141 0 0.24905579205058739 0.14808810738716141 0 0.236842099838286 0.14930693639363299 0 0.24905579205058739 0.14808810738716141 0 0.236842099838286 0.14930693639363299 0 0.23486613151320171 0.13064080532464961 0 0.21519819140725249 0.1514668257170734 0 0.236842099838286 0.14930693639363299 0 0.21519819140725249 0.1514668257170734 0 0.2274641019493554 0.15709231370273091 0 0.236842099838286 0.14930693639363299 0 0.21519819140725249 0.1514668257170734 0 0.21746732015830189 0.13768426067999881 0 0.236842099838286 0.14930693639363299 0 0.21746732015830189 0.13768426067999881 0 0.236842099838286 0.14930693639363299 0 0.21746732015830189 0.13768426067999881 0 0.236842099838286 0.14930693639363299 0 0.23486613151320171 0.13064080532464961 0 0.21746732015830189 0.13768426067999881 0 0.23486613151320171 0.13064080532464961 0 0.21345168339593201 0.1224182181591526 0 0.24905579205058739 0.14808810738716141 0 0.2490735844534607 0.11837389125237741 0 0.24905579205058739 0.14808810738716141 0 0.23486613151320171 0.13064080532464961 0 0.2490735844534607 0.11837389125237741 0 0.23486613151320171 0.13064080532464961 0 0.2490735844534607 0.11837389125237741 0 0.2214456534953417 0.1094071282638969 0 0.2490735844534607 0.11837389125237741 0 0.22713439477579139 0.091827131572698686 0 0.24909137685633501 0.088659675117593442 0 0.2490735844534607 0.11837389125237741 0 0.24909137685633501 0.088659675117593442 0 0.2214456534953417 0.1094071282638969 0 0.20976653104896981 0.090240083795931653 0 0.22713439477579139 0.091827131572698686 0 0.2490735844534607 0.11837389125237741 0 0.2214456534953417 0.1094071282638969 0 0.22713439477579139 0.091827131572698686 0 0.23486613151320171 0.13064080532464961 0 0.2214456534953417 0.1094071282638969 0 0.21345168339593201 0.1224182181591526 0 0.2214456534953417 0.1094071282638969 0 0.21345168339593201 0.1224182181591526 0 0.19626848677914421 0.1076776098153899 0 0.2214456534953417 0.1094071282638969 0 0.19626848677914421 0.1076776098153899 0 0.20976653104896981 0.090240083795931653 0 0.19626848677914421 0.1076776098153899 0 0.19098155853783591 0.084810117254490933 0 0.20976653104896981 0.090240083795931653 0 0.19626848677914421 0.1076776098153899 0 0.19098155853783591 0.084810117254490933 0 0.18061640411559909 0.095584915118287359 0 0.19809254047831831 0.12606158496636399 0 0.21345168339593201 0.1224182181591526 0 0.19626848677914421 0.1076776098153899 0 0.19809254047831831 0.12606158496636399 0 0.19626848677914421 0.1076776098153899 0 0.18350704471910301 0.1217198166855607 0 0.19862646059492889 0.065066218123856767 0 0.19098155853783591 0.084810117254490933 0 0.18341941570885609 0.071532446399824812 0 0.19862646059492889 0.065066218123856767 0 0.19098155853783591 0.084810117254490933 0 0.20976653104896981 0.090240083795931653 0 0.19862646059492889 0.065066218123856767 0 0.22540745902842621 0.075834432476655417 0 0.22192041529915529 0.058009504114472268 0 0.19862646059492889 0.065066218123856767 0 0.20976653104896981 0.090240083795931653 0 0.22540745902842621 0.075834432476655417 0 0.22540745902842621 0.075834432476655417 0 0.24910916925920931 0.058945458982809423 0 0.22192041529915529 0.058009504114472268 0 0.20976653104896981 0.090240083795931653 0 0.22540745902842621 0.075834432476655417 0 0.22713439477579139 0.091827131572698686 0 0.22540745902842621 0.075834432476655417 0 0.22713439477579139 0.091827131572698686 0 0.24909137685633501 0.088659675117593442 0 0.24909137685633501 0.088659675117593442 0 0.24910916925920931 0.058945458982809423 0 0.22540745902842621 0.075834432476655417 0 0.24909137685633501 0.088659675117593442 0 0.24910916925920931 0.058945458982809423 0 0.24910916925920931 0.058945458982809423 0 0.23105865150052901 0.044077537223836422 0 0.24912696166208351 0.02923124284802547 0 0.24910916925920931 0.058945458982809423 0 0.24912696166208351 0.02923124284802547 0 0.23105865150052901 0.044077537223836422 0 0.22233053563327099 0.02835753572981875 0 0.20779658664972511 0.046476000828806242 0 0.23105865150052901 0.044077537223836422 0 0.24912696166208351 0.02923124284802547 0 0.22233053563327099 0.02835753572981875 0 0.24910916925920931 0.058945458982809423 0 0.23105865150052901 0.044077537223836422 0 0.22192041529915529 0.058009504114472268 0 0.23105865150052901 0.044077537223836422 0 0.22192041529915529 0.058009504114472268 0 0.20779658664972511 0.046476000828806242 0 0.24912696166208351 0.02923124284802547 0 0.22990804841130019 0.01075442284131658 0 0.2491447540649577 -0.00048297328675847567 0 0.22990804841130019 0.01075442284131658 0 0.2491447540649577 -0.00048297328675847567 0 0.2290149227584187 -0.0086915153707108426 0 0.24912696166208351 0.02923124284802547 0 0.2491447540649577 -0.00048297328675847567 0 0.22233053563327099 0.02835753572981875 0 0.22990804841130019 0.01075442284131658 0 0.2114541028415825 0.01305687476360199 0 0.24912696166208351 0.02923124284802547 0 0.22233053563327099 0.02835753572981875 0 0.22990804841130019 0.01075442284131658 0 0.22990804841130019 0.01075442284131658 0 0.2177544361960416 0.001237136429661227 0 0.2290149227584187 -0.0086915153707108426 0 0.22990804841130019 0.01075442284131658 0 0.2177544361960416 0.001237136429661227 0 0.2114541028415825 0.01305687476360199 0 0.2114541028415825 0.01305687476360199 0 0.2053027001961476 0.024527720100086751 0 0.20280881374257029 0.002579439371367231 0 0.2053027001961476 0.024527720100086751 0 0.20280881374257029 0.002579439371367231 0 0.2048382041248519 0.001847506743513572 0 0.2114541028415825 0.01305687476360199 0 0.20280881374257029 0.002579439371367231 0 0.2048382041248519 0.001847506743513572 0 0.20280881374257029 0.002579439371367231 0 0.2048382041248519 0.001847506743513572 0 0.2177544361960416 0.001237136429661227 0 0.2114541028415825 0.01305687476360199 0 0.22233053563327099 0.02835753572981875 0 0.2114541028415825 0.01305687476360199 0 0.2053027001961476 0.024527720100086751 0 0.2053027001961476 0.024527720100086751 0 0.1930636508138073 0.017804275538637199 0 0.1885638641241934 0.036762846120575642 0 0.1930636508138073 0.017804275538637199 0 0.20280881374257029 0.002579439371367231 0 0.17659281783818651 0.012034664419060891 0 0.20280881374257029 0.002579439371367231 0 0.17659281783818651 0.012034664419060891 0 0.20280881374257029 0.002579439371367231 0 0.17659281783818651 0.012034664419060891 0 0.19076198086849511 -0.0059015262495032738 0 0.2053027001961476 0.024527720100086751 0 0.1930636508138073 0.017804275538637199 0 0.20280881374257029 0.002579439371367231 0 0.19862646059492889 0.065066218123856767 0 0.22192041529915529 0.058009504114472268 0 0.20779658664972511 0.046476000828806242 0 0.2053027001961476 0.024527720100086751 0 0.20779658664972511 0.046476000828806242 0 0.22233053563327099 0.02835753572981875 0 0.2053027001961476 0.024527720100086751 0 0.20779658664972511 0.046476000828806242 0 0.2053027001961476 0.024527720100086751 0 0.20779658664972511 0.046476000828806242 0 0.1885638641241934 0.036762846120575642 0 0.19862646059492889 0.065066218123856767 0 0.20779658664972511 0.046476000828806242 0 0.1885638641241934 0.036762846120575642 0 0.19862646059492889 0.065066218123856767 0 0.1885638641241934 0.036762846120575642 0 0.17459334776975499 0.057483770325574592 0 0.1885638641241934 0.036762846120575642 0 0.17459334776975499 0.057483770325574592 0 0.16284766903734901 0.036092367190235328 0 0.17459334776975499 0.057483770325574592 0 0.16284766903734901 0.036092367190235328 0 0.1467224983852255 0.051473519241637913 0 0.17459334776975499 0.057483770325574592 0 0.1467224983852255 0.051473519241637913 0 0.14948267762469161 0.071847973184104866 0 0.17659281783818651 0.012034664419060891 0 0.17795813263685351 -0.0036213451233312139 0 0.16327794218489669 -0.0045693455112001471 0 0.17659281783818651 0.012034664419060891 0 0.17795813263685351 -0.0036213451233312139 0 0.19076198086849511 -0.0059015262495032738 0 0.1930636508138073 0.017804275538637199 0 0.1885638641241934 0.036762846120575642 0 0.17659281783818651 0.012034664419060891 0 0.1885638641241934 0.036762846120575642 0 0.16284766903734901 0.036092367190235328 0 0.17659281783818651 0.012034664419060891 0 0.16284766903734901 0.036092367190235328 0 0.17659281783818651 0.012034664419060891 0 0.15037682193380281 0.021489889466754491 0 0.17659281783818651 0.012034664419060891 0 0.15037682193380281 0.021489889466754491 0 0.17659281783818651 0.012034664419060891 0 0.15037682193380281 0.021489889466754491 0 0.16327794218489669 -0.0045693455112001471 0 0.15037682193380281 0.021489889466754491 0 0.13607736512613211 -0.0019411686113227199 0 0.16327794218489669 -0.0045693455112001471 0 0.124160826029419 0.030945114514448101 0 0.15037682193380281 0.021489889466754491 0 0.1293806280457086 0.01488261943344992 0 0.124160826029419 0.030945114514448101 0 0.15037682193380281 0.021489889466754491 0 0.14023666417293101 0.037309513567808469 0 0.124160826029419 0.030945114514448101 0 0.15037682193380281 0.021489889466754491 0 0.1214108478999421 0.0053438791373986898 0 0.1293806280457086 0.01488261943344992 0 0.13607736512613211 -0.0019411686113227199 0 0.15037682193380281 0.021489889466754491 0 0.1293806280457086 0.01488261943344992 0 0.13607736512613211 -0.0019411686113227199 0 0.16284766903734901 0.036092367190235328 0 0.15037682193380281 0.021489889466754491 0 0.14023666417293101 0.037309513567808469 0 0.16284766903734901 0.036092367190235328 0 0.1467224983852255 0.051473519241637913 0 0.14023666417293101 0.037309513567808469 0 0.1229686904089954 0.041899315706827082 0 0.1467224983852255 0.051473519241637913 0 0.14023666417293101 0.037309513567808469 0 0.1229686904089954 0.041899315706827082 0 0.124160826029419 0.030945114514448101 0 0.14023666417293101 0.037309513567808469 0 0.1229686904089954 0.041899315706827082 0 0.1467224983852255 0.051473519241637913 0 0.1229686904089954 0.041899315706827082 0 0.1467224983852255 0.051473519241637913 0 0.12647649614080439 0.066031546948844902 0 0.12647649614080439 0.066031546948844902 0 0.14948267762469161 0.071847973184104866 0 0.1300682397425193 0.086482910789789397 0 0.1467224983852255 0.051473519241637913 0 0.12647649614080439 0.066031546948844902 0 0.14948267762469161 0.071847973184104866 0 0.14948267762469161 0.071847973184104866 0 0.14955918777694069 0.090846411903405505 0 0.1300682397425193 0.086482910789789397 0 0.14948267762469161 0.071847973184104866 0 0.14955918777694069 0.090846411903405505 0 0.16947629593290481 0.078769679895376921 0 0.11996834035404071 0.099770275904319056 0 0.1300682397425193 0.086482910789789397 0 0.13557655777114661 0.105681755279616 0 0.11996834035404071 0.099770275904319056 0 0.13557655777114661 0.105681755279616 0 0.12636607456785731 0.1221464216715525 0 0.14955918777694069 0.090846411903405505 0 0.1300682397425193 0.086482910789789397 0 0.13557655777114661 0.105681755279616 0 0.13557655777114661 0.105681755279616 0 0.12636607456785731 0.1221464216715525 0 0.14647884947618059 0.12071617029720801 0 0.13557655777114661 0.105681755279616 0 0.14647884947618059 0.12071617029720801 0 0.14955918777694069 0.090846411903405505 0 0.13557655777114661 0.105681755279616 0 0.14647884947618059 0.12071617029720801 0 0.14955918777694069 0.090846411903405505 0 0.14647884947618059 0.12071617029720801 0 0.16038037481942649 0.10727880510251379 0 0.14955918777694069 0.090846411903405505 0 0.14647884947618059 0.12071617029720801 0 0.14955918777694069 0.090846411903405505 0 0.16038037481942649 0.10727880510251379 0 0.1660735667775155 0.09457447616078829 0 0.16038037481942649 0.10727880510251379 0 0.1660735667775155 0.09457447616078829 0 0.17281348965774129 0.10833823708418459 0 0.14647884947618059 0.12071617029720801 0 0.16038037481942649 0.10727880510251379 0 0.16726094536460689 0.1228299305600818 0 0.16038037481942649 0.10727880510251379 0 0.16726094536460689 0.1228299305600818 0 0.17281348965774129 0.10833823708418459 0 0.19626848677914421 0.1076776098153899 0 0.18350704471910301 0.1217198166855607 0 0.17281348965774129 0.10833823708418459 0 0.16726094536460689 0.1228299305600818 0 0.18350704471910301 0.1217198166855607 0 0.17281348965774129 0.10833823708418459 0 0.19626848677914421 0.1076776098153899 0 0.17281348965774129 0.10833823708418459 0 0.18061640411559909 0.095584915118287359 0 0.1660735667775155 0.09457447616078829 0 0.17281348965774129 0.10833823708418459 0 0.18061640411559909 0.095584915118287359 0 0.19098155853783591 0.084810117254490933 0 0.18061640411559909 0.095584915118287359 0 0.16947629593290481 0.078769679895376921 0 0.19098155853783591 0.084810117254490933 0 0.18341941570885609 0.071532446399824812 0 0.16947629593290481 0.078769679895376921 0 0.1660735667775155 0.09457447616078829 0 0.18061640411559909 0.095584915118287359 0 0.16947629593290481 0.078769679895376921 0 0.17459334776975499 0.057483770325574592 0 0.18341941570885609 0.071532446399824812 0 0.16947629593290481 0.078769679895376921 0 0.19862646059492889 0.065066218123856767 0 0.17459334776975499 0.057483770325574592 0 0.18341941570885609 0.071532446399824812 0 0.17459334776975499 0.057483770325574592 0 0.14948267762469161 0.071847973184104866 0 0.16947629593290481 0.078769679895376921 0 0.14955918777694069 0.090846411903405505 0 0.1660735667775155 0.09457447616078829 0 0.16947629593290481 0.078769679895376921 0 0.100151325459644 0.49152701208854899 0 0.1114718419336917 0.5 0 0.086545496317677995 0.49537760045221158 0 0.105837809780882 0.47397823816530521 0 0.100151325459644 0.49152701208854899 0 0.086545496317677995 0.49537760045221158 0 0.105837809780882 0.47397823816530521 0 0.086545496317677995 0.49537760045221158 0 0.1114718419336917 0.5 0 0.12275184975214851 0.4824427891541051 0 0.1405654510331853 0.5 0 0.100151325459644 0.49152701208854899 0 0.1114718419336917 0.5 0 0.12275184975214851 0.4824427891541051 0 0.105837809780882 0.47397823816530521 0 0.12275184975214851 0.4824427891541051 0 0.1251301232440844 0.45257887587839751 0 0.105837809780882 0.47397823816530521 0 0.100151325459644 0.49152701208854899 0 0.12275184975214851 0.4824427891541051 0 0.105837809780882 0.47397823816530521 0 0.1251301232440844 0.45257887587839751 0 0.105837809780882 0.47397823816530521 0 0.1034133934428057 0.44966434888330747 0 0.1251301232440844 0.45257887587839751 0 0.11924519311057249 0.43981437622511932 0 0.1034133934428057 0.44966434888330747 0 0.10706058019793679 0.4348391637375339 0 0.11924519311057249 0.43981437622511932 0 0.1034133934428057 0.44966434888330747 0 0.1251301232440844 0.45257887587839751 0 0.1034133934428057 0.44966434888330747 0 0.088066075735284077 0.43657938147664987 0 0.10706058019793679 0.4348391637375339 0 0.105837809780882 0.47397823816530521 0 0.1034133934428057 0.44966434888330747 0 0.091353192195980093 0.46115984757784168 0 0.091353192195980093 0.46115984757784168 0 0.073982018205842215 0.45466771351193441 0 0.091353192195980093 0.46115984757784168 0 0.073982018205842215 0.45466771351193441 0 0.080263757261758828 0.47502265698207341 0 0.091353192195980093 0.46115984757784168 0 0.085855037078288676 0.44938508517884262 0 0.073982018205842215 0.45466771351193441 0 0.1034133934428057 0.44966434888330747 0 0.091353192195980093 0.46115984757784168 0 0.085855037078288676 0.44938508517884262 0 0.085855037078288676 0.44938508517884262 0 0.069282667544021875 0.43944023968403029 0 0.088066075735284077 0.43657938147664987 0 0.069282667544021875 0.43944023968403029 0 0.088066075735284077 0.43657938147664987 0 0.1034133934428057 0.44966434888330747 0 0.085855037078288676 0.44938508517884262 0 0.088066075735284077 0.43657938147664987 0 0.085855037078288676 0.44938508517884262 0 0.069282667544021875 0.43944023968403029 0 0.073982018205842215 0.45466771351193441 0 0.069282667544021875 0.43944023968403029 0 0.073982018205842215 0.45466771351193441 0 0.069282667544021875 0.43944023968403029 0 0.073982018205842215 0.45466771351193441 0 0.058827960487581932 0.44900418297534928 0 0.073982018205842215 0.45466771351193441 0 0.058827960487581932 0.44900418297534928 0 0.073982018205842215 0.45466771351193441 0 0.080263757261758828 0.47502265698207341 0 0.061889867304061263 0.4687046416643954 0 0.073982018205842215 0.45466771351193441 0 0.061889867304061263 0.4687046416643954 0 0.058827960487581932 0.44900418297534928 0 0.073982018205842215 0.45466771351193441 0 0.080263757261758828 0.47502265698207341 0 0.080263757261758828 0.47502265698207341 0 0.073872285479599634 0.48814190454619177 0 0.061889867304061263 0.4687046416643954 0 0.105837809780882 0.47397823816530521 0 0.091353192195980093 0.46115984757784168 0 0.080263757261758828 0.47502265698207341 0 0.105837809780882 0.47397823816530521 0 0.080263757261758828 0.47502265698207341 0 0.086545496317677995 0.49537760045221158 0 0.080263757261758828 0.47502265698207341 0 0.086545496317677995 0.49537760045221158 0 0.073872285479599634 0.48814190454619177 0 0.1114718419336917 0.5 0 0.086545496317677995 0.49537760045221158 0 0.082378232834198081 0.49999999999999861 0 0.080263757261758828 0.47502265698207341 0 0.086545496317677995 0.49537760045221158 0 0.086545496317677995 0.49537760045221158 0 0.082378232834198081 0.49999999999999861 0 0.073872285479599634 0.48814190454619177 0 0.086545496317677995 0.49537760045221158 0 0.082378232834198081 0.49999999999999861 0 0.082378232834198081 0.49999999999999861 0 0.073872285479599634 0.48814190454619177 0 0.060520652159162032 0.5 0 0.051057624190868872 0.48536449634382312 0 0.060520652159162032 0.5 0 0.038663071484125948 0.5 0 0.073872285479599634 0.48814190454619177 0 0.051057624190868872 0.48536449634382312 0 0.060520652159162032 0.5 0 0.051057624190868872 0.48536449634382312 0 0.04195343750390082 0.4710499674418912 0 0.061889867304061263 0.4687046416643954 0 0.073872285479599634 0.48814190454619177 0 0.051057624190868872 0.48536449634382312 0 0.061889867304061263 0.4687046416643954 0 0.051057624190868872 0.48536449634382312 0 0.031656903578032497 0.48228653105302871 0 0.04195343750390082 0.4710499674418912 0 0.031656903578032497 0.48228653105302871 0 0.04195343750390082 0.4710499674418912 0 0.027104168891042991 0.46321543460507908 0 0.051057624190868872 0.48536449634382312 0 0.031656903578032497 0.48228653105302871 0 0.038663071484125948 0.5 0 0.031656903578032497 0.48228653105302871 0 0.016805490809089881 0.500000000000004 0 0.014357628589166831 0.47408928792737459 0 0.031656903578032497 0.48228653105302871 0 0.038663071484125948 0.5 0 0.016805490809089881 0.500000000000004 0 0.031656903578032497 0.48228653105302871 0 0.014357628589166831 0.47408928792737459 0 0.027104168891042991 0.46321543460507908 0 -0.003574898900869121 0.46641913614822939 0 -0.00058110225286438612 0.48428626097126221 0 0.014357628589166831 0.47408928792737459 0 -0.011270727651266131 0.5 0 -0.00058110225286438612 0.48428626097126221 0 0.016805490809089881 0.500000000000004 0 0.016805490809089881 0.500000000000004 0 0.014357628589166831 0.47408928792737459 0 -0.00058110225286438612 0.48428626097126221 0 0.016805490809089881 0.500000000000004 0 0.014357628589166831 0.47408928792737459 0 -0.009573438949698098 0.45145063402607227 0 0.01190976636924432 0.44817857585474519 0 0.0020319651117476308 0.45548602699397461 0 -0.0066846493417257596 0.45001307047613781 0 0.01190976636924432 0.44817857585474519 0 0.0033943469686279252 0.44021789138280099 0 0.01190976636924432 0.44817857585474519 0 0.010261534187156871 0.4307319772875049 0 0.01190976636924432 0.44817857585474519 0 0.0033943469686279252 0.44021789138280099 0 0.010261534187156871 0.4307319772875049 0 -0.009573438949698098 0.45145063402607227 0 0.01190976636924432 0.44817857585474519 0 0.014357628589166831 0.47408928792737459 0 0.01190976636924432 0.44817857585474519 0 0.0020319651117476308 0.45548602699397461 0 -0.003574898900869121 0.46641913614822939 0 0.014357628589166831 0.47408928792737459 0 0.0020319651117476308 0.45548602699397461 0 0.014357628589166831 0.47408928792737459 0 0.01190976636924432 0.44817857585474519 0 0.027104168891042991 0.46321543460507908 0 0.02779183456928306 0.44575961414675608 0 0.037165915100299533 0.45592469784924727 0 0.014357628589166831 0.47408928792737459 0 0.01190976636924432 0.44817857585474519 0 0.027104168891042991 0.46321543460507908 0 0.01190976636924432 0.44817857585474519 0 0.02779183456928306 0.44575961414675608 0 0.01190976636924432 0.44817857585474519 0 0.02779183456928306 0.44575961414675608 0 0.0269736658375179 0.43709926788091907 0 0.01190976636924432 0.44817857585474519 0 0.027104168891042991 0.46321543460507908 0 0.02779183456928306 0.44575961414675608 0 0.01190976636924432 0.44817857585474519 0 0.0269736658375179 0.43709926788091907 0 0.010261534187156871 0.4307319772875049 0 0.043673902769321427 0.44334065243876453 0 0.0269736658375179 0.43709926788091907 0 0.02779183456928306 0.44575961414675608 0 0.043673902769321427 0.44334065243876453 0 0.037165915100299533 0.45592469784924727 0 0.02779183456928306 0.44575961414675608 0 0.043673902769321427 0.44334065243876453 0 0.0269736658375179 0.43709926788091907 0 0.043673902769321427 0.44334065243876453 0 0.037165915100299533 0.45592469784924727 0 0.050528069858513137 0.45916583280087581 0 0.02779183456928306 0.44575961414675608 0 0.043673902769321427 0.44334065243876453 0 0.04195343750390082 0.4710499674418912 0 0.027104168891042991 0.46321543460507908 0 0.037165915100299533 0.45592469784924727 0 0.04195343750390082 0.4710499674418912 0 0.037165915100299533 0.45592469784924727 0 0.050528069858513137 0.45916583280087581 0 0.061889867304061263 0.4687046416643954 0 0.050528069858513137 0.45916583280087581 0 0.058827960487581932 0.44900418297534928 0 0.04195343750390082 0.4710499674418912 0 0.061889867304061263 0.4687046416643954 0 0.050528069858513137 0.45916583280087581 0 0.069282667544021875 0.43944023968403029 0 0.043673902769321427 0.44334065243876453 0 0.058827960487581932 0.44900418297534928 0 0.043673902769321427 0.44334065243876453 0 0.050528069858513137 0.45916583280087581 0 0.058827960487581932 0.44900418297534928 0 0.069282667544021875 0.43944023968403029 0 0.043673902769321427 0.44334065243876453 0 0.043673902769321427 0.44334065243876453 0 0.058827960487581932 0.44900418297534928 0 0.069282667544021875 0.43944023968403029 0 0.052292031857246117 0.42798147466054198 0 0.060641662722493737 0.4114404830717831 0 0.069282667544021875 0.43944023968403029 0 0.043673902769321427 0.44334065243876453 0 0.052292031857246117 0.42798147466054198 0 0.052292031857246117 0.42798147466054198 0 0.060641662722493737 0.4114404830717831 0 0.04547296575024954 0.41765323884204719 0 0.060641662722493737 0.4114404830717831 0 0.047484387732495567 0.40336202348559658 0 0.07283861401808088 0.41065691629168738 0 0.047484387732495567 0.40336202348559658 0 0.07283861401808088 0.41065691629168738 0 0.060641662722493737 0.4114404830717831 0 0.04547296575024954 0.41765323884204719 0 0.047484387732495567 0.40336202348559658 0 0.04547296575024954 0.41765323884204719 0 0.037150572543510139 0.42842359699176741 0 0.027400830821676849 0.41655755105786307 0 0.04547296575024954 0.41765323884204719 0 0.027400830821676849 0.41655755105786307 0 0.047484387732495567 0.40336202348559658 0 0.027400830821676849 0.41655755105786307 0 0.047484387732495567 0.40336202348559658 0 0.043673902769321427 0.44334065243876453 0 0.037150572543510139 0.42842359699176741 0 0.0269736658375179 0.43709926788091907 0 0.043673902769321427 0.44334065243876453 0 0.052292031857246117 0.42798147466054198 0 0.037150572543510139 0.42842359699176741 0 0.052292031857246117 0.42798147466054198 0 0.04547296575024954 0.41765323884204719 0 0.037150572543510139 0.42842359699176741 0 0.0269736658375179 0.43709926788091907 0 0.021341214847868561 0.42670684120802682 0 0.010261534187156871 0.4307319772875049 0 0.0269736658375179 0.43709926788091907 0 0.010261534187156871 0.4307319772875049 0 0.027400830821676849 0.41655755105786307 0 0.0073172739108585006 0.42975307863013051 0 0.037150572543510139 0.42842359699176741 0 0.021341214847868561 0.42670684120802682 0 0.027400830821676849 0.41655755105786307 0 0.021341214847868561 0.42670684120802682 0 0.027400830821676849 0.41655755105786307 0 0.0073172739108585006 0.42975307863013051 0 0.037150572543510139 0.42842359699176741 0 0.0269736658375179 0.43709926788091907 0 0.021341214847868561 0.42670684120802682 0 0.027400830821676849 0.41655755105786307 0 0.01072054688582603 0.40707576235942222 0 0.025138457013058241 0.39693267449207797 0 0.027400830821676849 0.41655755105786307 0 0.0067986671371902249 0.41785678209978799 0 0.0073172739108585006 0.42975307863013051 0 0.027400830821676849 0.41655755105786307 0 0.01072054688582603 0.40707576235942222 0 0.0067986671371902249 0.41785678209978799 0 -0.0042199237379966347 0.41101358895474333 0 0.01072054688582603 0.40707576235942222 0 0.0067986671371902249 0.41785678209978799 0 -0.0067742407384930236 0.42448665263340601 0 0.0067986671371902249 0.41785678209978799 0 0.0073172739108585006 0.42975307863013051 0 -0.0067742407384930236 0.42448665263340601 0 0.0073172739108585006 0.42975307863013051 0 -0.003748043497315653 0.44185195729638199 0 0.0033943469686279252 0.44021789138280099 0 0.0073172739108585006 0.42975307863013051 0 0.0033943469686279252 0.44021789138280099 0 0.0073172739108585006 0.42975307863013051 0 0.010261534187156871 0.4307319772875049 0 0.0073172739108585006 0.42975307863013051 0 0.010261534187156871 0.4307319772875049 0 0.021341214847868561 0.42670684120802682 0 0.0073172739108585006 0.42975307863013051 0 0.010261534187156871 0.4307319772875049 0 -0.0049972874963579344 0.36554509623529041 0 0.0027925262936207111 0.39050332549856021 0 0.01848155782852106 0.37304078810242292 0 0.0027925262936207111 0.39050332549856021 0 0.025138457013058241 0.39693267449207797 0 0.01848155782852106 0.37304078810242292 0 0.01072054688582603 0.40707576235942222 0 0.0027925262936207111 0.39050332549856021 0 0.025138457013058241 0.39693267449207797 0 0.0027925262936207111 0.39050332549856021 0 0.025138457013058241 0.39693267449207797 0 -0.0042199237379966347 0.41101358895474333 0 0.01072054688582603 0.40707576235942222 0 0.0027925262936207111 0.39050332549856021 0 0.025138457013058241 0.39693267449207797 0 0.033615985134775948 0.38460869823148491 0 0.01848155782852106 0.37304078810242292 0 0.033615985134775948 0.38460869823148491 0 0.033661903905552189 0.36910268295034238 0 0.01848155782852106 0.37304078810242292 0 0.033615985134775948 0.38460869823148491 0 0.047484387732495567 0.40336202348559658 0 0.047656164508604389 0.3833745950196783 0 0.033615985134775948 0.38460869823148491 0 0.047656164508604389 0.3833745950196783 0 0.033661903905552189 0.36910268295034238 0 0.025138457013058241 0.39693267449207797 0 0.033615985134775948 0.38460869823148491 0 0.047484387732495567 0.40336202348559658 0 0.025138457013058241 0.39693267449207797 0 0.047484387732495567 0.40336202348559658 0 0.027400830821676849 0.41655755105786307 0 0.025138457013058241 0.39693267449207797 0 0.047484387732495567 0.40336202348559658 0 0.047484387732495567 0.40336202348559658 0 0.066069615658191805 0.39115094510842668 0 0.07283861401808088 0.41065691629168738 0 0.047484387732495567 0.40336202348559658 0 0.066069615658191805 0.39115094510842668 0 0.047484387732495567 0.40336202348559658 0 0.047656164508604389 0.3833745950196783 0 0.066069615658191805 0.39115094510842668 0 0.047656164508604389 0.3833745950196783 0 0.066069615658191805 0.39115094510842668 0 0.069637341452392587 0.37145405151753003 0 0.084654843583887737 0.3789398667312564 0 0.066069615658191805 0.39115094510842668 0 0.069637341452392587 0.37145405151753003 0 0.084654843583887737 0.3789398667312564 0 0.079057063396003407 0.39458694305014508 0 0.066069615658191805 0.39115094510842668 0 0.084654843583887737 0.3789398667312564 0 0.066069615658191805 0.39115094510842668 0 0.084654843583887737 0.3789398667312564 0 0.092665180323853236 0.39760004406921012 0 0.096497482985914665 0.38174663318562241 0 0.084654843583887737 0.3789398667312564 0 0.092665180323853236 0.39760004406921012 0 0.079057063396003407 0.39458694305014508 0 0.084654843583887737 0.3789398667312564 0 0.096497482985914665 0.38174663318562241 0 0.088805881186893226 0.36865918582212431 0 0.092665180323853236 0.39760004406921012 0 0.079057063396003407 0.39458694305014508 0 0.07283861401808088 0.41065691629168738 0 0.079057063396003407 0.39458694305014508 0 0.066069615658191805 0.39115094510842668 0 0.07283861401808088 0.41065691629168738 0 0.060641662722493737 0.4114404830717831 0 0.07283861401808088 0.41065691629168738 0 0.077171381601337755 0.42483122719758643 0 0.069282667544021875 0.43944023968403029 0 0.060641662722493737 0.4114404830717831 0 0.069282667544021875 0.43944023968403029 0 0.060641662722493737 0.4114404830717831 0 0.077171381601337755 0.42483122719758643 0 0.077171381601337755 0.42483122719758643 0 0.088066075735284077 0.43657938147664987 0 0.098192840303665943 0.41795180909777913 0 0.069282667544021875 0.43944023968403029 0 0.077171381601337755 0.42483122719758643 0 0.088066075735284077 0.43657938147664987 0 0.07283861401808088 0.41065691629168738 0 0.077171381601337755 0.42483122719758643 0 0.098192840303665943 0.41795180909777913 0 0.092665180323853236 0.39760004406921012 0 0.07283861401808088 0.41065691629168738 0 0.098192840303665943 0.41795180909777913 0 0.07283861401808088 0.41065691629168738 0 0.098192840303665943 0.41795180909777913 0 0.092665180323853236 0.39760004406921012 0 0.098192840303665943 0.41795180909777913 0 0.10869494004093749 0.40538388237239009 0 0.088066075735284077 0.43657938147664987 0 0.098192840303665943 0.41795180909777913 0 0.10706058019793679 0.4348391637375339 0 0.11924519311057249 0.43981437622511932 0 0.10706058019793679 0.4348391637375339 0 0.1235470665892511 0.42524670190387093 0 0.098192840303665943 0.41795180909777913 0 0.10706058019793679 0.4348391637375339 0 0.1235470665892511 0.42524670190387093 0 0.1235470665892511 0.42524670190387093 0 0.1243664375743794 0.41181816628745599 0 0.10869494004093749 0.40538388237239009 0 0.098192840303665943 0.41795180909777913 0 0.1235470665892511 0.42524670190387093 0 0.10869494004093749 0.40538388237239009 0 0.098192840303665943 0.41795180909777913 0 0.1235470665892511 0.42524670190387093 0 0.1243664375743794 0.41181816628745599 0 0.1247263014908172 0.395389859297758 0 0.1119136574703789 0.38870614795128738 0 0.1243664375743794 0.41181816628745599 0 0.1119136574703789 0.38870614795128738 0 0.10869494004093749 0.40538388237239009 0 0.1243664375743794 0.41181816628745599 0 0.1119136574703789 0.38870614795128738 0 0.1247263014908172 0.395389859297758 0 0.1213177074308394 0.38566708345865369 0 0.1119136574703789 0.38870614795128738 0 0.1236428673757093 0.3771091558629881 0 0.11245670053438241 0.37919567818140087 0 0.119011795995582 0.3722270054522191 0 0.1213177074308394 0.38566708345865369 0 0.1236428673757093 0.3771091558629881 0 0.11245670053438241 0.37919567818140087 0 0.1213177074308394 0.38566708345865369 0 0.11245670053438241 0.37919567818140087 0 0.1119136574703789 0.38870614795128738 0 0.1119136574703789 0.38870614795128738 0 0.096497482985914665 0.38174663318562241 0 0.1017339262320075 0.39159963357995631 0 0.11245670053438241 0.37919567818140087 0 0.1119136574703789 0.38870614795128738 0 0.099460877366378389 0.36559412961511878 0 0.1119136574703789 0.38870614795128738 0 0.096497482985914665 0.38174663318562241 0 0.099460877366378389 0.36559412961511878 0 0.092665180323853236 0.39760004406921012 0 0.096497482985914665 0.38174663318562241 0 0.1017339262320075 0.39159963357995631 0 0.1119136574703789 0.38870614795128738 0 0.099460877366378389 0.36559412961511878 0 0.092665180323853236 0.39760004406921012 0 0.10869494004093749 0.40538388237239009 0 0.1017339262320075 0.39159963357995631 0 0.1119136574703789 0.38870614795128738 0 0.10869494004093749 0.40538388237239009 0 0.1017339262320075 0.39159963357995631 0 0.107761768956411 0.35875605477655648 0 0.11290563507969251 0.34726939847925509 0 0.1030668373784395 0.33831643137171208 0 0.107761768956411 0.35875605477655648 0 0.1030668373784395 0.33831643137171208 0 0.107761768956411 0.35875605477655648 0 0.1030668373784395 0.33831643137171208 0 0.098104903800688814 0.34316099293626251 0 0.096454805345039141 0.35224356352572039 0 0.099460877366378389 0.36559412961511878 0 0.087008097262378625 0.34248211127895001 0 0.107761768956411 0.35875605477655648 0 0.098473826611955292 0.34991326117828148 0 0.098104903800688814 0.34316099293626251 0 0.098473826611955292 0.34991326117828148 0 0.098104903800688814 0.34316099293626251 0 0.091573828345682257 0.3454924334745868 0 0.098473826611955292 0.34991326117828148 0 0.096454805345039141 0.35224356352572039 0 0.091573828345682257 0.3454924334745868 0 0.107761768956411 0.35875605477655648 0 0.096454805345039141 0.35224356352572039 0 0.099460877366378389 0.36559412961511878 0 0.107761768956411 0.35875605477655648 0 0.098473826611955292 0.34991326117828148 0 0.096454805345039141 0.35224356352572039 0 0.11245670053438241 0.37919567818140087 0 0.107761768956411 0.35875605477655648 0 0.099460877366378389 0.36559412961511878 0 0.096497482985914665 0.38174663318562241 0 0.099460877366378389 0.36559412961511878 0 0.088805881186893226 0.36865918582212431 0 0.11245670053438241 0.37919567818140087 0 0.107761768956411 0.35875605477655648 0 0.107761768956411 0.35875605477655648 0 0.11550150493809749 0.36659964444239401 0 0.1178394050661524 0.35620701760679419 0 0.11245670053438241 0.37919567818140087 0 0.107761768956411 0.35875605477655648 0 0.11550150493809749 0.36659964444239401 0 0.11245670053438241 0.37919567818140087 0 0.11550150493809749 0.36659964444239401 0 0.119011795995582 0.3722270054522191 0 0.1236428673757093 0.3771091558629881 0 0.119011795995582 0.3722270054522191 0 0.1244461111341386 0.36600354332209339 0 0.11550150493809749 0.36659964444239401 0 0.119011795995582 0.3722270054522191 0 0.1244461111341386 0.36600354332209339 0 0.11550150493809749 0.36659964444239401 0 0.1244461111341386 0.36600354332209339 0 0.1178394050661524 0.35620701760679419 0 0.1178394050661524 0.35620701760679419 0 0.1205887376668803 0.34572400474959403 0 0.12807838710736469 0.35308888224551971 0 0.1244461111341386 0.36600354332209339 0 0.1178394050661524 0.35620701760679419 0 0.12807838710736469 0.35308888224551971 0 0.107761768956411 0.35875605477655648 0 0.1178394050661524 0.35620701760679419 0 0.11290563507969251 0.34726939847925509 0 0.1178394050661524 0.35620701760679419 0 0.11290563507969251 0.34726939847925509 0 0.1205887376668803 0.34572400474959403 0 0.1205887376668803 0.34572400474959403 0 0.1141605140973003 0.33692163819044701 0 0.12640842009793329 0.33751123099981772 0 0.1141605140973003 0.33692163819044701 0 0.1146418085864243 0.32505535359964599 0 0.12640842009793329 0.33751123099981772 0 0.1141605140973003 0.33692163819044701 0 0.1146418085864243 0.32505535359964599 0 0.1073516457744319 0.32765340994265679 0 0.11290563507969251 0.34726939847925509 0 0.1205887376668803 0.34572400474959403 0 0.1141605140973003 0.33692163819044701 0 0.11290563507969251 0.34726939847925509 0 0.1141605140973003 0.33692163819044701 0 0.1030668373784395 0.33831643137171208 0 0.1146418085864243 0.32505535359964599 0 0.12521464237866831 0.32150338683720658 0 0.12640842009793329 0.33751123099981772 0 0.10607171658514659 0.31244499628854949 0 0.13191837939677231 0.31044968406143669 0 0.12521464237866831 0.32150338683720658 0 0.1146418085864243 0.32505535359964599 0 0.10607171658514659 0.31244499628854949 0 0.12521464237866831 0.32150338683720658 0 0.1146418085864243 0.32505535359964599 0 0.1073516457744319 0.32765340994265679 0 0.1066092691866176 0.32075764194942979 0 0.1073516457744319 0.32765340994265679 0 0.098371905800467146 0.31787680796686801 0 0.1030668373784395 0.33831643137171208 0 0.098371905800467146 0.31787680796686801 0 0.1030668373784395 0.33831643137171208 0 0.1066092691866176 0.32075764194942979 0 0.098371905800467146 0.31787680796686801 0 0.10607171658514659 0.31244499628854949 0 0.097280126213887083 0.31312369000972512 0 0.10607171658514659 0.31244499628854949 0 0.1146418085864243 0.32505535359964599 0 0.1066092691866176 0.32075764194942979 0 0.10607171658514659 0.31244499628854949 0 0.098371905800467146 0.31787680796686801 0 0.10607171658514659 0.31244499628854949 0 0.1073516457744319 0.32765340994265679 0 0.1066092691866176 0.32075764194942979 0 0.098371905800467146 0.31787680796686801 0 0.098371905800467146 0.31787680796686801 0 0.096256216661011737 0.33118372762699899 0 0.09088373186710369 0.32972848497712409 0 0.098371905800467146 0.31787680796686801 0 0.09395831884965751 0.31658949692106131 0 0.089625054631810974 0.31888558690372498 0 0.098371905800467146 0.31787680796686801 0 0.097280126213887083 0.31312369000972512 0 0.10607171658514659 0.31244499628854949 0 0.098371905800467146 0.31787680796686801 0 0.09395831884965751 0.31658949692106131 0 0.095798343413631859 0.31498649333251427 0 0.098371905800467146 0.31787680796686801 0 0.095798343413631859 0.31498649333251427 0 0.097280126213887083 0.31312369000972512 0 0.095798343413631859 0.31498649333251427 0 0.097280126213887083 0.31312369000972512 0 0.093036742708513129 0.31414656276019748 0 0.09395831884965751 0.31658949692106131 0 0.095798343413631859 0.31498649333251427 0 0.093036742708513129 0.31414656276019748 0 0.098371905800467146 0.31787680796686801 0 0.097280126213887083 0.31312369000972512 0 0.098371905800467146 0.31787680796686801 0 0.1030668373784395 0.33831643137171208 0 0.096256216661011737 0.33118372762699899 0 0.1141605140973003 0.33692163819044701 0 0.1073516457744319 0.32765340994265679 0 0.1030668373784395 0.33831643137171208 0 0.1030668373784395 0.33831643137171208 0 0.096256216661011737 0.33118372762699899 0 0.093476123502397424 0.33784470594156968 0 0.1030668373784395 0.33831643137171208 0 0.098104903800688814 0.34316099293626251 0 0.093476123502397424 0.33784470594156968 0 0.098104903800688814 0.34316099293626251 0 0.093476123502397424 0.33784470594156968 0 0.091573828345682257 0.3454924334745868 0 0.087008097262378625 0.34248211127895001 0 0.093476123502397424 0.33784470594156968 0 0.087439249201477304 0.3345487599253536 0 0.087008097262378625 0.34248211127895001 0 0.093476123502397424 0.33784470594156968 0 0.091573828345682257 0.3454924334745868 0 0.093476123502397424 0.33784470594156968 0 0.09088373186710369 0.32972848497712409 0 0.087439249201477304 0.3345487599253536 0 0.096256216661011737 0.33118372762699899 0 0.093476123502397424 0.33784470594156968 0 0.09088373186710369 0.32972848497712409 0 0.09088373186710369 0.32972848497712409 0 0.087439249201477304 0.3345487599253536 0 0.085740846002261728 0.32678735655565921 0 0.087008097262378625 0.34248211127895001 0 0.087439249201477304 0.3345487599253536 0 0.080576553082671837 0.33054534167651489 0 0.087439249201477304 0.3345487599253536 0 0.080576553082671837 0.33054534167651489 0 0.085740846002261728 0.32678735655565921 0 0.087008097262378625 0.34248211127895001 0 0.080576553082671837 0.33054534167651489 0 0.089625054631810974 0.31888558690372498 0 0.083868308307070663 0.31374018341624132 0 0.090221569737744603 0.31197312188506843 0 0.093036742708513129 0.31414656276019748 0 0.089625054631810974 0.31888558690372498 0 0.090221569737744603 0.31197312188506843 0 0.097280126213887083 0.31312369000972512 0 0.093036742708513129 0.31414656276019748 0 0.090221569737744603 0.31197312188506843 0 0.09395831884965751 0.31658949692106131 0 0.093036742708513129 0.31414656276019748 0 0.089625054631810974 0.31888558690372498 0 0.089625054631810974 0.31888558690372498 0 0.083002702128959174 0.32178899922632809 0 0.085740846002261728 0.32678735655565921 0 0.098371905800467146 0.31787680796686801 0 0.089625054631810974 0.31888558690372498 0 0.085740846002261728 0.32678735655565921 0 0.098371905800467146 0.31787680796686801 0 0.09088373186710369 0.32972848497712409 0 0.085740846002261728 0.32678735655565921 0 0.098371905800467146 0.31787680796686801 0 0.085740846002261728 0.32678735655565921 0 0.080576553082671837 0.33054534167651489 0 0.083002702128959174 0.32178899922632809 0 0.075202748620980697 0.31898652757949991 0 0.080576553082671837 0.33054534167651489 0 0.083002702128959174 0.32178899922632809 0 0.085740846002261728 0.32678735655565921 0 0.083002702128959174 0.32178899922632809 0 0.083868308307070663 0.31374018341624132 0 0.075202748620980697 0.31898652757949991 0 0.089625054631810974 0.31888558690372498 0 0.083002702128959174 0.32178899922632809 0 0.083868308307070663 0.31374018341624132 0 0.080576553082671837 0.33054534167651489 0 0.075202748620980697 0.31898652757949991 0 0.066031027700607647 0.32865130588347607 0 0.075202748620980697 0.31898652757949991 0 0.064231146534127828 0.31307452689545662 0 0.066031027700607647 0.32865130588347607 0 0.066031027700607647 0.32865130588347607 0 0.070299340334103691 0.34500086870020091 0 0.055878983956924463 0.34012456042835859 0 0.087008097262378625 0.34248211127895001 0 0.080576553082671837 0.33054534167651489 0 0.066031027700607647 0.32865130588347607 0 0.087008097262378625 0.34248211127895001 0 0.066031027700607647 0.32865130588347607 0 0.087008097262378625 0.34248211127895001 0 0.066031027700607647 0.32865130588347607 0 0.070299340334103691 0.34500086870020091 0 0.070299340334103691 0.34500086870020091 0 0.07138326480293182 0.35677818266081462 0 0.060968217895916159 0.35846519189028059 0 0.07138326480293182 0.35677818266081462 0 0.079879850849185169 0.35144025491673031 0 0.080375253413106834 0.36119273824335002 0 0.070299340334103691 0.34500086870020091 0 0.07138326480293182 0.35677818266081462 0 0.079879850849185169 0.35144025491673031 0 0.087008097262378625 0.34248211127895001 0 0.079879850849185169 0.35144025491673031 0 0.08710599201558844 0.35787368397525471 0 0.099460877366378389 0.36559412961511878 0 0.087008097262378625 0.34248211127895001 0 0.087008097262378625 0.34248211127895001 0 0.070299340334103691 0.34500086870020091 0 0.079879850849185169 0.35144025491673031 0 0.099460877366378389 0.36559412961511878 0 0.087008097262378625 0.34248211127895001 0 0.08710599201558844 0.35787368397525471 0 0.079879850849185169 0.35144025491673031 0 0.08710599201558844 0.35787368397525471 0 0.080375253413106834 0.36119273824335002 0 0.096454805345039141 0.35224356352572039 0 0.087008097262378625 0.34248211127895001 0 0.091573828345682257 0.3454924334745868 0 0.087008097262378625 0.34248211127895001 0 0.091573828345682257 0.3454924334745868 0 0.084654843583887737 0.3789398667312564 0 0.088805881186893226 0.36865918582212431 0 0.069637341452392587 0.37145405151753003 0 0.088805881186893226 0.36865918582212431 0 0.080375253413106834 0.36119273824335002 0 0.069637341452392587 0.37145405151753003 0 0.099460877366378389 0.36559412961511878 0 0.08710599201558844 0.35787368397525471 0 0.088805881186893226 0.36865918582212431 0 0.08710599201558844 0.35787368397525471 0 0.088805881186893226 0.36865918582212431 0 0.080375253413106834 0.36119273824335002 0 0.07138326480293182 0.35677818266081462 0 0.080375253413106834 0.36119273824335002 0 0.069637341452392587 0.37145405151753003 0 0.07138326480293182 0.35677818266081462 0 0.069637341452392587 0.37145405151753003 0 0.060968217895916159 0.35846519189028059 0 0.047656164508604389 0.3833745950196783 0 0.069637341452392587 0.37145405151753003 0 0.051423928250227603 0.36749705624924189 0 0.051423928250227603 0.36749705624924189 0 0.060968217895916159 0.35846519189028059 0 0.0451960134886727 0.35508875986837862 0 0.069637341452392587 0.37145405151753003 0 0.051423928250227603 0.36749705624924189 0 0.060968217895916159 0.35846519189028059 0 0.070299340334103691 0.34500086870020091 0 0.060968217895916159 0.35846519189028059 0 0.055878983956924463 0.34012456042835859 0 0.060968217895916159 0.35846519189028059 0 0.0451960134886727 0.35508875986837862 0 0.055878983956924463 0.34012456042835859 0 0.0451960134886727 0.35508875986837862 0 0.040394943249633823 0.33948092953132558 0 0.055878983956924463 0.34012456042835859 0 0.0451960134886727 0.35508875986837862 0 0.033661903905552189 0.36910268295034238 0 0.02899370742838198 0.35379410840405923 0 0.0451960134886727 0.35508875986837862 0 0.02899370742838198 0.35379410840405923 0 0.040394943249633823 0.33948092953132558 0 0.051423928250227603 0.36749705624924189 0 0.0451960134886727 0.35508875986837862 0 0.033661903905552189 0.36910268295034238 0 0.047656164508604389 0.3833745950196783 0 0.051423928250227603 0.36749705624924189 0 0.033661903905552189 0.36910268295034238 0 0.033661903905552189 0.36910268295034238 0 0.01848155782852106 0.37304078810242292 0 0.02899370742838198 0.35379410840405923 0 0.01848155782852106 0.37304078810242292 0 0.02899370742838198 0.35379410840405923 0 0.01107030946110624 0.35137586275778948 0 0.02899370742838198 0.35379410840405923 0 0.01107030946110624 0.35137586275778948 0 0.025316813505326389 0.33251229532062271 0 -0.0049972874963579344 0.36554509623529041 0 -0.0030939446421977329 0.34951316078348549 0 0.01107030946110624 0.35137586275778948 0 -0.0030939446421977329 0.34951316078348549 0 0.01107030946110624 0.35137586275778948 0 0.004118414419445467 0.33624226263263202 0 -0.0049972874963579344 0.36554509623529041 0 0.01848155782852106 0.37304078810242292 0 0.01107030946110624 0.35137586275778948 0 0.01008760303915735 0.32137884418997942 0 0.02403184431966118 0.316422102354664 0 0.012309727262296479 0.30986233127682772 0 0.01008760303915735 0.32137884418997942 0 0.00095179914183931018 0.31269552729647332 0 0.012309727262296479 0.30986233127682772 0 -0.0052017203771913519 0.32444035380948522 0 0.01008760303915735 0.32137884418997942 0 0.00095179914183931018 0.31269552729647332 0 -0.0052017203771913519 0.32444035380948522 0 0.01008760303915735 0.32137884418997942 0 0.004118414419445467 0.33624226263263202 0 0.01107030946110624 0.35137586275778948 0 0.004118414419445467 0.33624226263263202 0 0.025316813505326389 0.33251229532062271 0 0.01008760303915735 0.32137884418997942 0 0.004118414419445467 0.33624226263263202 0 0.025316813505326389 0.33251229532062271 0 0.01008760303915735 0.32137884418997942 0 0.025316813505326389 0.33251229532062271 0 0.02403184431966118 0.316422102354664 0 0.025316813505326389 0.33251229532062271 0 0.02403184431966118 0.316422102354664 0 0.045053958138836343 0.31482050048800297 0 0.02899370742838198 0.35379410840405923 0 0.025316813505326389 0.33251229532062271 0 0.040394943249633823 0.33948092953132558 0 0.025316813505326389 0.33251229532062271 0 0.045053958138836343 0.31482050048800297 0 0.040394943249633823 0.33948092953132558 0 0.045053958138836343 0.31482050048800297 0 0.040394943249633823 0.33948092953132558 0 0.055878983956924463 0.34012456042835859 0 0.064231146534127828 0.31307452689545662 0 0.066031027700607647 0.32865130588347607 0 0.045053958138836343 0.31482050048800297 0 0.066031027700607647 0.32865130588347607 0 0.045053958138836343 0.31482050048800297 0 0.066031027700607647 0.32865130588347607 0 0.045053958138836343 0.31482050048800297 0 0.055878983956924463 0.34012456042835859 0 0.045053958138836343 0.31482050048800297 0 0.059314838449732628 0.29950591284467959 0 0.041868889522106469 0.29056358945285687 0 0.064231146534127828 0.31307452689545662 0 0.045053958138836343 0.31482050048800297 0 0.059314838449732628 0.29950591284467959 0 0.041868889522106469 0.29056358945285687 0 0.049054629225446462 0.27247620329050509 0 0.067450852066899922 0.28349130554448909 0 0.059314838449732628 0.29950591284467959 0 0.041868889522106469 0.29056358945285687 0 0.067450852066899922 0.28349130554448909 0 0.045053958138836343 0.31482050048800297 0 0.02407688857706505 0.30098969509252982 0 0.045053958138836343 0.31482050048800297 0 0.041868889522106469 0.29056358945285687 0 0.02407688857706505 0.30098969509252982 0 0.02403184431966118 0.316422102354664 0 0.045053958138836343 0.31482050048800297 0 0.02407688857706505 0.30098969509252982 0 0.02403184431966118 0.316422102354664 0 0.02407688857706505 0.30098969509252982 0 0.012309727262296479 0.30986233127682772 0 0.041868889522106469 0.29056358945285687 0 0.02407688857706505 0.30098969509252982 0 0.022180207362343239 0.28547851733124152 0 0.041868889522106469 0.29056358945285687 0 0.022180207362343239 0.28547851733124152 0 0.029701965623248019 0.27512289369293402 0 0.02407688857706505 0.30098969509252982 0 0.022180207362343239 0.28547851733124152 0 0.0030998190152937352 0.28715888969705672 0 0.02407688857706505 0.30098969509252982 0 0.0030998190152937352 0.28715888969705672 0 0.0024005012337594972 0.29782548745049181 0 0.022180207362343239 0.28547851733124152 0 0.0030998190152937352 0.28715888969705672 0 0.012153474074002919 0.2735575187208299 0 0.02407688857706505 0.30098969509252982 0 0.0030998190152937352 0.28715888969705672 0 0.02407688857706505 0.30098969509252982 0 0.0024005012337594972 0.29782548745049181 0 0.012309727262296479 0.30986233127682772 0 0.00095179914183931018 0.31269552729647332 0 0.0024005012337594972 0.29782548745049181 0 0.012309727262296479 0.30986233127682772 0 0.0033967451803710411 0.25877395175208318 0 0.012153474074002919 0.2735575187208299 0 0.019972720471145022 0.25855598480310032 0 0.010391909727619849 0.24352254585138039 0 0.0033967451803710411 0.25877395175208318 0 0.019972720471145022 0.25855598480310032 0 -0.0022759046787402489 0.2704760391756087 0 0.0030998190152937352 0.28715888969705672 0 0.012153474074002919 0.2735575187208299 0 -0.0022759046787402489 0.2704760391756087 0 0.0033967451803710411 0.25877395175208318 0 0.012153474074002919 0.2735575187208299 0 0.022180207362343239 0.28547851733124152 0 0.012153474074002919 0.2735575187208299 0 0.029701965623248019 0.27512289369293402 0 0.012153474074002919 0.2735575187208299 0 0.029701965623248019 0.27512289369293402 0 0.019972720471145022 0.25855598480310032 0 0.028033626719301839 0.240932199164862 0 0.019972720471145022 0.25855598480310032 0 0.036158601502326443 0.25942679963651238 0 0.029701965623248019 0.27512289369293402 0 0.019972720471145022 0.25855598480310032 0 0.036158601502326443 0.25942679963651238 0 0.053250727671044683 0.24692070682097381 0 0.036158601502326443 0.25942679963651238 0 0.049054629225446462 0.27247620329050509 0 0.041868889522106469 0.29056358945285687 0 0.029701965623248019 0.27512289369293402 0 0.049054629225446462 0.27247620329050509 0 0.029701965623248019 0.27512289369293402 0 0.036158601502326443 0.25942679963651238 0 0.049054629225446462 0.27247620329050509 0 0.049054629225446462 0.27247620329050509 0 0.06728731251324771 0.26155180763872837 0 0.067450852066899922 0.28349130554448909 0 0.053250727671044683 0.24692070682097381 0 0.049054629225446462 0.27247620329050509 0 0.06728731251324771 0.26155180763872837 0 0.080552186918931123 0.24029775552065941 0 0.06728731251324771 0.26155180763872837 0 0.086128166683916416 0.26457306701701461 0 0.080552186918931123 0.24029775552065941 0 0.086128166683916416 0.26457306701701461 0 0.080552186918931123 0.24029775552065941 0 0.086128166683916416 0.26457306701701461 0 0.1093331819624868 0.25102113547634142 0 0.086128166683916416 0.26457306701701461 0 0.091704146448901722 0.28884837851336992 0 0.086128166683916416 0.26457306701701461 0 0.067450852066899922 0.28349130554448909 0 0.091704146448901722 0.28884837851336992 0 0.086128166683916416 0.26457306701701461 0 0.091704146448901722 0.28884837851336992 0 0.1029749194632494 0.26677683880173719 0 0.06728731251324771 0.26155180763872837 0 0.086128166683916416 0.26457306701701461 0 0.067450852066899922 0.28349130554448909 0 0.059314838449732628 0.29950591284467959 0 0.067450852066899922 0.28349130554448909 0 0.075370226218218789 0.30400111525877688 0 0.064231146534127828 0.31307452689545662 0 0.059314838449732628 0.29950591284467959 0 0.075370226218218789 0.30400111525877688 0 0.075202748620980697 0.31898652757949991 0 0.064231146534127828 0.31307452689545662 0 0.075370226218218789 0.30400111525877688 0 0.083868308307070663 0.31374018341624132 0 0.075202748620980697 0.31898652757949991 0 0.075370226218218789 0.30400111525877688 0 0.075370226218218789 0.30400111525877688 0 0.088979553636299447 0.30766172920554952 0 0.091704146448901722 0.28884837851336992 0 0.097280126213887083 0.31312369000972512 0 0.088979553636299447 0.30766172920554952 0 0.091704146448901722 0.28884837851336992 0 0.083868308307070663 0.31374018341624132 0 0.075370226218218789 0.30400111525877688 0 0.088979553636299447 0.30766172920554952 0 0.097280126213887083 0.31312369000972512 0 0.088979553636299447 0.30766172920554952 0 0.090221569737744603 0.31197312188506843 0 0.083868308307070663 0.31374018341624132 0 0.088979553636299447 0.30766172920554952 0 0.090221569737744603 0.31197312188506843 0 0.067450852066899922 0.28349130554448909 0 0.075370226218218789 0.30400111525877688 0 0.091704146448901722 0.28884837851336992 0 0.091704146448901722 0.28884837851336992 0 0.1007116345033488 0.30029326635415898 0 0.1099893999967934 0.2907896834629225 0 0.091704146448901722 0.28884837851336992 0 0.1099893999967934 0.2907896834629225 0 0.10571525504472699 0.28018693728007438 0 0.1007116345033488 0.30029326635415898 0 0.10607171658514659 0.31244499628854949 0 0.1099893999967934 0.2907896834629225 0 0.097280126213887083 0.31312369000972512 0 0.091704146448901722 0.28884837851336992 0 0.1007116345033488 0.30029326635415898 0 0.097280126213887083 0.31312369000972512 0 0.091704146448901722 0.28884837851336992 0 0.097280126213887083 0.31312369000972512 0 0.1007116345033488 0.30029326635415898 0 0.10607171658514659 0.31244499628854949 0 0.10607171658514659 0.31244499628854949 0 0.12705192657743961 0.2976445612081941 0 0.10607171658514659 0.31244499628854949 0 0.1099893999967934 0.2907896834629225 0 0.12705192657743961 0.2976445612081941 0 0.10607171658514659 0.31244499628854949 0 0.13191837939677231 0.31044968406143669 0 0.12705192657743961 0.2976445612081941 0 0.10607171658514659 0.31244499628854949 0 0.13191837939677231 0.31044968406143669 0 0.1099893999967934 0.2907896834629225 0 0.1181925542699634 0.27433284834226779 0 0.10571525504472699 0.28018693728007438 0 0.1099893999967934 0.2907896834629225 0 0.1181925542699634 0.27433284834226779 0 0.12705192657743961 0.2976445612081941 0 0.1181925542699634 0.27433284834226779 0 0.12705192657743961 0.2976445612081941 0 0.1181925542699634 0.27433284834226779 0 0.121682969249493 0.25777063591560578 0 0.13020925896114791 0.26896775098900161 0 0.1270380358660114 0.24475540392587211 0 0.121682969249493 0.25777063591560578 0 0.1093331819624868 0.25102113547634142 0 0.1181925542699634 0.27433284834226779 0 0.1093331819624868 0.25102113547634142 0 0.1029749194632494 0.26677683880173719 0 0.1181925542699634 0.27433284834226779 0 0.1093331819624868 0.25102113547634142 0 0.1181925542699634 0.27433284834226779 0 0.121682969249493 0.25777063591560578 0 0.1093331819624868 0.25102113547634142 0 0.086128166683916416 0.26457306701701461 0 0.1093331819624868 0.25102113547634142 0 0.1029749194632494 0.26677683880173719 0 0.091704146448901722 0.28884837851336992 0 0.10571525504472699 0.28018693728007438 0 0.1029749194632494 0.26677683880173719 0 0.1181925542699634 0.27433284834226779 0 0.10571525504472699 0.28018693728007438 0 0.1029749194632494 0.26677683880173719 0 0.1440574419420026 0.26714028422978459 0 0.1521073932600949 0.27996924679614049 0 0.13993864405488249 0.27731434501676439 0 0.1440574419420026 0.26714028422978459 0 0.1521073932600949 0.27996924679614049 0 0.15773335299297039 0.26651898266871021 0 0.1440574419420026 0.26714028422978459 0 0.14834124733852899 0.25481535152466089 0 0.15773335299297039 0.26651898266871021 0 0.14834124733852899 0.25481535152466089 0 0.15773335299297039 0.26651898266871021 0 0.1572908690412379 0.25694094187714622 0 0.15545367683749339 0.24915944651673361 0 0.14834124733852899 0.25481535152466089 0 0.1572908690412379 0.25694094187714622 0 0.14075468666138641 0.2432733873217367 0 0.14834124733852899 0.25481535152466089 0 0.13808013415381551 0.25579043559821119 0 0.1440574419420026 0.26714028422978459 0 0.14834124733852899 0.25481535152466089 0 0.13808013415381551 0.25579043559821119 0 0.1440574419420026 0.26714028422978459 0 0.13808013415381551 0.25579043559821119 0 0.13020925896114791 0.26896775098900161 0 0.1270380358660114 0.24475540392587211 0 0.121682969249493 0.25777063591560578 0 0.13020925896114791 0.26896775098900161 0 0.1270380358660114 0.24475540392587211 0 0.13020925896114791 0.26896775098900161 0 0.1270380358660114 0.24475540392587211 0 0.13808013415381551 0.25579043559821119 0 0.13020925896114791 0.26896775098900161 0 0.13020925896114791 0.26896775098900161 0 0.13993864405488249 0.27731434501676439 0 0.13338048205628381 0.29318009805213108 0 0.13020925896114791 0.26896775098900161 0 0.13338048205628381 0.29318009805213108 0 0.1181925542699634 0.27433284834226779 0 0.13020925896114791 0.26896775098900161 0 0.13338048205628381 0.29318009805213108 0 0.1440574419420026 0.26714028422978459 0 0.13020925896114791 0.26896775098900161 0 0.13993864405488249 0.27731434501676439 0 0.1181925542699634 0.27433284834226779 0 0.13338048205628381 0.29318009805213108 0 0.12705192657743961 0.2976445612081941 0 0.13338048205628381 0.29318009805213108 0 0.12705192657743961 0.2976445612081941 0 0.13338048205628381 0.29318009805213108 0 0.13560509729392789 0.31016507659191528 0 0.13338048205628381 0.29318009805213108 0 0.12705192657743961 0.2976445612081941 0 0.13560509729392789 0.31016507659191528 0 0.13338048205628381 0.29318009805213108 0 0.13560509729392789 0.31016507659191528 0 0.14902313995905861 0.29701383738751702 0 0.13191837939677231 0.31044968406143669 0 0.12705192657743961 0.2976445612081941 0 0.13560509729392789 0.31016507659191528 0 0.13191837939677231 0.31044968406143669 0 0.12705192657743961 0.2976445612081941 0 0.13191837939677231 0.31044968406143669 0 0.13560509729392789 0.31016507659191528 0 0.13560509729392789 0.31016507659191528 0 0.14902313995905861 0.29701383738751702 0 0.16257936899748951 0.3080827151458902 0 0.13560509729392789 0.31016507659191528 0 0.16257936899748951 0.3080827151458902 0 0.1521073932600949 0.27996924679614049 0 0.14902313995905861 0.29701383738751702 0 0.15934714461693189 0.29270431176294348 0 0.1521073932600949 0.27996924679614049 0 0.13338048205628381 0.29318009805213108 0 0.1521073932600949 0.27996924679614049 0 0.13993864405488249 0.27731434501676439 0 0.13338048205628381 0.29318009805213108 0 0.1521073932600949 0.27996924679614049 0 0.13338048205628381 0.29318009805213108 0 0.14902313995905861 0.29701383738751702 0 0.15934714461693189 0.29270431176294348 0 0.16257936899748951 0.3080827151458902 0 0.17367867625108471 0.28575144772222638 0 0.1521073932600949 0.27996924679614049 0 0.15934714461693189 0.29270431176294348 0 0.17367867625108471 0.28575144772222638 0 0.14902313995905861 0.29701383738751702 0 0.15934714461693189 0.29270431176294348 0 0.16257936899748951 0.3080827151458902 0 0.16257936899748951 0.3080827151458902 0 0.17367867625108471 0.28575144772222638 0 0.18955364070105021 0.30600035369985468 0 0.16257936899748951 0.3080827151458902 0 0.18955364070105021 0.30600035369985468 0 0.17056438921941991 0.32125040243875408 0 0.16257936899748951 0.3080827151458902 0 0.18955364070105021 0.30600035369985468 0 0.17367867625108471 0.28575144772222638 0 0.19910942356873901 0.28334474425233919 0 0.18955364070105021 0.30600035369985468 0 0.17367867625108471 0.28575144772222638 0 0.18367957179935351 0.26135693471862592 0 0.19910942356873901 0.28334474425233919 0 0.17367867625108471 0.28575144772222638 0 0.16977696180276519 0.2630414045312045 0 0.18367957179935351 0.26135693471862592 0 0.17367867625108471 0.28575144772222638 0 0.15773335299297039 0.26651898266871021 0 0.16977696180276519 0.2630414045312045 0 0.1521073932600949 0.27996924679614049 0 0.17367867625108471 0.28575144772222638 0 0.15773335299297039 0.26651898266871021 0 0.16824972002996769 0.23936912518491271 0 0.1636898804744267 0.2521143190960895 0 0.18367957179935351 0.26135693471862592 0 0.15545367683749339 0.24915944651673361 0 0.1636898804744267 0.2521143190960895 0 0.1572908690412379 0.25694094187714622 0 0.1636898804744267 0.2521143190960895 0 0.1572908690412379 0.25694094187714622 0 0.16977696180276519 0.2630414045312045 0 0.15773335299297039 0.26651898266871021 0 0.1572908690412379 0.25694094187714622 0 0.16977696180276519 0.2630414045312045 0 0.16824972002996769 0.23936912518491271 0 0.18367957179935351 0.26135693471862592 0 0.1636898804744267 0.2521143190960895 0 0.16977696180276519 0.2630414045312045 0 0.18367957179935351 0.26135693471862592 0 0.20159519547554139 0.23903066266214679 0 0.18367957179935351 0.26135693471862592 0 0.2025413065682985 0.26073952000331979 0 0.18367957179935351 0.26135693471862592 0 0.19910942356873901 0.28334474425233919 0 0.18367957179935351 0.26135693471862592 0 0.2025413065682985 0.26073952000331979 0 0.19910942356873901 0.28334474425233919 0 0.21366727354832629 0.26659298697376482 0 0.22490398306126769 0.27596491172019932 0 0.19910942356873901 0.28334474425233919 0 0.2025413065682985 0.26073952000331979 0 0.21366727354832629 0.26659298697376482 0 0.19910942356873901 0.28334474425233919 0 0.20159519547554139 0.23903066266214679 0 0.2025413065682985 0.26073952000331979 0 0.21274613146189911 0.25314486768171252 0 0.2025413065682985 0.26073952000331979 0 0.21366727354832629 0.26659298697376482 0 0.21274613146189911 0.25314486768171252 0 0.21366727354832629 0.26659298697376482 0 0.21274613146189911 0.25314486768171252 0 0.22442050993853929 0.25831752390469193 0 0.21919886520734619 0.2403169612113584 0 0.21274613146189911 0.25314486768171252 0 0.22442050993853929 0.25831752390469193 0 0.235010709712107 0.2496336914262304 0 0.23168612850678211 0.26477420461992079 0 0.22442050993853929 0.25831752390469193 0 0.235010709712107 0.2496336914262304 0 0.22442050993853929 0.25831752390469193 0 0.22490398306126769 0.27596491172019932 0 0.2424093113152139 0.27518069142856177 0 0.23574778482157199 0.2876724599163728 0 0.23168612850678211 0.26477420461992079 0 0.22490398306126769 0.27596491172019932 0 0.2424093113152139 0.27518069142856177 0 0.21366727354832629 0.26659298697376482 0 0.22442050993853929 0.25831752390469193 0 0.22490398306126769 0.27596491172019932 0 0.23168612850678211 0.26477420461992079 0 0.22442050993853929 0.25831752390469193 0 0.22490398306126769 0.27596491172019932 0 0.24898573379662511 0.26508894841727998 0 0.24896960984079011 0.29201677328821402 0 0.2424093113152139 0.27518069142856177 0 0.24898573379662511 0.26508894841727998 0 0.24896960984079011 0.29201677328821402 0 0.24900185775245859 0.23816112354634611 0 0.235010709712107 0.2496336914262304 0 0.24898573379662511 0.26508894841727998 0 0.235010709712107 0.2496336914262304 0 0.23168612850678211 0.26477420461992079 0 0.2424093113152139 0.27518069142856177 0 0.235010709712107 0.2496336914262304 0 0.2424093113152139 0.27518069142856177 0 0.235010709712107 0.2496336914262304 0 0.2424093113152139 0.27518069142856177 0 0.24898573379662511 0.26508894841727998 0 0.24900185775245859 0.23816112354634611 0 0.24898573379662511 0.26508894841727998 0 0.24896960984079011 0.29201677328821402 0 0.248953485884955 0.318944598159148 0 0.2373233872330468 0.30407487968152452 0 0.24896960984079011 0.29201677328821402 0 0.248953485884955 0.318944598159148 0 0.2424093113152139 0.27518069142856177 0 0.24896960984079011 0.29201677328821402 0 0.23574778482157199 0.2876724599163728 0 0.2373233872330468 0.30407487968152452 0 0.24896960984079011 0.29201677328821402 0 0.23574778482157199 0.2876724599163728 0 0.2373233872330468 0.30407487968152452 0 0.23574778482157199 0.2876724599163728 0 0.22262194716562139 0.29384633130580051 0 0.22490398306126769 0.27596491172019932 0 0.23574778482157199 0.2876724599163728 0 0.22262194716562139 0.29384633130580051 0 0.2373233872330468 0.30407487968152452 0 0.22262194716562139 0.29384633130580051 0 0.2254662676063115 0.31592566636337749 0 0.22262194716562139 0.29384633130580051 0 0.20829956010080539 0.30682499165444432 0 0.2254662676063115 0.31592566636337749 0 0.22490398306126769 0.27596491172019932 0 0.22262194716562139 0.29384633130580051 0 0.19910942356873901 0.28334474425233919 0 0.22262194716562139 0.29384633130580051 0 0.20829956010080539 0.30682499165444432 0 0.19910942356873901 0.28334474425233919 0 0.20829956010080539 0.30682499165444432 0 0.19910942356873901 0.28334474425233919 0 0.18955364070105021 0.30600035369985468 0 0.20829956010080539 0.30682499165444432 0 0.18955364070105021 0.30600035369985468 0 0.1922079915046821 0.3248137962814498 0 0.1922079915046821 0.3248137962814498 0 0.19993690348148779 0.3460789699273582 0 0.17588424591041871 0.3404986363709438 0 0.1922079915046821 0.3248137962814498 0 0.2135815234965095 0.32987103673296109 0 0.19993690348148779 0.3460789699273582 0 0.2135815234965095 0.32987103673296109 0 0.22587635396741579 0.35211865894454608 0 0.19993690348148779 0.3460789699273582 0 0.20829956010080539 0.30682499165444432 0 0.1922079915046821 0.3248137962814498 0 0.2135815234965095 0.32987103673296109 0 0.20829956010080539 0.30682499165444432 0 0.2135815234965095 0.32987103673296109 0 0.2254662676063115 0.31592566636337749 0 0.2135815234965095 0.32987103673296109 0 0.2254662676063115 0.31592566636337749 0 0.23661669681006789 0.33391329032286149 0 0.2135815234965095 0.32987103673296109 0 0.23661669681006789 0.33391329032286149 0 0.22587635396741579 0.35211865894454608 0 0.23661669681006789 0.33391329032286149 0 0.248953485884955 0.318944598159148 0 0.26070220520591919 0.33222928276703989 0 0.23661669681006789 0.33391329032286149 0 0.25189462514660099 0.35439772830154542 0 0.26070220520591919 0.33222928276703989 0 0.2373233872330468 0.30407487968152452 0 0.2254662676063115 0.31592566636337749 0 0.248953485884955 0.318944598159148 0 0.2254662676063115 0.31592566636337749 0 0.23661669681006789 0.33391329032286149 0 0.248953485884955 0.318944598159148 0 0.22587635396741579 0.35211865894454608 0 0.23812221364423861 0.37897485363999622 0 0.25189462514660099 0.35439772830154542 0 0.23661669681006789 0.33391329032286149 0 0.22587635396741579 0.35211865894454608 0 0.25189462514660099 0.35439772830154542 0 0.20966315812282799 0.36936086197156492 0 0.23812221364423861 0.37897485363999622 0 0.22587635396741579 0.35211865894454608 0 0.20966315812282799 0.36936086197156492 0 0.23812221364423861 0.37897485363999622 0 0.22587635396741579 0.35211865894454608 0 0.20966315812282799 0.36936086197156492 0 0.19993690348148779 0.3460789699273582 0 0.20966315812282799 0.36936086197156492 0 0.19993690348148779 0.3460789699273582 0 0.1812041026014172 0.35974687030313351 0 0.20966315812282799 0.36936086197156492 0 0.1812041026014172 0.35974687030313351 0 0.18858329919702321 0.3864461801819441 0 0.20966315812282799 0.36936086197156492 0 0.1812041026014172 0.35974687030313351 0 0.1812041026014172 0.35974687030313351 0 0.18858329919702321 0.3864461801819441 0 0.1812041026014172 0.35974687030313351 0 0.1652045600152228 0.35434193095064331 0 0.1725893510230514 0.37649722050880169 0 0.1812041026014172 0.35974687030313351 0 0.1725893510230514 0.37649722050880169 0 0.18858329919702321 0.3864461801819441 0 0.1652045600152228 0.35434193095064331 0 0.15473663817525421 0.37049148818512972 0 0.1725893510230514 0.37649722050880169 0 0.1652045600152228 0.35434193095064331 0 0.15473663817525421 0.37049148818512972 0 0.15624358394406809 0.35397255392747962 0 0.1652045600152228 0.35434193095064331 0 0.17588424591041871 0.3404986363709438 0 0.15886446211429769 0.34311023363472248 0 0.1652045600152228 0.35434193095064331 0 0.15886446211429769 0.34311023363472248 0 0.15624358394406809 0.35397255392747962 0 0.1812041026014172 0.35974687030313351 0 0.17588424591041871 0.3404986363709438 0 0.1812041026014172 0.35974687030313351 0 0.1652045600152228 0.35434193095064331 0 0.17588424591041871 0.3404986363709438 0 0.19993690348148779 0.3460789699273582 0 0.1812041026014172 0.35974687030313351 0 0.17588424591041871 0.3404986363709438 0 0.1812041026014172 0.35974687030313351 0 0.1652045600152228 0.35434193095064331 0 0.1922079915046821 0.3248137962814498 0 0.17588424591041871 0.3404986363709438 0 0.17056438921941991 0.32125040243875408 0 0.17588424591041871 0.3404986363709438 0 0.17056438921941991 0.32125040243875408 0 0.18955364070105021 0.30600035369985468 0 0.1922079915046821 0.3248137962814498 0 0.17056438921941991 0.32125040243875408 0 0.16257936899748951 0.3080827151458902 0 0.17056438921941991 0.32125040243875408 0 0.16045060177700629 0.32223747890261922 0 0.17056438921941991 0.32125040243875408 0 0.16045060177700629 0.32223747890261922 0 0.1640734769993335 0.3315873191989771 0 0.16257936899748951 0.3080827151458902 0 0.16045060177700629 0.32223747890261922 0 0.14988746171465361 0.31926610935630317 0 0.17588424591041871 0.3404986363709438 0 0.17056438921941991 0.32125040243875408 0 0.1640734769993335 0.3315873191989771 0 0.17588424591041871 0.3404986363709438 0 0.1640734769993335 0.3315873191989771 0 0.15886446211429769 0.34311023363472248 0 0.1640734769993335 0.3315873191989771 0 0.15886446211429769 0.34311023363472248 0 0.1551483119541347 0.33100084837317101 0 0.16045060177700629 0.32223747890261922 0 0.1640734769993335 0.3315873191989771 0 0.1551483119541347 0.33100084837317101 0 0.15143017091476191 0.33822482153564998 0 0.1473305430087177 0.33193189461269013 0 0.14616867547149751 0.34794656293942278 0 0.15886446211429769 0.34311023363472248 0 0.15143017091476191 0.33822482153564998 0 0.14616867547149751 0.34794656293942278 0 0.13760071276774061 0.32540163769371588 0 0.14616867547149751 0.34794656293942278 0 0.15886446211429769 0.34311023363472248 0 0.15143017091476191 0.33822482153564998 0 0.1551483119541347 0.33100084837317101 0 0.1473305430087177 0.33193189461269013 0 0.13760071276774061 0.32540163769371588 0 0.14616867547149751 0.34794656293942278 0 0.13760071276774061 0.32540163769371588 0 0.14616867547149751 0.34794656293942278 0 0.14149818950218301 0.3551589447433256 0 0.15143017091476191 0.33822482153564998 0 0.1551483119541347 0.33100084837317101 0 0.1473305430087177 0.33193189461269013 0 0.13560509729392789 0.31016507659191528 0 0.16257936899748951 0.3080827151458902 0 0.14988746171465361 0.31926610935630317 0 0.1551483119541347 0.33100084837317101 0 0.1473305430087177 0.33193189461269013 0 0.14988746171465361 0.31926610935630317 0 0.16045060177700629 0.32223747890261922 0 0.1551483119541347 0.33100084837317101 0 0.14988746171465361 0.31926610935630317 0 0.1473305430087177 0.33193189461269013 0 0.14988746171465361 0.31926610935630317 0 0.13760071276774061 0.32540163769371588 0 0.13560509729392789 0.31016507659191528 0 0.14988746171465361 0.31926610935630317 0 0.13760071276774061 0.32540163769371588 0 0.13191837939677231 0.31044968406143669 0 0.13560509729392789 0.31016507659191528 0 0.13760071276774061 0.32540163769371588 0 0.13191837939677231 0.31044968406143669 0 0.13760071276774061 0.32540163769371588 0 0.13560509729392789 0.31016507659191528 0 0.13760071276774061 0.32540163769371588 0 0.13191837939677231 0.31044968406143669 0 0.13760071276774061 0.32540163769371588 0 0.12521464237866831 0.32150338683720658 0 0.13760071276774061 0.32540163769371588 0 0.12521464237866831 0.32150338683720658 0 0.12640842009793329 0.33751123099981772 0 0.13760071276774061 0.32540163769371588 0 0.14149818950218301 0.3551589447433256 0 0.13760071276774061 0.32540163769371588 0 0.12640842009793329 0.33751123099981772 0 0.14149818950218301 0.3551589447433256 0 0.1205887376668803 0.34572400474959403 0 0.12640842009793329 0.33751123099981772 0 0.12807838710736469 0.35308888224551971 0 0.12640842009793329 0.33751123099981772 0 0.12807838710736469 0.35308888224551971 0 0.14149818950218301 0.3551589447433256 0 0.12807838710736469 0.35308888224551971 0 0.13308606305663259 0.36345513884515662 0 0.14149818950218301 0.3551589447433256 0 0.1244461111341386 0.36600354332209339 0 0.12807838710736469 0.35308888224551971 0 0.13308606305663259 0.36345513884515662 0 0.14016497809891559 0.37091281791660041 0 0.13308606305663259 0.36345513884515662 0 0.14149818950218301 0.3551589447433256 0 0.1244461111341386 0.36600354332209339 0 0.13076010194276119 0.37251785582528019 0 0.13308606305663259 0.36345513884515662 0 0.1236428673757093 0.3771091558629881 0 0.1244461111341386 0.36600354332209339 0 0.13076010194276119 0.37251785582528019 0 0.13076010194276119 0.37251785582528019 0 0.14016497809891559 0.37091281791660041 0 0.13308606305663259 0.36345513884515662 0 0.14016497809891559 0.37091281791660041 0 0.15473663817525421 0.37049148818512972 0 0.14149818950218301 0.3551589447433256 0 0.15473663817525421 0.37049148818512972 0 0.15624358394406809 0.35397255392747962 0 0.14616867547149751 0.34794656293942278 0 0.15473663817525421 0.37049148818512972 0 0.14616867547149751 0.34794656293942278 0 0.15473663817525421 0.37049148818512972 0 0.14616867547149751 0.34794656293942278 0 0.14149818950218301 0.3551589447433256 0 0.15886446211429769 0.34311023363472248 0 0.15624358394406809 0.35397255392747962 0 0.14616867547149751 0.34794656293942278 0 0.145201101338437 0.40004426498161622 0 0.1562571497391039 0.41098458994935327 0 0.16330460087901111 0.39303641343083662 0 0.145201101338437 0.40004426498161622 0 0.1471735617080055 0.38391872153874912 0 0.16330460087901111 0.39303641343083662 0 0.15473663817525421 0.37049148818512972 0 0.1471735617080055 0.38391872153874912 0 0.16330460087901111 0.39303641343083662 0 0.145201101338437 0.40004426498161622 0 0.1471735617080055 0.38391872153874912 0 0.1324604900484099 0.38510862317956279 0 0.14016497809891559 0.37091281791660041 0 0.15473663817525421 0.37049148818512972 0 0.1471735617080055 0.38391872153874912 0 0.14016497809891559 0.37091281791660041 0 0.1471735617080055 0.38391872153874912 0 0.1324604900484099 0.38510862317956279 0 0.13076010194276119 0.37251785582528019 0 0.14016497809891559 0.37091281791660041 0 0.1324604900484099 0.38510862317956279 0 0.1236428673757093 0.3771091558629881 0 0.13076010194276119 0.37251785582528019 0 0.1324604900484099 0.38510862317956279 0 0.1213177074308394 0.38566708345865369 0 0.1236428673757093 0.3771091558629881 0 0.1324604900484099 0.38510862317956279 0 0.1247263014908172 0.395389859297758 0 0.1213177074308394 0.38566708345865369 0 0.1324604900484099 0.38510862317956279 0 0.1243664375743794 0.41181816628745599 0 0.1247263014908172 0.395389859297758 0 0.1330386384593106 0.40344851005115739 0 0.1247263014908172 0.395389859297758 0 0.1324604900484099 0.38510862317956279 0 0.1330386384593106 0.40344851005115739 0 0.145201101338437 0.40004426498161622 0 0.1324604900484099 0.38510862317956279 0 0.1330386384593106 0.40344851005115739 0 0.1235470665892511 0.42524670190387093 0 0.1243664375743794 0.41181816628745599 0 0.13983130324183241 0.4180121151167111 0 0.1243664375743794 0.41181816628745599 0 0.1330386384593106 0.40344851005115739 0 0.13983130324183241 0.4180121151167111 0 0.145201101338437 0.40004426498161622 0 0.1330386384593106 0.40344851005115739 0 0.13983130324183241 0.4180121151167111 0 0.1235470665892511 0.42524670190387093 0 0.13983130324183241 0.4180121151167111 0 0.13707480207878431 0.43674279072248667 0 0.11924519311057249 0.43981437622511932 0 0.1235470665892511 0.42524670190387093 0 0.13707480207878431 0.43674279072248667 0 0.13983130324183241 0.4180121151167111 0 0.13707480207878431 0.43674279072248667 0 0.15934398850098791 0.43094821747191941 0 0.145201101338437 0.40004426498161622 0 0.13983130324183241 0.4180121151167111 0 0.1562571497391039 0.41098458994935327 0 0.13983130324183241 0.4180121151167111 0 0.1562571497391039 0.41098458994935327 0 0.15934398850098791 0.43094821747191941 0 0.1562571497391039 0.41098458994935327 0 0.15934398850098791 0.43094821747191941 0 0.17360475473525119 0.41288193874568307 0 0.15934398850098791 0.43094821747191941 0 0.17360475473525119 0.41288193874568307 0 0.18128795209038251 0.44280855890603338 0 0.17360475473525119 0.41288193874568307 0 0.195962495792629 0.41314549006075479 0 0.18128795209038251 0.44280855890603338 0 0.17360475473525119 0.41288193874568307 0 0.18858329919702321 0.3864461801819441 0 0.195962495792629 0.41314549006075479 0 0.17360475473525119 0.41288193874568307 0 0.16330460087901111 0.39303641343083662 0 0.18858329919702321 0.3864461801819441 0 0.1562571497391039 0.41098458994935327 0 0.17360475473525119 0.41288193874568307 0 0.16330460087901111 0.39303641343083662 0 0.15473663817525421 0.37049148818512972 0 0.16330460087901111 0.39303641343083662 0 0.1725893510230514 0.37649722050880169 0 0.15473663817525421 0.37049148818512972 0 0.16330460087901111 0.39303641343083662 0 0.16330460087901111 0.39303641343083662 0 0.1725893510230514 0.37649722050880169 0 0.18858329919702321 0.3864461801819441 0 0.18858329919702321 0.3864461801819441 0 0.195962495792629 0.41314549006075479 0 0.18858329919702321 0.3864461801819441 0 0.21860535136456549 0.39802333891395941 0 0.195962495792629 0.41314549006075479 0 0.20966315812282799 0.36936086197156492 0 0.18858329919702321 0.3864461801819441 0 0.21860535136456549 0.39802333891395941 0 0.20966315812282799 0.36936086197156492 0 0.21860535136456549 0.39802333891395941 0 0.23812221364423861 0.37897485363999622 0 0.21860535136456549 0.39802333891395941 0 0.2493540431221356 0.39984823334267672 0 0.23360588104433569 0.41611966347350182 0 0.21860535136456549 0.39802333891395941 0 0.2493540431221356 0.39984823334267672 0 0.23812221364423861 0.37897485363999622 0 0.2289182520974978 0.44133122704891581 0 0.25887075053752878 0.44910961866375498 0 0.25859768567183772 0.42119089405442689 0 0.23360588104433569 0.41611966347350182 0 0.2289182520974978 0.44133122704891581 0 0.25859768567183772 0.42119089405442689 0 0.2493540431221356 0.39984823334267672 0 0.23360588104433569 0.41611966347350182 0 0.25859768567183772 0.42119089405442689 0 0.21860535136456549 0.39802333891395941 0 0.23360588104433569 0.41611966347350182 0 0.2149463686287684 0.42226808972727758 0 0.23360588104433569 0.41611966347350182 0 0.2149463686287684 0.42226808972727758 0 0.2289182520974978 0.44133122704891581 0 0.2149463686287684 0.42226808972727758 0 0.2033416923882348 0.43984479993956538 0 0.2289182520974978 0.44133122704891581 0 0.2149463686287684 0.42226808972727758 0 0.195962495792629 0.41314549006075479 0 0.2033416923882348 0.43984479993956538 0 0.21860535136456549 0.39802333891395941 0 0.2149463686287684 0.42226808972727758 0 0.195962495792629 0.41314549006075479 0 0.195962495792629 0.41314549006075479 0 0.2033416923882348 0.43984479993956538 0 0.18128795209038251 0.44280855890603338 0 0.195962495792629 0.41314549006075479 0 0.2033416923882348 0.43984479993956538 0 0.203745241112258 0.46767695572956602 0 0.2033416923882348 0.43984479993956538 0 0.18128795209038251 0.44280855890603338 0 0.203745241112258 0.46767695572956602 0 0.2033416923882348 0.43984479993956538 0 0.2289182520974978 0.44133122704891581 0 0.203745241112258 0.46767695572956602 0 0.2289182520974978 0.44133122704891581 0 0.23166981835132641 0.46742899071475602 0 0.2289182520974978 0.44133122704891581 0 0.23166981835132641 0.46742899071475602 0 0.25887075053752878 0.44910961866375498 0 0.23166981835132641 0.46742899071475602 0 0.24457139374383091 0.48553615908112652 0 0.2278462783316661 0.5 0 0.203745241112258 0.46767695572956602 0 0.23166981835132641 0.46742899071475602 0 0.2278462783316661 0.5 0 0.24457139374383091 0.48553615908112652 0 0.2278462783316661 0.5 0 0.2569398874311597 0.5 0 0.23166981835132641 0.46742899071475602 0 0.24457139374383091 0.48553615908112652 0 0.26182959086117119 0.47471564560974983 0 0.203745241112258 0.46767695572956602 0 0.1987526692321725 0.5 0 0.18265737210205371 0.4835676739554905 0 0.203745241112258 0.46767695572956602 0 0.2278462783316661 0.5 0 0.1987526692321725 0.5 0 0.1987526692321725 0.5 0 0.1696590601326789 0.5 0 0.18265737210205371 0.4835676739554905 0 0.1696590601326789 0.5 0 0.18265737210205371 0.4835676739554905 0 0.15335454706140361 0.47657260879237923 0 0.18265737210205371 0.4835676739554905 0 0.1742724876709123 0.4644600722388581 0 0.15335454706140361 0.47657260879237923 0 0.203745241112258 0.46767695572956602 0 0.18265737210205371 0.4835676739554905 0 0.1742724876709123 0.4644600722388581 0 0.203745241112258 0.46767695572956602 0 0.1742724876709123 0.4644600722388581 0 0.18128795209038251 0.44280855890603338 0 0.15934398850098791 0.43094821747191941 0 0.18128795209038251 0.44280855890603338 0 0.15363019618309981 0.45112512851179237 0 0.1742724876709123 0.4644600722388581 0 0.18128795209038251 0.44280855890603338 0 0.15363019618309981 0.45112512851179237 0 0.1742724876709123 0.4644600722388581 0 0.15363019618309981 0.45112512851179237 0 0.15335454706140361 0.47657260879237923 0 0.15363019618309981 0.45112512851179237 0 0.1251301232440844 0.45257887587839751 0 0.15335454706140361 0.47657260879237923 0 0.13707480207878431 0.43674279072248667 0 0.15934398850098791 0.43094821747191941 0 0.15363019618309981 0.45112512851179237 0 0.11924519311057249 0.43981437622511932 0 0.13707480207878431 0.43674279072248667 0 0.1251301232440844 0.45257887587839751 0 0.13707480207878431 0.43674279072248667 0 0.15363019618309981 0.45112512851179237 0 0.1251301232440844 0.45257887587839751 0 0.12275184975214851 0.4824427891541051 0 0.1251301232440844 0.45257887587839751 0 0.15335454706140361 0.47657260879237923 0 0.12275184975214851 0.4824427891541051 0 0.1405654510331853 0.5 0 0.15335454706140361 0.47657260879237923 0 0.1696590601326789 0.5 0 0.1405654510331853 0.5 0 0.15335454706140361 0.47657260879237923 0 0.35826979009110221 0.48510526173840729 0 0.35014550767413771 0.45737327310381182 0 0.33342003020270877 0.4761063509697443 0 0.35826979009110221 0.48510526173840729 0 0.33342003020270877 0.4761063509697443 0 0.35826979009110221 0.48510526173840729 0 0.34422071472964028 0.5 0 0.37331432382913382 0.5 0 0.35826979009110221 0.48510526173840729 0 0.34422071472964028 0.5 0 0.33342003020270877 0.4761063509697443 0 0.35826979009110221 0.48510526173840729 0 0.37331432382913382 0.5 0 0.38000153320851943 0.48180401005573231 0 0.35826979009110221 0.48510526173840729 0 0.37406631425100278 0.45902584408766112 0 0.38000153320851943 0.48180401005573231 0 0.35826979009110221 0.48510526173840729 0 0.37406631425100278 0.45902584408766112 0 0.35014550767413771 0.45737327310381182 0 0.37406631425100278 0.45902584408766112 0 0.3692710477445531 0.44042460521914611 0 0.35014550767413771 0.45737327310381182 0 0.3692710477445531 0.44042460521914611 0 0.35014550767413771 0.45737327310381182 0 0.35053276440412318 0.43278641974574711 0 0.35014550767413771 0.45737327310381182 0 0.3327983691465311 0.44055445026289802 0 0.35053276440412318 0.43278641974574711 0 0.35014550767413771 0.45737327310381182 0 0.32522672884438691 0.45733441179365503 0 0.33342003020270877 0.4761063509697443 0 0.35014550767413771 0.45737327310381182 0 0.3327983691465311 0.44055445026289802 0 0.32522672884438691 0.45733441179365503 0 0.32522672884438691 0.45733441179365503 0 0.30114748180122469 0.45092328652607089 0 0.31671620027200892 0.43447616254109528 0 0.3327983691465311 0.44055445026289802 0 0.32522672884438691 0.45733441179365503 0 0.31671620027200892 0.43447616254109528 0 0.32522672884438691 0.45733441179365503 0 0.33342003020270877 0.4761063509697443 0 0.3085702703143155 0.46710744020108119 0 0.33342003020270877 0.4761063509697443 0 0.30242868704648412 0.48543151237705201 0 0.3085702703143155 0.46710744020108119 0 0.33342003020270877 0.4761063509697443 0 0.3085702703143155 0.46710744020108119 0 0.34422071472964028 0.5 0 0.33342003020270877 0.4761063509697443 0 0.3151271056301469 0.5 0 0.33342003020270877 0.4761063509697443 0 0.3151271056301469 0.5 0 0.30242868704648412 0.48543151237705201 0 0.3151271056301469 0.5 0 0.30242868704648412 0.48543151237705201 0 0.2860334965306533 0.5 0 0.30242868704648412 0.48543151237705201 0 0.28934588074763579 0.47204779830970289 0 0.3085702703143155 0.46710744020108119 0 0.30242868704648412 0.48543151237705201 0 0.28934588074763579 0.47204779830970289 0 0.27820644967803848 0.48291257303847113 0 0.30242868704648412 0.48543151237705201 0 0.2860334965306533 0.5 0 0.27820644967803848 0.48291257303847113 0 0.27820644967803848 0.48291257303847113 0 0.26182959086117119 0.47471564560974983 0 0.2569398874311597 0.5 0 0.2860334965306533 0.5 0 0.27820644967803848 0.48291257303847113 0 0.2569398874311597 0.5 0 0.28934588074763579 0.47204779830970289 0 0.27820644967803848 0.48291257303847113 0 0.27380348627341861 0.46667893649949238 0 0.27820644967803848 0.48291257303847113 0 0.26182959086117119 0.47471564560974983 0 0.27380348627341861 0.46667893649949238 0 0.24457139374383091 0.48553615908112652 0 0.26182959086117119 0.47471564560974983 0 0.2569398874311597 0.5 0 0.23166981835132641 0.46742899071475602 0 0.26182959086117119 0.47471564560974983 0 0.25887075053752878 0.44910961866375498 0 0.26182959086117119 0.47471564560974983 0 0.25887075053752878 0.44910961866375498 0 0.27380348627341861 0.46667893649949238 0 0.25887075053752878 0.44910961866375498 0 0.28408437456223701 0.45601003311276439 0 0.28372051042592222 0.45810852943241809 0 0.25887075053752878 0.44910961866375498 0 0.27380348627341861 0.46667893649949238 0 0.28372051042592222 0.45810852943241809 0 0.25887075053752878 0.44910961866375498 0 0.28372051042592222 0.45810852943241809 0 0.25887075053752878 0.44910961866375498 0 0.28408437456223701 0.45601003311276439 0 0.27795757467294191 0.43446807730765791 0 0.28408437456223701 0.45601003311276439 0 0.29796733517312951 0.43340440280277842 0 0.27795757467294191 0.43446807730765791 0 0.28408437456223701 0.45601003311276439 0 0.29796733517312951 0.43340440280277842 0 0.28408437456223701 0.45601003311276439 0 0.30114748180122469 0.45092328652607089 0 0.29796733517312951 0.43340440280277842 0 0.28408437456223701 0.45601003311276439 0 0.28372051042592222 0.45810852943241809 0 0.30114748180122469 0.45092328652607089 0 0.28934588074763579 0.47204779830970289 0 0.28372051042592222 0.45810852943241809 0 0.3085702703143155 0.46710744020108119 0 0.28372051042592222 0.45810852943241809 0 0.3085702703143155 0.46710744020108119 0 0.28934588074763579 0.47204779830970289 0 0.27380348627341861 0.46667893649949238 0 0.28372051042592222 0.45810852943241809 0 0.32522672884438691 0.45733441179365503 0 0.3085702703143155 0.46710744020108119 0 0.30114748180122469 0.45092328652607089 0 0.28372051042592222 0.45810852943241809 0 0.3085702703143155 0.46710744020108119 0 0.30114748180122469 0.45092328652607089 0 0.30114748180122469 0.45092328652607089 0 0.29796733517312951 0.43340440280277842 0 0.31671620027200892 0.43447616254109528 0 0.29796733517312951 0.43340440280277842 0 0.31185029578402179 0.41079877249279251 0 0.31671620027200892 0.43447616254109528 0 0.29796733517312951 0.43340440280277842 0 0.31185029578402179 0.41079877249279251 0 0.29796733517312951 0.43340440280277842 0 0.31185029578402179 0.41079877249279251 0 0.28858364693087329 0.41343060879754279 0 0.29796733517312951 0.43340440280277842 0 0.28858364693087329 0.41343060879754279 0 0.27795757467294191 0.43446807730765791 0 0.28858364693087329 0.41343060879754279 0 0.27795757467294191 0.43446807730765791 0 0.25859768567183772 0.42119089405442689 0 0.28858364693087329 0.41343060879754279 0 0.25859768567183772 0.42119089405442689 0 0.27184640981675012 0.39799651330563562 0 0.2493540431221356 0.39984823334267672 0 0.25859768567183772 0.42119089405442689 0 0.27184640981675012 0.39799651330563562 0 0.25887075053752878 0.44910961866375498 0 0.27795757467294191 0.43446807730765791 0 0.25859768567183772 0.42119089405442689 0 0.2493540431221356 0.39984823334267672 0 0.23812221364423861 0.37897485363999622 0 0.26560402144383322 0.37481761611532971 0 0.2493540431221356 0.39984823334267672 0 0.27184640981675012 0.39799651330563562 0 0.26560402144383322 0.37481761611532971 0 0.27184640981675012 0.39799651330563562 0 0.29449534765115237 0.38536489326040863 0 0.26560402144383322 0.37481761611532971 0 0.28858364693087329 0.41343060879754279 0 0.27184640981675012 0.39799651330563562 0 0.29449534765115237 0.38536489326040863 0 0.31185029578402179 0.41079877249279251 0 0.29449534765115237 0.38536489326040863 0 0.32573325639491429 0.38819314218280659 0 0.31185029578402179 0.41079877249279251 0 0.28858364693087329 0.41343060879754279 0 0.29449534765115237 0.38536489326040863 0 0.29449534765115237 0.38536489326040863 0 0.32573325639491429 0.38819314218280659 0 0.31314122949267148 0.35949913398011929 0 0.32573325639491429 0.38819314218280659 0 0.34545641314980768 0.37657547168289501 0 0.34650048027559172 0.39585374467387058 0 0.32573325639491429 0.38819314218280659 0 0.33243238350320609 0.41794031791307451 0 0.34650048027559172 0.39585374467387058 0 0.31185029578402179 0.41079877249279251 0 0.32573325639491429 0.38819314218280659 0 0.33243238350320609 0.41794031791307451 0 0.31185029578402179 0.41079877249279251 0 0.32573325639491429 0.38819314218280659 0 0.31185029578402179 0.41079877249279251 0 0.31671620027200892 0.43447616254109528 0 0.33243238350320609 0.41794031791307451 0 0.3327983691465311 0.44055445026289802 0 0.31671620027200892 0.43447616254109528 0 0.33243238350320609 0.41794031791307451 0 0.3327983691465311 0.44055445026289802 0 0.33243238350320609 0.41794031791307451 0 0.35053276440412318 0.43278641974574711 0 0.33243238350320609 0.41794031791307451 0 0.35095949271416632 0.41499887706129579 0 0.34650048027559172 0.39585374467387058 0 0.33243238350320609 0.41794031791307451 0 0.35095949271416632 0.41499887706129579 0 0.35053276440412318 0.43278641974574711 0 0.35095949271416632 0.41499887706129579 0 0.35053276440412318 0.43278641974574711 0 0.36786378940885289 0.41912659465967578 0 0.3692710477445531 0.44042460521914611 0 0.36786378940885289 0.41912659465967578 0 0.38045558130993279 0.42851120082754351 0 0.3692710477445531 0.44042460521914611 0 0.35053276440412318 0.43278641974574711 0 0.36786378940885289 0.41912659465967578 0 0.35095949271416632 0.41499887706129579 0 0.36786378940885289 0.41912659465967578 0 0.3649608194758982 0.39669095211393501 0 0.36786378940885289 0.41912659465967578 0 0.3649608194758982 0.39669095211393501 0 0.37722285540422662 0.40460267296111668 0 0.3649608194758982 0.39669095211393501 0 0.38122976620656129 0.38919583872707841 0 0.37722285540422662 0.40460267296111668 0 0.36233755188629202 0.38005551896158091 0 0.3774611056434754 0.37116532195248692 0 0.38122976620656129 0.38919583872707841 0 0.3649608194758982 0.39669095211393501 0 0.36233755188629202 0.38005551896158091 0 0.38122976620656129 0.38919583872707841 0 0.36233755188629202 0.38005551896158091 0 0.34545641314980768 0.37657547168289501 0 0.34650048027559172 0.39585374467387058 0 0.3649608194758982 0.39669095211393501 0 0.36233755188629202 0.38005551896158091 0 0.34650048027559172 0.39585374467387058 0 0.35095949271416632 0.41499887706129579 0 0.3649608194758982 0.39669095211393501 0 0.34650048027559172 0.39585374467387058 0 0.34810831439980799 0.34686144938957603 0 0.35959877458792672 0.36140974248222218 0 0.36937689384701577 0.34529578663346711 0 0.34810831439980799 0.34686144938957603 0 0.36937689384701577 0.34529578663346711 0 0.34810831439980799 0.34686144938957603 0 0.35959877458792672 0.36140974248222218 0 0.33474182500666971 0.36000730816400911 0 0.34545641314980768 0.37657547168289501 0 0.35959877458792672 0.36140974248222218 0 0.33474182500666971 0.36000730816400911 0 0.36233755188629202 0.38005551896158091 0 0.34545641314980768 0.37657547168289501 0 0.35959877458792672 0.36140974248222218 0 0.35959877458792672 0.36140974248222218 0 0.37948633600721288 0.35628508724358071 0 0.3774611056434754 0.37116532195248692 0 0.36233755188629202 0.38005551896158091 0 0.35959877458792672 0.36140974248222218 0 0.3774611056434754 0.37116532195248692 0 0.35959877458792672 0.36140974248222218 0 0.36937689384701577 0.34529578663346711 0 0.37948633600721288 0.35628508724358071 0 0.36937689384701577 0.34529578663346711 0 0.36053812867971008 0.32851910784660282 0 0.38106947335148939 0.32929472052354519 0 0.36053812867971008 0.32851910784660282 0 0.37257596327454079 0.31485000418346099 0 0.38106947335148939 0.32929472052354519 0 0.36053812867971008 0.32851910784660282 0 0.37257596327454079 0.31485000418346099 0 0.3527477532913208 0.30718900061811072 0 0.36053812867971008 0.32851910784660282 0 0.33963840888427332 0.32632644622605661 0 0.3527477532913208 0.30718900061811072 0 0.34810831439980799 0.34686144938957603 0 0.36053812867971008 0.32851910784660282 0 0.33963840888427332 0.32632644622605661 0 0.34810831439980799 0.34686144938957603 0 0.36937689384701577 0.34529578663346711 0 0.36053812867971008 0.32851910784660282 0 0.34810831439980799 0.34686144938957603 0 0.33963840888427332 0.32632644622605661 0 0.3260146464055842 0.34231622859670702 0 0.33963840888427332 0.32632644622605661 0 0.31840884624227339 0.32285119812661939 0 0.32854843436176939 0.30209110478577161 0 0.31840884624227339 0.32285119812661939 0 0.3260146464055842 0.34231622859670702 0 0.30204925440780922 0.33835183569386118 0 0.33963840888427332 0.32632644622605661 0 0.31840884624227339 0.32285119812661939 0 0.3260146464055842 0.34231622859670702 0 0.3260146464055842 0.34231622859670702 0 0.33474182500666971 0.36000730816400911 0 0.31314122949267148 0.35949913398011929 0 0.3260146464055842 0.34231622859670702 0 0.31314122949267148 0.35949913398011929 0 0.30204925440780922 0.33835183569386118 0 0.34810831439980799 0.34686144938957603 0 0.3260146464055842 0.34231622859670702 0 0.33474182500666971 0.36000730816400911 0 0.32573325639491429 0.38819314218280659 0 0.34545641314980768 0.37657547168289501 0 0.33474182500666971 0.36000730816400911 0 0.32573325639491429 0.38819314218280659 0 0.33474182500666971 0.36000730816400911 0 0.31314122949267148 0.35949913398011929 0 0.29449534765115237 0.38536489326040863 0 0.31314122949267148 0.35949913398011929 0 0.28291315771493702 0.35307075001194133 0 0.31314122949267148 0.35949913398011929 0 0.28291315771493702 0.35307075001194133 0 0.30204925440780922 0.33835183569386118 0 0.29449534765115237 0.38536489326040863 0 0.28291315771493702 0.35307075001194133 0 0.26560402144383322 0.37481761611532971 0 0.28291315771493702 0.35307075001194133 0 0.25189462514660099 0.35439772830154542 0 0.26560402144383322 0.37481761611532971 0 0.28291315771493702 0.35307075001194133 0 0.25189462514660099 0.35439772830154542 0 0.26070220520591919 0.33222928276703989 0 0.23812221364423861 0.37897485363999622 0 0.25189462514660099 0.35439772830154542 0 0.26560402144383322 0.37481761611532971 0 0.248953485884955 0.318944598159148 0 0.26070220520591919 0.33222928276703989 0 0.26278690233008523 0.3069927659169468 0 0.28291315771493702 0.35307075001194133 0 0.26070220520591919 0.33222928276703989 0 0.28104836334886962 0.32605656388979631 0 0.28104836334886962 0.32605656388979631 0 0.27918356898280228 0.29904237776765119 0 0.26070220520591919 0.33222928276703989 0 0.28104836334886962 0.32605656388979631 0 0.26278690233008523 0.3069927659169468 0 0.28104836334886962 0.32605656388979631 0 0.30204925440780922 0.33835183569386118 0 0.29848120600535499 0.31847418153770951 0 0.28104836334886962 0.32605656388979631 0 0.29848120600535499 0.31847418153770951 0 0.27918356898280228 0.29904237776765119 0 0.28291315771493702 0.35307075001194133 0 0.28104836334886962 0.32605656388979631 0 0.30204925440780922 0.33835183569386118 0 0.28291315771493702 0.35307075001194133 0 0.28104836334886962 0.32605656388979631 0 0.31840884624227339 0.32285119812661939 0 0.30204925440780922 0.33835183569386118 0 0.29848120600535499 0.31847418153770951 0 0.31840884624227339 0.32285119812661939 0 0.29848120600535499 0.31847418153770951 0 0.30544429773619353 0.3010576255358785 0 0.30544429773619353 0.3010576255358785 0 0.29378410219908951 0.28685483677649148 0 0.31754468170901812 0.27812164714958881 0 0.30544429773619353 0.3010576255358785 0 0.29378410219908951 0.28685483677649148 0 0.27918356898280228 0.29904237776765119 0 0.29378410219908951 0.28685483677649148 0 0.27918356898280228 0.29904237776765119 0 0.27731877461673488 0.27202819164550612 0 0.29848120600535499 0.31847418153770951 0 0.30544429773619353 0.3010576255358785 0 0.27918356898280228 0.29904237776765119 0 0.28104836334886962 0.32605656388979631 0 0.27918356898280228 0.29904237776765119 0 0.26278690233008523 0.3069927659169468 0 0.27918356898280228 0.29904237776765119 0 0.27731877461673488 0.27202819164550612 0 0.27918356898280228 0.29904237776765119 0 0.26195264984842009 0.28088128676274132 0 0.27731877461673488 0.27202819164550612 0 0.27918356898280228 0.29904237776765119 0 0.26278690233008523 0.3069927659169468 0 0.26195264984842009 0.28088128676274132 0 0.24896960984079011 0.29201677328821402 0 0.26278690233008523 0.3069927659169468 0 0.26195264984842009 0.28088128676274132 0 0.24896960984079011 0.29201677328821402 0 0.248953485884955 0.318944598159148 0 0.26278690233008523 0.3069927659169468 0 0.24900185775245859 0.23816112354634611 0 0.24898573379662511 0.26508894841727998 0 0.26004930146642841 0.25067459597796371 0 0.24898573379662511 0.26508894841727998 0 0.26269666874268122 0.26499437312752289 0 0.26004930146642841 0.25067459597796371 0 0.24898573379662511 0.26508894841727998 0 0.24896960984079011 0.29201677328821402 0 0.26195264984842009 0.28088128676274132 0 0.24898573379662511 0.26508894841727998 0 0.26269666874268122 0.26499437312752289 0 0.26195264984842009 0.28088128676274132 0 0.26269666874268122 0.26499437312752289 0 0.26195264984842009 0.28088128676274132 0 0.27731877461673488 0.27202819164550612 0 0.27731877461673488 0.27202819164550612 0 0.27545398025066758 0.245014005523361 0 0.26269666874268122 0.26499437312752289 0 0.27731877461673488 0.27202819164550612 0 0.27545398025066758 0.245014005523361 0 0.27731877461673488 0.27202819164550612 0 0.27545398025066758 0.245014005523361 0 0.28495062716424502 0.24857075137586751 0 0.26269666874268122 0.26499437312752289 0 0.26004930146642841 0.25067459597796371 0 0.27545398025066758 0.245014005523361 0 0.27731877461673488 0.27202819164550612 0 0.29601719827210882 0.25237559979980562 0 0.28495062716424502 0.24857075137586751 0 0.27731877461673488 0.27202819164550612 0 0.29601719827210882 0.25237559979980562 0 0.2990104384478196 0.27087065807552818 0 0.29378410219908951 0.28685483677649148 0 0.27731877461673488 0.27202819164550612 0 0.2990104384478196 0.27087065807552818 0 0.29378410219908951 0.28685483677649148 0 0.2990104384478196 0.27087065807552818 0 0.31754468170901812 0.27812164714958881 0 0.2990104384478196 0.27087065807552818 0 0.31228776959603011 0.25604475191778631 0 0.31754468170901812 0.27812164714958881 0 0.29601719827210882 0.25237559979980562 0 0.2990104384478196 0.27087065807552818 0 0.31228776959603011 0.25604475191778631 0 0.31228776959603011 0.25604475191778631 0 0.3388281124391076 0.26416873473903679 0 0.33241618732473199 0.24135226064390999 0 0.3388281124391076 0.26416873473903679 0 0.33241618732473199 0.24135226064390999 0 0.34697995820560701 0.24914248928416641 0 0.3388281124391076 0.26416873473903679 0 0.31754468170901812 0.27812164714958881 0 0.33811342445574138 0.28517733366605669 0 0.31228776959603011 0.25604475191778631 0 0.31754468170901812 0.27812164714958881 0 0.31228776959603011 0.25604475191778631 0 0.3388281124391076 0.26416873473903679 0 0.31754468170901812 0.27812164714958881 0 0.31754468170901812 0.27812164714958881 0 0.32854843436176939 0.30209110478577161 0 0.33811342445574138 0.28517733366605669 0 0.30544429773619353 0.3010576255358785 0 0.31754468170901812 0.27812164714958881 0 0.32854843436176939 0.30209110478577161 0 0.31840884624227339 0.32285119812661939 0 0.30544429773619353 0.3010576255358785 0 0.32854843436176939 0.30209110478577161 0 0.32854843436176939 0.30209110478577161 0 0.33811342445574138 0.28517733366605669 0 0.3527477532913208 0.30718900061811072 0 0.33963840888427332 0.32632644622605661 0 0.32854843436176939 0.30209110478577161 0 0.3527477532913208 0.30718900061811072 0 0.33811342445574138 0.28517733366605669 0 0.3527477532913208 0.30718900061811072 0 0.35838077613053981 0.28045865588521812 0 0.3527477532913208 0.30718900061811072 0 0.35838077613053981 0.28045865588521812 0 0.37257596327454079 0.31485000418346099 0 0.3527477532913208 0.30718900061811072 0 0.37524515721932461 0.29597304917185302 0 0.3527477532913208 0.30718900061811072 0 0.35838077613053981 0.28045865588521812 0 0.37524515721932461 0.29597304917185302 0 0.35838077613053981 0.28045865588521812 0 0.38334513643716273 0.27014647042114381 0 0.37524515721932461 0.29597304917185302 0 0.36401379896975877 0.25372831115232553 0 0.35838077613053981 0.28045865588521812 0 0.36401379896975877 0.25372831115232553 0 0.35838077613053981 0.28045865588521812 0 0.38334513643716273 0.27014647042114381 0 0.3388281124391076 0.26416873473903679 0 0.36401379896975877 0.25372831115232553 0 0.34697995820560701 0.24914248928416641 0 0.3388281124391076 0.26416873473903679 0 0.33811342445574138 0.28517733366605669 0 0.35838077613053981 0.28045865588521812 0 0.3388281124391076 0.26416873473903679 0 0.36401379896975877 0.25372831115232553 0 0.35838077613053981 0.28045865588521812 0 0.38334513643716273 0.27014647042114381 0 0.39669334507168802 0.28880417690716959 0 0.4078684368046529 0.26756495995056639 0 0.39730610343263562 0.25518891875902178 0 0.4078684368046529 0.26756495995056639 0 0.40889218279796419 0.2462667259531785 0 0.39730610343263562 0.25518891875902178 0 0.38334513643716273 0.27014647042114381 0 0.4078684368046529 0.26756495995056639 0 0.39730610343263562 0.25518891875902178 0 0.38420202650740859 0.25073304292341431 0 0.38334513643716273 0.27014647042114381 0 0.36401379896975877 0.25372831115232553 0 0.38420202650740859 0.25073304292341431 0 0.38334513643716273 0.27014647042114381 0 0.38334513643716273 0.27014647042114381 0 0.37524515721932461 0.29597304917185302 0 0.39669334507168802 0.28880417690716959 0 0.37257596327454079 0.31485000418346099 0 0.37524515721932461 0.29597304917185302 0 0.38955964399290938 0.31150440448659061 0 0.37524515721932461 0.29597304917185302 0 0.38955964399290938 0.31150440448659061 0 0.39669334507168802 0.28880417690716959 0 0.38955964399290938 0.31150440448659061 0 0.39669334507168802 0.28880417690716959 0 0.40922857064417922 0.30646818801136883 0 0.4168319489525012 0.28613022526627752 0 0.40922857064417922 0.30646818801136883 0 0.43945025512724523 0.29495681772928128 0 0.39669334507168802 0.28880417690716959 0 0.4168319489525012 0.28613022526627752 0 0.40922857064417922 0.30646818801136883 0 0.40922857064417922 0.30646818801136883 0 0.43945025512724523 0.29495681772928128 0 0.43054780232368139 0.31959501762324621 0 0.4168319489525012 0.28613022526627752 0 0.43121282619060969 0.27428280553456341 0 0.43945025512724523 0.29495681772928128 0 0.4168319489525012 0.28613022526627752 0 0.43121282619060969 0.27428280553456341 0 0.4078684368046529 0.26756495995056639 0 0.39669334507168802 0.28880417690716959 0 0.4168319489525012 0.28613022526627752 0 0.4078684368046529 0.26756495995056639 0 0.43121282619060969 0.27428280553456341 0 0.4078684368046529 0.26756495995056639 0 0.42303379293528509 0.25430856523275552 0 0.4078684368046529 0.26756495995056639 0 0.42303379293528509 0.25430856523275552 0 0.40889218279796419 0.2462667259531785 0 0.43121282619060969 0.27428280553456341 0 0.42303379293528509 0.25430856523275552 0 0.43730973196250189 0.25874790282409138 0 0.42303379293528509 0.25430856523275552 0 0.43730973196250189 0.25874790282409138 0 0.43245352958581668 0.24557268184509701 0 0.45967344800921101 0.26832720572709362 0 0.44507420414742721 0.24397568451049109 0 0.43730973196250189 0.25874790282409138 0 0.45967344800921101 0.26832720572709362 0 0.44507420414742721 0.24397568451049109 0 0.43121282619060969 0.27428280553456341 0 0.43730973196250189 0.25874790282409138 0 0.45967344800921101 0.26832720572709362 0 0.43121282619060969 0.27428280553456341 0 0.45967344800921101 0.26832720572709362 0 0.43945025512724523 0.29495681772928128 0 0.45967344800921101 0.26832720572709362 0 0.47899366643254732 0.27562226234343062 0 0.46344397643613178 0.29018666598793103 0 0.45967344800921101 0.26832720572709362 0 0.44507420414742721 0.24397568451049109 0 0.4689779451190294 0.24597409151084559 0 0.45967344800921101 0.26832720572709362 0 0.48416535736174238 0.25686460230634478 0 0.4689779451190294 0.24597409151084559 0 0.45967344800921101 0.26832720572709362 0 0.48416535736174238 0.25686460230634478 0 0.47899366643254732 0.27562226234343062 0 0.47899366643254732 0.27562226234343062 0 0.50000000000000189 0.27224842520860609 0 0.48328733659155398 0.29548275378235389 0 0.48416535736174238 0.25686460230634478 0 0.47899366643254732 0.27562226234343062 0 0.50000000000000189 0.27224842520860609 0 0.48416535736174238 0.25686460230634478 0 0.50000000000000189 0.27224842520860609 0 0.5 0.24493149464327779 0 0.5 0.29808577881054898 0 0.48328733659155398 0.29548275378235389 0 0.48666630346566642 0.31257481606271048 0 0.5 0.29808577881054898 0 0.48666630346566642 0.31257481606271048 0 0.5 0.32392313241249188 0 0.50000000000000189 0.27224842520860609 0 0.5 0.29808577881054898 0 0.48328733659155398 0.29548275378235389 0 0.50000000000000189 0.27224842520860609 0 0.48328733659155398 0.29548275378235389 0 0.47899366643254732 0.27562226234343062 0 0.48328733659155398 0.29548275378235389 0 0.46344397643613178 0.29018666598793103 0 0.48328733659155398 0.29548275378235389 0 0.46657467318310503 0.3187170823561008 0 0.48328733659155398 0.29548275378235389 0 0.46344397643613178 0.29018666598793103 0 0.46657467318310503 0.3187170823561008 0 0.48328733659155398 0.29548275378235389 0 0.46657467318310503 0.3187170823561008 0 0.48666630346566642 0.31257481606271048 0 0.46344397643613178 0.29018666598793103 0 0.43945025512724523 0.29495681772928128 0 0.46657467318310503 0.3187170823561008 0 0.43945025512724523 0.29495681772928128 0 0.46657467318310503 0.3187170823561008 0 0.43054780232368139 0.31959501762324621 0 0.45967344800921101 0.26832720572709362 0 0.46344397643613178 0.29018666598793103 0 0.43945025512724523 0.29495681772928128 0 0.44444801581787752 0.33976950971305342 0 0.46657467318310503 0.3187170823561008 0 0.43054780232368139 0.31959501762324621 0 0.44444801581787752 0.33976950971305342 0 0.46657467318310503 0.3187170823561008 0 0.46797315210636242 0.34777075047073241 0 0.46657467318310503 0.3187170823561008 0 0.48285447782270008 0.32734521909029302 0 0.48666630346566642 0.31257481606271048 0 0.48285447782270008 0.32734521909029302 0 0.4843199179407055 0.34340013640148248 0 0.46797315210636242 0.34777075047073241 0 0.46657467318310503 0.3187170823561008 0 0.48285447782270008 0.32734521909029302 0 0.46797315210636242 0.34777075047073241 0 0.4843199179407055 0.34340013640148248 0 0.5 0.32392313241249188 0 0.49999999999999961 0.34976048601443482 0 0.48285447782270008 0.32734521909029302 0 0.4843199179407055 0.34340013640148248 0 0.5 0.32392313241249188 0 0.48285447782270008 0.32734521909029302 0 0.48666630346566642 0.31257481606271048 0 0.5 0.32392313241249188 0 0.50000000000000033 0.3522591033092729 0 0.49999999999999961 0.34976048601443482 0 0.48995640270831697 0.35935473009889962 0 0.4843199179407055 0.34340013640148248 0 0.49999999999999961 0.34976048601443482 0 0.48995640270831697 0.35935473009889962 0 0.49999999999999961 0.34976048601443482 0 0.48995640270831697 0.35935473009889962 0 0.50000000000000033 0.3522591033092729 0 0.48995640270831697 0.35935473009889962 0 0.4843199179407055 0.34340013640148248 0 0.48995640270831697 0.35935473009889962 0 0.47549951148462882 0.35704653711037287 0 0.4843199179407055 0.34340013640148248 0 0.47549951148462882 0.35704653711037287 0 0.46797315210636242 0.34777075047073241 0 0.47549951148462882 0.35704653711037287 0 0.46471559990710748 0.36260899214303782 0 0.46797315210636242 0.34777075047073241 0 0.47549951148462882 0.35704653711037287 0 0.47154641297181371 0.37236106762691312 0 0.46471559990710748 0.36260899214303782 0 0.48995640270831697 0.35935473009889962 0 0.47549951148462882 0.35704653711037287 0 0.47154641297181371 0.37236106762691312 0 0.48995640270831697 0.35935473009889962 0 0.47154641297181371 0.37236106762691312 0 0.47057177092683228 0.3778720883120843 0 0.48995640270831697 0.35935473009889962 0 0.47057177092683228 0.3778720883120843 0 0.48995640270831697 0.35935473009889962 0 0.47154641297181371 0.37236106762691312 0 0.47154641297181371 0.37236106762691312 0 0.46471559990710748 0.36260899214303782 0 0.455362175919311 0.3723702816807859 0 0.46471559990710748 0.36260899214303782 0 0.455362175919311 0.3723702816807859 0 0.44957069692015339 0.36174868844789659 0 0.44444801581787752 0.33976950971305342 0 0.46797315210636242 0.34777075047073241 0 0.44957069692015339 0.36174868844789659 0 0.46471559990710748 0.36260899214303782 0 0.46797315210636242 0.34777075047073241 0 0.44957069692015339 0.36174868844789659 0 0.44444801581787752 0.33976950971305342 0 0.44957069692015339 0.36174868844789659 0 0.43371174846878358 0.35361246675073071 0 0.455362175919311 0.3723702816807859 0 0.44957069692015339 0.36174868844789659 0 0.43784174656217001 0.37976525503115521 0 0.44957069692015339 0.36174868844789659 0 0.42964212168021321 0.36625730593507888 0 0.43371174846878358 0.35361246675073071 0 0.44957069692015339 0.36174868844789659 0 0.42964212168021321 0.36625730593507888 0 0.43784174656217001 0.37976525503115521 0 0.42964212168021321 0.36625730593507888 0 0.42623619003675178 0.37567658531296277 0 0.43784174656217001 0.37976525503115521 0 0.42964212168021321 0.36625730593507888 0 0.4179982428039305 0.36951301743878101 0 0.41837033317229388 0.35779298362653572 0 0.42964212168021321 0.36625730593507888 0 0.4179982428039305 0.36951301743878101 0 0.42623619003675178 0.37567658531296277 0 0.39884714296905471 0.37049452461685028 0 0.40505406119745913 0.3654504433620967 0 0.41946264910069392 0.38717076284683621 0 0.4179982428039305 0.36951301743878101 0 0.40505406119745913 0.3654504433620967 0 0.41946264910069392 0.38717076284683621 0 0.4179982428039305 0.36951301743878101 0 0.41837033317229388 0.35779298362653572 0 0.40505406119745913 0.3654504433620967 0 0.40790415305500671 0.35218084191529903 0 0.41837033317229388 0.35779298362653572 0 0.41754674455605051 0.34174981679520577 0 0.40790415305500671 0.35218084191529903 0 0.41837033317229388 0.35779298362653572 0 0.40505406119745913 0.3654504433620967 0 0.44444801581787752 0.33976950971305342 0 0.43371174846878358 0.35361246675073071 0 0.41754674455605051 0.34174981679520577 0 0.41837033317229388 0.35779298362653572 0 0.43371174846878358 0.35361246675073071 0 0.41754674455605051 0.34174981679520577 0 0.42964212168021321 0.36625730593507888 0 0.41837033317229388 0.35779298362653572 0 0.43371174846878358 0.35361246675073071 0 0.44444801581787752 0.33976950971305342 0 0.43054780232368139 0.31959501762324621 0 0.41754674455605051 0.34174981679520577 0 0.44444801581787752 0.33976950971305342 0 0.41754674455605051 0.34174981679520577 0 0.40922857064417922 0.30646818801136883 0 0.43054780232368139 0.31959501762324621 0 0.40309057330086168 0.32583509361282692 0 0.43054780232368139 0.31959501762324621 0 0.41754674455605051 0.34174981679520577 0 0.40309057330086168 0.32583509361282692 0 0.41754674455605051 0.34174981679520577 0 0.40309057330086168 0.32583509361282692 0 0.39064547329422339 0.34373012387735769 0 0.41754674455605051 0.34174981679520577 0 0.39064547329422339 0.34373012387735769 0 0.40309057330086168 0.32583509361282692 0 0.39064547329422339 0.34373012387735769 0 0.38106947335148939 0.32929472052354519 0 0.38955964399290938 0.31150440448659061 0 0.40309057330086168 0.32583509361282692 0 0.38106947335148939 0.32929472052354519 0 0.38955964399290938 0.31150440448659061 0 0.40922857064417922 0.30646818801136883 0 0.40309057330086168 0.32583509361282692 0 0.37257596327454079 0.31485000418346099 0 0.38955964399290938 0.31150440448659061 0 0.38106947335148939 0.32929472052354519 0 0.36937689384701577 0.34529578663346711 0 0.39064547329422339 0.34373012387735769 0 0.38106947335148939 0.32929472052354519 0 0.39064547329422339 0.34373012387735769 0 0.38106947335148939 0.32929472052354519 0 0.36937689384701577 0.34529578663346711 0 0.39064547329422339 0.34373012387735769 0 0.37948633600721288 0.35628508724358071 0 0.36937689384701577 0.34529578663346711 0 0.39064547329422339 0.34373012387735769 0 0.39064547329422339 0.34373012387735769 0 0.37948633600721288 0.35628508724358071 0 0.3934482876485132 0.35751008899952202 0 0.37948633600721288 0.35628508724358071 0 0.3774611056434754 0.37116532195248692 0 0.38878860917829028 0.36655280269536211 0 0.3774611056434754 0.37116532195248692 0 0.38878860917829028 0.36655280269536211 0 0.3903409293556499 0.37876082153705171 0 0.37948633600721288 0.35628508724358071 0 0.38878860917829028 0.36655280269536211 0 0.3934482876485132 0.35751008899952202 0 0.39653452524832927 0.36500196491845771 0 0.40505406119745913 0.3654504433620967 0 0.3934482876485132 0.35751008899952202 0 0.38878860917829028 0.36655280269536211 0 0.39653452524832927 0.36500196491845771 0 0.3934482876485132 0.35751008899952202 0 0.38878860917829028 0.36655280269536211 0 0.39653452524832927 0.36500196491845771 0 0.39884714296905471 0.37049452461685028 0 0.38878860917829028 0.36655280269536211 0 0.39884714296905471 0.37049452461685028 0 0.3903409293556499 0.37876082153705171 0 0.39653452524832927 0.36500196491845771 0 0.39884714296905471 0.37049452461685028 0 0.40505406119745913 0.3654504433620967 0 0.40790415305500671 0.35218084191529903 0 0.39064547329422339 0.34373012387735769 0 0.40505406119745913 0.3654504433620967 0 0.40790415305500671 0.35218084191529903 0 0.41754674455605051 0.34174981679520577 0 0.39064547329422339 0.34373012387735769 0 0.39064547329422339 0.34373012387735769 0 0.40505406119745913 0.3654504433620967 0 0.39064547329422339 0.34373012387735769 0 0.40505406119745913 0.3654504433620967 0 0.3934482876485132 0.35751008899952202 0 0.40537802278086782 0.39639561969348069 0 0.38122976620656129 0.38919583872707841 0 0.38898304844265752 0.40346376158692832 0 0.40537802278086782 0.39639561969348069 0 0.38898304844265752 0.40346376158692832 0 0.39516979414655651 0.41653828132009818 0 0.39884714296905471 0.37049452461685028 0 0.40537802278086782 0.39639561969348069 0 0.3903409293556499 0.37876082153705171 0 0.39884714296905471 0.37049452461685028 0 0.40537802278086782 0.39639561969348069 0 0.40537802278086782 0.39639561969348069 0 0.3903409293556499 0.37876082153705171 0 0.38122976620656129 0.38919583872707841 0 0.3774611056434754 0.37116532195248692 0 0.3903409293556499 0.37876082153705171 0 0.38122976620656129 0.38919583872707841 0 0.38122976620656129 0.38919583872707841 0 0.38898304844265752 0.40346376158692832 0 0.37722285540422662 0.40460267296111668 0 0.36786378940885289 0.41912659465967578 0 0.37722285540422662 0.40460267296111668 0 0.38307685348716308 0.41453621771796639 0 0.36786378940885289 0.41912659465967578 0 0.38307685348716308 0.41453621771796639 0 0.38045558130993279 0.42851120082754351 0 0.38307685348716308 0.41453621771796639 0 0.38045558130993279 0.42851120082754351 0 0.39516979414655651 0.41653828132009818 0 0.38898304844265752 0.40346376158692832 0 0.37722285540422662 0.40460267296111668 0 0.38307685348716308 0.41453621771796639 0 0.38898304844265752 0.40346376158692832 0 0.38307685348716308 0.41453621771796639 0 0.39516979414655651 0.41653828132009818 0 0.3692710477445531 0.44042460521914611 0 0.38045558130993279 0.42851120082754351 0 0.39283321289205902 0.43775272033054091 0 0.38045558130993279 0.42851120082754351 0 0.39516979414655651 0.41653828132009818 0 0.39283321289205902 0.43775272033054091 0 0.39516979414655651 0.41653828132009818 0 0.41190890259268093 0.42229671477011099 0 0.39283321289205902 0.43775272033054091 0 0.40537802278086782 0.39639561969348069 0 0.39516979414655651 0.41653828132009818 0 0.41190890259268093 0.42229671477011099 0 0.4176849446290119 0.40706638594414268 0 0.41190890259268093 0.42229671477011099 0 0.43387123700392871 0.40889108233157578 0 0.40537802278086782 0.39639561969348069 0 0.4176849446290119 0.40706638594414268 0 0.41190890259268093 0.42229671477011099 0 0.40537802278086782 0.39639561969348069 0 0.41190890259268093 0.42229671477011099 0 0.41190890259268093 0.42229671477011099 0 0.41843978240449398 0.44819780984674129 0 0.39283321289205902 0.43775272033054091 0 0.41190890259268093 0.42229671477011099 0 0.42887384397114942 0.43179297601920369 0 0.41843978240449398 0.44819780984674129 0 0.41190890259268093 0.42229671477011099 0 0.41843978240449398 0.44819780984674129 0 0.42887384397114942 0.43179297601920369 0 0.43387123700392871 0.40889108233157578 0 0.44827982490716339 0.4306114018163153 0 0.41190890259268093 0.42229671477011099 0 0.42887384397114942 0.43179297601920369 0 0.43387123700392871 0.40889108233157578 0 0.4176849446290119 0.40706638594414268 0 0.43387123700392871 0.40889108233157578 0 0.41946264910069392 0.38717076284683621 0 0.43387123700392871 0.40889108233157578 0 0.41946264910069392 0.38717076284683621 0 0.43988537365292091 0.3935115115952581 0 0.43387123700392871 0.40889108233157578 0 0.41946264910069392 0.38717076284683621 0 0.40537802278086782 0.39639561969348069 0 0.4176849446290119 0.40706638594414268 0 0.41946264910069392 0.38717076284683621 0 0.4179982428039305 0.36951301743878101 0 0.41946264910069392 0.38717076284683621 0 0.42623619003675178 0.37567658531296277 0 0.39884714296905471 0.37049452461685028 0 0.40537802278086782 0.39639561969348069 0 0.41946264910069392 0.38717076284683621 0 0.40505406119745913 0.3654504433620967 0 0.41946264910069392 0.38717076284683621 0 0.41946264910069392 0.38717076284683621 0 0.43784174656217001 0.37976525503115521 0 0.43988537365292091 0.3935115115952581 0 0.41946264910069392 0.38717076284683621 0 0.42623619003675178 0.37567658531296277 0 0.43784174656217001 0.37976525503115521 0 0.455362175919311 0.3723702816807859 0 0.43784174656217001 0.37976525503115521 0 0.45313642323531061 0.38536740515492668 0 0.48995640270831697 0.35935473009889962 0 0.47534879536680169 0.40127850736547171 0 0.5 0.4339761700033542 0 0.50000000000000033 0.3522591033092729 0 0.48995640270831697 0.35935473009889962 0 0.5 0.4339761700033542 0 0.43784174656217001 0.37976525503115521 0 0.45313642323531061 0.38536740515492668 0 0.43988537365292091 0.3935115115952581 0 0.45313642323531061 0.38536740515492668 0 0.43988537365292091 0.3935115115952581 0 0.4551148123625014 0.40636305261179678 0 0.43387123700392871 0.40889108233157578 0 0.43988537365292091 0.3935115115952581 0 0.4551148123625014 0.40636305261179678 0 0.4644868054196416 0.39392750177834701 0 0.47534879536680169 0.40127850736547171 0 0.4551148123625014 0.40636305261179678 0 0.45313642323531061 0.38536740515492668 0 0.4644868054196416 0.39392750177834701 0 0.4551148123625014 0.40636305261179678 0 0.47154641297181371 0.37236106762691312 0 0.45313642323531061 0.38536740515492668 0 0.45313642323531061 0.38536740515492668 0 0.4644868054196416 0.39392750177834701 0 0.47057177092683228 0.3778720883120843 0 0.47154641297181371 0.37236106762691312 0 0.455362175919311 0.3723702816807859 0 0.45313642323531061 0.38536740515492668 0 0.47154641297181371 0.37236106762691312 0 0.45313642323531061 0.38536740515492668 0 0.47057177092683228 0.3778720883120843 0 0.48995640270831697 0.35935473009889962 0 0.47057177092683228 0.3778720883120843 0 0.47534879536680169 0.40127850736547171 0 0.4644868054196416 0.39392750177834701 0 0.47057177092683228 0.3778720883120843 0 0.47534879536680169 0.40127850736547171 0 0.47534879536680169 0.40127850736547171 0 0.5 0.4339761700033542 0 0.46891791667128702 0.42876217260956118 0 0.5 0.4339761700033542 0 0.46891791667128702 0.42876217260956118 0 0.47662930362768241 0.44312397352310412 0 0.46891791667128702 0.42876217260956118 0 0.4551148123625014 0.40636305261179678 0 0.44827982490716339 0.4306114018163153 0 0.46891791667128702 0.42876217260956118 0 0.44827982490716339 0.4306114018163153 0 0.4626884128103983 0.45233172130105492 0 0.47534879536680169 0.40127850736547171 0 0.46891791667128702 0.42876217260956118 0 0.4551148123625014 0.40636305261179678 0 0.43387123700392871 0.40889108233157578 0 0.4551148123625014 0.40636305261179678 0 0.44827982490716339 0.4306114018163153 0 0.43387123700392871 0.40889108233157578 0 0.44827982490716339 0.4306114018163153 0 0.44827982490716339 0.4306114018163153 0 0.44033800757843111 0.45496981635887251 0 0.4626884128103983 0.45233172130105492 0 0.42887384397114942 0.43179297601920369 0 0.44827982490716339 0.4306114018163153 0 0.44033800757843111 0.45496981635887251 0 0.5 0.4339761700033542 0 0.5 0.5 0 0.48320823682295611 0.47659909522449029 0 0.44033800757843111 0.45496981635887251 0 0.45210580205005341 0.47499116328919699 0 0.42497066221630708 0.4740989049233717 0 0.44033800757843111 0.45496981635887251 0 0.45295617280449613 0.46124764817077363 0 0.4626884128103983 0.45233172130105492 0 0.44033800757843111 0.45496981635887251 0 0.45295617280449613 0.46124764817077363 0 0.45210580205005341 0.47499116328919699 0 0.4633931765980282 0.46715381724659999 0 0.4626884128103983 0.45233172130105492 0 0.4770970007136332 0.47405204078579471 0 0.45295617280449613 0.46124764817077363 0 0.4633931765980282 0.46715381724659999 0 0.45210580205005341 0.47499116328919699 0 0.45295617280449613 0.46124764817077363 0 0.4633931765980282 0.46715381724659999 0 0.4626884128103983 0.45233172130105492 0 0.44827982490716339 0.4306114018163153 0 0.4626884128103983 0.45233172130105492 0 0.5 0.4339761700033542 0 0.47491088502904438 0.45742583017844601 0 0.48320823682295611 0.47659909522449029 0 0.5 0.4339761700033542 0 0.47662930362768241 0.44312397352310412 0 0.47491088502904438 0.45742583017844601 0 0.46891791667128702 0.42876217260956118 0 0.4626884128103983 0.45233172130105492 0 0.47662930362768241 0.44312397352310412 0 0.4626884128103983 0.45233172130105492 0 0.47662930362768241 0.44312397352310412 0 0.47491088502904438 0.45742583017844601 0 0.47491088502904438 0.45742583017844601 0 0.48320823682295611 0.47659909522449029 0 0.4626884128103983 0.45233172130105492 0 0.4770970007136332 0.47405204078579471 0 0.4626884128103983 0.45233172130105492 0 0.47491088502904438 0.45742583017844601 0 0.4770970007136332 0.47405204078579471 0 0.49150558861686788 0.49577236027053451 0 0.48320823682295611 0.47659909522449029 0 0.49150558861686788 0.49577236027053451 0 0.5 0.5 0 0.48320823682295611 0.47659909522449029 0 0.49150558861686788 0.49577236027053451 0 0.49333512646600503 0.49999999999999922 0 0.47272393165337689 0.5 0 0.49150558861686788 0.49577236027053451 0 0.5 0.5 0 0.49333512646600503 0.49999999999999922 0 0.49150558861686788 0.49577236027053451 0 0.49333512646600503 0.49999999999999922 0 0.49150558861686788 0.49577236027053451 0 0.48320823682295611 0.47659909522449029 0 0.4770970007136332 0.47405204078579471 0 0.47491088502904438 0.45742583017844601 0 0.48320823682295611 0.47659909522449029 0 0.4770970007136332 0.47405204078579471 0 0.4633931765980282 0.46715381724659999 0 0.4770970007136332 0.47405204078579471 0 0.46605148060163382 0.47657154567739662 0 0.4770970007136332 0.47405204078579471 0 0.471721870517815 0.48449703301142172 0 0.46605148060163382 0.47657154567739662 0 0.4770970007136332 0.47405204078579471 0 0.471721870517815 0.48449703301142172 0 0.47903060170359818 0.48792086492960812 0 0.471721870517815 0.48449703301142172 0 0.47903060170359818 0.48792086492960812 0 0.47272393165337689 0.5 0 0.49150558861686788 0.49577236027053451 0 0.4770970007136332 0.47405204078579471 0 0.49150558861686788 0.49577236027053451 0 0.47903060170359818 0.48792086492960812 0 0.47272393165337689 0.5 0 0.49150558861686788 0.49577236027053451 0 0.4770970007136332 0.47405204078579471 0 0.47903060170359818 0.48792086492960812 0 0.47272393165337689 0.5 0 0.46147312270502572 0.48571775327464861 0 0.45211273684074882 0.5 0 0.471721870517815 0.48449703301142172 0 0.47272393165337689 0.5 0 0.46147312270502572 0.48571775327464861 0 0.471721870517815 0.48449703301142172 0 0.46147312270502572 0.48571775327464861 0 0.46605148060163382 0.47657154567739662 0 0.46147312270502572 0.48571775327464861 0 0.46605148060163382 0.47657154567739662 0 0.45210580205005341 0.47499116328919699 0 0.4633931765980282 0.46715381724659999 0 0.46605148060163382 0.47657154567739662 0 0.45210580205005341 0.47499116328919699 0 0.46147312270502572 0.48571775327464861 0 0.45210580205005341 0.47499116328919699 0 0.44180713943443478 0.48749843835945428 0 0.45210580205005341 0.47499116328919699 0 0.44180713943443478 0.48749843835945428 0 0.42497066221630708 0.4740989049233717 0 0.44180713943443478 0.48749843835945428 0 0.45211273684074882 0.5 0 0.43150154202812069 0.50000000000000189 0 0.46147312270502572 0.48571775327464861 0 0.44180713943443478 0.48749843835945428 0 0.45211273684074882 0.5 0 0.44180713943443478 0.48749843835945428 0 0.43150154202812069 0.50000000000000189 0 0.42497066221630708 0.4740989049233717 0 0.43150154202812069 0.50000000000000189 0 0.42497066221630708 0.4740989049233717 0 0.43150154202812069 0.50000000000000189 0 0.42497066221630708 0.4740989049233717 0 0.4053098891240583 0.47975005744178412 0 0.43150154202812069 0.50000000000000189 0 0.40240793292862731 0.5 0 0.4053098891240583 0.47975005744178412 0 0.42497066221630708 0.4740989049233717 0 0.40096607370691117 0.45602498646770828 0 0.4053098891240583 0.47975005744178412 0 0.44033800757843111 0.45496981635887251 0 0.42497066221630708 0.4740989049233717 0 0.41843978240449398 0.44819780984674129 0 0.42887384397114942 0.43179297601920369 0 0.44033800757843111 0.45496981635887251 0 0.41843978240449398 0.44819780984674129 0 0.42497066221630708 0.4740989049233717 0 0.41843978240449398 0.44819780984674129 0 0.40096607370691117 0.45602498646770828 0 0.42497066221630708 0.4740989049233717 0 0.41843978240449398 0.44819780984674129 0 0.40096607370691117 0.45602498646770828 0 0.38872992641038101 0.4681501982616072 0 0.4053098891240583 0.47975005744178412 0 0.41843978240449398 0.44819780984674129 0 0.40096607370691117 0.45602498646770828 0 0.39283321289205902 0.43775272033054091 0 0.37406631425100278 0.45902584408766112 0 0.3692710477445531 0.44042460521914611 0 0.39283321289205902 0.43775272033054091 0 0.37406631425100278 0.45902584408766112 0 0.40096607370691117 0.45602498646770828 0 0.39283321289205902 0.43775272033054091 0 0.37406631425100278 0.45902584408766112 0 0.40096607370691117 0.45602498646770828 0 0.38872992641038101 0.4681501982616072 0 0.37406631425100278 0.45902584408766112 0 0.38872992641038101 0.4681501982616072 0 0.38000153320851943 0.48180401005573231 0 0.37331432382913382 0.5 0 0.38000153320851943 0.48180401005573231 0 0.40240793292862731 0.5 0 0.38000153320851943 0.48180401005573231 0 0.40240793292862731 0.5 0 0.4053098891240583 0.47975005744178412 0 0.38872992641038101 0.4681501982616072 0 0.38000153320851943 0.48180401005573231 0 0.4053098891240583 0.47975005744178412 0 0.33502278120490631 0.08172400041023517 0 0.32614923920915118 0.099149061134180427 0 0.33502278120490631 0.08172400041023517 0 0.32614923920915118 0.099149061134180427 0 0.3402204024043215 0.095342750906567103 0 0.33502278120490631 0.08172400041023517 0 0.3402204024043215 0.095342750906567103 0 0.34561058822211183 0.087677454990609027 0 0.33502278120490631 0.08172400041023517 0 0.32602863306481661 0.076440383045201121 0 0.34389632320066249 0.064298939686290413 0 0.32819223008195969 0.064621084212573315 0 0.32602863306481661 0.076440383045201121 0 0.34389632320066249 0.064298939686290413 0 0.33502278120490631 0.08172400041023517 0 0.34389632320066249 0.064298939686290413 0 0.32602863306481661 0.076440383045201121 0 0.34389632320066249 0.064298939686290413 0 0.32602863306481661 0.076440383045201121 0 0.31881991827890221 0.067392678254944022 0 0.31680640120016601 0.079211673354406931 0 0.32819223008195969 0.064621084212573315 0 0.31881991827890221 0.067392678254944022 0 0.32314079813574731 0.058660972451823779 0 0.32819223008195969 0.064621084212573315 0 0.32602863306481661 0.076440383045201121 0 0.31881991827890221 0.067392678254944022 0 0.31881991827890221 0.067392678254944022 0 0.31583604346977068 0.058652400846774033 0 0.31016489037859241 0.063946441578756424 0 0.31881991827890221 0.067392678254944022 0 0.31149487478516957 0.072416247190544195 0 0.31016489037859241 0.063946441578756424 0 0.31881991827890221 0.067392678254944022 0 0.31680640120016601 0.079211673354406931 0 0.31149487478516957 0.072416247190544195 0 0.33502278120490631 0.08172400041023517 0 0.32142848150739239 0.087513808788511394 0 0.32614923920915118 0.099149061134180427 0 0.31680640120016601 0.079211673354406931 0 0.32142848150739239 0.087513808788511394 0 0.3117713994607848 0.087166093600980071 0 0.33502278120490631 0.08172400041023517 0 0.32602863306481661 0.076440383045201121 0 0.32142848150739239 0.087513808788511394 0 0.32602863306481661 0.076440383045201121 0 0.31680640120016601 0.079211673354406931 0 0.32142848150739239 0.087513808788511394 0 0.32142848150739239 0.087513808788511394 0 0.3117713994607848 0.087166093600980071 0 0.31072618162738869 0.097433259885790435 0 0.31287204530639873 0.109044616458756 0 0.32614923920915118 0.099149061134180427 0 0.32364346976916308 0.11648377188879371 0 0.32142848150739239 0.087513808788511394 0 0.32614923920915118 0.099149061134180427 0 0.31072618162738869 0.097433259885790435 0 0.32614923920915118 0.099149061134180427 0 0.32364346976916308 0.11648377188879371 0 0.33449242397450929 0.1080369112819025 0 0.31287204530639873 0.109044616458756 0 0.32614923920915118 0.099149061134180427 0 0.31072618162738869 0.097433259885790435 0 0.32364346976916308 0.11648377188879371 0 0.31054542978481608 0.1208339099938964 0 0.31752343502298719 0.1289057072852039 0 0.31287204530639873 0.109044616458756 0 0.32364346976916308 0.11648377188879371 0 0.31054542978481608 0.1208339099938964 0 0.32364346976916308 0.11648377188879371 0 0.33556450631303819 0.1188687675827203 0 0.33044632904108739 0.13215553590998161 0 0.33556450631303819 0.1188687675827203 0 0.34688450217687261 0.1103402048972509 0 0.34551963778496447 0.12671169954107681 0 0.32364346976916308 0.11648377188879371 0 0.33556450631303819 0.1188687675827203 0 0.33449242397450929 0.1080369112819025 0 0.33556450631303819 0.1188687675827203 0 0.33449242397450929 0.1080369112819025 0 0.34688450217687261 0.1103402048972509 0 0.32614923920915118 0.099149061134180427 0 0.33449242397450929 0.1080369112819025 0 0.3402204024043215 0.095342750906567103 0 0.33449242397450929 0.1080369112819025 0 0.3402204024043215 0.095342750906567103 0 0.34688450217687261 0.1103402048972509 0 0.3402204024043215 0.095342750906567103 0 0.35403142856756792 0.095140673664755954 0 0.34688450217687261 0.1103402048972509 0 0.35907693588732309 0.1073412485602919 0 0.35403142856756792 0.095140673664755954 0 0.34688450217687261 0.1103402048972509 0 0.34688450217687261 0.1103402048972509 0 0.35906922631232491 0.1191897372373651 0 0.34551963778496447 0.12671169954107681 0 0.35907693588732309 0.1073412485602919 0 0.34688450217687261 0.1103402048972509 0 0.35906922631232491 0.1191897372373651 0 0.35906922631232491 0.1191897372373651 0 0.36851023893503182 0.1105527626078022 0 0.37400935313403849 0.12217788489302241 0 0.35907693588732309 0.1073412485602919 0 0.35906922631232491 0.1191897372373651 0 0.36851023893503182 0.1105527626078022 0 0.36851023893503182 0.1105527626078022 0 0.37400935313403849 0.12217788489302241 0 0.379023904283316 0.1082580034365315 0 0.35403142856756792 0.095140673664755954 0 0.36838033399962772 0.099564511647998941 0 0.36568992719240362 0.087593612977112587 0 0.35907693588732309 0.1073412485602919 0 0.35403142856756792 0.095140673664755954 0 0.36838033399962772 0.099564511647998941 0 0.35907693588732309 0.1073412485602919 0 0.36851023893503182 0.1105527626078022 0 0.36838033399962772 0.099564511647998941 0 0.36851023893503182 0.1105527626078022 0 0.36838033399962772 0.099564511647998941 0 0.379023904283316 0.1082580034365315 0 0.36838033399962772 0.099564511647998941 0 0.36568992719240362 0.087593612977112587 0 0.3794098923156029 0.094543309368117515 0 0.36568992719240362 0.087593612977112587 0 0.35316774071165158 0.078502394980877896 0 0.37029801655112521 0.072163874804728759 0 0.36568992719240362 0.087593612977112587 0 0.37029801655112521 0.072163874804728759 0 0.38045491006737819 0.082498133013964567 0 0.33502278120490631 0.08172400041023517 0 0.35316774071165158 0.078502394980877896 0 0.34561058822211183 0.087677454990609027 0 0.35403142856756792 0.095140673664755954 0 0.36568992719240362 0.087593612977112587 0 0.35316774071165158 0.078502394980877896 0 0.35403142856756792 0.095140673664755954 0 0.35316774071165158 0.078502394980877896 0 0.34561058822211183 0.087677454990609027 0 0.3402204024043215 0.095342750906567103 0 0.35403142856756792 0.095140673664755954 0 0.34561058822211183 0.087677454990609027 0 0.35316774071165158 0.078502394980877896 0 0.34389632320066249 0.064298939686290413 0 0.36048875285260812 0.064852862585947968 0 0.33502278120490631 0.08172400041023517 0 0.35316774071165158 0.078502394980877896 0 0.34389632320066249 0.064298939686290413 0 0.35316774071165158 0.078502394980877896 0 0.36048875285260812 0.064852862585947968 0 0.37029801655112521 0.072163874804728759 0 0.37029801655112521 0.072163874804728759 0 0.37120543490256502 0.060818638649662721 0 0.38054519529551811 0.063282605877757525 0 0.36048875285260812 0.064852862585947968 0 0.37029801655112521 0.072163874804728759 0 0.37120543490256502 0.060818638649662721 0 0.37120543490256502 0.060818638649662721 0 0.36572345831477793 0.049466976368121973 0 0.37897175149879558 0.054326873611757358 0 0.36048875285260812 0.064852862585947968 0 0.37120543490256502 0.060818638649662721 0 0.36572345831477793 0.049466976368121973 0 0.36572345831477793 0.049466976368121973 0 0.37325469436591402 0.037607092078309527 0 0.3660887544291862 0.037493458946020353 0 0.37325469436591402 0.037607092078309527 0 0.37074687546942542 0.031751791816036053 0 0.3785628963295411 0.03280008511257259 0 0.37325469436591402 0.037607092078309527 0 0.37074687546942542 0.031751791816036053 0 0.3660887544291862 0.037493458946020353 0 0.37074687546942542 0.031751791816036053 0 0.36072731089851712 0.031247765440491581 0 0.3660887544291862 0.037493458946020353 0 0.36072731089851712 0.031247765440491581 0 0.3660887544291862 0.037493458946020353 0 0.3611523697237245 0.041292332918498063 0 0.36572345831477793 0.049466976368121973 0 0.3660887544291862 0.037493458946020353 0 0.3611523697237245 0.041292332918498063 0 0.36572345831477793 0.049466976368121973 0 0.3611523697237245 0.041292332918498063 0 0.3523118170495893 0.047773352563390707 0 0.35048442714854761 0.035205376661607203 0 0.34874232489655738 0.047223032300533027 0 0.34117596012051432 0.01981473674577543 0 0.36072731089851712 0.031247765440491581 0 0.35306646999830288 0.04036238174150563 0 0.3523118170495893 0.047773352563390707 0 0.34874232489655738 0.047223032300533027 0 0.34117596012051432 0.01981473674577543 0 0.36072731089851712 0.031247765440491581 0 0.3523118170495893 0.047773352563390707 0 0.36072731089851712 0.031247765440491581 0 0.3611523697237245 0.041292332918498063 0 0.3523118170495893 0.047773352563390707 0 0.36072731089851712 0.031247765440491581 0 0.35306646999830288 0.04036238174150563 0 0.35048442714854761 0.035205376661607203 0 0.34874232489655738 0.047223032300533027 0 0.34241908331932641 0.042953962602363012 0 0.34024007955296232 0.034821634329381811 0 0.35306646999830288 0.04036238174150563 0 0.35048442714854761 0.035205376661607203 0 0.34874232489655738 0.047223032300533027 0 0.35306646999830288 0.04036238174150563 0 0.34874232489655738 0.047223032300533027 0 0.3523118170495893 0.047773352563390707 0 0.34874232489655738 0.047223032300533027 0 0.34130327423539192 0.047229998683745111 0 0.34241908331932641 0.042953962602363012 0 0.34389632320066249 0.064298939686290413 0 0.36048875285260812 0.064852862585947968 0 0.36572345831477793 0.049466976368121973 0 0.34874232489655738 0.047223032300533027 0 0.34245193483211522 0.052902526297862448 0 0.34130327423539192 0.047229998683745111 0 0.34389632320066249 0.064298939686290413 0 0.36572345831477793 0.049466976368121973 0 0.34874232489655738 0.047223032300533027 0 0.3523118170495893 0.047773352563390707 0 0.34245193483211522 0.052902526297862448 0 0.34389632320066249 0.064298939686290413 0 0.3523118170495893 0.047773352563390707 0 0.34389632320066249 0.064298939686290413 0 0.36572345831477793 0.049466976368121973 0 0.3523118170495893 0.047773352563390707 0 0.34389632320066249 0.064298939686290413 0 0.3523118170495893 0.047773352563390707 0 0.34245193483211522 0.052902526297862448 0 0.36405789703135361 0.01078358387392344 0 0.35318717316781589 0.0034971170769303372 0 0.36828519374625202 -0.0044967661247655487 0 0.36405789703135361 0.01078358387392344 0 0.37557586159286921 0.0084732816214182112 0 0.36828519374625202 -0.0044967661247655487 0 0.36405789703135361 0.01078358387392344 0 0.37324820991739849 0.017958648977077569 0 0.37557586159286921 0.0084732816214182112 0 0.36193769108722362 0.02351059012588225 0 0.38269942205393243 0.027206443505992311 0 0.37324820991739849 0.017958648977077569 0 0.36193769108722362 0.02351059012588225 0 0.38269942205393243 0.027206443505992311 0 0.37074687546942542 0.031751791816036053 0 0.36193769108722362 0.02351059012588225 0 0.38269942205393243 0.027206443505992311 0 0.36405789703135361 0.01078358387392344 0 0.36193769108722362 0.02351059012588225 0 0.3550896803517265 0.01440150695562796 0 0.36405789703135361 0.01078358387392344 0 0.37324820991739849 0.017958648977077569 0 0.36193769108722362 0.02351059012588225 0 0.37074687546942542 0.031751791816036053 0 0.36072731089851712 0.031247765440491581 0 0.36193769108722362 0.02351059012588225 0 0.36193769108722362 0.02351059012588225 0 0.34117596012051432 0.01981473674577543 0 0.36072731089851712 0.031247765440491581 0 0.36193769108722362 0.02351059012588225 0 0.34117596012051432 0.01981473674577543 0 0.36193769108722362 0.02351059012588225 0 0.3550896803517265 0.01440150695562796 0 0.34117596012051432 0.01981473674577543 0 0.36072731089851712 0.031247765440491581 0 0.35048442714854761 0.035205376661607203 0 0.34117596012051432 0.01981473674577543 0 0.3550896803517265 0.01440150695562796 0 0.35318717316781589 0.0034971170769303372 0 0.34117596012051432 0.01981473674577543 0 0.36405789703135361 0.01078358387392344 0 0.3550896803517265 0.01440150695562796 0 0.35318717316781589 0.0034971170769303372 0 0.34117596012051432 0.01981473674577543 0 0.32536818961271119 0.0055509371424281341 0 0.33407478022515119 -0.0059084795040914712 0 0.34117596012051432 0.01981473674577543 0 0.32597423239037537 0.01710863498070073 0 0.32536818961271119 0.0055509371424281341 0 0.35318717316781589 0.0034971170769303372 0 0.34117596012051432 0.01981473674577543 0 0.33407478022515119 -0.0059084795040914712 0 0.34117596012051432 0.01981473674577543 0 0.33407478022515119 -0.0059084795040914712 0 0.34117596012051432 0.01981473674577543 0 0.32597423239037537 0.01710863498070073 0 0.34117596012051432 0.01981473674577543 0 0.33026106968603508 0.027613134870736598 0 0.32597423239037537 0.01710863498070073 0 0.34117596012051432 0.01981473674577543 0 0.33026106968603508 0.027613134870736598 0 0.34024007955296232 0.034821634329381811 0 0.32104324234398418 0.024566111280305971 0 0.3148353110031693 0.030750783754790279 0 0.31077250466023648 0.014402533215625591 0 0.33026106968603508 0.027613134870736598 0 0.32104324234398418 0.024566111280305971 0 0.32337309398010561 0.032955469579676898 0 0.32104324234398418 0.024566111280305971 0 0.3148353110031693 0.030750783754790279 0 0.32337309398010561 0.032955469579676898 0 0.32104324234398418 0.024566111280305971 0 0.32597423239037537 0.01710863498070073 0 0.31077250466023648 0.014402533215625591 0 0.32597423239037537 0.01710863498070073 0 0.31077250466023648 0.014402533215625591 0 0.33026106968603508 0.027613134870736598 0 0.32104324234398418 0.024566111280305971 0 0.32597423239037537 0.01710863498070073 0 0.31077250466023648 0.014402533215625591 0 0.31887305249501258 -0.0086145812691667059 0 0.32536818961271119 0.0055509371424281341 0 0.31077250466023648 0.014402533215625591 0 0.31887305249501258 -0.0086145812691667059 0 0.32597423239037537 0.01710863498070073 0 0.32536818961271119 0.0055509371424281341 0 0.31077250466023648 0.014402533215625591 0 0.32819223008195969 0.064621084212573315 0 0.34389632320066249 0.064298939686290413 0 0.33317405620487522 0.057541411241814243 0 0.33491266669191899 0.050240785315723922 0 0.32997210982414749 0.046287366503354327 0 0.32623172463652322 0.052069207148682441 0 0.33491266669191899 0.050240785315723922 0 0.33317405620487522 0.057541411241814243 0 0.32623172463652322 0.052069207148682441 0 0.33491266669191899 0.050240785315723922 0 0.33634290041846121 0.04541420201888495 0 0.32997210982414749 0.046287366503354327 0 0.32819223008195969 0.064621084212573315 0 0.33317405620487522 0.057541411241814243 0 0.32314079813574731 0.058660972451823779 0 0.34389632320066249 0.064298939686290413 0 0.33317405620487522 0.057541411241814243 0 0.34245193483211522 0.052902526297862448 0 0.33491266669191899 0.050240785315723922 0 0.33317405620487522 0.057541411241814243 0 0.34245193483211522 0.052902526297862448 0 0.33491266669191899 0.050240785315723922 0 0.34245193483211522 0.052902526297862448 0 0.34130327423539192 0.047229998683745111 0 0.33491266669191899 0.050240785315723922 0 0.34130327423539192 0.047229998683745111 0 0.33634290041846121 0.04541420201888495 0 0.34874232489655738 0.047223032300533027 0 0.34117596012051432 0.01981473674577543 0 0.34024007955296232 0.034821634329381811 0 0.34241908331932641 0.042953962602363012 0 0.33939065459239398 0.042541185095792099 0 0.34024007955296232 0.034821634329381811 0 0.34130327423539192 0.047229998683745111 0 0.34241908331932641 0.042953962602363012 0 0.33939065459239398 0.042541185095792099 0 0.33939065459239398 0.042541185095792099 0 0.33634290041846121 0.04541420201888495 0 0.333984466310841 0.040619243876421011 0 0.33939065459239398 0.042541185095792099 0 0.34024007955296232 0.034821634329381811 0 0.333984466310841 0.040619243876421011 0 0.34130327423539192 0.047229998683745111 0 0.33939065459239398 0.042541185095792099 0 0.33634290041846121 0.04541420201888495 0 0.33026106968603508 0.027613134870736598 0 0.34024007955296232 0.034821634329381811 0 0.32931656976119961 0.035359389066731167 0 0.34024007955296232 0.034821634329381811 0 0.32931656976119961 0.035359389066731167 0 0.333984466310841 0.040619243876421011 0 0.32931656976119961 0.035359389066731167 0 0.333984466310841 0.040619243876421011 0 0.32622125617221048 0.040291164161038437 0 0.33634290041846121 0.04541420201888495 0 0.333984466310841 0.040619243876421011 0 0.32997210982414749 0.046287366503354327 0 0.333984466310841 0.040619243876421011 0 0.32997210982414749 0.046287366503354327 0 0.32622125617221048 0.040291164161038437 0 0.32171274606257699 0.045723639106619307 0 0.32622125617221048 0.040291164161038437 0 0.31834368243054018 0.03882752263603239 0 0.32997210982414749 0.046287366503354327 0 0.32171274606257699 0.045723639106619307 0 0.32622125617221048 0.040291164161038437 0 0.32622125617221048 0.040291164161038437 0 0.32337309398010561 0.032955469579676898 0 0.31834368243054018 0.03882752263603239 0 0.33026106968603508 0.027613134870736598 0 0.32931656976119961 0.035359389066731167 0 0.32337309398010561 0.032955469579676898 0 0.32931656976119961 0.035359389066731167 0 0.32622125617221048 0.040291164161038437 0 0.32337309398010561 0.032955469579676898 0 0.3148353110031693 0.030750783754790279 0 0.32337309398010561 0.032955469579676898 0 0.31834368243054018 0.03882752263603239 0 0.3148353110031693 0.030750783754790279 0 0.31834368243054018 0.03882752263603239 0 0.31248259548782842 0.037231634929972682 0 0.32171274606257699 0.045723639106619307 0 0.31834368243054018 0.03882752263603239 0 0.31303995347733798 0.044882186985332223 0 0.31834368243054018 0.03882752263603239 0 0.31303995347733798 0.044882186985332223 0 0.31248259548782842 0.037231634929972682 0 0.32171274606257699 0.045723639106619307 0 0.31303995347733798 0.044882186985332223 0 0.31659081614245271 0.0516890530061547 0 0.31659081614245271 0.0516890530061547 0 0.31583604346977068 0.058652400846774033 0 0.30747576520859832 0.053538309621988057 0 0.32171274606257699 0.045723639106619307 0 0.31659081614245271 0.0516890530061547 0 0.32623172463652322 0.052069207148682441 0 0.31659081614245271 0.0516890530061547 0 0.32623172463652322 0.052069207148682441 0 0.32314079813574731 0.058660972451823779 0 0.32997210982414749 0.046287366503354327 0 0.32171274606257699 0.045723639106619307 0 0.32623172463652322 0.052069207148682441 0 0.33317405620487522 0.057541411241814243 0 0.32623172463652322 0.052069207148682441 0 0.32314079813574731 0.058660972451823779 0 0.31881991827890221 0.067392678254944022 0 0.32314079813574731 0.058660972451823779 0 0.31583604346977068 0.058652400846774033 0 0.31659081614245271 0.0516890530061547 0 0.32314079813574731 0.058660972451823779 0 0.31583604346977068 0.058652400846774033 0 0.30747576520859832 0.053538309621988057 0 0.30371143504026621 0.034466046343735852 0 0.29665036542029583 0.054529559471846067 0 0.31583604346977068 0.058652400846774033 0 0.30747576520859832 0.053538309621988057 0 0.31016489037859241 0.063946441578756424 0 0.30747576520859832 0.053538309621988057 0 0.31016489037859241 0.063946441578756424 0 0.30303798300122547 0.064280392272388659 0 0.30747576520859832 0.053538309621988057 0 0.29665036542029583 0.054529559471846067 0 0.30303798300122547 0.064280392272388659 0 0.31303995347733798 0.044882186985332223 0 0.31659081614245271 0.0516890530061547 0 0.30747576520859832 0.053538309621988057 0 0.30371143504026621 0.034466046343735852 0 0.29665036542029583 0.054529559471846067 0 0.30371143504026621 0.034466046343735852 0 0.29622893160964381 0.042022467137605421 0 0.29665036542029583 0.054529559471846067 0 0.31303995347733798 0.044882186985332223 0 0.30747576520859832 0.053538309621988057 0 0.30371143504026621 0.034466046343735852 0 0.31303995347733798 0.044882186985332223 0 0.31248259548782842 0.037231634929972682 0 0.30371143504026621 0.034466046343735852 0 0.3148353110031693 0.030750783754790279 0 0.31248259548782842 0.037231634929972682 0 0.30371143504026621 0.034466046343735852 0 0.30371143504026621 0.034466046343735852 0 0.29622893160964381 0.042022467137605421 0 0.29274813225808521 0.032814173872708519 0 0.29622893160964381 0.042022467137605421 0 0.28729464632392088 0.039624253654158302 0 0.28908379349216551 0.048523873153363338 0 0.28729464632392088 0.039624253654158302 0 0.28086642192041722 0.029855261335602849 0 0.27923499245885791 0.04793146605686531 0 0.29622893160964381 0.042022467137605421 0 0.29274813225808521 0.032814173872708519 0 0.28729464632392088 0.039624253654158302 0 0.29274813225808521 0.032814173872708519 0 0.28729464632392088 0.039624253654158302 0 0.28086642192041722 0.029855261335602849 0 0.28729464632392088 0.039624253654158302 0 0.28908379349216551 0.048523873153363338 0 0.27923499245885791 0.04793146605686531 0 0.28908379349216551 0.048523873153363338 0 0.28499515997802 0.061322942594378517 0 0.27923499245885791 0.04793146605686531 0 0.28908379349216551 0.048523873153363338 0 0.28499515997802 0.061322942594378517 0 0.29665036542029583 0.054529559471846067 0 0.29622893160964381 0.042022467137605421 0 0.28908379349216551 0.048523873153363338 0 0.29665036542029583 0.054529559471846067 0 0.29622893160964381 0.042022467137605421 0 0.29665036542029583 0.054529559471846067 0 0.31077250466023648 0.014402533215625591 0 0.28459639603554482 0.0097428514340948263 0 0.30034418058502038 -0.0020141518691034082 0 0.31077250466023648 0.014402533215625591 0 0.29559458643126579 0.02178325080635677 0 0.28459639603554482 0.0097428514340948263 0 0.31077250466023648 0.014402533215625591 0 0.31887305249501258 -0.0086145812691667059 0 0.30034418058502038 -0.0020141518691034082 0 0.31077250466023648 0.014402533215625591 0 0.28459639603554482 0.0097428514340948263 0 0.30371143504026621 0.034466046343735852 0 0.31077250466023648 0.014402533215625591 0 0.29559458643126579 0.02178325080635677 0 0.3148353110031693 0.030750783754790279 0 0.30371143504026621 0.034466046343735852 0 0.31077250466023648 0.014402533215625591 0 0.30371143504026621 0.034466046343735852 0 0.31077250466023648 0.014402533215625591 0 0.30371143504026621 0.034466046343735852 0 0.29274813225808521 0.032814173872708519 0 0.29559458643126579 0.02178325080635677 0 0.29559458643126579 0.02178325080635677 0 0.28459639603554482 0.0097428514340948263 0 0.28086642192041722 0.029855261335602849 0 0.29274813225808521 0.032814173872708519 0 0.29559458643126579 0.02178325080635677 0 0.28086642192041722 0.029855261335602849 0 0.28459639603554482 0.0097428514340948263 0 0.26516214701251728 0.016393850188434769 0 0.26542592172057738 -0.01245498556826396 0 0.28459639603554482 0.0097428514340948263 0 0.28086642192041722 0.029855261335602849 0 0.26516214701251728 0.016393850188434769 0 0.28086642192041722 0.029855261335602849 0 0.26516214701251728 0.016393850188434769 0 0.26352414888298248 0.042670702598756619 0 0.24912696166208351 0.02923124284802547 0 0.26516214701251728 0.016393850188434769 0 0.26352414888298248 0.042670702598756619 0 0.26516214701251728 0.016393850188434769 0 0.26542592172057738 -0.01245498556826396 0 0.2491447540649577 -0.00048297328675847567 0 0.24912696166208351 0.02923124284802547 0 0.26516214701251728 0.016393850188434769 0 0.2491447540649577 -0.00048297328675847567 0 0.28499515997802 0.061322942594378517 0 0.27923499245885791 0.04793146605686531 0 0.2721547441355045 0.065460283424239096 0 0.27923499245885791 0.04793146605686531 0 0.26352414888298248 0.042670702598756619 0 0.2721547441355045 0.065460283424239096 0 0.28086642192041722 0.029855261335602849 0 0.27923499245885791 0.04793146605686531 0 0.26352414888298248 0.042670702598756619 0 0.24910916925920931 0.058945458982809423 0 0.24912696166208351 0.02923124284802547 0 0.26352414888298248 0.042670702598756619 0 0.24910916925920931 0.058945458982809423 0 0.26352414888298248 0.042670702598756619 0 0.2721547441355045 0.065460283424239096 0 0.24909137685633501 0.088659675117593442 0 0.24910916925920931 0.058945458982809423 0 0.25919483730885601 0.075388254924210293 0 0.25919483730885601 0.075388254924210293 0 0.26463076130093949 0.08573761822229807 0 0.2721547441355045 0.065460283424239096 0 0.24910916925920931 0.058945458982809423 0 0.25919483730885601 0.075388254924210293 0 0.2721547441355045 0.065460283424239096 0 0.24909137685633501 0.088659675117593442 0 0.26463076130093949 0.08573761822229807 0 0.26751508087185533 0.1036620294694225 0 0.24909137685633501 0.088659675117593442 0 0.25919483730885601 0.075388254924210293 0 0.26463076130093949 0.08573761822229807 0 0.27357147084642169 0.089686869253130394 0 0.2721547441355045 0.065460283424239096 0 0.28300297405801361 0.093307624339984713 0 0.26463076130093949 0.08573761822229807 0 0.27357147084642169 0.089686869253130394 0 0.2721547441355045 0.065460283424239096 0 0.2721547441355045 0.065460283424239096 0 0.28300297405801361 0.093307624339984713 0 0.26463076130093949 0.08573761822229807 0 0.27357147084642169 0.089686869253130394 0 0.26751508087185533 0.1036620294694225 0 0.2721547441355045 0.065460283424239096 0 0.28982666973915511 0.073918591905915515 0 0.28300297405801361 0.093307624339984713 0 0.28499515997802 0.061322942594378517 0 0.29665036542029583 0.054529559471846067 0 0.28982666973915511 0.073918591905915515 0 0.29665036542029583 0.054529559471846067 0 0.28982666973915511 0.073918591905915515 0 0.29739410462808691 0.076601862902062723 0 0.29665036542029583 0.054529559471846067 0 0.28982666973915511 0.073918591905915515 0 0.28499515997802 0.061322942594378517 0 0.2721547441355045 0.065460283424239096 0 0.28982666973915511 0.073918591905915515 0 0.28982666973915511 0.073918591905915515 0 0.29098325239729439 0.082620598633835918 0 0.29739410462808691 0.076601862902062723 0 0.28982666973915511 0.073918591905915515 0 0.28300297405801361 0.093307624339984713 0 0.28982666973915511 0.073918591905915515 0 0.28300297405801361 0.093307624339984713 0 0.29098325239729439 0.082620598633835918 0 0.29370926116392199 0.086654315387380693 0 0.29739410462808691 0.076601862902062723 0 0.29813784383587882 0.098674166332279309 0 0.28300297405801361 0.093307624339984713 0 0.29370926116392199 0.086654315387380693 0 0.29098325239729439 0.082620598633835918 0 0.29370926116392199 0.086654315387380693 0 0.29098325239729439 0.082620598633835918 0 0.29739410462808691 0.076601862902062723 0 0.29739410462808691 0.076601862902062723 0 0.29813784383587882 0.098674166332279309 0 0.30511509271393622 0.087966017773227434 0 0.30754593401754149 0.079954706145024645 0 0.29739410462808691 0.076601862902062723 0 0.30511509271393622 0.087966017773227434 0 0.29739410462808691 0.076601862902062723 0 0.29813784383587882 0.098674166332279309 0 0.30511509271393622 0.087966017773227434 0 0.3117713994607848 0.087166093600980071 0 0.31072618162738869 0.097433259885790435 0 0.31680640120016601 0.079211673354406931 0 0.3117713994607848 0.087166093600980071 0 0.30754593401754149 0.079954706145024645 0 0.30511509271393622 0.087966017773227434 0 0.3117713994607848 0.087166093600980071 0 0.30754593401754149 0.079954706145024645 0 0.29665036542029583 0.054529559471846067 0 0.29739410462808691 0.076601862902062723 0 0.31680640120016601 0.079211673354406931 0 0.30754593401754149 0.079954706145024645 0 0.31149487478516957 0.072416247190544195 0 0.30754593401754149 0.079954706145024645 0 0.31149487478516957 0.072416247190544195 0 0.30592755736212318 0.071439930017755324 0 0.29665036542029583 0.054529559471846067 0 0.30303798300122547 0.064280392272388659 0 0.29739410462808691 0.076601862902062723 0 0.31149487478516957 0.072416247190544195 0 0.30592755736212318 0.071439930017755324 0 0.31016489037859241 0.063946441578756424 0 0.30592755736212318 0.071439930017755324 0 0.31016489037859241 0.063946441578756424 0 0.30303798300122547 0.064280392272388659 0 0.30754593401754149 0.079954706145024645 0 0.30592755736212318 0.071439930017755324 0 0.29739410462808691 0.076601862902062723 0 0.30592755736212318 0.071439930017755324 0 0.30303798300122547 0.064280392272388659 0 0.29739410462808691 0.076601862902062723 0 0.29888158304367068 0.12074646976249589 0 0.29813784383587882 0.098674166332279309 0 0.29888158304367068 0.12074646976249589 0 0.30656500496096822 0.1140044145464497 0 0.30471380356912708 0.1067130310658056 0 0.29888158304367068 0.12074646976249589 0 0.31054542978481608 0.1208339099938964 0 0.307235792007861 0.13145825741694131 0 0.29888158304367068 0.12074646976249589 0 0.31054542978481608 0.1208339099938964 0 0.30656500496096822 0.1140044145464497 0 0.31287204530639873 0.109044616458756 0 0.30656500496096822 0.1140044145464497 0 0.30471380356912708 0.1067130310658056 0 0.31287204530639873 0.109044616458756 0 0.31054542978481608 0.1208339099938964 0 0.30656500496096822 0.1140044145464497 0 0.29888158304367068 0.12074646976249589 0 0.29813784383587882 0.098674166332279309 0 0.30471380356912708 0.1067130310658056 0 0.31287204530639873 0.109044616458756 0 0.31072618162738869 0.097433259885790435 0 0.30471380356912708 0.1067130310658056 0 0.30511509271393622 0.087966017773227434 0 0.31072618162738869 0.097433259885790435 0 0.29813784383587882 0.098674166332279309 0 0.31072618162738869 0.097433259885790435 0 0.29813784383587882 0.098674166332279309 0 0.30471380356912708 0.1067130310658056 0 0.29370926116392199 0.086654315387380693 0 0.28920929323755928 0.1092392083181401 0 0.28300297405801361 0.093307624339984713 0 0.28920929323755928 0.1092392083181401 0 0.28300297405801361 0.093307624339984713 0 0.28920929323755928 0.1092392083181401 0 0.28055379386579571 0.1002667908097076 0 0.28300297405801361 0.093307624339984713 0 0.29370926116392199 0.086654315387380693 0 0.28920929323755928 0.1092392083181401 0 0.29370926116392199 0.086654315387380693 0 0.29813784383587882 0.098674166332279309 0 0.28920929323755928 0.1092392083181401 0 0.28300297405801361 0.093307624339984713 0 0.28055379386579571 0.1002667908097076 0 0.28920929323755928 0.1092392083181401 0 0.27846446811395331 0.1127591447996342 0 0.28055379386579571 0.1002667908097076 0 0.28920929323755928 0.1092392083181401 0 0.27846446811395331 0.1127591447996342 0 0.28504554523396852 0.1301366467867052 0 0.28920929323755928 0.1092392083181401 0 0.28504554523396852 0.1301366467867052 0 0.29888158304367068 0.12074646976249589 0 0.29813784383587882 0.098674166332279309 0 0.28920929323755928 0.1092392083181401 0 0.28920929323755928 0.1092392083181401 0 0.29656886587933962 0.1281311869924272 0 0.29888158304367068 0.12074646976249589 0 0.28920929323755928 0.1092392083181401 0 0.29656886587933962 0.1281311869924272 0 0.28920929323755928 0.1092392083181401 0 0.29656886587933962 0.1281311869924272 0 0.28504554523396852 0.1301366467867052 0 0.26999862736058627 0.12049104861419641 0 0.27846446811395331 0.1127591447996342 0 0.28504554523396852 0.1301366467867052 0 0.26999862736058627 0.12049104861419641 0 0.27846446811395331 0.1127591447996342 0 0.26751508087185533 0.1036620294694225 0 0.27357147084642169 0.089686869253130394 0 0.28300297405801361 0.093307624339984713 0 0.28055379386579571 0.1002667908097076 0 0.27357147084642169 0.089686869253130394 0 0.28055379386579571 0.1002667908097076 0 0.26751508087185533 0.1036620294694225 0 0.27846446811395331 0.1127591447996342 0 0.28055379386579571 0.1002667908097076 0 0.26751508087185533 0.1036620294694225 0 0.2490735844534607 0.11837389125237741 0 0.24909137685633501 0.088659675117593442 0 0.26751508087185533 0.1036620294694225 0 0.2490735844534607 0.11837389125237741 0 0.26999862736058627 0.12049104861419641 0 0.26751508087185533 0.1036620294694225 0 0.2490735844534607 0.11837389125237741 0 0.26999862736058627 0.12049104861419641 0 0.25998356240288972 0.13345423351211691 0 0.24905579205058739 0.14808810738716141 0 0.2490735844534607 0.11837389125237741 0 0.25998356240288972 0.13345423351211691 0 0.25998356240288972 0.13345423351211691 0 0.27108714197272382 0.13845409364667319 0 0.26255338115237392 0.14674115571777899 0 0.27108714197272382 0.13845409364667319 0 0.28088179723037943 0.15103408525527059 0 0.28504554523396852 0.1301366467867052 0 0.26999862736058627 0.12049104861419641 0 0.25998356240288972 0.13345423351211691 0 0.27108714197272382 0.13845409364667319 0 0.26999862736058627 0.12049104861419641 0 0.27108714197272382 0.13845409364667319 0 0.28504554523396852 0.1301366467867052 0 0.27108714197272382 0.13845409364667319 0 0.28088179723037943 0.15103408525527059 0 0.26898529594378739 0.15130595652277251 0 0.27108714197272382 0.13845409364667319 0 0.26898529594378739 0.15130595652277251 0 0.26255338115237392 0.14674115571777899 0 0.26898529594378739 0.15130595652277251 0 0.2622005129591643 0.1521450899400334 0 0.26045371750842672 0.15803144481835549 0 0.26898529594378739 0.15130595652277251 0 0.2622005129591643 0.1521450899400334 0 0.26255338115237392 0.14674115571777899 0 0.2622005129591643 0.1521450899400334 0 0.26255338115237392 0.14674115571777899 0 0.25680965723206939 0.15250180270122651 0 0.2622005129591643 0.1521450899400334 0 0.25680965723206939 0.15250180270122651 0 0.26045371750842672 0.15803144481835549 0 0.24905579205058739 0.14808810738716141 0 0.26255338115237392 0.14674115571777899 0 0.24905579205058739 0.14808810738716141 0 0.25998356240288972 0.13345423351211691 0 0.26255338115237392 0.14674115571777899 0 0.24905067688038751 0.15663070132046111 0 0.24905579205058739 0.14808810738716141 0 0.25680965723206939 0.15250180270122651 0 0.24905579205058739 0.14808810738716141 0 0.26255338115237392 0.14674115571777899 0 0.25680965723206939 0.15250180270122651 0 0.24905067688038751 0.15663070132046111 0 0.25680965723206939 0.15250180270122651 0 0.26045371750842672 0.15803144481835549 0 0.26898529594378739 0.15130595652277251 0 0.26045371750842672 0.15803144481835549 0 0.26742157817037099 0.1676511635805438 0 0.24904038822208679 0.1738132830435398 0 0.27043855398531508 0.17235845642930339 0 0.26742157817037099 0.1676511635805438 0 0.24904038822208679 0.1738132830435398 0 0.24905067688038751 0.15663070132046111 0 0.26742157817037099 0.1676511635805438 0 0.24905067688038751 0.15663070132046111 0 0.26045371750842672 0.15803144481835549 0 0.26742157817037099 0.1676511635805438 0 0.24905067688038751 0.15663070132046111 0 0.26742157817037099 0.1676511635805438 0 0.24903039543617861 0.19050174285036769 0 0.24904038822208679 0.1738132830435398 0 0.271089627261905 0.1817901744744605 0 0.24903039543617861 0.19050174285036769 0 0.271089627261905 0.1817901744744605 0 0.24904038822208679 0.1738132830435398 0 0.27043855398531508 0.17235845642930339 0 0.24904038822208679 0.1738132830435398 0 0.271089627261905 0.1817901744744605 0 0.27043855398531508 0.17235845642930339 0 0.271089627261905 0.1817901744744605 0 0.27506668301072101 0.18021956705874151 0 0.271089627261905 0.1817901744744605 0 0.27043855398531508 0.17235845642930339 0 0.271089627261905 0.1817901744744605 0 0.27043855398531508 0.17235845642930339 0 0.27506668301072101 0.18021956705874151 0 0.27043855398531508 0.17235845642930339 0 0.27671804922679061 0.17193152372383619 0 0.27506668301072101 0.18021956705874151 0 0.27671804922679061 0.17193152372383619 0 0.27506668301072101 0.18021956705874151 0 0.27043855398531508 0.17235845642930339 0 0.27671804922679061 0.17193152372383619 0 0.27506668301072101 0.18021956705874151 0 0.27763434135044679 0.1832317752521373 0 0.2861181636511102 0.1825649395780812 0 0.271089627261905 0.1817901744744605 0 0.27763434135044679 0.1832317752521373 0 0.28088551193747652 0.19108877866040619 0 0.271089627261905 0.1817901744744605 0 0.27506668301072101 0.18021956705874151 0 0.27763434135044679 0.1832317752521373 0 0.28088179723037943 0.15103408525527059 0 0.27671804922679061 0.17193152372383619 0 0.26898529594378739 0.15130595652277251 0 0.27043855398531508 0.17235845642930339 0 0.26898529594378739 0.15130595652277251 0 0.27043855398531508 0.17235845642930339 0 0.27671804922679061 0.17193152372383619 0 0.28088179723037943 0.15103408525527059 0 0.26898529594378739 0.15130595652277251 0 0.27671804922679061 0.17193152372383619 0 0.26898529594378739 0.15130595652277251 0 0.27043855398531508 0.17235845642930339 0 0.26742157817037099 0.1676511635805438 0 0.28088179723037943 0.15103408525527059 0 0.27671804922679061 0.17193152372383619 0 0.2844788519315361 0.16229529658516659 0 0.2844788519315361 0.16229529658516659 0 0.29201128673038212 0.17089176128885911 0 0.28830427453859259 0.1553238160727031 0 0.27671804922679061 0.17193152372383619 0 0.29201128673038212 0.17089176128885911 0 0.27671804922679061 0.17193152372383619 0 0.2844788519315361 0.16229529658516659 0 0.29201128673038212 0.17089176128885911 0 0.29201128673038212 0.17089176128885911 0 0.29544667900141519 0.161848405348226 0 0.3000744860119286 0.17034355743622409 0 0.29201128673038212 0.17089176128885911 0 0.29258503477184089 0.17330126997542161 0 0.3000744860119286 0.17034355743622409 0 0.29201128673038212 0.17089176128885911 0 0.3000744860119286 0.17034355743622409 0 0.29258503477184089 0.17330126997542161 0 0.3000744860119286 0.17034355743622409 0 0.29201128673038212 0.17089176128885911 0 0.28830427453859259 0.1553238160727031 0 0.29201128673038212 0.17089176128885911 0 0.29544667900141519 0.161848405348226 0 0.28830427453859259 0.1553238160727031 0 0.29544667900141519 0.161848405348226 0 0.28830427453859259 0.1553238160727031 0 0.29642713493363781 0.15360345475951581 0 0.29258503477184089 0.17330126997542161 0 0.29671140098938498 0.19063033173540539 0 0.27671804922679061 0.17193152372383619 0 0.27506668301072101 0.18021956705874151 0 0.29258503477184089 0.17330126997542161 0 0.27671804922679061 0.17193152372383619 0 0.29201128673038212 0.17089176128885911 0 0.29258503477184089 0.17330126997542161 0 0.2861181636511102 0.1825649395780812 0 0.29258503477184089 0.17330126997542161 0 0.29671140098938498 0.19063033173540539 0 0.27506668301072101 0.18021956705874151 0 0.2861181636511102 0.1825649395780812 0 0.29258503477184089 0.17330126997542161 0 0.27506668301072101 0.18021956705874151 0 0.29258503477184089 0.17330126997542161 0 0.27763434135044679 0.1832317752521373 0 0.2861181636511102 0.1825649395780812 0 0.28088551193747652 0.19108877866040619 0 0.29201128673038212 0.17089176128885911 0 0.29258503477184089 0.17330126997542161 0 0.29258503477184089 0.17330126997542161 0 0.30466889940557079 0.17787118616712619 0 0.29671140098938498 0.19063033173540539 0 0.30466889940557079 0.17787118616712619 0 0.31018721859496379 0.18602971155139231 0 0.29671140098938498 0.19063033173540539 0 0.29258503477184089 0.17330126997542161 0 0.30466889940557079 0.17787118616712619 0 0.3000744860119286 0.17034355743622409 0 0.30466889940557079 0.17787118616712619 0 0.31267930081508583 0.16948657650401991 0 0.31577595525022051 0.17743566980029249 0 0.30466889940557079 0.17787118616712619 0 0.3000744860119286 0.17034355743622409 0 0.31267930081508583 0.16948657650401991 0 0.30466889940557079 0.17787118616712619 0 0.31018721859496379 0.18602971155139231 0 0.31577595525022051 0.17743566980029249 0 0.31128801116289723 0.16591514434100249 0 0.30392843852111839 0.14702316566671481 0 0.31328899814511812 0.16512492031812609 0 0.30143294992619962 0.15974674551033691 0 0.31128801116289723 0.16591514434100249 0 0.30392843852111839 0.14702316566671481 0 0.31128801116289723 0.16591514434100249 0 0.30392843852111839 0.14702316566671481 0 0.29544667900141519 0.161848405348226 0 0.30143294992619962 0.15974674551033691 0 0.29642713493363781 0.15360345475951581 0 0.29544667900141519 0.161848405348226 0 0.30143294992619962 0.15974674551033691 0 0.3000744860119286 0.17034355743622409 0 0.30143294992619962 0.15974674551033691 0 0.3000744860119286 0.17034355743622409 0 0.31128801116289723 0.16591514434100249 0 0.3000744860119286 0.17034355743622409 0 0.31128801116289723 0.16591514434100249 0 0.3000744860119286 0.17034355743622409 0 0.31267930081508583 0.16948657650401991 0 0.3000744860119286 0.17034355743622409 0 0.31128801116289723 0.16591514434100249 0 0.31267930081508583 0.16948657650401991 0 0.31128801116289723 0.16591514434100249 0 0.31328899814511812 0.16512492031812609 0 0.31267930081508583 0.16948657650401991 0 0.31128801116289723 0.16591514434100249 0 0.31267930081508583 0.16948657650401991 0 0.31128801116289723 0.16591514434100249 0 0.31328899814511812 0.16512492031812609 0 0.30392843852111839 0.14702316566671481 0 0.32033665888681578 0.15589535186528289 0 0.31328899814511812 0.16512492031812609 0 0.30143294992619962 0.15974674551033691 0 0.30392843852111839 0.14702316566671481 0 0.29642713493363781 0.15360345475951581 0 0.30392843852111839 0.14702316566671481 0 0.29642713493363781 0.15360345475951581 0 0.2933113736170474 0.1462001597745706 0 0.30392843852111839 0.14702316566671481 0 0.29656886587933962 0.1281311869924272 0 0.30392843852111839 0.14702316566671481 0 0.29269029711965538 0.13824940601539301 0 0.29656886587933962 0.1281311869924272 0 0.30392843852111839 0.14702316566671481 0 0.307235792007861 0.13145825741694131 0 0.31861349802338368 0.14060295116614499 0 0.30392843852111839 0.14702316566671481 0 0.307235792007861 0.13145825741694131 0 0.29656886587933962 0.1281311869924272 0 0.31054542978481608 0.1208339099938964 0 0.307235792007861 0.13145825741694131 0 0.31752343502298719 0.1289057072852039 0 0.29888158304367068 0.12074646976249589 0 0.307235792007861 0.13145825741694131 0 0.29656886587933962 0.1281311869924272 0 0.28088179723037943 0.15103408525527059 0 0.28504554523396852 0.1301366467867052 0 0.28088179723037943 0.15103408525527059 0 0.28504554523396852 0.1301366467867052 0 0.28459726234680338 0.13975587085654709 0 0.29269029711965538 0.13824940601539301 0 0.29656886587933962 0.1281311869924272 0 0.28504554523396852 0.1301366467867052 0 0.29269029711965538 0.13824940601539301 0 0.28504554523396852 0.1301366467867052 0 0.28459726234680338 0.13975587085654709 0 0.28459726234680338 0.13975587085654709 0 0.28830427453859259 0.1553238160727031 0 0.28459726234680338 0.13975587085654709 0 0.28830427453859259 0.1553238160727031 0 0.2933113736170474 0.1462001597745706 0 0.28088179723037943 0.15103408525527059 0 0.2844788519315361 0.16229529658516659 0 0.28830427453859259 0.1553238160727031 0 0.28088179723037943 0.15103408525527059 0 0.28459726234680338 0.13975587085654709 0 0.28830427453859259 0.1553238160727031 0 0.28830427453859259 0.1553238160727031 0 0.29642713493363781 0.15360345475951581 0 0.2933113736170474 0.1462001597745706 0 0.30392843852111839 0.14702316566671481 0 0.29269029711965538 0.13824940601539301 0 0.2933113736170474 0.1462001597745706 0 0.29269029711965538 0.13824940601539301 0 0.28459726234680338 0.13975587085654709 0 0.2933113736170474 0.1462001597745706 0 0.27545398025066758 0.245014005523361 0 0.26410826678970978 0.2401145292753091 0 0.27358918588460202 0.21799981940121579 0 0.27545398025066758 0.245014005523361 0 0.28264061526700213 0.2358344241143715 0 0.28495062716424502 0.24857075137586751 0 0.26004930146642841 0.25067459597796371 0 0.27545398025066758 0.245014005523361 0 0.26410826678970978 0.2401145292753091 0 0.24900185775245859 0.23816112354634611 0 0.26004930146642841 0.25067459597796371 0 0.26410826678970978 0.2401145292753091 0 0.24900185775245859 0.23816112354634611 0 0.26410826678970978 0.2401145292753091 0 0.261295521818531 0.2280804714737818 0 0.2490151916809821 0.21589278594043401 0 0.24900185775245859 0.23816112354634611 0 0.261295521818531 0.2280804714737818 0 0.261295521818531 0.2280804714737818 0 0.27358918588460202 0.21799981940121579 0 0.26169124148126038 0.2101489873404313 0 0.24900185775245859 0.23816112354634611 0 0.261295521818531 0.2280804714737818 0 0.26410826678970978 0.2401145292753091 0 0.261295521818531 0.2280804714737818 0 0.27358918588460202 0.21799981940121579 0 0.27545398025066758 0.245014005523361 0 0.27358918588460202 0.21799981940121579 0 0.27545398025066758 0.245014005523361 0 0.27358918588460202 0.21799981940121579 0 0.28264061526700213 0.2358344241143715 0 0.261295521818531 0.2280804714737818 0 0.27358918588460202 0.21799981940121579 0 0.27358918588460202 0.21799981940121579 0 0.27235202256421781 0.20007775742566131 0 0.28778195351954527 0.20636192595418451 0 0.27358918588460202 0.21799981940121579 0 0.27235202256421781 0.20007775742566131 0 0.27358918588460202 0.21799981940121579 0 0.26169124148126038 0.2101489873404313 0 0.27235202256421781 0.20007775742566131 0 0.27358918588460202 0.21799981940121579 0 0.28778195351954527 0.20636192595418451 0 0.24902852560950459 0.19362444833452189 0 0.2490151916809821 0.21589278594043401 0 0.26169124148126038 0.2101489873404313 0 0.2490151916809821 0.21589278594043401 0 0.261295521818531 0.2280804714737818 0 0.26169124148126038 0.2101489873404313 0 0.24903039543617861 0.19050174285036769 0 0.271089627261905 0.1817901744744605 0 0.27235202256421781 0.20007775742566131 0 0.24902852560950459 0.19362444833452189 0 0.26169124148126038 0.2101489873404313 0 0.27235202256421781 0.20007775742566131 0 0.24902852560950459 0.19362444833452189 0 0.24903039543617861 0.19050174285036769 0 0.27235202256421781 0.20007775742566131 0 0.24902852560950459 0.19362444833452189 0 0.27235202256421781 0.20007775742566131 0 0.271089627261905 0.1817901744744605 0 0.27235202256421781 0.20007775742566131 0 0.271089627261905 0.1817901744744605 0 0.27235202256421781 0.20007775742566131 0 0.28088551193747652 0.19108877866040619 0 0.28088551193747652 0.19108877866040619 0 0.29671140098938498 0.19063033173540539 0 0.30083776720692779 0.20795939349538961 0 0.27235202256421781 0.20007775742566131 0 0.28088551193747652 0.19108877866040619 0 0.30083776720692779 0.20795939349538961 0 0.2861181636511102 0.1825649395780812 0 0.28088551193747652 0.19108877866040619 0 0.29671140098938498 0.19063033173540539 0 0.31018721859496379 0.18602971155139231 0 0.29671140098938498 0.19063033173540539 0 0.3064534465430116 0.19642865498241341 0 0.3064534465430116 0.19642865498241341 0 0.30417730188926151 0.20888339942672801 0 0.32035354403451888 0.18864043870315009 0 0.29671140098938498 0.19063033173540539 0 0.3064534465430116 0.19642865498241341 0 0.30083776720692779 0.20795939349538961 0 0.30417730188926151 0.20888339942672801 0 0.32035354403451888 0.18864043870315009 0 0.29671140098938498 0.19063033173540539 0 0.30083776720692779 0.20795939349538961 0 0.31018721859496379 0.18602971155139231 0 0.3064534465430116 0.19642865498241341 0 0.32035354403451888 0.18864043870315009 0 0.3064534465430116 0.19642865498241341 0 0.30083776720692779 0.20795939349538961 0 0.30417730188926151 0.20888339942672801 0 0.30083776720692779 0.20795939349538961 0 0.3017739453700537 0.21189096145418129 0 0.30083776720692779 0.20795939349538961 0 0.30417730188926151 0.20888339942672801 0 0.3017739453700537 0.21189096145418129 0 0.30083776720692779 0.20795939349538961 0 0.30417730188926151 0.20888339942672801 0 0.30417730188926151 0.20888339942672801 0 0.3017739453700537 0.21189096145418129 0 0.30417730188926151 0.20888339942672801 0 0.3017739453700537 0.21189096145418129 0 0.31290153899265932 0.21896745131118969 0 0.3017739453700537 0.21189096145418129 0 0.29220728031852761 0.2238626927842762 0 0.30083776720692779 0.20795939349538961 0 0.3017739453700537 0.21189096145418129 0 0.2926810208737371 0.2144330125401801 0 0.27358918588460202 0.21799981940121579 0 0.2926810208737371 0.2144330125401801 0 0.28778195351954527 0.20636192595418451 0 0.27235202256421781 0.20007775742566131 0 0.30083776720692779 0.20795939349538961 0 0.3017739453700537 0.21189096145418129 0 0.2926810208737371 0.2144330125401801 0 0.29220728031852761 0.2238626927842762 0 0.27235202256421781 0.20007775742566131 0 0.30083776720692779 0.20795939349538961 0 0.28778195351954527 0.20636192595418451 0 0.30083776720692779 0.20795939349538961 0 0.2926810208737371 0.2144330125401801 0 0.28778195351954527 0.20636192595418451 0 0.27358918588460202 0.21799981940121579 0 0.2926810208737371 0.2144330125401801 0 0.29220728031852761 0.2238626927842762 0 0.27358918588460202 0.21799981940121579 0 0.29220728031852761 0.2238626927842762 0 0.28264061526700213 0.2358344241143715 0 0.29220728031852761 0.2238626927842762 0 0.28264061526700213 0.2358344241143715 0 0.29220728031852761 0.2238626927842762 0 0.2933225674147113 0.23760153579629359 0 0.28264061526700213 0.2358344241143715 0 0.3017739453700537 0.21189096145418129 0 0.29220728031852761 0.2238626927842762 0 0.30703085748304221 0.23396785668598369 0 0.3017739453700537 0.21189096145418129 0 0.30703085748304221 0.23396785668598369 0 0.31290153899265932 0.21896745131118969 0 0.3017739453700537 0.21189096145418129 0 0.30703085748304221 0.23396785668598369 0 0.29220728031852761 0.2238626927842762 0 0.30703085748304221 0.23396785668598369 0 0.2933225674147113 0.23760153579629359 0 0.31228776959603011 0.25604475191778631 0 0.30703085748304221 0.23396785668598369 0 0.29601719827210882 0.25237559979980562 0 0.31228776959603011 0.25604475191778631 0 0.30703085748304221 0.23396785668598369 0 0.29601719827210882 0.25237559979980562 0 0.30703085748304221 0.23396785668598369 0 0.2933225674147113 0.23760153579629359 0 0.29601719827210882 0.25237559979980562 0 0.2933225674147113 0.23760153579629359 0 0.28495062716424502 0.24857075137586751 0 0.2933225674147113 0.23760153579629359 0 0.28264061526700213 0.2358344241143715 0 0.28495062716424502 0.24857075137586751 0 0.33241618732473199 0.24135226064390999 0 0.33558543091688642 0.22837544333117071 0 0.35266173408882961 0.23732065060139321 0 0.31228776959603011 0.25604475191778631 0 0.30703085748304221 0.23396785668598369 0 0.32088227911469219 0.23189089570715871 0 0.31228776959603011 0.25604475191778631 0 0.33241618732473199 0.24135226064390999 0 0.32088227911469219 0.23189089570715871 0 0.32088227911469219 0.23189089570715871 0 0.31290153899265932 0.21896745131118969 0 0.32600047519583147 0.21492158842429709 0 0.32088227911469219 0.23189089570715871 0 0.33558543091688642 0.22837544333117071 0 0.32600047519583147 0.21492158842429709 0 0.30703085748304221 0.23396785668598369 0 0.32088227911469219 0.23189089570715871 0 0.31290153899265932 0.21896745131118969 0 0.33558543091688642 0.22837544333117071 0 0.32600047519583147 0.21492158842429709 0 0.34782364850240188 0.22095977742186459 0 0.33241618732473199 0.24135226064390999 0 0.32088227911469219 0.23189089570715871 0 0.33558543091688642 0.22837544333117071 0 0.34282562623953761 0.20610321986780089 0 0.32600047519583147 0.21492158842429709 0 0.34782364850240188 0.22095977742186459 0 0.34282562623953761 0.20610321986780089 0 0.32600047519583147 0.21492158842429709 0 0.3309046935940273 0.1992412791968714 0 0.32600047519583147 0.21492158842429709 0 0.34782364850240188 0.22095977742186459 0 0.30417730188926151 0.20888339942672801 0 0.32600047519583147 0.21492158842429709 0 0.30417730188926151 0.20888339942672801 0 0.31290153899265932 0.21896745131118969 0 0.32600047519583147 0.21492158842429709 0 0.30417730188926151 0.20888339942672801 0 0.32600047519583147 0.21492158842429709 0 0.31986405913366622 0.2025511725118361 0 0.32600047519583147 0.21492158842429709 0 0.31986405913366622 0.2025511725118361 0 0.3309046935940273 0.1992412791968714 0 0.31986405913366622 0.2025511725118361 0 0.32035354403451888 0.18864043870315009 0 0.3309046935940273 0.1992412791968714 0 0.30417730188926151 0.20888339942672801 0 0.31986405913366622 0.2025511725118361 0 0.32035354403451888 0.18864043870315009 0 0.3309046935940273 0.1992412791968714 0 0.34106957244351299 0.194737893182337 0 0.33461662127818292 0.18651007810431161 0 0.32035354403451888 0.18864043870315009 0 0.3309046935940273 0.1992412791968714 0 0.33461662127818292 0.18651007810431161 0 0.34282562623953761 0.20610321986780089 0 0.3309046935940273 0.1992412791968714 0 0.34106957244351299 0.194737893182337 0 0.34106957244351299 0.194737893182337 0 0.33461662127818292 0.18651007810431161 0 0.34595332298286108 0.18238529975899431 0 0.34106957244351299 0.194737893182337 0 0.35160981744015918 0.1952235893019883 0 0.34595332298286108 0.18238529975899431 0 0.34282562623953761 0.20610321986780089 0 0.34106957244351299 0.194737893182337 0 0.35160981744015918 0.1952235893019883 0 0.35160981744015918 0.1952235893019883 0 0.36356213769613899 0.1957934485687666 0 0.35704472080670729 0.20926811750758159 0 0.35160981744015918 0.1952235893019883 0 0.36356213769613899 0.1957934485687666 0 0.35920352447219711 0.18305355692644959 0 0.36356213769613899 0.1957934485687666 0 0.35920352447219711 0.18305355692644959 0 0.37352346364636307 0.18552156805347639 0 0.37226121369543602 0.19784079971712679 0 0.36356213769613899 0.1957934485687666 0 0.37352346364636307 0.18552156805347639 0 0.37226121369543602 0.19784079971712679 0 0.36356213769613899 0.1957934485687666 0 0.36715197285814172 0.20412933441070649 0 0.37226121369543602 0.19784079971712679 0 0.36715197285814172 0.20412933441070649 0 0.3744014621045062 0.20443580436045611 0 0.36356213769613899 0.1957934485687666 0 0.36715197285814172 0.20412933441070649 0 0.35704472080670729 0.20926811750758159 0 0.36715197285814172 0.20412933441070649 0 0.37247152043835419 0.21359394334250581 0 0.35704472080670729 0.20926811750758159 0 0.3744014621045062 0.20443580436045611 0 0.37247152043835419 0.21359394334250581 0 0.36715197285814172 0.20412933441070649 0 0.3744014621045062 0.20443580436045611 0 0.37247152043835419 0.21359394334250581 0 0.37247152043835419 0.21359394334250581 0 0.36174667788910903 0.21770495117284591 0 0.35704472080670729 0.20926811750758159 0 0.37247152043835419 0.21359394334250581 0 0.35704472080670729 0.20926811750758159 0 0.36174667788910903 0.21770495117284591 0 0.35704472080670729 0.20926811750758159 0 0.34782364850240188 0.22095977742186459 0 0.34282562623953761 0.20610321986780089 0 0.35160981744015918 0.1952235893019883 0 0.35704472080670729 0.20926811750758159 0 0.34282562623953761 0.20610321986780089 0 0.35704472080670729 0.20926811750758159 0 0.34782364850240188 0.22095977742186459 0 0.34782364850240188 0.22095977742186459 0 0.3696468218089724 0.22699796641943179 0 0.35266173408882961 0.23732065060139321 0 0.34782364850240188 0.22095977742186459 0 0.3696468218089724 0.22699796641943179 0 0.33558543091688642 0.22837544333117071 0 0.34782364850240188 0.22095977742186459 0 0.35266173408882961 0.23732065060139321 0 0.36174667788910903 0.21770495117284591 0 0.34782364850240188 0.22095977742186459 0 0.3696468218089724 0.22699796641943179 0 0.37247152043835419 0.21359394334250581 0 0.36174667788910903 0.21770495117284591 0 0.3696468218089724 0.22699796641943179 0 0.37247152043835419 0.21359394334250581 0 0.3696468218089724 0.22699796641943179 0 0.37698663385109032 0.2226051510649725 0 0.37247152043835419 0.21359394334250581 0 0.3696468218089724 0.22699796641943179 0 0.3743007683798158 0.2282856530718069 0 0.3696468218089724 0.22699796641943179 0 0.37698663385109032 0.2226051510649725 0 0.3743007683798158 0.2282856530718069 0 0.3696468218089724 0.22699796641943179 0 0.37794395763209487 0.23718934627552771 0 0.3743007683798158 0.2282856530718069 0 0.3696468218089724 0.22699796641943179 0 0.36401379896975877 0.25372831115232553 0 0.3696468218089724 0.22699796641943179 0 0.37794395763209487 0.23718934627552771 0 0.36401379896975877 0.25372831115232553 0 0.3696468218089724 0.22699796641943179 0 0.36401379896975877 0.25372831115232553 0 0.3696468218089724 0.22699796641943179 0 0.35266173408882961 0.23732065060139321 0 0.33241618732473199 0.24135226064390999 0 0.35266173408882961 0.23732065060139321 0 0.34697995820560701 0.24914248928416641 0 0.36401379896975877 0.25372831115232553 0 0.35266173408882961 0.23732065060139321 0 0.34697995820560701 0.24914248928416641 0 0.33221033466043259 0.14817968885274549 0 0.33044632904108739 0.13215553590998161 0 0.34572289785417121 0.14156994761808259 0 0.33221033466043259 0.14817968885274549 0 0.34315086182374599 0.1561743278024722 0 0.33043499767882029 0.15952785606651981 0 0.33221033466043259 0.14817968885274549 0 0.34315086182374599 0.1561743278024722 0 0.34572289785417121 0.14156994761808259 0 0.33044632904108739 0.13215553590998161 0 0.34572289785417121 0.14156994761808259 0 0.34551963778496447 0.12671169954107681 0 0.33556450631303819 0.1188687675827203 0 0.33044632904108739 0.13215553590998161 0 0.34551963778496447 0.12671169954107681 0 0.33221033466043259 0.14817968885274549 0 0.33044632904108739 0.13215553590998161 0 0.31861349802338368 0.14060295116614499 0 0.32364346976916308 0.11648377188879371 0 0.33044632904108739 0.13215553590998161 0 0.31752343502298719 0.1289057072852039 0 0.33044632904108739 0.13215553590998161 0 0.31752343502298719 0.1289057072852039 0 0.31861349802338368 0.14060295116614499 0 0.307235792007861 0.13145825741694131 0 0.31752343502298719 0.1289057072852039 0 0.31861349802338368 0.14060295116614499 0 0.30392843852111839 0.14702316566671481 0 0.31861349802338368 0.14060295116614499 0 0.32033665888681578 0.15589535186528289 0 0.33221033466043259 0.14817968885274549 0 0.31861349802338368 0.14060295116614499 0 0.32033665888681578 0.15589535186528289 0 0.33221033466043259 0.14817968885274549 0 0.32033665888681578 0.15589535186528289 0 0.33043499767882029 0.15952785606651981 0 0.32033665888681578 0.15589535186528289 0 0.31328899814511812 0.16512492031812609 0 0.31994734684332699 0.16899243383252319 0 0.31994734684332699 0.16899243383252319 0 0.31577595525022051 0.17743566980029249 0 0.33652978617977991 0.16839747797957491 0 0.31328899814511812 0.16512492031812609 0 0.31267930081508583 0.16948657650401991 0 0.31994734684332699 0.16899243383252319 0 0.31267930081508583 0.16948657650401991 0 0.31994734684332699 0.16899243383252319 0 0.32033665888681578 0.15589535186528289 0 0.31994734684332699 0.16899243383252319 0 0.33043499767882029 0.15952785606651981 0 0.32035354403451888 0.18864043870315009 0 0.31577595525022051 0.17743566980029249 0 0.33652978617977991 0.16839747797957491 0 0.31018721859496379 0.18602971155139231 0 0.32035354403451888 0.18864043870315009 0 0.31577595525022051 0.17743566980029249 0 0.31267930081508583 0.16948657650401991 0 0.31994734684332699 0.16899243383252319 0 0.31577595525022051 0.17743566980029249 0 0.31267930081508583 0.16948657650401991 0 0.31577595525022051 0.17743566980029249 0 0.33461662127818292 0.18651007810431161 0 0.33652978617977991 0.16839747797957491 0 0.34595332298286108 0.18238529975899431 0 0.32035354403451888 0.18864043870315009 0 0.33652978617977991 0.16839747797957491 0 0.32035354403451888 0.18864043870315009 0 0.33461662127818292 0.18651007810431161 0 0.33652978617977991 0.16839747797957491 0 0.31994734684332699 0.16899243383252319 0 0.33043499767882029 0.15952785606651981 0 0.33652978617977991 0.16839747797957491 0 0.34315086182374599 0.1561743278024722 0 0.33043499767882029 0.15952785606651981 0 0.33652978617977991 0.16839747797957491 0 0.34315086182374599 0.1561743278024722 0 0.35186561840214281 0.16888201141742781 0 0.35962913350260101 0.15207939351704269 0 0.34315086182374599 0.1561743278024722 0 0.33652978617977991 0.16839747797957491 0 0.35186561840214281 0.16888201141742781 0 0.33652978617977991 0.16839747797957491 0 0.35186561840214281 0.16888201141742781 0 0.34595332298286108 0.18238529975899431 0 0.35186561840214281 0.16888201141742781 0 0.35920352447219711 0.18305355692644959 0 0.36709962398036211 0.1694422858315586 0 0.35186561840214281 0.16888201141742781 0 0.34595332298286108 0.18238529975899431 0 0.35920352447219711 0.18305355692644959 0 0.35160981744015918 0.1952235893019883 0 0.34595332298286108 0.18238529975899431 0 0.35920352447219711 0.18305355692644959 0 0.37352346364636307 0.18552156805347639 0 0.36709962398036211 0.1694422858315586 0 0.38244139860453608 0.17014538082627101 0 0.35920352447219711 0.18305355692644959 0 0.37352346364636307 0.18552156805347639 0 0.36709962398036211 0.1694422858315586 0 0.36709962398036211 0.1694422858315586 0 0.35962913350260101 0.15207939351704269 0 0.37553152818475499 0.15668776958898659 0 0.35186561840214281 0.16888201141742781 0 0.36709962398036211 0.1694422858315586 0 0.35962913350260101 0.15207939351704269 0 0.36709962398036211 0.1694422858315586 0 0.37553152818475499 0.15668776958898659 0 0.38244139860453608 0.17014538082627101 0 0.35962913350260101 0.15207939351704269 0 0.37667262865547863 0.13849645922089451 0 0.37553152818475499 0.15668776958898659 0 0.35962913350260101 0.15207939351704269 0 0.35965026289376112 0.13494881498641209 0 0.37667262865547863 0.13849645922089451 0 0.34315086182374599 0.1561743278024722 0 0.35962913350260101 0.15207939351704269 0 0.34572289785417121 0.14156994761808259 0 0.35962913350260101 0.15207939351704269 0 0.34572289785417121 0.14156994761808259 0 0.35965026289376112 0.13494881498641209 0 0.35906922631232491 0.1191897372373651 0 0.34551963778496447 0.12671169954107681 0 0.35965026289376112 0.13494881498641209 0 0.34572289785417121 0.14156994761808259 0 0.34551963778496447 0.12671169954107681 0 0.35965026289376112 0.13494881498641209 0 0.37400935313403849 0.12217788489302241 0 0.35965026289376112 0.13494881498641209 0 0.37667262865547863 0.13849645922089451 0 0.35906922631232491 0.1191897372373651 0 0.37400935313403849 0.12217788489302241 0 0.35965026289376112 0.13494881498641209 0 0.37400935313403849 0.12217788489302241 0 0.37667262865547863 0.13849645922089451 0 0.38974379637065232 0.1207022575907907 0 0.37667262865547863 0.13849645922089451 0 0.39511401807225682 0.13672954471104579 0 0.38974379637065232 0.1207022575907907 0 0.39511401807225682 0.13672954471104579 0 0.40366849645385539 0.12585863841696979 0 0.38974379637065232 0.1207022575907907 0 0.39511401807225682 0.13672954471104579 0 0.40366849645385539 0.12585863841696979 0 0.41039751918961209 0.14350725856057359 0 0.38988008624682507 0.15191196218261849 0 0.40127647256207388 0.17092112086068459 0 0.41039751918961209 0.14350725856057359 0 0.39511401807225682 0.13672954471104579 0 0.38988008624682507 0.15191196218261849 0 0.41039751918961209 0.14350725856057359 0 0.37667262865547863 0.13849645922089451 0 0.39511401807225682 0.13672954471104579 0 0.38988008624682507 0.15191196218261849 0 0.37667262865547863 0.13849645922089451 0 0.38988008624682507 0.15191196218261849 0 0.37553152818475499 0.15668776958898659 0 0.38988008624682507 0.15191196218261849 0 0.37553152818475499 0.15668776958898659 0 0.38244139860453608 0.17014538082627101 0 0.38244139860453608 0.17014538082627101 0 0.3872206464755954 0.1821114945525501 0 0.40127647256207388 0.17092112086068459 0 0.37352346364636307 0.18552156805347639 0 0.38244139860453608 0.17014538082627101 0 0.3872206464755954 0.1821114945525501 0 0.3872206464755954 0.1821114945525501 0 0.40127647256207388 0.17092112086068459 0 0.39355424738172412 0.19413073993063379 0 0.40127647256207388 0.17092112086068459 0 0.39355424738172412 0.19413073993063379 0 0.41587571642385929 0.1952726420772862 0 0.40127647256207388 0.17092112086068459 0 0.39355424738172412 0.19413073993063379 0 0.38988008624682507 0.15191196218261849 0 0.40127647256207388 0.17092112086068459 0 0.38988008624682507 0.15191196218261849 0 0.38244139860453608 0.17014538082627101 0 0.40127647256207388 0.17092112086068459 0 0.40127647256207388 0.17092112086068459 0 0.41039751918961209 0.14350725856057359 0 0.41426072678095832 0.16001690468461799 0 0.41277378719016811 0.18221616590994541 0 0.43121419600667887 0.16028647702662491 0 0.40127647256207388 0.17092112086068459 0 0.41426072678095832 0.16001690468461799 0 0.41039751918961209 0.14350725856057359 0 0.40127647256207388 0.17092112086068459 0 0.41426072678095832 0.16001690468461799 0 0.41277378719016811 0.18221616590994541 0 0.40127647256207388 0.17092112086068459 0 0.41587571642385929 0.1952726420772862 0 0.40127647256207388 0.17092112086068459 0 0.41277378719016811 0.18221616590994541 0 0.41587571642385929 0.1952726420772862 0 0.41277378719016811 0.18221616590994541 0 0.42586803210356439 0.1837639317965597 0 0.41587571642385929 0.1952726420772862 0 0.42586803210356439 0.1837639317965597 0 0.43121419600667887 0.16028647702662491 0 0.43957030242780859 0.18503599030768361 0 0.41277378719016811 0.18221616590994541 0 0.42586803210356439 0.1837639317965597 0 0.43121419600667887 0.16028647702662491 0 0.41277378719016811 0.18221616590994541 0 0.43121419600667887 0.16028647702662491 0 0.43121419600667887 0.16028647702662491 0 0.42898206438218922 0.1358347556528661 0 0.41039751918961209 0.14350725856057359 0 0.43121419600667887 0.16028647702662491 0 0.42898206438218922 0.1358347556528661 0 0.44965460482318992 0.13835678814330421 0 0.42898206438218922 0.1358347556528661 0 0.41039751918961209 0.14350725856057359 0 0.41951856581715291 0.1160933962604636 0 0.40366849645385539 0.12585863841696979 0 0.41039751918961209 0.14350725856057359 0 0.41951856581715291 0.1160933962604636 0 0.41039751918961209 0.14350725856057359 0 0.41951856581715291 0.1160933962604636 0 0.41426072678095832 0.16001690468461799 0 0.43121419600667887 0.16028647702662491 0 0.41039751918961209 0.14350725856057359 0 0.39730610343263562 0.25518891875902178 0 0.39281829369968008 0.23658327059565321 0 0.40889218279796419 0.2462667259531785 0 0.39730610343263562 0.25518891875902178 0 0.38420202650740859 0.25073304292341431 0 0.39281829369968008 0.23658327059565321 0 0.39281829369968008 0.23658327059565321 0 0.41035547116971399 0.22421697447765629 0 0.40889218279796419 0.2462667259531785 0 0.36401379896975877 0.25372831115232553 0 0.38420202650740859 0.25073304292341431 0 0.37794395763209487 0.23718934627552771 0 0.38420202650740859 0.25073304292341431 0 0.39281829369968008 0.23658327059565321 0 0.37794395763209487 0.23718934627552771 0 0.39281829369968008 0.23658327059565321 0 0.37794395763209487 0.23718934627552771 0 0.38268203642693382 0.22680783349053449 0 0.39281829369968008 0.23658327059565321 0 0.38268203642693382 0.22680783349053449 0 0.38583202220137552 0.21734035900058349 0 0.3743007683798158 0.2282856530718069 0 0.37794395763209487 0.23718934627552771 0 0.38268203642693382 0.22680783349053449 0 0.3743007683798158 0.2282856530718069 0 0.38268203642693382 0.22680783349053449 0 0.37698663385109032 0.2226051510649725 0 0.38268203642693382 0.22680783349053449 0 0.37698663385109032 0.2226051510649725 0 0.38583202220137552 0.21734035900058349 0 0.38268203642693382 0.22680783349053449 0 0.38583202220137552 0.21734035900058349 0 0.39281829369968008 0.23658327059565321 0 0.38583202220137552 0.21734035900058349 0 0.41035547116971399 0.22421697447765629 0 0.38583202220137552 0.21734035900058349 0 0.41035547116971399 0.22421697447765629 0 0.40105058523785719 0.21023396206761161 0 0.38583202220137552 0.21734035900058349 0 0.39355424738172412 0.19413073993063379 0 0.40105058523785719 0.21023396206761161 0 0.38583202220137552 0.21734035900058349 0 0.41035547116971399 0.22421697447765629 0 0.38583202220137552 0.21734035900058349 0 0.39355424738172412 0.19413073993063379 0 0.38583202220137552 0.21734035900058349 0 0.37931154620939622 0.20892509100089879 0 0.38266703217202952 0.1993238431922284 0 0.38583202220137552 0.21734035900058349 0 0.38266703217202952 0.1993238431922284 0 0.39355424738172412 0.19413073993063379 0 0.37247152043835419 0.21359394334250581 0 0.38583202220137552 0.21734035900058349 0 0.37247152043835419 0.21359394334250581 0 0.37698663385109032 0.2226051510649725 0 0.38583202220137552 0.21734035900058349 0 0.37247152043835419 0.21359394334250581 0 0.38583202220137552 0.21734035900058349 0 0.37931154620939622 0.20892509100089879 0 0.3744014621045062 0.20443580436045611 0 0.37247152043835419 0.21359394334250581 0 0.37931154620939622 0.20892509100089879 0 0.3744014621045062 0.20443580436045611 0 0.37931154620939622 0.20892509100089879 0 0.38266703217202952 0.1993238431922284 0 0.37352346364636307 0.18552156805347639 0 0.3872206464755954 0.1821114945525501 0 0.38266703217202952 0.1993238431922284 0 0.3872206464755954 0.1821114945525501 0 0.38266703217202952 0.1993238431922284 0 0.39355424738172412 0.19413073993063379 0 0.37226121369543602 0.19784079971712679 0 0.3744014621045062 0.20443580436045611 0 0.38266703217202952 0.1993238431922284 0 0.37226121369543602 0.19784079971712679 0 0.37352346364636307 0.18552156805347639 0 0.38266703217202952 0.1993238431922284 0 0.40105058523785719 0.21023396206761161 0 0.39355424738172412 0.19413073993063379 0 0.40630037675850039 0.2025710029747782 0 0.39355424738172412 0.19413073993063379 0 0.40630037675850039 0.2025710029747782 0 0.41587571642385929 0.1952726420772862 0 0.40630037675850039 0.2025710029747782 0 0.41587571642385929 0.1952726420772862 0 0.41472095799056102 0.2106466678235813 0 0.42990615846930752 0.19600838366125861 0 0.43807200559884829 0.20744138678056451 0 0.43957030242780859 0.18503599030768361 0 0.42586803210356439 0.1837639317965597 0 0.41587571642385929 0.1952726420772862 0 0.42990615846930752 0.19600838366125861 0 0.42586803210356439 0.1837639317965597 0 0.42990615846930752 0.19600838366125861 0 0.43957030242780859 0.18503599030768361 0 0.42990615846930752 0.19600838366125861 0 0.43047496028564319 0.2196241632938887 0 0.43807200559884829 0.20744138678056451 0 0.41587571642385929 0.1952726420772862 0 0.42990615846930752 0.19600838366125861 0 0.43047496028564319 0.2196241632938887 0 0.41587571642385929 0.1952726420772862 0 0.43047496028564319 0.2196241632938887 0 0.43047496028564319 0.2196241632938887 0 0.44197490666426181 0.21645686493369989 0 0.43807200559884829 0.20744138678056451 0 0.41587571642385929 0.1952726420772862 0 0.41472095799056102 0.2106466678235813 0 0.43047496028564319 0.2196241632938887 0 0.41472095799056102 0.2106466678235813 0 0.41035547116971399 0.22421697447765629 0 0.43047496028564319 0.2196241632938887 0 0.40105058523785719 0.21023396206761161 0 0.40630037675850039 0.2025710029747782 0 0.41472095799056102 0.2106466678235813 0 0.40105058523785719 0.21023396206761161 0 0.41472095799056102 0.2106466678235813 0 0.41035547116971399 0.22421697447765629 0 0.41035547116971399 0.22421697447765629 0 0.43487892013805263 0.2310935899547292 0 0.42197099874581723 0.2397376667034179 0 0.41035547116971399 0.22421697447765629 0 0.43047496028564319 0.2196241632938887 0 0.43487892013805263 0.2310935899547292 0 0.43047496028564319 0.2196241632938887 0 0.43487892013805263 0.2310935899547292 0 0.44507420414742721 0.24397568451049109 0 0.41035547116971399 0.22421697447765629 0 0.43487892013805263 0.2310935899547292 0 0.43487892013805263 0.2310935899547292 0 0.43245352958581668 0.24557268184509701 0 0.44507420414742721 0.24397568451049109 0 0.43487892013805263 0.2310935899547292 0 0.42197099874581723 0.2397376667034179 0 0.43245352958581668 0.24557268184509701 0 0.42303379293528509 0.25430856523275552 0 0.42197099874581723 0.2397376667034179 0 0.43245352958581668 0.24557268184509701 0 0.42303379293528509 0.25430856523275552 0 0.42197099874581723 0.2397376667034179 0 0.40889218279796419 0.2462667259531785 0 0.41035547116971399 0.22421697447765629 0 0.42197099874581723 0.2397376667034179 0 0.40889218279796419 0.2462667259531785 0 0.44507420414742721 0.24397568451049109 0 0.46076295055119271 0.23416255059543881 0 0.4689779451190294 0.24597409151084559 0 0.44507420414742721 0.24397568451049109 0 0.44680282659048398 0.22638730347134839 0 0.46076295055119271 0.23416255059543881 0 0.43730973196250189 0.25874790282409138 0 0.43245352958581668 0.24557268184509701 0 0.44507420414742721 0.24397568451049109 0 0.43047496028564319 0.2196241632938887 0 0.44507420414742721 0.24397568451049109 0 0.44680282659048398 0.22638730347134839 0 0.43047496028564319 0.2196241632938887 0 0.44507420414742721 0.24397568451049109 0 0.43047496028564319 0.2196241632938887 0 0.44680282659048398 0.22638730347134839 0 0.44197490666426181 0.21645686493369989 0 0.44680282659048398 0.22638730347134839 0 0.46396548495358431 0.2216876121306938 0 0.46076295055119271 0.23416255059543881 0 0.46396548495358431 0.2216876121306938 0 0.46076295055119271 0.23416255059543881 0 0.47899429194543852 0.23278806135381469 0 0.44680282659048398 0.22638730347134839 0 0.46396548495358431 0.2216876121306938 0 0.45254983418207112 0.2123746061889977 0 0.45254983418207112 0.2123746061889977 0 0.45871467039923153 0.19262115883614039 0 0.47670648132722482 0.205994408833412 0 0.46396548495358431 0.2216876121306938 0 0.45254983418207112 0.2123746061889977 0 0.47670648132722482 0.205994408833412 0 0.44680282659048398 0.22638730347134839 0 0.45254983418207112 0.2123746061889977 0 0.44197490666426181 0.21645686493369989 0 0.45254983418207112 0.2123746061889977 0 0.43807200559884829 0.20744138678056451 0 0.45871467039923153 0.19262115883614039 0 0.45254983418207112 0.2123746061889977 0 0.44197490666426181 0.21645686493369989 0 0.43807200559884829 0.20744138678056451 0 0.43807200559884829 0.20744138678056451 0 0.45871467039923153 0.19262115883614039 0 0.43957030242780859 0.18503599030768361 0 0.43807200559884829 0.20744138678056451 0 0.45871467039923153 0.19262115883614039 0 0.45871467039923153 0.19262115883614039 0 0.47670648132722482 0.205994408833412 0 0.47935733519961482 0.17780093089171631 0 0.5 0.19029763351262119 0 0.47670648132722482 0.205994408833412 0 0.47935733519961482 0.17780093089171631 0 0.5 0.19029763351262119 0 0.5 0.21761456407794941 0 0.47670648132722482 0.205994408833412 0 0.46396548495358431 0.2216876121306938 0 0.47670648132722482 0.205994408833412 0 0.47899429194543852 0.23278806135381469 0 0.5 0.21761456407794941 0 0.47670648132722482 0.205994408833412 0 0.47899429194543852 0.23278806135381469 0 0.5 0.21761456407794941 0 0.47899429194543852 0.23278806135381469 0 0.5 0.24493149464327779 0 0.48416535736174238 0.25686460230634478 0 0.47899429194543852 0.23278806135381469 0 0.5 0.24493149464327779 0 0.48416535736174238 0.25686460230634478 0 0.47899429194543852 0.23278806135381469 0 0.4689779451190294 0.24597409151084559 0 0.46076295055119271 0.23416255059543881 0 0.47899429194543852 0.23278806135381469 0 0.4689779451190294 0.24597409151084559 0 0.44965460482318992 0.13835678814330421 0 0.45937518299290009 0.16547769711470151 0 0.47506416112371058 0.1444760589236069 0 0.44965460482318992 0.13835678814330421 0 0.47269225416440108 0.13010738501479249 0 0.46809501363970007 0.1164270992599831 0 0.44965460482318992 0.13835678814330421 0 0.47506416112371058 0.1444760589236069 0 0.47269225416440108 0.13010738501479249 0 0.44965460482318992 0.13835678814330421 0 0.46809501363970007 0.1164270992599831 0 0.42898206438218922 0.1358347556528661 0 0.44965460482318992 0.13835678814330421 0 0.43412543607431181 0.1209298582733643 0 0.43121419600667887 0.16028647702662491 0 0.44965460482318992 0.13835678814330421 0 0.45937518299290009 0.16547769711470151 0 0.43121419600667887 0.16028647702662491 0 0.44965460482318992 0.13835678814330421 0 0.43121419600667887 0.16028647702662491 0 0.43957030242780859 0.18503599030768361 0 0.45937518299290009 0.16547769711470151 0 0.45871467039923153 0.19262115883614039 0 0.43957030242780859 0.18503599030768361 0 0.45937518299290009 0.16547769711470151 0 0.45871467039923153 0.19262115883614039 0 0.45937518299290009 0.16547769711470151 0 0.47935733519961482 0.17780093089171631 0 0.45937518299290009 0.16547769711470151 0 0.48205101097006681 0.1597664756738344 0 0.47935733519961482 0.17780093089171631 0 0.45937518299290009 0.16547769711470151 0 0.48205101097006681 0.1597664756738344 0 0.47506416112371058 0.1444760589236069 0 0.45871467039923153 0.19262115883614039 0 0.47935733519961482 0.17780093089171631 0 0.5 0.19029763351262119 0 0.47935733519961482 0.17780093089171631 0 0.49999999999999861 0.1629807029472928 0 0.47935733519961482 0.17780093089171631 0 0.49999999999999861 0.1629807029472928 0 0.48205101097006681 0.1597664756738344 0 0.47935733519961482 0.17780093089171631 0 0.49999999999999861 0.1629807029472928 0 0.48205101097006681 0.1597664756738344 0 0.5 0.14282161665044429 0 0.47506416112371058 0.1444760589236069 0 0.48205101097006681 0.1597664756738344 0 0.49999999999999861 0.1629807029472928 0 0.5 0.14282161665044429 0 0.47506416112371058 0.1444760589236069 0 0.47269225416440108 0.13010738501479249 0 0.4865999844155548 0.13173216394027931 0 0.47269225416440108 0.13010738501479249 0 0.4865999844155548 0.13173216394027931 0 0.48404750681984993 0.1195448148067892 0 0.5 0.14282161665044429 0 0.47506416112371058 0.1444760589236069 0 0.4865999844155548 0.13173216394027931 0 0.5 0.14282161665044429 0 0.4865999844155548 0.13173216394027931 0 0.49999999999999972 0.1226625303535957 0 0.49999999999999972 0.1226625303535957 0 0.49016992975968748 0.10850045115781411 0 0.5 0.1005738030556476 0 0.49999999999999972 0.1226625303535957 0 0.49016992975968748 0.10850045115781411 0 0.48404750681984993 0.1195448148067892 0 0.4865999844155548 0.13173216394027931 0 0.49999999999999972 0.1226625303535957 0 0.48404750681984993 0.1195448148067892 0 0.49999999999999972 0.1226625303535957 0 0.48404750681984993 0.1195448148067892 0 0.49016992975968748 0.10850045115781411 0 0.5 0.1005738030556476 0 0.48404750681984737 0.097456087508840536 0 0.48404750681984737 0.097456087508840536 0 0.46809501363970007 0.1164270992599831 0 0.45992949195449118 0.10177108551958609 0 0.48404750681984737 0.097456087508840536 0 0.46809501363970007 0.1164270992599831 0 0.49016992975968748 0.10850045115781411 0 0.48404750681984737 0.097456087508840536 0 0.46809501363970007 0.1164270992599831 0 0.47269225416440108 0.13010738501479249 0 0.48404750681984993 0.1195448148067892 0 0.46809501363970007 0.1164270992599831 0 0.49016992975968748 0.10850045115781411 0 0.48404750681984993 0.1195448148067892 0 0.46809501363970007 0.1164270992599831 0 0.48404750681984993 0.1195448148067892 0 0.46809501363970007 0.1164270992599831 0 0.49999999999999628 0.078485075757699266 0 0.48055571651487522 0.075191744591211279 0 0.5 0.051110564295346772 0 0.5 0.1005738030556476 0 0.48404750681984737 0.097456087508840536 0 0.49999999999999628 0.078485075757699266 0 0.48404750681984737 0.097456087508840536 0 0.49999999999999628 0.078485075757699266 0 0.48055571651487522 0.075191744591211279 0 0.48404750681984737 0.097456087508840536 0 0.49999999999999628 0.078485075757699266 0 0.48404750681984737 0.097456087508840536 0 0.48055571651487522 0.075191744591211279 0 0.45680300852577799 0.08337661780821172 0 0.48055571651487522 0.075191744591211279 0 0.45680300852577799 0.08337661780821172 0 0.47022691564752078 0.057458358106794387 0 0.45680300852577799 0.08337661780821172 0 0.43776065907223449 0.061265671660244013 0 0.47022691564752078 0.057458358106794387 0 0.45680300852577799 0.08337661780821172 0 0.44356355392416891 0.098844678947843628 0 0.42863961244469367 0.088679533960353829 0 0.45680300852577799 0.08337661780821172 0 0.42863961244469367 0.088679533960353829 0 0.43776065907223449 0.061265671660244013 0 0.44965460482318992 0.13835678814330421 0 0.46809501363970007 0.1164270992599831 0 0.44684689011186057 0.1122744189036831 0 0.46809501363970007 0.1164270992599831 0 0.44684689011186057 0.1122744189036831 0 0.46809501363970007 0.1164270992599831 0 0.45992949195449118 0.10177108551958609 0 0.44684689011186057 0.1122744189036831 0 0.48404750681984737 0.097456087508840536 0 0.45680300852577799 0.08337661780821172 0 0.45992949195449118 0.10177108551958609 0 0.45680300852577799 0.08337661780821172 0 0.45992949195449118 0.10177108551958609 0 0.44356355392416891 0.098844678947843628 0 0.44356355392416891 0.098844678947843628 0 0.44684689011186057 0.1122744189036831 0 0.4255987665840209 0.1081217385473834 0 0.45992949195449118 0.10177108551958609 0 0.44356355392416891 0.098844678947843628 0 0.44684689011186057 0.1122744189036831 0 0.44965460482318992 0.13835678814330421 0 0.44684689011186057 0.1122744189036831 0 0.43412543607431181 0.1209298582733643 0 0.44684689011186057 0.1122744189036831 0 0.43412543607431181 0.1209298582733643 0 0.4255987665840209 0.1081217385473834 0 0.42898206438218922 0.1358347556528661 0 0.43412543607431181 0.1209298582733643 0 0.41951856581715291 0.1160933962604636 0 0.44684689011186057 0.1122744189036831 0 0.4255987665840209 0.1081217385473834 0 0.43412543607431181 0.1209298582733643 0 0.41951856581715291 0.1160933962604636 0 0.4255987665840209 0.1081217385473834 0 0.41951856581715291 0.1160933962604636 0 0.41408597086659188 0.1030673797747501 0 0.40356858281960289 0.1122607349619755 0 0.40366849645385539 0.12585863841696979 0 0.41951856581715291 0.1160933962604636 0 0.40356858281960289 0.1122607349619755 0 0.41408597086659188 0.1030673797747501 0 0.42863961244469367 0.088679533960353829 0 0.41275160348941448 0.090363460717808167 0 0.41951856581715291 0.1160933962604636 0 0.41408597086659188 0.1030673797747501 0 0.42863961244469367 0.088679533960353829 0 0.41408597086659188 0.1030673797747501 0 0.41275160348941448 0.090363460717808167 0 0.40330003419398303 0.098301903264604779 0 0.41408597086659188 0.1030673797747501 0 0.40356858281960289 0.1122607349619755 0 0.40330003419398303 0.098301903264604779 0 0.41951856581715291 0.1160933962604636 0 0.4255987665840209 0.1081217385473834 0 0.42863961244469367 0.088679533960353829 0 0.44356355392416891 0.098844678947843628 0 0.4255987665840209 0.1081217385473834 0 0.42863961244469367 0.088679533960353829 0 0.41951856581715291 0.1160933962604636 0 0.42863961244469367 0.088679533960353829 0 0.42863961244469367 0.088679533960353829 0 0.43776065907223449 0.061265671660244013 0 0.42863961244469367 0.088679533960353829 0 0.42072497037497608 0.063916756683831386 0 0.43776065907223449 0.061265671660244013 0 0.42863961244469367 0.088679533960353829 0 0.42072497037497608 0.063916756683831386 0 0.41320791393757128 0.077335016556764627 0 0.42072497037497608 0.063916756683831386 0 0.41320791393757128 0.077335016556764627 0 0.40426360529407362 0.06118145779473181 0 0.42863961244469367 0.088679533960353829 0 0.41320791393757128 0.077335016556764627 0 0.41275160348941448 0.090363460717808167 0 0.41320791393757128 0.077335016556764627 0 0.41275160348941448 0.090363460717808167 0 0.40350514321094422 0.084850224738608843 0 0.41275160348941448 0.090363460717808167 0 0.40350514321094422 0.084850224738608843 0 0.40330003419398303 0.098301903264604779 0 0.40350514321094422 0.084850224738608843 0 0.39008683754552348 0.092766319412841719 0 0.40330003419398303 0.098301903264604779 0 0.41320791393757128 0.077335016556764627 0 0.40350514321094422 0.084850224738608843 0 0.39863475164682349 0.073519321081335798 0 0.40350514321094422 0.084850224738608843 0 0.39238331546338362 0.081176248642314042 0 0.39863475164682349 0.073519321081335798 0 0.40350514321094422 0.084850224738608843 0 0.39238331546338362 0.081176248642314042 0 0.39008683754552348 0.092766319412841719 0 0.41320791393757128 0.077335016556764627 0 0.39863475164682349 0.073519321081335798 0 0.40426360529407362 0.06118145779473181 0 0.39863475164682349 0.073519321081335798 0 0.39238958653754807 0.065232906817907582 0 0.38557152641758269 0.072629699307495049 0 0.39238331546338362 0.081176248642314042 0 0.39863475164682349 0.073519321081335798 0 0.38557152641758269 0.072629699307495049 0 0.39863475164682349 0.073519321081335798 0 0.39238958653754807 0.065232906817907582 0 0.40426360529407362 0.06118145779473181 0 0.39238958653754807 0.065232906817907582 0 0.38557152641758269 0.072629699307495049 0 0.38054519529551811 0.063282605877757525 0 0.37029801655112521 0.072163874804728759 0 0.38557152641758269 0.072629699307495049 0 0.38045491006737819 0.082498133013964567 0 0.37029801655112521 0.072163874804728759 0 0.38557152641758269 0.072629699307495049 0 0.38054519529551811 0.063282605877757525 0 0.39008683754552348 0.092766319412841719 0 0.38045491006737819 0.082498133013964567 0 0.3794098923156029 0.094543309368117515 0 0.39238331546338362 0.081176248642314042 0 0.38557152641758269 0.072629699307495049 0 0.38045491006737819 0.082498133013964567 0 0.39238331546338362 0.081176248642314042 0 0.39008683754552348 0.092766319412841719 0 0.38045491006737819 0.082498133013964567 0 0.36568992719240362 0.087593612977112587 0 0.38045491006737819 0.082498133013964567 0 0.3794098923156029 0.094543309368117515 0 0.36838033399962772 0.099564511647998941 0 0.3794098923156029 0.094543309368117515 0 0.379023904283316 0.1082580034365315 0 0.39008683754552348 0.092766319412841719 0 0.3794098923156029 0.094543309368117515 0 0.39116646849234882 0.1033084879809353 0 0.3794098923156029 0.094543309368117515 0 0.379023904283316 0.1082580034365315 0 0.39116646849234882 0.1033084879809353 0 0.37400935313403849 0.12217788489302241 0 0.379023904283316 0.1082580034365315 0 0.38974379637065232 0.1207022575907907 0 0.379023904283316 0.1082580034365315 0 0.38974379637065232 0.1207022575907907 0 0.39116646849234882 0.1033084879809353 0 0.38974379637065232 0.1207022575907907 0 0.40356858281960289 0.1122607349619755 0 0.39116646849234882 0.1033084879809353 0 0.40366849645385539 0.12585863841696979 0 0.38974379637065232 0.1207022575907907 0 0.40356858281960289 0.1122607349619755 0 0.40356858281960289 0.1122607349619755 0 0.40330003419398303 0.098301903264604779 0 0.39116646849234882 0.1033084879809353 0 0.39008683754552348 0.092766319412841719 0 0.40330003419398303 0.098301903264604779 0 0.39116646849234882 0.1033084879809353 0 0.39194094123192791 0.020101606894828539 0 0.39970380514660908 0.011078754943281449 0 0.40937772854300791 0.019803049731782901 0 0.38755059342889281 0.034635013049952479 0 0.405792233607849 0.035958020253138552 0 0.40937772854300791 0.019803049731782901 0 0.39194094123192791 0.020101606894828539 0 0.38755059342889281 0.034635013049952479 0 0.40937772854300791 0.019803049731782901 0 0.38755059342889281 0.034635013049952479 0 0.40937772854300791 0.019803049731782901 0 0.39970380514660908 0.011078754943281449 0 0.40937772854300791 0.019803049731782901 0 0.40793076000741729 0.001430451995502418 0 0.39970380514660908 0.011078754943281449 0 0.39347550505628132 0.001929602302533587 0 0.40793076000741729 0.001430451995502418 0 0.39970380514660908 0.011078754943281449 0 0.39347550505628132 0.001929602302533587 0 0.38985662193569209 0.01210524702550919 0 0.39194094123192791 0.020101606894828539 0 0.39970380514660908 0.011078754943281449 0 0.38985662193569209 0.01210524702550919 0 0.38985662193569209 0.01210524702550919 0 0.38397264146837778 0.0067292831512976549 0 0.38245747628343307 0.015781133112452939 0 0.39347550505628132 0.001929602302533587 0 0.38985662193569209 0.01210524702550919 0 0.38397264146837778 0.0067292831512976549 0 0.39347550505628132 0.001929602302533587 0 0.38397264146837778 0.0067292831512976549 0 0.38224084305351053 -0.0017262611818421099 0 0.38397264146837778 0.0067292831512976549 0 0.37557586159286921 0.0084732816214182112 0 0.38224084305351053 -0.0017262611818421099 0 0.37557586159286921 0.0084732816214182112 0 0.38224084305351053 -0.0017262611818421099 0 0.36828519374625202 -0.0044967661247655487 0 0.38397264146837778 0.0067292831512976549 0 0.37557586159286921 0.0084732816214182112 0 0.38245747628343307 0.015781133112452939 0 0.37324820991739849 0.017958648977077569 0 0.37557586159286921 0.0084732816214182112 0 0.38245747628343307 0.015781133112452939 0 0.37324820991739849 0.017958648977077569 0 0.38245747628343307 0.015781133112452939 0 0.38269942205393243 0.027206443505992311 0 0.39194094123192791 0.020101606894828539 0 0.38245747628343307 0.015781133112452939 0 0.38269942205393243 0.027206443505992311 0 0.39194094123192791 0.020101606894828539 0 0.38985662193569209 0.01210524702550919 0 0.38245747628343307 0.015781133112452939 0 0.39194094123192791 0.020101606894828539 0 0.38269942205393243 0.027206443505992311 0 0.38755059342889281 0.034635013049952479 0 0.37074687546942542 0.031751791816036053 0 0.38269942205393243 0.027206443505992311 0 0.3785628963295411 0.03280008511257259 0 0.36572345831477793 0.049466976368121973 0 0.38755059342889281 0.034635013049952479 0 0.36572345831477793 0.049466976368121973 0 0.37325469436591402 0.037607092078309527 0 0.38755059342889281 0.034635013049952479 0 0.36572345831477793 0.049466976368121973 0 0.38517556933807279 0.04677038785678897 0 0.38755059342889281 0.034635013049952479 0 0.37325469436591402 0.037607092078309527 0 0.3785628963295411 0.03280008511257259 0 0.38755059342889281 0.034635013049952479 0 0.38517556933807279 0.04677038785678897 0 0.38755059342889281 0.034635013049952479 0 0.39713942222224807 0.046079030322467462 0 0.38269942205393243 0.027206443505992311 0 0.3785628963295411 0.03280008511257259 0 0.38755059342889281 0.034635013049952479 0 0.36572345831477793 0.049466976368121973 0 0.38517556933807279 0.04677038785678897 0 0.37897175149879558 0.054326873611757358 0 0.37120543490256502 0.060818638649662721 0 0.38054519529551811 0.063282605877757525 0 0.37897175149879558 0.054326873611757358 0 0.38517556933807279 0.04677038785678897 0 0.37897175149879558 0.054326873611757358 0 0.39073692606939509 0.055492507097977331 0 0.38054519529551811 0.063282605877757525 0 0.37897175149879558 0.054326873611757358 0 0.39073692606939509 0.055492507097977331 0 0.39238958653754807 0.065232906817907582 0 0.38054519529551811 0.063282605877757525 0 0.39073692606939509 0.055492507097977331 0 0.39238958653754807 0.065232906817907582 0 0.39073692606939509 0.055492507097977331 0 0.40426360529407362 0.06118145779473181 0 0.38517556933807279 0.04677038785678897 0 0.39073692606939509 0.055492507097977331 0 0.39713942222224807 0.046079030322467462 0 0.39073692606939509 0.055492507097977331 0 0.40426360529407362 0.06118145779473181 0 0.39713942222224807 0.046079030322467462 0 0.40426360529407362 0.06118145779473181 0 0.39713942222224807 0.046079030322467462 0 0.41256017192915828 0.0469152034493103 0 0.38755059342889281 0.034635013049952479 0 0.39713942222224807 0.046079030322467462 0 0.405792233607849 0.035958020253138552 0 0.39713942222224807 0.046079030322467462 0 0.405792233607849 0.035958020253138552 0 0.41256017192915828 0.0469152034493103 0 0.405792233607849 0.035958020253138552 0 0.41256017192915828 0.0469152034493103 0 0.42233325191593829 0.032357804712179569 0 0.41256017192915828 0.0469152034493103 0 0.42805215179841649 0.047661449173139893 0 0.42233325191593829 0.032357804712179569 0 0.42072497037497608 0.063916756683831386 0 0.40426360529407362 0.06118145779473181 0 0.41256017192915828 0.0469152034493103 0 0.42072497037497608 0.063916756683831386 0 0.41256017192915828 0.0469152034493103 0 0.42805215179841649 0.047661449173139893 0 0.42072497037497608 0.063916756683831386 0 0.42805215179841649 0.047661449173139893 0 0.43776065907223449 0.061265671660244013 0 0.42805215179841649 0.047661449173139893 0 0.42233325191593829 0.032357804712179569 0 0.44688170569977531 0.033851809360134197 0 0.42233325191593829 0.032357804712179569 0 0.43390084959156938 0.023729603237818218 0 0.44688170569977531 0.033851809360134197 0 0.43390084959156938 0.023729603237818218 0 0.42914657530224742 0.012588643962328569 0 0.44233896332261408 0.01877373723850689 0 0.43390084959156938 0.023729603237818218 0 0.42368960133819072 0.022119775411027311 0 0.42914657530224742 0.012588643962328569 0 0.42233325191593829 0.032357804712179569 0 0.43390084959156938 0.023729603237818218 0 0.42368960133819072 0.022119775411027311 0 0.405792233607849 0.035958020253138552 0 0.42233325191593829 0.032357804712179569 0 0.40937772854300791 0.019803049731782901 0 0.42368960133819072 0.022119775411027311 0 0.40937772854300791 0.019803049731782901 0 0.42914657530224742 0.012588643962328569 0 0.42233325191593829 0.032357804712179569 0 0.42368960133819072 0.022119775411027311 0 0.40937772854300791 0.019803049731782901 0 0.40937772854300791 0.019803049731782901 0 0.41916861716481352 0.0039326317223636834 0 0.43120486365712279 0.0049710864136133376 0 0.40937772854300791 0.019803049731782901 0 0.40793076000741729 0.001430451995502418 0 0.41916861716481352 0.0039326317223636834 0 0.40937772854300791 0.019803049731782901 0 0.43120486365712279 0.0049710864136133376 0 0.40937772854300791 0.019803049731782901 0 0.42914657530224742 0.012588643962328569 0 0.43120486365712279 0.0049710864136133376 0 0.41916861716481352 0.0039326317223636834 0 0.43120486365712279 0.0049710864136133376 0 0.42584228063651453 -0.00062818604123242696 0 0.42914657530224742 0.012588643962328569 0 0.43120486365712279 0.0049710864136133376 0 0.44646619279887539 0.0015799949627074499 0 0.42914657530224742 0.012588643962328569 0 0.44646619279887539 0.0015799949627074499 0 0.45600275232731508 0.0064379470600239999 0 0.42914657530224742 0.012588643962328569 0 0.44233896332261408 0.01877373723850689 0 0.45600275232731508 0.0064379470600239999 0 0.42914657530224742 0.012588643962328569 0 0.45600275232731508 0.0064379470600239999 0 0.45600275232731508 0.0064379470600239999 0 0.44688170569977531 0.033851809360134197 0 0.44233896332261408 0.01877373723850689 0 0.45600275232731508 0.0064379470600239999 0 0.44688170569977531 0.033851809360134197 0 0.43390084959156938 0.023729603237818218 0 0.44233896332261408 0.01877373723850689 0 0.44688170569977531 0.033851809360134197 0 0.4679280763399486 0.016405561273108209 0 0.45600275232731508 0.0064379470600239999 0 0.44688170569977531 0.033851809360134197 0 0.4679280763399486 0.016405561273108209 0 0.44688170569977531 0.033851809360134197 0 0.4712497988951122 0.0310999747844199 0 0.45600275232731508 0.0064379470600239999 0 0.4780013761636574 0.001399744215331864 0 0.45600275232731508 0.0064379470600239999 0 0.4780013761636574 0.001399744215331864 0 0.45875184359293819 -0.001824614516915804 0 0.4679280763399486 0.016405561273108209 0 0.45600275232731508 0.0064379470600239999 0 0.4780013761636574 0.001399744215331864 0 0.44646619279887539 0.0015799949627074499 0 0.45600275232731508 0.0064379470600239999 0 0.45875184359293819 -0.001824614516915804 0 0.45600275232731508 0.0064379470600239999 0 0.45875184359293819 -0.001824614516915804 0 0.43776065907223449 0.061265671660244013 0 0.44688170569977531 0.033851809360134197 0 0.47022691564752078 0.057458358106794387 0 0.43776065907223449 0.061265671660244013 0 0.44688170569977531 0.033851809360134197 0 0.42805215179841649 0.047661449173139893 0 0.43776065907223449 0.061265671660244013 0 0.44688170569977531 0.033851809360134197 0 0.44688170569977531 0.033851809360134197 0 0.47022691564752078 0.057458358106794387 0 0.4712497988951122 0.0310999747844199 0 0.47022691564752078 0.057458358106794387 0 0.4827198368522827 0.043057650562838633 0 0.5 0.051110564295346772 0 0.48055571651487522 0.075191744591211279 0 0.47022691564752078 0.057458358106794387 0 0.5 0.051110564295346772 0 0.47022691564752078 0.057458358106794387 0 0.4827198368522827 0.043057650562838633 0 0.4712497988951122 0.0310999747844199 0 0.4827198368522827 0.043057650562838633 0 0.5 0.051110564295346772 0 0.5 0.023736052832994181 0 0.4679280763399486 0.016405561273108209 0 0.4780013761636574 0.001399744215331864 0 0.48331651470850012 0.018676754173222399 0 0.4827198368522827 0.043057650562838633 0 0.4712497988951122 0.0310999747844199 0 0.48331651470850012 0.018676754173222399 0 0.4679280763399486 0.016405561273108209 0 0.4712497988951122 0.0310999747844199 0 0.48331651470850012 0.018676754173222399 0 0.4827198368522827 0.043057650562838633 0 0.48331651470850012 0.018676754173222399 0 0.5 0.023736052832994181 0 0.48331651470850012 0.018676754173222399 0 0.5 0.023736052832994181 0 0.5 -0.003638458629358356 0 0.4780013761636574 0.001399744215331864 0 0.48331651470850012 0.018676754173222399 0 0.5 -0.003638458629358356 0 0.4780013761636574 0.001399744215331864 0 0.5 -0.003638458629358356 0 0.48573310937875452 -0.01299347904120134 0 0.4780013761636574 0.001399744215331864 0 0.5 -0.003638458629358356 0 0.4780013761636574 0.001399744215331864 0 0.47020395748140098 -0.0095121506575633237 0 0.45875184359293819 -0.001824614516915804 0 0.4780013761636574 0.001399744215331864 0 0.48573310937875452 -0.01299347904120134 0 0.47020395748140098 -0.0095121506575633237 0 0.48573310937875452 -0.01299347904120134 0 0.47020395748140098 -0.0095121506575633237 0 0.47485913388535272 -0.024692840222725731 0 0.5 -0.003638458629358356 0 0.48573310937875452 -0.01299347904120134 0 0.5 -0.032110340860916353 0 0.48573310937875452 -0.01299347904120134 0 0.47485913388535272 -0.024692840222725731 0 0.5 -0.032110340860916353 0 0.47485913388535272 -0.024692840222725731 0 0.5 -0.032110340860916353 0 0.4815601520821427 -0.048099839585807963 0 0.5 -0.032110340860916353 0 0.5 -0.060582223092474297 0 0.4815601520821427 -0.048099839585807963 0 0.5 -0.060582223092474297 0 0.4815601520821427 -0.048099839585807963 0 0.4866308441353423 -0.064780540586879973 0 0.4815601520821427 -0.048099839585807963 0 0.47112641359211732 -0.053310719986685053 0 0.46264081772724758 -0.04089458467143911 0 0.4815601520821427 -0.048099839585807963 0 0.4760734467526086 -0.061561319764827982 0 0.4866308441353423 -0.064780540586879973 0 0.4815601520821427 -0.048099839585807963 0 0.47112641359211732 -0.053310719986685053 0 0.4760734467526086 -0.061561319764827982 0 0.4760734467526086 -0.061561319764827982 0 0.46423123780647119 -0.062687135924664156 0 0.47112641359211732 -0.053310719986685053 0 0.4760734467526086 -0.061561319764827982 0 0.46423123780647119 -0.062687135924664156 0 0.47485913388535272 -0.024692840222725731 0 0.4815601520821427 -0.048099839585807963 0 0.46264081772724758 -0.04089458467143911 0 0.46264081772724758 -0.04089458467143911 0 0.44956791537452651 -0.034987416579915658 0 0.45517123736372511 -0.026426951004537239 0 0.44295385651381658 -0.045538969895848901 0 0.46423123780647119 -0.062687135924664156 0 0.46264081772724758 -0.04089458467143911 0 0.44295385651381658 -0.045538969895848901 0 0.46423123780647119 -0.062687135924664156 0 0.47112641359211732 -0.053310719986685053 0 0.46264081772724758 -0.04089458467143911 0 0.46423123780647119 -0.062687135924664156 0 0.43996443947030772 -0.052907645879020762 0 0.44295385651381658 -0.045538969895848901 0 0.44019590408530179 -0.064972129141164292 0 0.44295385651381658 -0.045538969895848901 0 0.44019590408530179 -0.064972129141164292 0 0.44295385651381658 -0.045538969895848901 0 0.46423123780647119 -0.062687135924664156 0 0.44019590408530179 -0.064972129141164292 0 0.43996443947030772 -0.052907645879020762 0 0.44019590408530179 -0.064972129141164292 0 0.43610227146607577 -0.055162703436633792 0 0.44019590408530179 -0.064972129141164292 0 0.43725075086633008 -0.065252119225973626 0 0.43610227146607577 -0.055162703436633792 0 0.46264081772724758 -0.04089458467143911 0 0.44956791537452651 -0.034987416579915658 0 0.44295385651381658 -0.045538969895848901 0 0.44956791537452651 -0.034987416579915658 0 0.44050017409566128 -0.034067854634190729 0 0.44659834905240242 -0.0278335684233742 0 0.44956791537452651 -0.034987416579915658 0 0.44295385651381658 -0.045538969895848901 0 0.44050017409566128 -0.034067854634190729 0 0.44568820254251862 -0.017876175526742439 0 0.45303199877123779 -0.0098608769045562001 0 0.45517123736372511 -0.026426951004537239 0 0.44659834905240242 -0.0278335684233742 0 0.44568820254251862 -0.017876175526742439 0 0.43599036977645311 -0.024951908204233719 0 0.44050017409566128 -0.034067854634190729 0 0.44659834905240242 -0.0278335684233742 0 0.43599036977645311 -0.024951908204233719 0 0.44659834905240242 -0.0278335684233742 0 0.44568820254251862 -0.017876175526742439 0 0.45517123736372511 -0.026426951004537239 0 0.44956791537452651 -0.034987416579915658 0 0.44659834905240242 -0.0278335684233742 0 0.45517123736372511 -0.026426951004537239 0 0.44568820254251862 -0.017876175526742439 0 0.43338740847100959 -0.01343987968066465 0 0.43599036977645311 -0.024951908204233719 0 0.44568820254251862 -0.017876175526742439 0 0.43904774384283152 -0.008170722237504438 0 0.43338740847100959 -0.01343987968066465 0 0.43120486365712279 0.0049710864136133376 0 0.43904774384283152 -0.008170722237504438 0 0.45303199877123779 -0.0098608769045562001 0 0.43120486365712279 0.0049710864136133376 0 0.44646619279887539 0.0015799949627074499 0 0.45303199877123779 -0.0098608769045562001 0 0.43120486365712279 0.0049710864136133376 0 0.45303199877123779 -0.0098608769045562001 0 0.44646619279887539 0.0015799949627074499 0 0.45303199877123779 -0.0098608769045562001 0 0.45875184359293819 -0.001824614516915804 0 0.44568820254251862 -0.017876175526742439 0 0.43904774384283152 -0.008170722237504438 0 0.45303199877123779 -0.0098608769045562001 0 0.47020395748140098 -0.0095121506575633237 0 0.45303199877123779 -0.0098608769045562001 0 0.45875184359293819 -0.001824614516915804 0 0.47020395748140098 -0.0095121506575633237 0 0.47485913388535272 -0.024692840222725731 0 0.45303199877123779 -0.0098608769045562001 0 0.47485913388535272 -0.024692840222725731 0 0.45303199877123779 -0.0098608769045562001 0 0.45517123736372511 -0.026426951004537239 0 0.47485913388535272 -0.024692840222725731 0 0.46264081772724758 -0.04089458467143911 0 0.45517123736372511 -0.026426951004537239 0 0.47485913388535272 -0.024692840222725731 0 0.45303199877123779 -0.0098608769045562001 0 0.48067601745178062 -0.1161946858437085 0 0.48435088635339718 -0.1332923501082218 0 0.47420130418644219 -0.12537726410247849 0 0.48067601745178062 -0.1161946858437085 0 0.46659764683437333 -0.1141882261436758 0 0.47420130418644219 -0.12537726410247849 0 0.48067601745178062 -0.1161946858437085 0 0.47087372135416672 -0.1035267619932705 0 0.46659764683437333 -0.1141882261436758 0 0.48067601745178062 -0.1161946858437085 0 0.5 -0.11752598755559029 0 0.49120648809553957 -0.10373122955193941 0 0.48067601745178062 -0.1161946858437085 0 0.5 -0.11752598755559029 0 0.48435088635339718 -0.1332923501082218 0 0.5 -0.11752598755559029 0 0.49120648809553957 -0.10373122955193941 0 0.5 -0.089054105324032296 0 0.49120648809553957 -0.10373122955193941 0 0.48940825255755332 -0.094569190408339096 0 0.5 -0.089054105324032296 0 0.49120648809553957 -0.10373122955193941 0 0.48940825255755332 -0.094569190408339096 0 0.48106093913899711 -0.1015571693873175 0 0.48940825255755332 -0.094569190408339096 0 0.48106093913899711 -0.1015571693873175 0 0.47866475333543018 -0.0934571181474982 0 0.48106093913899711 -0.1015571693873175 0 0.47087372135416672 -0.1035267619932705 0 0.47866475333543018 -0.0934571181474982 0 0.48067601745178062 -0.1161946858437085 0 0.48106093913899711 -0.1015571693873175 0 0.47087372135416672 -0.1035267619932705 0 0.48067601745178062 -0.1161946858437085 0 0.49120648809553957 -0.10373122955193941 0 0.48106093913899711 -0.1015571693873175 0 0.47087372135416672 -0.1035267619932705 0 0.47866475333543018 -0.0934571181474982 0 0.46830544728012469 -0.091094597885014339 0 0.47463988639751697 -0.083867253111058013 0 0.47866475333543018 -0.0934571181474982 0 0.46830544728012469 -0.091094597885014339 0 0.47463988639751697 -0.083867253111058013 0 0.48020924071529247 -0.075417949293626219 0 0.46613074172341029 -0.077648269699177722 0 0.47463988639751697 -0.083867253111058013 0 0.46613074172341029 -0.077648269699177722 0 0.46830544728012469 -0.091094597885014339 0 0.47463988639751697 -0.083867253111058013 0 0.48376728584246331 -0.087017461107261315 0 0.48020924071529247 -0.075417949293626219 0 0.47463988639751697 -0.083867253111058013 0 0.48376728584246331 -0.087017461107261315 0 0.47866475333543018 -0.0934571181474982 0 0.48940825255755332 -0.094569190408339096 0 0.48376728584246331 -0.087017461107261315 0 0.47866475333543018 -0.0934571181474982 0 0.49618724362411459 -0.088148762662587365 0 0.48020924071529247 -0.075417949293626219 0 0.48376728584246331 -0.087017461107261315 0 0.49618724362411459 -0.088148762662587365 0 0.48020924071529247 -0.075417949293626219 0 0.49618724362411459 -0.088148762662587365 0 0.49213865783194888 -0.076837876762550147 0 0.48020924071529247 -0.075417949293626219 0 0.48940825255755332 -0.094569190408339096 0 0.48376728584246331 -0.087017461107261315 0 0.49618724362411459 -0.088148762662587365 0 0.48940825255755332 -0.094569190408339096 0 0.49618724362411459 -0.088148762662587365 0 0.5 -0.089054105324032296 0 0.49618724362411459 -0.088148762662587365 0 0.5 -0.089054105324032296 0 0.49213865783194888 -0.076837876762550147 0 0.5 -0.060582223092474297 0 0.49213865783194888 -0.076837876762550147 0 0.4866308441353423 -0.064780540586879973 0 0.5 -0.060582223092474297 0 0.5 -0.089054105324032296 0 0.49213865783194888 -0.076837876762550147 0 0.49213865783194888 -0.076837876762550147 0 0.4866308441353423 -0.064780540586879973 0 0.48020924071529247 -0.075417949293626219 0 0.4760734467526086 -0.061561319764827982 0 0.48020924071529247 -0.075417949293626219 0 0.46423123780647119 -0.062687135924664156 0 0.4760734467526086 -0.061561319764827982 0 0.4866308441353423 -0.064780540586879973 0 0.48020924071529247 -0.075417949293626219 0 0.48020924071529247 -0.075417949293626219 0 0.46423123780647119 -0.062687135924664156 0 0.46613074172341029 -0.077648269699177722 0 0.48020924071529247 -0.075417949293626219 0 0.46423123780647119 -0.062687135924664156 0 0.46423123780647119 -0.062687135924664156 0 0.46613074172341029 -0.077648269699177722 0 0.45291453072100751 -0.072714565372892642 0 0.46423123780647119 -0.062687135924664156 0 0.44019590408530179 -0.064972129141164292 0 0.45291453072100751 -0.072714565372892642 0 0.46423123780647119 -0.062687135924664156 0 0.44019590408530179 -0.064972129141164292 0 0.44019590408530179 -0.064972129141164292 0 0.43854390400972532 -0.076612496904593985 0 0.43725075086633008 -0.065252119225973626 0 0.44019590408530179 -0.064972129141164292 0 0.43725075086633008 -0.065252119225973626 0 0.44019590408530179 -0.064972129141164292 0 0.43854390400972532 -0.076612496904593985 0 0.45291453072100751 -0.072714565372892642 0 0.44019590408530179 -0.064972129141164292 0 0.43854390400972532 -0.076612496904593985 0 0.43854390400972532 -0.076612496904593985 0 0.43725075086633008 -0.065252119225973626 0 0.43854390400972532 -0.076612496904593985 0 0.45291453072100751 -0.072714565372892642 0 0.44741384568959602 -0.080126390847460163 0 0.45291453072100751 -0.072714565372892642 0 0.44741384568959602 -0.080126390847460163 0 0.45575424667689157 -0.087298104406017235 0 0.44741384568959602 -0.080126390847460163 0 0.44589889045895198 -0.088121365197088852 0 0.45575424667689157 -0.087298104406017235 0 0.43854390400972532 -0.076612496904593985 0 0.44134508447831422 -0.1012209264874994 0 0.43568780638026861 -0.096737209528191009 0 0.43854390400972532 -0.076612496904593985 0 0.44589889045895198 -0.088121365197088852 0 0.44134508447831422 -0.1012209264874994 0 0.43854390400972532 -0.076612496904593985 0 0.44134508447831422 -0.1012209264874994 0 0.43854390400972532 -0.076612496904593985 0 0.44741384568959602 -0.080126390847460163 0 0.44589889045895198 -0.088121365197088852 0 0.44589889045895198 -0.088121365197088852 0 0.45575424667689157 -0.087298104406017235 0 0.44811998534045772 -0.096001603474586222 0 0.46613074172341029 -0.077648269699177722 0 0.45291453072100751 -0.072714565372892642 0 0.45575424667689157 -0.087298104406017235 0 0.46613074172341029 -0.077648269699177722 0 0.45575424667689157 -0.087298104406017235 0 0.46830544728012469 -0.091094597885014339 0 0.45575424667689157 -0.087298104406017235 0 0.46830544728012469 -0.091094597885014339 0 0.46167430560708189 -0.096292596888431656 0 0.47087372135416672 -0.1035267619932705 0 0.46830544728012469 -0.091094597885014339 0 0.46167430560708189 -0.096292596888431656 0 0.47087372135416672 -0.1035267619932705 0 0.46167430560708189 -0.096292596888431656 0 0.46192846466542342 -0.1047530468369989 0 0.47087372135416672 -0.1035267619932705 0 0.46192846466542342 -0.1047530468369989 0 0.46659764683437333 -0.1141882261436758 0 0.45440324773198792 -0.099494478489617344 0 0.44981546475788331 -0.1052151347077621 0 0.45629706168641482 -0.1105942521148723 0 0.46192846466542342 -0.1047530468369989 0 0.45440324773198792 -0.099494478489617344 0 0.45629706168641482 -0.1105942521148723 0 0.45575424667689157 -0.087298104406017235 0 0.46167430560708189 -0.096292596888431656 0 0.45440324773198792 -0.099494478489617344 0 0.46167430560708189 -0.096292596888431656 0 0.46192846466542342 -0.1047530468369989 0 0.45440324773198792 -0.099494478489617344 0 0.45575424667689157 -0.087298104406017235 0 0.45440324773198792 -0.099494478489617344 0 0.44811998534045772 -0.096001603474586222 0 0.45440324773198792 -0.099494478489617344 0 0.44811998534045772 -0.096001603474586222 0 0.44981546475788331 -0.1052151347077621 0 0.44811998534045772 -0.096001603474586222 0 0.44134508447831422 -0.1012209264874994 0 0.44981546475788331 -0.1052151347077621 0 0.44589889045895198 -0.088121365197088852 0 0.44811998534045772 -0.096001603474586222 0 0.44134508447831422 -0.1012209264874994 0 0.44134508447831422 -0.1012209264874994 0 0.44981546475788331 -0.1052151347077621 0 0.45093166188415418 -0.1148447929222067 0 0.44981546475788331 -0.1052151347077621 0 0.45093166188415418 -0.1148447929222067 0 0.45629706168641482 -0.1105942521148723 0 0.44134508447831422 -0.1012209264874994 0 0.45093166188415418 -0.1148447929222067 0 0.44414626494690329 -0.1258293560704048 0 0.44134508447831422 -0.1012209264874994 0 0.43283170875081167 -0.11686192215178801 0 0.44414626494690329 -0.1258293560704048 0 0.44134508447831422 -0.1012209264874994 0 0.44414626494690329 -0.1258293560704048 0 0.45093166188415418 -0.1148447929222067 0 0.45524738887589022 -0.12684309379182521 0 0.44414626494690329 -0.1258293560704048 0 0.45093166188415418 -0.1148447929222067 0 0.45873870655951982 -0.1193659943608765 0 0.45524738887589022 -0.12684309379182521 0 0.45873870655951982 -0.1193659943608765 0 0.46526094763998349 -0.12616040513280449 0 0.45524738887589022 -0.12684309379182521 0 0.45093166188415418 -0.1148447929222067 0 0.45873870655951982 -0.1193659943608765 0 0.45629706168641482 -0.1105942521148723 0 0.45873870655951982 -0.1193659943608765 0 0.45629706168641482 -0.1105942521148723 0 0.46659764683437333 -0.1141882261436758 0 0.46192846466542342 -0.1047530468369989 0 0.45629706168641482 -0.1105942521148723 0 0.46659764683437333 -0.1141882261436758 0 0.45873870655951982 -0.1193659943608765 0 0.46659764683437333 -0.1141882261436758 0 0.46526094763998349 -0.12616040513280449 0 0.46659764683437333 -0.1141882261436758 0 0.46526094763998349 -0.12616040513280449 0 0.47420130418644219 -0.12537726410247849 0 0.40976048479052601 -0.1180566740210042 0 0.42345146224381069 -0.11262995664791919 0 0.41253465641936238 -0.1040171360192081 0 0.40976048479052601 -0.1180566740210042 0 0.42208749451762739 -0.1226933822270526 0 0.42345146224381069 -0.11262995664791919 0 0.40976048479052601 -0.1180566740210042 0 0.42208749451762739 -0.1226933822270526 0 0.41515697102299942 -0.1304809763523842 0 0.42208749451762739 -0.1226933822270526 0 0.43283170875081167 -0.11686192215178801 0 0.42345146224381069 -0.11262995664791919 0 0.42208749451762739 -0.1226933822270526 0 0.43283170875081167 -0.11686192215178801 0 0.42690418123263069 -0.13428189980179389 0 0.44134508447831422 -0.1012209264874994 0 0.43283170875081167 -0.11686192215178801 0 0.43568780638026861 -0.096737209528191009 0 0.43283170875081167 -0.11686192215178801 0 0.42345146224381069 -0.11262995664791919 0 0.43568780638026861 -0.096737209528191009 0 0.43283170875081167 -0.11686192215178801 0 0.43568780638026861 -0.096737209528191009 0 0.42345146224381069 -0.11262995664791919 0 0.43568780638026861 -0.096737209528191009 0 0.42186827015281109 -0.1024617680500893 0 0.43568780638026861 -0.096737209528191009 0 0.42186827015281109 -0.1024617680500893 0 0.42643659068814199 -0.093771925566349904 0 0.41894602737321529 -0.09457886091081405 0 0.42186827015281109 -0.1024617680500893 0 0.42643659068814199 -0.093771925566349904 0 0.41894602737321529 -0.09457886091081405 0 0.42186827015281109 -0.1024617680500893 0 0.41253465641936238 -0.1040171360192081 0 0.42345146224381069 -0.11262995664791919 0 0.42186827015281109 -0.1024617680500893 0 0.41253465641936238 -0.1040171360192081 0 0.40976048479052601 -0.1180566740210042 0 0.41253465641936238 -0.1040171360192081 0 0.40136994337516729 -0.10417789032478519 0 0.41253465641936238 -0.1040171360192081 0 0.40773878479046732 -0.09373612316730201 0 0.40136994337516729 -0.10417789032478519 0 0.41894602737321529 -0.09457886091081405 0 0.41253465641936238 -0.1040171360192081 0 0.40773878479046732 -0.09373612316730201 0 0.40773878479046732 -0.09373612316730201 0 0.41527881653436949 -0.087145326966682396 0 0.40492773816125283 -0.084641051652605409 0 0.41894602737321529 -0.09457886091081405 0 0.40773878479046732 -0.09373612316730201 0 0.41527881653436949 -0.087145326966682396 0 0.41472627815577062 -0.078466243149491854 0 0.41527881653436949 -0.087145326966682396 0 0.40492773816125283 -0.084641051652605409 0 0.41472627815577062 -0.078466243149491854 0 0.404556352929344 -0.077769966569709748 0 0.40492773816125283 -0.084641051652605409 0 0.41472627815577062 -0.078466243149491854 0 0.41527881653436949 -0.087145326966682396 0 0.42225032107905092 -0.079923313707410071 0 0.41527881653436949 -0.087145326966682396 0 0.42432880106685122 -0.087806660598499425 0 0.42225032107905092 -0.079923313707410071 0 0.41894602737321529 -0.09457886091081405 0 0.41527881653436949 -0.087145326966682396 0 0.42432880106685122 -0.087806660598499425 0 0.43854390400972532 -0.076612496904593985 0 0.43568780638026861 -0.096737209528191009 0 0.43103003243274263 -0.087361099963612285 0 0.41894602737321529 -0.09457886091081405 0 0.42432880106685122 -0.087806660598499425 0 0.42643659068814199 -0.093771925566349904 0 0.43854390400972532 -0.076612496904593985 0 0.43568780638026861 -0.096737209528191009 0 0.42432880106685122 -0.087806660598499425 0 0.42643659068814199 -0.093771925566349904 0 0.43103003243274263 -0.087361099963612285 0 0.43568780638026861 -0.096737209528191009 0 0.42643659068814199 -0.093771925566349904 0 0.43103003243274263 -0.087361099963612285 0 0.43854390400972532 -0.076612496904593985 0 0.43103003243274263 -0.087361099963612285 0 0.42934958481093288 -0.079762430723650052 0 0.42432880106685122 -0.087806660598499425 0 0.43103003243274263 -0.087361099963612285 0 0.42934958481093288 -0.079762430723650052 0 0.42432880106685122 -0.087806660598499425 0 0.42934958481093288 -0.079762430723650052 0 0.42225032107905092 -0.079923313707410071 0 0.43725075086633008 -0.065252119225973626 0 0.41137029376070672 -0.067712524794382445 0 0.42487450193994331 -0.072414697841851269 0 0.43725075086633008 -0.065252119225973626 0 0.41137029376070672 -0.067712524794382445 0 0.43725075086633008 -0.065252119225973626 0 0.41859078861149512 -0.063963979260526507 0 0.41137029376070672 -0.067712524794382445 0 0.43725075086633008 -0.065252119225973626 0 0.41859078861149512 -0.063963979260526507 0 0.42836047853597198 -0.060127254821921668 0 0.42934958481093288 -0.079762430723650052 0 0.42225032107905092 -0.079923313707410071 0 0.42487450193994331 -0.072414697841851269 0 0.42934958481093288 -0.079762430723650052 0 0.42487450193994331 -0.072414697841851269 0 0.43250468540673281 -0.073510436174017257 0 0.43854390400972532 -0.076612496904593985 0 0.42934958481093288 -0.079762430723650052 0 0.43250468540673281 -0.073510436174017257 0 0.43854390400972532 -0.076612496904593985 0 0.43250468540673281 -0.073510436174017257 0 0.43725075086633008 -0.065252119225973626 0 0.42487450193994331 -0.072414697841851269 0 0.43250468540673281 -0.073510436174017257 0 0.43725075086633008 -0.065252119225973626 0 0.41859078861149512 -0.063963979260526507 0 0.41137029376070672 -0.067712524794382445 0 0.41859078861149512 -0.063963979260526507 0 0.41137029376070672 -0.067712524794382445 0 0.41257013755594529 -0.060157079155542907 0 0.41472627815577062 -0.078466243149491854 0 0.42225032107905092 -0.079923313707410071 0 0.42487450193994331 -0.072414697841851269 0 0.41472627815577062 -0.078466243149491854 0 0.42487450193994331 -0.072414697841851269 0 0.41137029376070672 -0.067712524794382445 0 0.41472627815577062 -0.078466243149491854 0 0.41137029376070672 -0.067712524794382445 0 0.404556352929344 -0.077769966569709748 0 0.41137029376070672 -0.067712524794382445 0 0.38720110163964611 -0.080260046682359323 0 0.41137029376070672 -0.067712524794382445 0 0.39834992920187801 -0.071438947801584579 0 0.38720110163964611 -0.080260046682359323 0 0.41137029376070672 -0.067712524794382445 0 0.404556352929344 -0.077769966569709748 0 0.38720110163964611 -0.080260046682359323 0 0.41137029376070672 -0.067712524794382445 0 0.39988026244846192 -0.06880486009999727 0 0.41137029376070672 -0.067712524794382445 0 0.39988026244846192 -0.06880486009999727 0 0.39834992920187801 -0.071438947801584579 0 0.39988026244846192 -0.06880486009999727 0 0.40444229489907307 -0.059197058650438901 0 0.39620376647089461 -0.061334139261200633 0 0.41137029376070672 -0.067712524794382445 0 0.39988026244846192 -0.06880486009999727 0 0.40444229489907307 -0.059197058650438901 0 0.39834992920187801 -0.071438947801584579 0 0.39004750248338138 -0.072401610959608662 0 0.38720110163964611 -0.080260046682359323 0 0.39834992920187801 -0.071438947801584579 0 0.38720110163964611 -0.080260046682359323 0 0.39834992920187801 -0.071438947801584579 0 0.39185705250722991 -0.065635473486434906 0 0.39004750248338138 -0.072401610959608662 0 0.39988026244846192 -0.06880486009999727 0 0.39185705250722991 -0.065635473486434906 0 0.39620376647089461 -0.061334139261200633 0 0.39988026244846192 -0.06880486009999727 0 0.39834992920187801 -0.071438947801584579 0 0.39185705250722991 -0.065635473486434906 0 0.39185705250722991 -0.065635473486434906 0 0.37949135643406801 -0.067258493974027889 0 0.39004750248338138 -0.072401610959608662 0 0.37949135643406801 -0.067258493974027889 0 0.38720110163964611 -0.080260046682359323 0 0.37298571144774478 -0.078480134692032508 0 0.37949135643406801 -0.067258493974027889 0 0.39004750248338138 -0.072401610959608662 0 0.38720110163964611 -0.080260046682359323 0 0.38720110163964611 -0.080260046682359323 0 0.36344202348446408 -0.092594656449085766 0 0.38720110163964611 -0.080260046682359323 0 0.37574546365932071 -0.095557199259365788 0 0.36647531981903902 -0.096658557628951619 0 0.38720110163964611 -0.080260046682359323 0 0.36647531981903902 -0.096658557628951619 0 0.38720110163964611 -0.080260046682359323 0 0.37574546365932071 -0.095557199259365788 0 0.38147422798065522 -0.094110799137525902 0 0.38720110163964611 -0.080260046682359323 0 0.38833225972835372 -0.091993576546045092 0 0.39623524906186641 -0.092184333035878349 0 0.38720110163964611 -0.080260046682359323 0 0.38833225972835372 -0.091993576546045092 0 0.38147422798065522 -0.094110799137525902 0 0.404556352929344 -0.077769966569709748 0 0.38720110163964611 -0.080260046682359323 0 0.40492773816125283 -0.084641051652605409 0 0.38720110163964611 -0.080260046682359323 0 0.39623524906186641 -0.092184333035878349 0 0.40492773816125283 -0.084641051652605409 0 0.40773878479046732 -0.09373612316730201 0 0.39623524906186641 -0.092184333035878349 0 0.40492773816125283 -0.084641051652605409 0 0.40773878479046732 -0.09373612316730201 0 0.39623524906186641 -0.092184333035878349 0 0.40136994337516729 -0.10417789032478519 0 0.40136994337516729 -0.10417789032478519 0 0.38841846023124732 -0.10141912732841681 0 0.39545847779556997 -0.1153755498761198 0 0.39623524906186641 -0.092184333035878349 0 0.40136994337516729 -0.10417789032478519 0 0.38841846023124732 -0.10141912732841681 0 0.38833225972835372 -0.091993576546045092 0 0.39623524906186641 -0.092184333035878349 0 0.38841846023124732 -0.10141912732841681 0 0.38833225972835372 -0.091993576546045092 0 0.38841846023124732 -0.10141912732841681 0 0.38147422798065522 -0.094110799137525902 0 0.38841846023124732 -0.10141912732841681 0 0.38147422798065522 -0.094110799137525902 0 0.37886078595624623 -0.10265592718695569 0 0.37574546365932071 -0.095557199259365788 0 0.37886078595624623 -0.10265592718695569 0 0.37054284917034269 -0.1027831209569595 0 0.37574546365932071 -0.095557199259365788 0 0.38147422798065522 -0.094110799137525902 0 0.37886078595624623 -0.10265592718695569 0 0.37886078595624623 -0.10265592718695569 0 0.37592450010413703 -0.109340138405153 0 0.38397269772643711 -0.1120664056822748 0 0.37886078595624623 -0.10265592718695569 0 0.37592450010413703 -0.109340138405153 0 0.37054284917034269 -0.1027831209569595 0 0.38841846023124732 -0.10141912732841681 0 0.37886078595624623 -0.10265592718695569 0 0.38397269772643711 -0.1120664056822748 0 0.38397269772643711 -0.1120664056822748 0 0.37773288437862429 -0.1167247920483729 0 0.38815780847637621 -0.1281179548754699 0 0.37773288437862429 -0.1167247920483729 0 0.37108075859020412 -0.1227421000653261 0 0.38815780847637621 -0.1281179548754699 0 0.38397269772643711 -0.1120664056822748 0 0.39545847779556997 -0.1153755498761198 0 0.38815780847637621 -0.1281179548754699 0 0.38841846023124732 -0.10141912732841681 0 0.38397269772643711 -0.1120664056822748 0 0.39545847779556997 -0.1153755498761198 0 0.37592450010413703 -0.109340138405153 0 0.38397269772643711 -0.1120664056822748 0 0.37773288437862429 -0.1167247920483729 0 0.39545847779556997 -0.1153755498761198 0 0.40211221546147807 -0.1293882590671529 0 0.38815780847637621 -0.1281179548754699 0 0.40976048479052601 -0.1180566740210042 0 0.40136994337516729 -0.10417789032478519 0 0.39545847779556997 -0.1153755498761198 0 0.40976048479052601 -0.1180566740210042 0 0.39545847779556997 -0.1153755498761198 0 0.40211221546147807 -0.1293882590671529 0 0.4091994690305894 -0.025582188188784681 0 0.42243606743372109 -0.022355512548367689 0 0.41560479223201852 -0.037123173643532903 0 0.4091994690305894 -0.025582188188784681 0 0.40840351812748921 -0.013401034919297859 0 0.42243606743372109 -0.022355512548367689 0 0.40840351812748921 -0.013401034919297859 0 0.42149524783179743 -0.0063137179356720571 0 0.42243606743372109 -0.022355512548367689 0 0.40793076000741729 0.001430451995502418 0 0.40840351812748921 -0.013401034919297859 0 0.42149524783179743 -0.0063137179356720571 0 0.40793076000741729 0.001430451995502418 0 0.41916861716481352 0.0039326317223636834 0 0.42149524783179743 -0.0063137179356720571 0 0.42149524783179743 -0.0063137179356720571 0 0.43150039389232447 -0.0051027443652346708 0 0.43338740847100959 -0.01343987968066465 0 0.42149524783179743 -0.0063137179356720571 0 0.43338740847100959 -0.01343987968066465 0 0.42243606743372109 -0.022355512548367689 0 0.42149524783179743 -0.0063137179356720571 0 0.42584228063651453 -0.00062818604123242696 0 0.43150039389232447 -0.0051027443652346708 0 0.43120486365712279 0.0049710864136133376 0 0.42584228063651453 -0.00062818604123242696 0 0.43150039389232447 -0.0051027443652346708 0 0.41916861716481352 0.0039326317223636834 0 0.42149524783179743 -0.0063137179356720571 0 0.42584228063651453 -0.00062818604123242696 0 0.43120486365712279 0.0049710864136133376 0 0.43904774384283152 -0.008170722237504438 0 0.43150039389232447 -0.0051027443652346708 0 0.43904774384283152 -0.008170722237504438 0 0.43150039389232447 -0.0051027443652346708 0 0.43338740847100959 -0.01343987968066465 0 0.43338740847100959 -0.01343987968066465 0 0.42243606743372109 -0.022355512548367689 0 0.43599036977645311 -0.024951908204233719 0 0.42243606743372109 -0.022355512548367689 0 0.43599036977645311 -0.024951908204233719 0 0.42877423081226301 -0.034436012098922941 0 0.44050017409566128 -0.034067854634190729 0 0.43599036977645311 -0.024951908204233719 0 0.42877423081226301 -0.034436012098922941 0 0.44295385651381658 -0.045538969895848901 0 0.44050017409566128 -0.034067854634190729 0 0.42877423081226301 -0.034436012098922941 0 0.44295385651381658 -0.045538969895848901 0 0.42851879246316021 -0.045094056392858878 0 0.42877423081226301 -0.034436012098922941 0 0.44295385651381658 -0.045538969895848901 0 0.42877423081226301 -0.034436012098922941 0 0.42243606743372109 -0.022355512548367689 0 0.42877423081226301 -0.034436012098922941 0 0.41560479223201852 -0.037123173643532903 0 0.42851879246316021 -0.045094056392858878 0 0.42877423081226301 -0.034436012098922941 0 0.41560479223201852 -0.037123173643532903 0 0.43996443947030772 -0.052907645879020762 0 0.43610227146607577 -0.055162703436633792 0 0.4214981031999871 -0.056130217364552752 0 0.43996443947030772 -0.052907645879020762 0 0.42851879246316021 -0.045094056392858878 0 0.41395756864905442 -0.052530128164900269 0 0.43996443947030772 -0.052907645879020762 0 0.41395756864905442 -0.052530128164900269 0 0.43996443947030772 -0.052907645879020762 0 0.4214981031999871 -0.056130217364552752 0 0.41395756864905442 -0.052530128164900269 0 0.43725075086633008 -0.065252119225973626 0 0.43610227146607577 -0.055162703436633792 0 0.42836047853597198 -0.060127254821921668 0 0.43725075086633008 -0.065252119225973626 0 0.43610227146607577 -0.055162703436633792 0 0.43996443947030772 -0.052907645879020762 0 0.44295385651381658 -0.045538969895848901 0 0.42851879246316021 -0.045094056392858878 0 0.41859078861149512 -0.063963979260526507 0 0.42836047853597198 -0.060127254821921668 0 0.4214981031999871 -0.056130217364552752 0 0.43610227146607577 -0.055162703436633792 0 0.42836047853597198 -0.060127254821921668 0 0.4214981031999871 -0.056130217364552752 0 0.4214981031999871 -0.056130217364552752 0 0.41395756864905442 -0.052530128164900269 0 0.41257013755594529 -0.060157079155542907 0 0.41859078861149512 -0.063963979260526507 0 0.4214981031999871 -0.056130217364552752 0 0.41257013755594529 -0.060157079155542907 0 0.41137029376070672 -0.067712524794382445 0 0.41257013755594529 -0.060157079155542907 0 0.40444229489907307 -0.059197058650438901 0 0.41395756864905442 -0.052530128164900269 0 0.41257013755594529 -0.060157079155542907 0 0.40444229489907307 -0.059197058650438901 0 0.4091994690305894 -0.025582188188784681 0 0.41560479223201852 -0.037123173643532903 0 0.39929524846397468 -0.035806210561253167 0 0.41560479223201852 -0.037123173643532903 0 0.39929524846397468 -0.035806210561253167 0 0.40420207679321207 -0.044403030705116531 0 0.42851879246316021 -0.045094056392858878 0 0.41395756864905442 -0.052530128164900269 0 0.41560479223201852 -0.037123173643532903 0 0.41395756864905442 -0.052530128164900269 0 0.41560479223201852 -0.037123173643532903 0 0.40420207679321207 -0.044403030705116531 0 0.39929524846397468 -0.035806210561253167 0 0.40420207679321207 -0.044403030705116531 0 0.38795069782780089 -0.052152610450779791 0 0.40444229489907307 -0.059197058650438901 0 0.39620376647089461 -0.061334139261200633 0 0.38795069782780089 -0.052152610450779791 0 0.41395756864905442 -0.052530128164900269 0 0.40444229489907307 -0.059197058650438901 0 0.38795069782780089 -0.052152610450779791 0 0.41395756864905442 -0.052530128164900269 0 0.40420207679321207 -0.044403030705116531 0 0.38795069782780089 -0.052152610450779791 0 0.41395756864905442 -0.052530128164900269 0 0.38795069782780089 -0.052152610450779791 0 0.39185705250722991 -0.065635473486434906 0 0.39620376647089461 -0.061334139261200633 0 0.38795069782780089 -0.052152610450779791 0 0.37949135643406801 -0.067258493974027889 0 0.38795069782780089 -0.052152610450779791 0 0.36194382700654748 -0.051775092736659312 0 0.39185705250722991 -0.065635473486434906 0 0.37949135643406801 -0.067258493974027889 0 0.38795069782780089 -0.052152610450779791 0 0.39929524846397468 -0.035806210561253167 0 0.38795069782780089 -0.052152610450779791 0 0.38217360630566549 -0.032866423290825932 0 0.38795069782780089 -0.052152610450779791 0 0.38217360630566549 -0.032866423290825932 0 0.36194382700654748 -0.051775092736659312 0 0.38217360630566549 -0.032866423290825932 0 0.39461007745288668 -0.019950125091059721 0 0.37957937173623818 -0.013556935774187401 0 0.38217360630566549 -0.032866423290825932 0 0.37957937173623818 -0.013556935774187401 0 0.36585169470120987 -0.025399748220272671 0 0.39929524846397468 -0.035806210561253167 0 0.38217360630566549 -0.032866423290825932 0 0.39461007745288668 -0.019950125091059721 0 0.4091994690305894 -0.025582188188784681 0 0.39929524846397468 -0.035806210561253167 0 0.39461007745288668 -0.019950125091059721 0 0.4091994690305894 -0.025582188188784681 0 0.40840351812748921 -0.013401034919297859 0 0.39461007745288668 -0.019950125091059721 0 0.39347550505628132 0.001929602302533587 0 0.40793076000741729 0.001430451995502418 0 0.39935295625937961 -0.0077900063312877103 0 0.40793076000741729 0.001430451995502418 0 0.40840351812748921 -0.013401034919297859 0 0.39935295625937961 -0.0077900063312877103 0 0.40840351812748921 -0.013401034919297859 0 0.39461007745288668 -0.019950125091059721 0 0.39935295625937961 -0.0077900063312877103 0 0.39461007745288668 -0.019950125091059721 0 0.39935295625937961 -0.0077900063312877103 0 0.38995147750930592 -0.0082483524443266037 0 0.39347550505628132 0.001929602302533587 0 0.39935295625937961 -0.0077900063312877103 0 0.38995147750930592 -0.0082483524443266037 0 0.39347550505628132 0.001929602302533587 0 0.38995147750930592 -0.0082483524443266037 0 0.38224084305351053 -0.0017262611818421099 0 0.39461007745288668 -0.019950125091059721 0 0.38995147750930592 -0.0082483524443266037 0 0.37957937173623818 -0.013556935774187401 0 0.38995147750930592 -0.0082483524443266037 0 0.37957937173623818 -0.013556935774187401 0 0.38224084305351053 -0.0017262611818421099 0 0.37957937173623818 -0.013556935774187401 0 0.38224084305351053 -0.0017262611818421099 0 0.36828519374625202 -0.0044967661247655487 0 0.36828519374625202 -0.0044967661247655487 0 0.36585169470120987 -0.025399748220272671 0 0.35246866660133919 -0.015137953956842381 0 0.37957937173623818 -0.013556935774187401 0 0.36828519374625202 -0.0044967661247655487 0 0.36585169470120987 -0.025399748220272671 0 0.35246866660133919 -0.015137953956842381 0 0.34029212863017833 -0.02526488235596579 0 0.35065950281121699 -0.03456531743835551 0 0.36585169470120987 -0.025399748220272671 0 0.35246866660133919 -0.015137953956842381 0 0.35065950281121699 -0.03456531743835551 0 0.35318717316781589 0.0034971170769303372 0 0.36828519374625202 -0.0044967661247655487 0 0.35246866660133919 -0.015137953956842381 0 0.35318717316781589 0.0034971170769303372 0 0.35246866660133919 -0.015137953956842381 0 0.33407478022515119 -0.0059084795040914712 0 0.35246866660133919 -0.015137953956842381 0 0.33407478022515119 -0.0059084795040914712 0 0.34029212863017833 -0.02526488235596579 0 0.33407478022515119 -0.0059084795040914712 0 0.34029212863017833 -0.02526488235596579 0 0.3269736003297895 -0.031631695753958709 0 0.33407478022515119 -0.0059084795040914712 0 0.3269736003297895 -0.031631695753958709 0 0.31432989793615329 -0.023551803178968558 0 0.31887305249501258 -0.0086145812691667059 0 0.3269736003297895 -0.031631695753958709 0 0.31887305249501258 -0.0086145812691667059 0 0.3269736003297895 -0.031631695753958709 0 0.31432989793615329 -0.023551803178968558 0 0.31785755430087648 -0.034580638425174309 0 0.3269736003297895 -0.031631695753958709 0 0.33407478022515119 -0.0059084795040914712 0 0.31887305249501258 -0.0086145812691667059 0 0.3269736003297895 -0.031631695753958709 0 0.32536818961271119 0.0055509371424281341 0 0.33407478022515119 -0.0059084795040914712 0 0.31887305249501258 -0.0086145812691667059 0 0.3226250090534003 -0.047355924068229867 0 0.32550900741849959 -0.053439444011209522 0 0.31506601442381332 -0.054930373520532823 0 0.3226250090534003 -0.047355924068229867 0 0.32744284753050912 -0.048992492467387738 0 0.32550900741849959 -0.053439444011209522 0 0.32550900741849959 -0.053439444011209522 0 0.31506601442381332 -0.054930373520532823 0 0.32624834381293411 -0.063767231175545003 0 0.3226250090534003 -0.047355924068229867 0 0.31506601442381332 -0.054930373520532823 0 0.31441717319459211 -0.042800213721343752 0 0.31441717319459211 -0.042800213721343752 0 0.31785755430087648 -0.034580638425174309 0 0.32150061698295312 -0.041183423057878338 0 0.3226250090534003 -0.047355924068229867 0 0.31441717319459211 -0.042800213721343752 0 0.32150061698295312 -0.041183423057878338 0 0.31785755430087648 -0.034580638425174309 0 0.32547544036497972 -0.037058609776637087 0 0.3269736003297895 -0.031631695753958709 0 0.32547544036497972 -0.037058609776637087 0 0.3269736003297895 -0.031631695753958709 0 0.32744373651719361 -0.043027699278266052 0 0.31785755430087648 -0.034580638425174309 0 0.32547544036497972 -0.037058609776637087 0 0.32150061698295312 -0.041183423057878338 0 0.32547544036497972 -0.037058609776637087 0 0.3269736003297895 -0.031631695753958709 0 0.3226250090534003 -0.047355924068229867 0 0.32150061698295312 -0.041183423057878338 0 0.32744373651719361 -0.043027699278266052 0 0.32547544036497972 -0.037058609776637087 0 0.32150061698295312 -0.041183423057878338 0 0.32744373651719361 -0.043027699278266052 0 0.3226250090534003 -0.047355924068229867 0 0.32744284753050912 -0.048992492467387738 0 0.32744373651719361 -0.043027699278266052 0 0.3269736003297895 -0.031631695753958709 0 0.32744373651719361 -0.043027699278266052 0 0.33419363713294281 -0.052146902511845478 0 0.3372840931833947 -0.039080965126580873 0 0.33593695618529412 -0.051397575022538833 0 0.35065950281121699 -0.03456531743835551 0 0.3269736003297895 -0.031631695753958709 0 0.33419363713294281 -0.052146902511845478 0 0.3269736003297895 -0.031631695753958709 0 0.3372840931833947 -0.039080965126580873 0 0.33419363713294281 -0.052146902511845478 0 0.34029212863017833 -0.02526488235596579 0 0.3269736003297895 -0.031631695753958709 0 0.3372840931833947 -0.039080965126580873 0 0.34029212863017833 -0.02526488235596579 0 0.3372840931833947 -0.039080965126580873 0 0.35065950281121699 -0.03456531743835551 0 0.33419363713294281 -0.052146902511845478 0 0.34141367393609628 -0.072662109269732184 0 0.33419363713294281 -0.052146902511845478 0 0.34885819247319672 -0.060735687989960277 0 0.34141367393609628 -0.072662109269732184 0 0.32744284753050912 -0.048992492467387738 0 0.32550900741849959 -0.053439444011209522 0 0.33419363713294281 -0.052146902511845478 0 0.32744284753050912 -0.048992492467387738 0 0.32744373651719361 -0.043027699278266052 0 0.33419363713294281 -0.052146902511845478 0 0.3372840931833947 -0.039080965126580873 0 0.33419363713294281 -0.052146902511845478 0 0.33593695618529412 -0.051397575022538833 0 0.32550900741849959 -0.053439444011209522 0 0.33419363713294281 -0.052146902511845478 0 0.32624834381293411 -0.063767231175545003 0 0.33419363713294281 -0.052146902511845478 0 0.33593695618529412 -0.051397575022538833 0 0.34885819247319672 -0.060735687989960277 0 0.34885819247319672 -0.060735687989960277 0 0.36194382700654748 -0.051775092736659312 0 0.36445360212612538 -0.070104488810320761 0 0.33593695618529412 -0.051397575022538833 0 0.36194382700654748 -0.051775092736659312 0 0.33593695618529412 -0.051397575022538833 0 0.34885819247319672 -0.060735687989960277 0 0.36194382700654748 -0.051775092736659312 0 0.33593695618529412 -0.051397575022538833 0 0.35065950281121699 -0.03456531743835551 0 0.36194382700654748 -0.051775092736659312 0 0.38217360630566549 -0.032866423290825932 0 0.36585169470120987 -0.025399748220272671 0 0.36194382700654748 -0.051775092736659312 0 0.36585169470120987 -0.025399748220272671 0 0.35065950281121699 -0.03456531743835551 0 0.36194382700654748 -0.051775092736659312 0 0.38795069782780089 -0.052152610450779791 0 0.36194382700654748 -0.051775092736659312 0 0.37949135643406801 -0.067258493974027889 0 0.36194382700654748 -0.051775092736659312 0 0.36445360212612538 -0.070104488810320761 0 0.36445360212612538 -0.070104488810320761 0 0.36493170699157851 -0.080458274464391702 0 0.35553652077718922 -0.080144252315234699 0 0.36445360212612538 -0.070104488810320761 0 0.37298571144774478 -0.078480134692032508 0 0.36493170699157851 -0.080458274464391702 0 0.37949135643406801 -0.067258493974027889 0 0.36445360212612538 -0.070104488810320761 0 0.37298571144774478 -0.078480134692032508 0 0.38720110163964611 -0.080260046682359323 0 0.36344202348446408 -0.092594656449085766 0 0.36647531981903902 -0.096658557628951619 0 0.38720110163964611 -0.080260046682359323 0 0.37298571144774478 -0.078480134692032508 0 0.36344202348446408 -0.092594656449085766 0 0.36344202348446408 -0.092594656449085766 0 0.36493170699157851 -0.080458274464391702 0 0.35553652077718922 -0.080144252315234699 0 0.37298571144774478 -0.078480134692032508 0 0.36344202348446408 -0.092594656449085766 0 0.36493170699157851 -0.080458274464391702 0 0.35553652077718922 -0.080144252315234699 0 0.34863371073924981 -0.093177316027618903 0 0.34141367393609628 -0.072662109269732184 0 0.34863371073924981 -0.093177316027618903 0 0.34141367393609628 -0.072662109269732184 0 0.36344202348446408 -0.092594656449085766 0 0.35553652077718922 -0.080144252315234699 0 0.34863371073924981 -0.093177316027618903 0 0.34885819247319672 -0.060735687989960277 0 0.36445360212612538 -0.070104488810320761 0 0.35553652077718922 -0.080144252315234699 0 0.34885819247319672 -0.060735687989960277 0 0.35553652077718922 -0.080144252315234699 0 0.34141367393609628 -0.072662109269732184 0 0.37108075859020412 -0.1227421000653261 0 0.36515218421502749 -0.1171456445331622 0 0.36146703981486838 -0.12555561511054711 0 0.36515218421502749 -0.1171456445331622 0 0.35843285194269431 -0.11822621895687301 0 0.36146703981486838 -0.12555561511054711 0 0.37108075859020412 -0.1227421000653261 0 0.36955419518241711 -0.11252327011105159 0 0.36515218421502749 -0.1171456445331622 0 0.37773288437862429 -0.1167247920483729 0 0.37108075859020412 -0.1227421000653261 0 0.36955419518241711 -0.11252327011105159 0 0.37592450010413703 -0.109340138405153 0 0.37773288437862429 -0.1167247920483729 0 0.36955419518241711 -0.11252327011105159 0 0.36342149009289082 -0.1130736298752259 0 0.35901819233554799 -0.1098267033031263 0 0.35843285194269431 -0.11822621895687301 0 0.36955419518241711 -0.11252327011105159 0 0.36342149009289082 -0.1130736298752259 0 0.36495002678876692 -0.1076463124719165 0 0.36955419518241711 -0.11252327011105159 0 0.36342149009289082 -0.1130736298752259 0 0.36515218421502749 -0.1171456445331622 0 0.36342149009289082 -0.1130736298752259 0 0.36515218421502749 -0.1171456445331622 0 0.35843285194269431 -0.11822621895687301 0 0.36342149009289082 -0.1130736298752259 0 0.36495002678876692 -0.1076463124719165 0 0.35901819233554799 -0.1098267033031263 0 0.36524659702842421 -0.1042286735902385 0 0.36647531981903902 -0.096658557628951619 0 0.35901819233554799 -0.1098267033031263 0 0.36524659702842421 -0.1042286735902385 0 0.36495002678876692 -0.1076463124719165 0 0.35901819233554799 -0.1098267033031263 0 0.36524659702842421 -0.1042286735902385 0 0.36495002678876692 -0.1076463124719165 0 0.37054284917034269 -0.1027831209569595 0 0.37592450010413703 -0.109340138405153 0 0.36955419518241711 -0.11252327011105159 0 0.37054284917034269 -0.1027831209569595 0 0.36955419518241711 -0.11252327011105159 0 0.36495002678876692 -0.1076463124719165 0 0.37054284917034269 -0.1027831209569595 0 0.37574546365932071 -0.095557199259365788 0 0.37054284917034269 -0.1027831209569595 0 0.36647531981903902 -0.096658557628951619 0 0.36524659702842421 -0.1042286735902385 0 0.37054284917034269 -0.1027831209569595 0 0.36647531981903902 -0.096658557628951619 0 0.36344202348446408 -0.092594656449085766 0 0.34863371073924981 -0.093177316027618903 0 0.33968294532928189 -0.104929266215812 0 0.36647531981903902 -0.096658557628951619 0 0.35901819233554799 -0.1098267033031263 0 0.34574953799843211 -0.113057068575544 0 0.36647531981903902 -0.096658557628951619 0 0.34574953799843211 -0.113057068575544 0 0.36344202348446408 -0.092594656449085766 0 0.34574953799843211 -0.113057068575544 0 0.33968294532928189 -0.104929266215812 0 0.36344202348446408 -0.092594656449085766 0 0.33968294532928189 -0.104929266215812 0 0.36344202348446408 -0.092594656449085766 0 0.36647531981903902 -0.096658557628951619 0 0.34574953799843211 -0.113057068575544 0 0.35901819233554799 -0.1098267033031263 0 0.35128944335459761 -0.11879058015748541 0 0.35843285194269431 -0.11822621895687301 0 0.35901819233554799 -0.1098267033031263 0 0.34574953799843211 -0.113057068575544 0 0.35128944335459761 -0.11879058015748541 0 0.35128944335459761 -0.11879058015748541 0 0.34067006097426372 -0.12663480899527491 0 0.35257657352204991 -0.12620810095660859 0 0.34574953799843211 -0.113057068575544 0 0.35128944335459761 -0.11879058015748541 0 0.34067006097426372 -0.12663480899527491 0 0.35128944335459761 -0.11879058015748541 0 0.35843285194269431 -0.11822621895687301 0 0.35257657352204991 -0.12620810095660859 0 0.35843285194269431 -0.11822621895687301 0 0.35257657352204991 -0.12620810095660859 0 0.36146703981486838 -0.12555561511054711 0 0.34574953799843211 -0.113057068575544 0 0.33148999709077692 -0.1123256784147439 0 0.32502375617782531 -0.12945557952213649 0 0.34574953799843211 -0.113057068575544 0 0.32502375617782531 -0.12945557952213649 0 0.34067006097426372 -0.12663480899527491 0 0.34574953799843211 -0.113057068575544 0 0.32502375617782531 -0.12945557952213649 0 0.34574953799843211 -0.113057068575544 0 0.33148999709077692 -0.1123256784147439 0 0.33968294532928189 -0.104929266215812 0 0.33148999709077692 -0.1123256784147439 0 0.32898743775430422 -0.1022722682674336 0 0.33968294532928189 -0.104929266215812 0 0.34863371073924981 -0.093177316027618903 0 0.33968294532928189 -0.104929266215812 0 0.33453232031017649 -0.08985813288433056 0 0.32898743775430422 -0.1022722682674336 0 0.33968294532928189 -0.104929266215812 0 0.33453232031017649 -0.08985813288433056 0 0.32898743775430422 -0.1022722682674336 0 0.33453232031017649 -0.08985813288433056 0 0.3212756727578932 -0.092022227680464197 0 0.31800630819404102 -0.1119142094927931 0 0.3212756727578932 -0.092022227680464197 0 0.3035588992109175 -0.099216676798195194 0 0.32898743775430422 -0.1022722682674336 0 0.31800630819404102 -0.1119142094927931 0 0.3212756727578932 -0.092022227680464197 0 0.33148999709077692 -0.1123256784147439 0 0.32898743775430422 -0.1022722682674336 0 0.31800630819404102 -0.1119142094927931 0 0.31800630819404102 -0.1119142094927931 0 0.3075934077445564 -0.12907215151962539 0 0.32502375617782531 -0.12945557952213649 0 0.33148999709077692 -0.1123256784147439 0 0.31800630819404102 -0.1119142094927931 0 0.32502375617782531 -0.12945557952213649 0 0.33419363713294281 -0.052146902511845478 0 0.34141367393609628 -0.072662109269732184 0 0.32624834381293411 -0.063767231175545003 0 0.34141367393609628 -0.072662109269732184 0 0.32726807566741772 -0.077421183625873441 0 0.32624834381293411 -0.063767231175545003 0 0.34141367393609628 -0.072662109269732184 0 0.33453232031017649 -0.08985813288433056 0 0.32726807566741772 -0.077421183625873441 0 0.34863371073924981 -0.093177316027618903 0 0.34141367393609628 -0.072662109269732184 0 0.33453232031017649 -0.08985813288433056 0 0.3212756727578932 -0.092022227680464197 0 0.32726807566741772 -0.077421183625873441 0 0.31207506753016118 -0.074394096455412173 0 0.33453232031017649 -0.08985813288433056 0 0.3212756727578932 -0.092022227680464197 0 0.32726807566741772 -0.077421183625873441 0 0.31506601442381332 -0.054930373520532823 0 0.32624834381293411 -0.063767231175545003 0 0.31207506753016118 -0.074394096455412173 0 0.32726807566741772 -0.077421183625873441 0 0.32624834381293411 -0.063767231175545003 0 0.31207506753016118 -0.074394096455412173 0 0.31506601442381332 -0.054930373520532823 0 0.29988192361751981 -0.062757702687043185 0 0.31207506753016118 -0.074394096455412173 0 0.29988192361751981 -0.062757702687043185 0 0.31207506753016118 -0.074394096455412173 0 0.29617061881400031 -0.082499986792024471 0 0.31207506753016118 -0.074394096455412173 0 0.29617061881400031 -0.082499986792024471 0 0.3035588992109175 -0.099216676798195194 0 0.3212756727578932 -0.092022227680464197 0 0.31207506753016118 -0.074394096455412173 0 0.3035588992109175 -0.099216676798195194 0 0.29617061881400031 -0.082499986792024471 0 0.2838065330470847 -0.068146828171930421 0 0.28094266547392532 -0.092834241608003645 0 0.29617061881400031 -0.082499986792024471 0 0.3035588992109175 -0.099216676798195194 0 0.28094266547392532 -0.092834241608003645 0 0.29988192361751981 -0.062757702687043185 0 0.29617061881400031 -0.082499986792024471 0 0.2838065330470847 -0.068146828171930421 0 0.31800630819404102 -0.1119142094927931 0 0.30352333386746888 -0.1175791299274641 0 0.3075934077445564 -0.12907215151962539 0 0.31800630819404102 -0.1119142094927931 0 0.30352333386746888 -0.1175791299274641 0 0.3035588992109175 -0.099216676798195194 0 0.30352333386746888 -0.1175791299274641 0 0.2885738863010493 -0.12583537161226879 0 0.3075934077445564 -0.12907215151962539 0 0.30352333386746888 -0.1175791299274641 0 0.3035588992109175 -0.099216676798195194 0 0.29019794425467199 -0.1097550893194497 0 0.3035588992109175 -0.099216676798195194 0 0.29019794425467199 -0.1097550893194497 0 0.28094266547392532 -0.092834241608003645 0 0.29019794425467199 -0.1097550893194497 0 0.27433208952886828 -0.1124680451301726 0 0.28094266547392532 -0.092834241608003645 0 0.29019794425467199 -0.1097550893194497 0 0.27433208952886828 -0.1124680451301726 0 0.2885738863010493 -0.12583537161226879 0 0.30352333386746888 -0.1175791299274641 0 0.29019794425467199 -0.1097550893194497 0 0.2885738863010493 -0.12583537161226879 0 0.27433208952886828 -0.1124680451301726 0 0.26960916309556809 -0.13015107064316031 0 0.2885738863010493 -0.12583537161226879 0 0.27433208952886828 -0.1124680451301726 0 0.25794968146209418 -0.1166590157004577 0 0.26960916309556809 -0.13015107064316031 0 0.27433208952886828 -0.1124680451301726 0 0.25725146010028871 -0.095573666370958751 0 0.28094266547392532 -0.092834241608003645 0 0.27433208952886828 -0.1124680451301726 0 0.25725146010028871 -0.095573666370958751 0 0.25794968146209418 -0.1166590157004577 0 0.2838065330470847 -0.068146828171930421 0 0.26720789004532453 -0.071529234805863734 0 0.27003102369520449 -0.053475497349167282 0 0.2838065330470847 -0.068146828171930421 0 0.26720789004532453 -0.071529234805863734 0 0.28094266547392532 -0.092834241608003645 0 0.25725146010028871 -0.095573666370958751 0 0.26720789004532453 -0.071529234805863734 0 0.28094266547392532 -0.092834241608003645 0 0.26720789004532453 -0.071529234805863734 0 0.27003102369520449 -0.053475497349167282 0 0.24679860410923049 -0.066168330913984899 0 0.25725146010028871 -0.095573666370958751 0 0.26720789004532453 -0.071529234805863734 0 0.24679860410923049 -0.066168330913984899 0 0.27003102369520449 -0.053475497349167282 0 0.25438004673302828 -0.041704364969997687 0 0.24679860410923049 -0.066168330913984899 0 0.2838065330470847 -0.068146828171930421 0 0.27003102369520449 -0.053475497349167282 0 0.28860507663653429 -0.045784305789480208 0 0.27003102369520449 -0.053475497349167282 0 0.27874818191366318 -0.028707262204611391 0 0.28860507663653429 -0.045784305789480208 0 0.27003102369520449 -0.053475497349167282 0 0.25438004673302828 -0.041704364969997687 0 0.27874818191366318 -0.028707262204611391 0 0.25438004673302828 -0.041704364969997687 0 0.27874818191366318 -0.028707262204611391 0 0.25438004673302828 -0.041704364969997687 0 0.26542592172057738 -0.01245498556826396 0 0.24453295732942329 -0.020041075254526631 0 0.26542592172057738 -0.01245498556826396 0 0.24453295732942329 -0.020041075254526631 0 0.2491447540649577 -0.00048297328675847567 0 0.28459639603554482 0.0097428514340948263 0 0.26542592172057738 -0.01245498556826396 0 0.28630084598673078 -0.01019166590384557 0 0.25438004673302828 -0.041704364969997687 0 0.26542592172057738 -0.01245498556826396 0 0.27874818191366318 -0.028707262204611391 0 0.26542592172057738 -0.01245498556826396 0 0.27874818191366318 -0.028707262204611391 0 0.28630084598673078 -0.01019166590384557 0 0.27874818191366318 -0.028707262204611391 0 0.30311631709429798 -0.01571015943922522 0 0.27874818191366318 -0.028707262204611391 0 0.28630084598673078 -0.01019166590384557 0 0.30311631709429798 -0.01571015943922522 0 0.27874818191366318 -0.028707262204611391 0 0.30311631709429798 -0.01571015943922522 0 0.3043840570490699 -0.034200199097460332 0 0.28459639603554482 0.0097428514340948263 0 0.28630084598673078 -0.01019166590384557 0 0.30034418058502038 -0.0020141518691034082 0 0.28630084598673078 -0.01019166590384557 0 0.30034418058502038 -0.0020141518691034082 0 0.30311631709429798 -0.01571015943922522 0 0.31887305249501258 -0.0086145812691667059 0 0.30034418058502038 -0.0020141518691034082 0 0.30311631709429798 -0.01571015943922522 0 0.31432989793615329 -0.023551803178968558 0 0.30311631709429798 -0.01571015943922522 0 0.3043840570490699 -0.034200199097460332 0 0.31432989793615329 -0.023551803178968558 0 0.31887305249501258 -0.0086145812691667059 0 0.30311631709429798 -0.01571015943922522 0 0.31432989793615329 -0.023551803178968558 0 0.31785755430087648 -0.034580638425174309 0 0.3043840570490699 -0.034200199097460332 0 0.3043840570490699 -0.034200199097460332 0 0.30447084898430582 -0.048094558963172052 0 0.28860507663653429 -0.045784305789480208 0 0.31441717319459211 -0.042800213721343752 0 0.31785755430087648 -0.034580638425174309 0 0.3043840570490699 -0.034200199097460332 0 0.31441717319459211 -0.042800213721343752 0 0.3043840570490699 -0.034200199097460332 0 0.30447084898430582 -0.048094558963172052 0 0.31506601442381332 -0.054930373520532823 0 0.31441717319459211 -0.042800213721343752 0 0.30447084898430582 -0.048094558963172052 0 0.29988192361751981 -0.062757702687043185 0 0.30447084898430582 -0.048094558963172052 0 0.28860507663653429 -0.045784305789480208 0 0.31506601442381332 -0.054930373520532823 0 0.29988192361751981 -0.062757702687043185 0 0.30447084898430582 -0.048094558963172052 0 0.29988192361751981 -0.062757702687043185 0 0.2838065330470847 -0.068146828171930421 0 0.28860507663653429 -0.045784305789480208 0 0.27874818191366318 -0.028707262204611391 0 0.3043840570490699 -0.034200199097460332 0 0.28860507663653429 -0.045784305789480208 0 0.29102297785256348 -0.21234378959837549 0 0.30730162525693799 -0.20984787476119571 0 0.29181716686390802 -0.2292421899715047 0 0.29102297785256348 -0.21234378959837549 0 0.27851008523879689 -0.20325227846583729 0 0.27881974809008958 -0.21746780215873299 0 0.29102297785256348 -0.21234378959837549 0 0.29702277765977753 -0.19129053510922939 0 0.27851008523879689 -0.20325227846583729 0 0.29702277765977753 -0.19129053510922939 0 0.27851008523879689 -0.20325227846583729 0 0.27751294978138918 -0.1866590287525883 0 0.29702277765977753 -0.19129053510922939 0 0.30730162525693799 -0.20984787476119571 0 0.32278608364996808 -0.19045355955088669 0 0.29102297785256348 -0.21234378959837549 0 0.29702277765977753 -0.19129053510922939 0 0.30730162525693799 -0.20984787476119571 0 0.30730162525693799 -0.20984787476119571 0 0.31127593517948982 -0.22889953962954371 0 0.29181716686390802 -0.2292421899715047 0 0.30730162525693799 -0.20984787476119571 0 0.29181716686390802 -0.2292421899715047 0 0.31127593517948982 -0.22889953962954371 0 0.29181716686390802 -0.2292421899715047 0 0.29554146630821282 -0.25635179194096758 0 0.31127593517948982 -0.22889953962954371 0 0.32116178552012348 -0.24566351996414559 0 0.29554146630821282 -0.25635179194096758 0 0.29181716686390802 -0.2292421899715047 0 0.27633270847087799 -0.24863650518181371 0 0.29554146630821282 -0.25635179194096758 0 0.29181716686390802 -0.2292421899715047 0 0.27633270847087799 -0.24863650518181371 0 0.29102297785256348 -0.21234378959837549 0 0.29181716686390802 -0.2292421899715047 0 0.27881974809008958 -0.21746780215873299 0 0.26521239566281518 -0.22992521724297171 0 0.2673476416496457 -0.21135784428500101 0 0.27881974809008958 -0.21746780215873299 0 0.29181716686390802 -0.2292421899715047 0 0.26521239566281518 -0.22992521724297171 0 0.27881974809008958 -0.21746780215873299 0 0.27633270847087799 -0.24863650518181371 0 0.26318318681963171 -0.24224403631257399 0 0.26521239566281518 -0.22992521724297171 0 0.27633270847087799 -0.24863650518181371 0 0.26318318681963171 -0.24224403631257399 0 0.26057931227469849 -0.2560736346160491 0 0.29181716686390802 -0.2292421899715047 0 0.27633270847087799 -0.24863650518181371 0 0.26521239566281518 -0.22992521724297171 0 0.25060833087013518 -0.23434078820946161 0 0.26057931227469849 -0.2560736346160491 0 0.25060833087013518 -0.23434078820946161 0 0.26057931227469849 -0.2560736346160491 0 0.24116993313572799 -0.25182485922073539 0 0.26318318681963171 -0.24224403631257399 0 0.25060833087013518 -0.23434078820946161 0 0.26057931227469849 -0.2560736346160491 0 0.26318318681963171 -0.24224403631257399 0 0.26521239566281518 -0.22992521724297171 0 0.25060833087013518 -0.23434078820946161 0 0.26521239566281518 -0.22992521724297171 0 0.25060833087013518 -0.23434078820946161 0 0.24063734946557189 -0.2126079418028741 0 0.26521239566281518 -0.22992521724297171 0 0.25017900909192903 -0.20434436727079919 0 0.26521239566281518 -0.22992521724297171 0 0.25017900909192903 -0.20434436727079919 0 0.24063734946557189 -0.2126079418028741 0 0.25017900909192903 -0.20434436727079919 0 0.2673476416496457 -0.21135784428500101 0 0.26572177222019783 -0.19881094631500471 0 0.26521239566281518 -0.22992521724297171 0 0.25017900909192903 -0.20434436727079919 0 0.2673476416496457 -0.21135784428500101 0 0.2673476416496457 -0.21135784428500101 0 0.27851008523879689 -0.20325227846583729 0 0.26572177222019783 -0.19881094631500471 0 0.2673476416496457 -0.21135784428500101 0 0.27851008523879689 -0.20325227846583729 0 0.27881974809008958 -0.21746780215873299 0 0.27851008523879689 -0.20325227846583729 0 0.26572177222019783 -0.19881094631500471 0 0.27751294978138918 -0.1866590287525883 0 0.26572177222019783 -0.19881094631500471 0 0.25728011405567253 -0.18494519425096431 0 0.27751294978138918 -0.1866590287525883 0 0.25017900909192903 -0.20434436727079919 0 0.26572177222019783 -0.19881094631500471 0 0.25728011405567253 -0.18494519425096431 0 0.25728011405567253 -0.18494519425096431 0 0.26705141442475988 -0.17029749162812141 0 0.248836524190444 -0.1703325032358384 0 0.25685355404317561 -0.16096740088614889 0 0.26705141442475988 -0.17029749162812141 0 0.248836524190444 -0.1703325032358384 0 0.25685355404317561 -0.16096740088614889 0 0.24769271438547791 -0.15459183885866221 0 0.248836524190444 -0.1703325032358384 0 0.25685355404317561 -0.16096740088614889 0 0.26705141442475988 -0.17029749162812141 0 0.26399927414526431 -0.14924151001233399 0 0.26705141442475988 -0.17029749162812141 0 0.29159529977365561 -0.16174922526915961 0 0.26705141442475988 -0.17029749162812141 0 0.26399927414526431 -0.14924151001233399 0 0.29159529977365561 -0.16174922526915961 0 0.26705141442475988 -0.17029749162812141 0 0.27751294978138918 -0.1866590287525883 0 0.29159529977365561 -0.16174922526915961 0 0.25728011405567253 -0.18494519425096431 0 0.26705141442475988 -0.17029749162812141 0 0.27751294978138918 -0.1866590287525883 0 0.25794968146209418 -0.1166590157004577 0 0.26960916309556809 -0.13015107064316031 0 0.24755713688486619 -0.1342292048917374 0 0.26399927414526431 -0.14924151001233399 0 0.26960916309556809 -0.13015107064316031 0 0.24755713688486619 -0.1342292048917374 0 0.25685355404317561 -0.16096740088614889 0 0.26399927414526431 -0.14924151001233399 0 0.24769271438547791 -0.15459183885866221 0 0.26399927414526431 -0.14924151001233399 0 0.24755713688486619 -0.1342292048917374 0 0.24769271438547791 -0.15459183885866221 0 0.26399927414526431 -0.14924151001233399 0 0.28518406336013541 -0.14163129499084731 0 0.29159529977365561 -0.16174922526915961 0 0.26399927414526431 -0.14924151001233399 0 0.26960916309556809 -0.13015107064316031 0 0.28518406336013541 -0.14163129499084731 0 0.26960916309556809 -0.13015107064316031 0 0.2885738863010493 -0.12583537161226879 0 0.28518406336013541 -0.14163129499084731 0 0.2885738863010493 -0.12583537161226879 0 0.28518406336013541 -0.14163129499084731 0 0.3075934077445564 -0.12907215151962539 0 0.28518406336013541 -0.14163129499084731 0 0.29159529977365561 -0.16174922526915961 0 0.31293356691579111 -0.14314199377104209 0 0.29159529977365561 -0.16174922526915961 0 0.31293356691579111 -0.14314199377104209 0 0.31613918512255113 -0.1532009589101978 0 0.28518406336013541 -0.14163129499084731 0 0.31293356691579111 -0.14314199377104209 0 0.28518406336013541 -0.14163129499084731 0 0.3075934077445564 -0.12907215151962539 0 0.31293356691579111 -0.14314199377104209 0 0.29702277765977753 -0.19129053510922939 0 0.27751294978138918 -0.1866590287525883 0 0.29159529977365561 -0.16174922526915961 0 0.29159529977365561 -0.16174922526915961 0 0.31613918512255113 -0.1532009589101978 0 0.29159529977365561 -0.16174922526915961 0 0.30887107469569841 -0.17184215551901691 0 0.31613918512255113 -0.1532009589101978 0 0.29702277765977753 -0.19129053510922939 0 0.30887107469569841 -0.17184215551901691 0 0.32278608364996808 -0.19045355955088669 0 0.29702277765977753 -0.19129053510922939 0 0.29159529977365561 -0.16174922526915961 0 0.30887107469569841 -0.17184215551901691 0 0.30887107469569841 -0.17184215551901691 0 0.32344662931858092 -0.166787593757865 0 0.32278608364996808 -0.19045355955088669 0 0.30887107469569841 -0.17184215551901691 0 0.32344662931858092 -0.166787593757865 0 0.31613918512255113 -0.1532009589101978 0 0.32344662931858092 -0.166787593757865 0 0.33827054204299811 -0.1710592443405777 0 0.34068307047144669 -0.14465269255123639 0 0.33827054204299811 -0.1710592443405777 0 0.32278608364996808 -0.19045355955088669 0 0.33827054204299811 -0.1710592443405777 0 0.34569830201197771 -0.19568042688057299 0 0.32278608364996808 -0.19045355955088669 0 0.32344662931858092 -0.166787593757865 0 0.33827054204299811 -0.1710592443405777 0 0.32278608364996808 -0.19045355955088669 0 0.32502375617782531 -0.12945557952213649 0 0.31293356691579111 -0.14314199377104209 0 0.34068307047144669 -0.14465269255123639 0 0.3075934077445564 -0.12907215151962539 0 0.32502375617782531 -0.12945557952213649 0 0.31293356691579111 -0.14314199377104209 0 0.32344662931858092 -0.166787593757865 0 0.31613918512255113 -0.1532009589101978 0 0.34068307047144669 -0.14465269255123639 0 0.31293356691579111 -0.14314199377104209 0 0.31613918512255113 -0.1532009589101978 0 0.34068307047144669 -0.14465269255123639 0 0.31293356691579111 -0.14314199377104209 0 0.34068307047144669 -0.14465269255123639 0 0.31613918512255113 -0.1532009589101978 0 0.34068307047144669 -0.14465269255123639 0 0.32502375617782531 -0.12945557952213649 0 0.34068307047144669 -0.14465269255123639 0 0.34067006097426372 -0.12663480899527491 0 0.34068307047144669 -0.14465269255123639 0 0.34067006097426372 -0.12663480899527491 0 0.34799648514727349 -0.1340757736672554 0 0.34068307047144669 -0.14465269255123639 0 0.36442043947391151 -0.13638532371335291 0 0.35619755218197757 -0.13072180366177 0 0.34799648514727349 -0.1340757736672554 0 0.36442043947391151 -0.13638532371335291 0 0.34068307047144669 -0.14465269255123639 0 0.34799648514727349 -0.1340757736672554 0 0.36442043947391151 -0.13638532371335291 0 0.35619755218197757 -0.13072180366177 0 0.35257657352204991 -0.12620810095660859 0 0.34799648514727349 -0.1340757736672554 0 0.35619755218197757 -0.13072180366177 0 0.35257657352204991 -0.12620810095660859 0 0.36146703981486838 -0.12555561511054711 0 0.34067006097426372 -0.12663480899527491 0 0.35257657352204991 -0.12620810095660859 0 0.34799648514727349 -0.1340757736672554 0 0.34068307047144669 -0.14465269255123639 0 0.36814738975314493 -0.14614786573711119 0 0.36442043947391151 -0.13638532371335291 0 0.34068307047144669 -0.14465269255123639 0 0.36814738975314493 -0.14614786573711119 0 0.34068307047144669 -0.14465269255123639 0 0.35508011308917831 -0.15612644132839151 0 0.36814738975314493 -0.14614786573711119 0 0.36814738975314493 -0.14614786573711119 0 0.36689620953433338 -0.15822233109741909 0 0.37983680896410071 -0.16270073451498579 0 0.35508011308917831 -0.15612644132839151 0 0.36814738975314493 -0.14614786573711119 0 0.36689620953433338 -0.15822233109741909 0 0.37108075859020412 -0.1227421000653261 0 0.36442043947391151 -0.13638532371335291 0 0.38815780847637621 -0.1281179548754699 0 0.36814738975314493 -0.14614786573711119 0 0.36442043947391151 -0.13638532371335291 0 0.38815780847637621 -0.1281179548754699 0 0.35619755218197757 -0.13072180366177 0 0.36442043947391151 -0.13638532371335291 0 0.36146703981486838 -0.12555561511054711 0 0.37108075859020412 -0.1227421000653261 0 0.36442043947391151 -0.13638532371335291 0 0.36146703981486838 -0.12555561511054711 0 0.33827054204299811 -0.1710592443405777 0 0.35759624294799169 -0.18319797203196261 0 0.34569830201197771 -0.19568042688057299 0 0.33827054204299811 -0.1710592443405777 0 0.35759624294799169 -0.18319797203196261 0 0.36180043136445078 -0.1678943886310964 0 0.33827054204299811 -0.1710592443405777 0 0.34068307047144669 -0.14465269255123639 0 0.35508011308917831 -0.15612644132839151 0 0.33827054204299811 -0.1710592443405777 0 0.35508011308917831 -0.15612644132839151 0 0.36180043136445078 -0.1678943886310964 0 0.36180043136445078 -0.1678943886310964 0 0.37983680896410071 -0.16270073451498579 0 0.37549875258793708 -0.1824952098337263 0 0.36180043136445078 -0.1678943886310964 0 0.36689620953433338 -0.15822233109741909 0 0.37983680896410071 -0.16270073451498579 0 0.35508011308917831 -0.15612644132839151 0 0.36180043136445078 -0.1678943886310964 0 0.36689620953433338 -0.15822233109741909 0 0.35759624294799169 -0.18319797203196261 0 0.36180043136445078 -0.1678943886310964 0 0.37549875258793708 -0.1824952098337263 0 0.35759624294799169 -0.18319797203196261 0 0.36671318673259512 -0.19886059047383989 0 0.37549875258793708 -0.1824952098337263 0 0.36671318673259512 -0.19886059047383989 0 0.37462166784833117 -0.2154838670201491 0 0.35653886664291312 -0.21603176595381371 0 0.36671318673259512 -0.19886059047383989 0 0.35653886664291312 -0.21603176595381371 0 0.34569830201197771 -0.19568042688057299 0 0.35653886664291312 -0.21603176595381371 0 0.34569830201197771 -0.19568042688057299 0 0.32982728797443123 -0.21748515584669159 0 0.35759624294799169 -0.18319797203196261 0 0.36671318673259512 -0.19886059047383989 0 0.34569830201197771 -0.19568042688057299 0 0.34569830201197771 -0.19568042688057299 0 0.32982728797443123 -0.21748515584669159 0 0.32278608364996808 -0.19045355955088669 0 0.30730162525693799 -0.20984787476119571 0 0.31127593517948982 -0.22889953962954371 0 0.32982728797443123 -0.21748515584669159 0 0.30730162525693799 -0.20984787476119571 0 0.32982728797443123 -0.21748515584669159 0 0.32278608364996808 -0.19045355955088669 0 0.30730162525693799 -0.20984787476119571 0 0.32278608364996808 -0.19045355955088669 0 0.31127593517948982 -0.22889953962954371 0 0.32982728797443123 -0.21748515584669159 0 0.32116178552012348 -0.24566351996414559 0 0.32982728797443123 -0.21748515584669159 0 0.32116178552012348 -0.24566351996414559 0 0.3467821047320343 -0.23497524798732361 0 0.32116178552012348 -0.24566351996414559 0 0.3467821047320343 -0.23497524798732361 0 0.34000800270091103 -0.25478811401778723 0 0.32116178552012348 -0.24566351996414559 0 0.3467821047320343 -0.23497524798732361 0 0.3467821047320343 -0.23497524798732361 0 0.34000800270091103 -0.25478811401778723 0 0.36351443947396811 -0.25529371512200533 0 0.35653886664291312 -0.21603176595381371 0 0.32982728797443123 -0.21748515584669159 0 0.3467821047320343 -0.23497524798732361 0 0.35653886664291312 -0.21603176595381371 0 0.3467821047320343 -0.23497524798732361 0 0.37369725393650899 -0.23364565880173871 0 0.37462166784833117 -0.2154838670201491 0 0.35653886664291312 -0.21603176595381371 0 0.37369725393650899 -0.23364565880173871 0 0.3467821047320343 -0.23497524798732361 0 0.37369725393650899 -0.23364565880173871 0 0.36351443947396811 -0.25529371512200533 0 0.37369725393650899 -0.23364565880173871 0 0.38876838942558789 -0.2556311332701966 0 0.36351443947396811 -0.25529371512200533 0 0.37369725393650899 -0.23364565880173871 0 0.39915489151055078 -0.23554891561313979 0 0.38876838942558789 -0.2556311332701966 0 0.39915489151055078 -0.23554891561313979 0 0.38876838942558789 -0.2556311332701966 0 0.39915489151055078 -0.23554891561313979 0 0.38876838942558789 -0.2556311332701966 0 0.4068291874041331 -0.25221511479299691 0 0.39915489151055078 -0.23554891561313979 0 0.38894586195464148 -0.2212237710897316 0 0.40559644959116758 -0.2169730364307233 0 0.37462166784833117 -0.2154838670201491 0 0.37369725393650899 -0.23364565880173871 0 0.38894586195464148 -0.2212237710897316 0 0.37369725393650899 -0.23364565880173871 0 0.39915489151055078 -0.23554891561313979 0 0.38894586195464148 -0.2212237710897316 0 0.36671318673259512 -0.19886059047383989 0 0.37462166784833117 -0.2154838670201491 0 0.38897116670617088 -0.20022039439464259 0 0.37462166784833117 -0.2154838670201491 0 0.38894586195464148 -0.2212237710897316 0 0.38897116670617088 -0.20022039439464259 0 0.36671318673259512 -0.19886059047383989 0 0.38897116670617088 -0.20022039439464259 0 0.37549875258793708 -0.1824952098337263 0 0.38897116670617088 -0.20022039439464259 0 0.41213472848428739 -0.1915992555719036 0 0.39708587998267308 -0.17436034227340569 0 0.38897116670617088 -0.20022039439464259 0 0.40559644959116758 -0.2169730364307233 0 0.41213472848428739 -0.1915992555719036 0 0.38894586195464148 -0.2212237710897316 0 0.38897116670617088 -0.20022039439464259 0 0.40559644959116758 -0.2169730364307233 0 0.40559644959116758 -0.2169730364307233 0 0.41213472848428739 -0.1915992555719036 0 0.40559644959116758 -0.2169730364307233 0 0.42024055210779382 -0.21027150259522939 0 0.41213472848428739 -0.1915992555719036 0 0.40559644959116758 -0.2169730364307233 0 0.42024055210779382 -0.21027150259522939 0 0.41776998087836031 -0.22422365908203121 0 0.41213472848428739 -0.1915992555719036 0 0.43505156545936341 -0.20135821264336379 0 0.43185403962452967 -0.17935755982241541 0 0.42024055210779382 -0.21027150259522939 0 0.41213472848428739 -0.1915992555719036 0 0.43505156545936341 -0.20135821264336379 0 0.43505156545936341 -0.20135821264336379 0 0.4306965918526941 -0.22134566263216571 0 0.44334649166670947 -0.2188853461720088 0 0.42024055210779382 -0.21027150259522939 0 0.43505156545936341 -0.20135821264336379 0 0.4306965918526941 -0.22134566263216571 0 0.42024055210779382 -0.21027150259522939 0 0.4306965918526941 -0.22134566263216571 0 0.41776998087836031 -0.22422365908203121 0 0.4306965918526941 -0.22134566263216571 0 0.42099385082287433 -0.23940450220376311 0 0.43893562528497432 -0.23245684139737541 0 0.4306965918526941 -0.22134566263216571 0 0.42099385082287433 -0.23940450220376311 0 0.41776998087836031 -0.22422365908203121 0 0.42099385082287433 -0.23940450220376311 0 0.43834100586448171 -0.24830366113222299 0 0.43893562528497432 -0.23245684139737541 0 0.39915489151055078 -0.23554891561313979 0 0.42099385082287433 -0.23940450220376311 0 0.4068291874041331 -0.25221511479299691 0 0.39915489151055078 -0.23554891561313979 0 0.40559644959116758 -0.2169730364307233 0 0.41776998087836031 -0.22422365908203121 0 0.39915489151055078 -0.23554891561313979 0 0.42099385082287433 -0.23940450220376311 0 0.41776998087836031 -0.22422365908203121 0 0.40211221546147807 -0.1293882590671529 0 0.395611709034843 -0.14764303892298561 0 0.41102562553930289 -0.1389905892566777 0 0.40211221546147807 -0.1293882590671529 0 0.38815780847637621 -0.1281179548754699 0 0.395611709034843 -0.14764303892298561 0 0.36814738975314493 -0.14614786573711119 0 0.38815780847637621 -0.1281179548754699 0 0.395611709034843 -0.14764303892298561 0 0.36442043947391151 -0.13638532371335291 0 0.38815780847637621 -0.1281179548754699 0 0.36814738975314493 -0.14614786573711119 0 0.395611709034843 -0.14764303892298561 0 0.37983680896410071 -0.16270073451498579 0 0.36814738975314493 -0.14614786573711119 0 0.395611709034843 -0.14764303892298561 0 0.40421460077628291 -0.1605676818612822 0 0.37983680896410071 -0.16270073451498579 0 0.39708587998267308 -0.17436034227340569 0 0.395611709034843 -0.14764303892298561 0 0.40421460077628291 -0.1605676818612822 0 0.37983680896410071 -0.16270073451498579 0 0.37983680896410071 -0.16270073451498579 0 0.37549875258793708 -0.1824952098337263 0 0.39708587998267308 -0.17436034227340569 0 0.37549875258793708 -0.1824952098337263 0 0.39708587998267308 -0.17436034227340569 0 0.38897116670617088 -0.20022039439464259 0 0.37549875258793708 -0.1824952098337263 0 0.39708587998267308 -0.17436034227340569 0 0.41213472848428739 -0.1915992555719036 0 0.41867300737740892 -0.16622547471308419 0 0.41213472848428739 -0.1915992555719036 0 0.39708587998267308 -0.17436034227340569 0 0.41867300737740892 -0.16622547471308419 0 0.41213472848428739 -0.1915992555719036 0 0.43185403962452967 -0.17935755982241541 0 0.41867300737740892 -0.16622547471308419 0 0.43185403962452967 -0.17935755982241541 0 0.43309034327765161 -0.16079246290116009 0 0.41867300737740892 -0.16622547471308419 0 0.43309034327765161 -0.16079246290116009 0 0.41867300737740892 -0.16622547471308419 0 0.42307602831654112 -0.14913821210886191 0 0.43309034327765161 -0.16079246290116009 0 0.41867300737740892 -0.16622547471308419 0 0.40421460077628291 -0.1605676818612822 0 0.39708587998267308 -0.17436034227340569 0 0.41867300737740892 -0.16622547471308419 0 0.40421460077628291 -0.1605676818612822 0 0.41867300737740892 -0.16622547471308419 0 0.42307602831654112 -0.14913821210886191 0 0.39708587998267308 -0.17436034227340569 0 0.41867300737740892 -0.16622547471308419 0 0.41867300737740892 -0.16622547471308419 0 0.42307602831654112 -0.14913821210886191 0 0.395611709034843 -0.14764303892298561 0 0.40421460077628291 -0.1605676818612822 0 0.42307602831654112 -0.14913821210886191 0 0.395611709034843 -0.14764303892298561 0 0.42307602831654112 -0.14913821210886191 0 0.395611709034843 -0.14764303892298561 0 0.42307602831654112 -0.14913821210886191 0 0.41102562553930289 -0.1389905892566777 0 0.42307602831654112 -0.14913821210886191 0 0.42009256788424332 -0.140448065783009 0 0.41102562553930289 -0.1389905892566777 0 0.43309034327765161 -0.16079246290116009 0 0.42307602831654112 -0.14913821210886191 0 0.44694744541549047 -0.1504377856533104 0 0.42307602831654112 -0.14913821210886191 0 0.42997561112135468 -0.136986634775385 0 0.44694744541549047 -0.1504377856533104 0 0.42307602831654112 -0.14913821210886191 0 0.44694744541549047 -0.1504377856533104 0 0.42307602831654112 -0.14913821210886191 0 0.42690418123263069 -0.13428189980179389 0 0.42307602831654112 -0.14913821210886191 0 0.42690418123263069 -0.13428189980179389 0 0.42009256788424332 -0.140448065783009 0 0.43283170875081167 -0.11686192215178801 0 0.42690418123263069 -0.13428189980179389 0 0.42997561112135468 -0.136986634775385 0 0.42307602831654112 -0.14913821210886191 0 0.42690418123263069 -0.13428189980179389 0 0.42997561112135468 -0.136986634775385 0 0.43283170875081167 -0.11686192215178801 0 0.42997561112135468 -0.136986634775385 0 0.43283170875081167 -0.11686192215178801 0 0.42997561112135468 -0.136986634775385 0 0.44414626494690329 -0.1258293560704048 0 0.42208749451762739 -0.1226933822270526 0 0.42690418123263069 -0.13428189980179389 0 0.41515697102299942 -0.1304809763523842 0 0.41515697102299942 -0.1304809763523842 0 0.42009256788424332 -0.140448065783009 0 0.41102562553930289 -0.1389905892566777 0 0.42690418123263069 -0.13428189980179389 0 0.41515697102299942 -0.1304809763523842 0 0.42009256788424332 -0.140448065783009 0 0.40211221546147807 -0.1293882590671529 0 0.41515697102299942 -0.1304809763523842 0 0.41102562553930289 -0.1389905892566777 0 0.40976048479052601 -0.1180566740210042 0 0.40211221546147807 -0.1293882590671529 0 0.41515697102299942 -0.1304809763523842 0 0.46526094763998349 -0.12616040513280449 0 0.46011527082420001 -0.13540095579182371 0 0.46991231220755519 -0.13540438889123069 0 0.46011527082420001 -0.13540095579182371 0 0.46310504126697061 -0.14239786426965531 0 0.46991231220755519 -0.13540438889123069 0 0.46011527082420001 -0.13540095579182371 0 0.45524738887589022 -0.12684309379182521 0 0.45253804559061789 -0.1363764790020211 0 0.46011527082420001 -0.13540095579182371 0 0.45253804559061789 -0.1363764790020211 0 0.456233857890606 -0.14337120370272921 0 0.46011527082420001 -0.13540095579182371 0 0.456233857890606 -0.14337120370272921 0 0.46310504126697061 -0.14239786426965531 0 0.46526094763998349 -0.12616040513280449 0 0.46011527082420001 -0.13540095579182371 0 0.45524738887589022 -0.12684309379182521 0 0.45524738887589022 -0.12684309379182521 0 0.44414626494690329 -0.1258293560704048 0 0.45253804559061789 -0.1363764790020211 0 0.44414626494690329 -0.1258293560704048 0 0.44694744541549047 -0.1504377856533104 0 0.44414626494690329 -0.1258293560704048 0 0.45253804559061789 -0.1363764790020211 0 0.44694744541549047 -0.1504377856533104 0 0.42997561112135468 -0.136986634775385 0 0.44414626494690329 -0.1258293560704048 0 0.44694744541549047 -0.1504377856533104 0 0.45253804559061789 -0.1363764790020211 0 0.44694744541549047 -0.1504377856533104 0 0.456233857890606 -0.14337120370272921 0 0.43309034327765161 -0.16079246290116009 0 0.44750767917789408 -0.15535945108923541 0 0.44694744541549047 -0.1504377856533104 0 0.44694744541549047 -0.1504377856533104 0 0.45884874053402142 -0.15108569893877169 0 0.44750767917789408 -0.15535945108923541 0 0.44694744541549047 -0.1504377856533104 0 0.45884874053402142 -0.15108569893877169 0 0.44750767917789408 -0.15535945108923541 0 0.44694744541549047 -0.1504377856533104 0 0.44750767917789408 -0.15535945108923541 0 0.45884874053402142 -0.15108569893877169 0 0.45962919156625898 -0.15844194834679079 0 0.44750767917789408 -0.15535945108923541 0 0.45884874053402142 -0.15108569893877169 0 0.45884874053402142 -0.15108569893877169 0 0.46321528164182402 -0.15456958969966089 0 0.45962919156625898 -0.15844194834679079 0 0.45884874053402142 -0.15108569893877169 0 0.46156030452737562 -0.15123331802712561 0 0.45884874053402142 -0.15108569893877169 0 0.456233857890606 -0.14337120370272921 0 0.46310504126697061 -0.14239786426965531 0 0.44694744541549047 -0.1504377856533104 0 0.45884874053402142 -0.15108569893877169 0 0.456233857890606 -0.14337120370272921 0 0.45884874053402142 -0.15108569893877169 0 0.46310504126697061 -0.14239786426965531 0 0.47041502487846992 -0.14672707402372051 0 0.46310504126697061 -0.14239786426965531 0 0.47041502487846992 -0.14672707402372051 0 0.46991231220755519 -0.13540438889123069 0 0.45884874053402142 -0.15108569893877169 0 0.46156030452737562 -0.15123331802712561 0 0.47041502487846992 -0.14672707402372051 0 0.45884874053402142 -0.15108569893877169 0 0.47041502487846992 -0.14672707402372051 0 0.46801445063754588 -0.15296280829610059 0 0.46156030452737562 -0.15123331802712561 0 0.47041502487846992 -0.14672707402372051 0 0.46801445063754588 -0.15296280829610059 0 0.46321528164182402 -0.15456958969966089 0 0.46802372094391759 -0.15912417488951519 0 0.46801445063754588 -0.15296280829610059 0 0.46321528164182402 -0.15456958969966089 0 0.46156030452737562 -0.15123331802712561 0 0.45884874053402142 -0.15108569893877169 0 0.46321528164182402 -0.15456958969966089 0 0.46156030452737562 -0.15123331802712561 0 0.46802372094391759 -0.15912417488951519 0 0.45932689497588608 -0.16728034558981961 0 0.45962919156625898 -0.15844194834679079 0 0.46321528164182402 -0.15456958969966089 0 0.46802372094391759 -0.15912417488951519 0 0.45962919156625898 -0.15844194834679079 0 0.46802372094391759 -0.15912417488951519 0 0.45932689497588608 -0.16728034558981961 0 0.47379916570144859 -0.16739558094154861 0 0.45932689497588608 -0.16728034558981961 0 0.46700247305774911 -0.17968834902664951 0 0.47379916570144859 -0.16739558094154861 0 0.44750767917789408 -0.15535945108923541 0 0.45932689497588608 -0.16728034558981961 0 0.45962919156625898 -0.15844194834679079 0 0.43309034327765161 -0.16079246290116009 0 0.44750767917789408 -0.15535945108923541 0 0.45040398313807151 -0.180803542554929 0 0.44750767917789408 -0.15535945108923541 0 0.45040398313807151 -0.180803542554929 0 0.44750767917789408 -0.15535945108923541 0 0.45932689497588608 -0.16728034558981961 0 0.45040398313807151 -0.180803542554929 0 0.43309034327765161 -0.16079246290116009 0 0.44750767917789408 -0.15535945108923541 0 0.43185403962452967 -0.17935755982241541 0 0.43309034327765161 -0.16079246290116009 0 0.45040398313807151 -0.180803542554929 0 0.43505156545936341 -0.20135821264336379 0 0.43185403962452967 -0.17935755982241541 0 0.45040398313807151 -0.180803542554929 0 0.45040398313807151 -0.180803542554929 0 0.46700247305774911 -0.17968834902664951 0 0.46292586284566212 -0.19192289341208449 0 0.45932689497588608 -0.16728034558981961 0 0.45040398313807151 -0.180803542554929 0 0.46700247305774911 -0.17968834902664951 0 0.46700247305774911 -0.17968834902664951 0 0.46292586284566212 -0.19192289341208449 0 0.47514481217627752 -0.19044499694978639 0 0.46700247305774911 -0.17968834902664951 0 0.48150572625308569 -0.1774601865557619 0 0.47514481217627752 -0.19044499694978639 0 0.46700247305774911 -0.17968834902664951 0 0.48150572625308569 -0.1774601865557619 0 0.47379916570144859 -0.16739558094154861 0 0.48150572625308569 -0.1774601865557619 0 0.47514481217627752 -0.19044499694978639 0 0.48620034180504762 -0.18953325303229701 0 0.48150572625308569 -0.1774601865557619 0 0.50000000000000056 -0.17446975201870621 0 0.48620034180504762 -0.18953325303229701 0 0.48150572625308569 -0.1774601865557619 0 0.50000000000000056 -0.17446975201870621 0 0.48688756477799189 -0.1632291873655837 0 0.50000000000000056 -0.17446975201870621 0 0.48688756477799189 -0.1632291873655837 0 0.5 -0.14599786978714821 0 0.48688756477799189 -0.1632291873655837 0 0.47589968166777602 -0.1557044402464276 0 0.48472624777412238 -0.1503788808508891 0 0.48688756477799189 -0.1632291873655837 0 0.47379916570144859 -0.16739558094154861 0 0.47589968166777602 -0.1557044402464276 0 0.48150572625308569 -0.1774601865557619 0 0.48688756477799189 -0.1632291873655837 0 0.47379916570144859 -0.16739558094154861 0 0.46802372094391759 -0.15912417488951519 0 0.47379916570144859 -0.16739558094154861 0 0.47589968166777602 -0.1557044402464276 0 0.47041502487846992 -0.14672707402372051 0 0.48472624777412238 -0.1503788808508891 0 0.48435088635339718 -0.1332923501082218 0 0.46801445063754588 -0.15296280829610059 0 0.47589968166777602 -0.1557044402464276 0 0.47041502487846992 -0.14672707402372051 0 0.46801445063754588 -0.15296280829610059 0 0.46802372094391759 -0.15912417488951519 0 0.47589968166777602 -0.1557044402464276 0 0.47589968166777602 -0.1557044402464276 0 0.47041502487846992 -0.14672707402372051 0 0.48472624777412238 -0.1503788808508891 0 0.48688756477799189 -0.1632291873655837 0 0.48472624777412238 -0.1503788808508891 0 0.5 -0.14599786978714821 0 0.48472624777412238 -0.1503788808508891 0 0.5 -0.14599786978714821 0 0.48435088635339718 -0.1332923501082218 0 0.5 -0.11752598755559029 0 0.5 -0.14599786978714821 0 0.48435088635339718 -0.1332923501082218 0 0.47041502487846992 -0.14672707402372051 0 0.48435088635339718 -0.1332923501082218 0 0.46991231220755519 -0.13540438889123069 0 0.46526094763998349 -0.12616040513280449 0 0.46991231220755519 -0.13540438889123069 0 0.47420130418644219 -0.12537726410247849 0 0.48435088635339718 -0.1332923501082218 0 0.46991231220755519 -0.13540438889123069 0 0.47420130418644219 -0.12537726410247849 0 0.45619659105842347 -0.2316917254863165 0 0.46391209721172472 -0.22451360781041141 0 0.45330028709824821 -0.20624763402062271 0 0.45619659105842347 -0.2316917254863165 0 0.45330028709824821 -0.20624763402062271 0 0.45619659105842347 -0.2316917254863165 0 0.46391209721172472 -0.22451360781041141 0 0.46391209721172472 -0.22451360781041141 0 0.4677589748688904 -0.2139652191452856 0 0.4736821749346658 -0.2249039977708249 0 0.46391209721172472 -0.22451360781041141 0 0.46537746397394758 -0.23594039483494619 0 0.4736821749346658 -0.2249039977708249 0 0.45619659105842347 -0.2316917254863165 0 0.46391209721172472 -0.22451360781041141 0 0.46537746397394758 -0.23594039483494619 0 0.45619659105842347 -0.2316917254863165 0 0.46537746397394758 -0.23594039483494619 0 0.45926391249383031 -0.258638209084114 0 0.45619659105842347 -0.2316917254863165 0 0.45926391249383031 -0.258638209084114 0 0.46537746397394758 -0.23594039483494619 0 0.47383254417109399 -0.2399544340230641 0 0.45926391249383031 -0.258638209084114 0 0.45619659105842347 -0.2316917254863165 0 0.43834100586448171 -0.24830366113222299 0 0.45619659105842347 -0.2316917254863165 0 0.43834100586448171 -0.24830366113222299 0 0.45926391249383031 -0.258638209084114 0 0.45619659105842347 -0.2316917254863165 0 0.43834100586448171 -0.24830366113222299 0 0.43893562528497432 -0.23245684139737541 0 0.45619659105842347 -0.2316917254863165 0 0.44334649166670947 -0.2188853461720088 0 0.45330028709824821 -0.20624763402062271 0 0.45619659105842347 -0.2316917254863165 0 0.43893562528497432 -0.23245684139737541 0 0.44334649166670947 -0.2188853461720088 0 0.4306965918526941 -0.22134566263216571 0 0.43893562528497432 -0.23245684139737541 0 0.44334649166670947 -0.2188853461720088 0 0.43505156545936341 -0.20135821264336379 0 0.44334649166670947 -0.2188853461720088 0 0.45330028709824821 -0.20624763402062271 0 0.45040398313807151 -0.180803542554929 0 0.45330028709824821 -0.20624763402062271 0 0.43505156545936341 -0.20135821264336379 0 0.45040398313807151 -0.180803542554929 0 0.45330028709824821 -0.20624763402062271 0 0.45040398313807151 -0.180803542554929 0 0.46292586284566212 -0.19192289341208449 0 0.45330028709824821 -0.20624763402062271 0 0.46877775875796418 -0.20242994450843491 0 0.46292586284566212 -0.19192289341208449 0 0.45330028709824821 -0.20624763402062271 0 0.46391209721172472 -0.22451360781041141 0 0.45330028709824821 -0.20624763402062271 0 0.4677589748688904 -0.2139652191452856 0 0.46877775875796418 -0.20242994450843491 0 0.45330028709824821 -0.20624763402062271 0 0.4677589748688904 -0.2139652191452856 0 0.4677589748688904 -0.2139652191452856 0 0.47912255634184908 -0.21173091161613389 0 0.4736821749346658 -0.2249039977708249 0 0.46877775875796418 -0.20242994450843491 0 0.4677589748688904 -0.2139652191452856 0 0.47912255634184908 -0.21173091161613389 0 0.46877775875796418 -0.20242994450843491 0 0.47912255634184908 -0.21173091161613389 0 0.48059289809302902 -0.19910549459089141 0 0.46877775875796418 -0.20242994450843491 0 0.46292586284566212 -0.19192289341208449 0 0.47514481217627752 -0.19044499694978639 0 0.46877775875796418 -0.20242994450843491 0 0.47514481217627752 -0.19044499694978639 0 0.48059289809302902 -0.19910549459089141 0 0.47514481217627752 -0.19044499694978639 0 0.48059289809302902 -0.19910549459089141 0 0.48620034180504762 -0.18953325303229701 0 0.50000000000000056 -0.17446975201870621 0 0.49371902138400642 -0.2013883668478047 0 0.50000000000000056 -0.17446975201870621 0 0.5 -0.19415146216014459 0 0.49371902138400642 -0.2013883668478047 0 0.5 -0.19415146216014459 0 0.49371902138400642 -0.2013883668478047 0 0.49999999999999978 -0.21383317230158291 0 0.50000000000000056 -0.17446975201870621 0 0.48620034180504762 -0.18953325303229701 0 0.49371902138400642 -0.2013883668478047 0 0.48059289809302902 -0.19910549459089141 0 0.48620034180504762 -0.18953325303229701 0 0.49371902138400642 -0.2013883668478047 0 0.47912255634184908 -0.21173091161613389 0 0.49371902138400642 -0.2013883668478047 0 0.48743804276801178 -0.22830698167690311 0 0.49371902138400642 -0.2013883668478047 0 0.49999999999999978 -0.21383317230158291 0 0.48743804276801178 -0.22830698167690311 0 0.49371902138400642 -0.2013883668478047 0 0.48743804276801178 -0.22830698167690311 0 0.47912255634184908 -0.21173091161613389 0 0.48059289809302902 -0.19910549459089141 0 0.49371902138400642 -0.2013883668478047 0 0.49999999999999978 -0.21383317230158291 0 0.49698509694093312 -0.24298405617109481 0 0.49999999999999978 -0.21383317230158291 0 0.49698509694093312 -0.24298405617109481 0 0.5 -0.23853843349114209 0 0.49999999999999978 -0.21383317230158291 0 0.48743804276801178 -0.22830698167690311 0 0.49698509694093312 -0.24298405617109481 0 0.47912255634184908 -0.21173091161613389 0 0.48743804276801178 -0.22830698167690311 0 0.4736821749346658 -0.2249039977708249 0 0.48743804276801178 -0.22830698167690311 0 0.4736821749346658 -0.2249039977708249 0 0.47383254417109399 -0.2399544340230641 0 0.46537746397394758 -0.23594039483494619 0 0.4736821749346658 -0.2249039977708249 0 0.47383254417109399 -0.2399544340230641 0 0.48743804276801178 -0.22830698167690311 0 0.4811570641520172 -0.25522559650600152 0 0.48743804276801178 -0.22830698167690311 0 0.47383254417109399 -0.2399544340230641 0 0.4811570641520172 -0.25522559650600152 0 0.48743804276801178 -0.22830698167690311 0 0.49698509694093312 -0.24298405617109481 0 0.4811570641520172 -0.25522559650600152 0 0.49698509694093312 -0.24298405617109481 0 0.5 -0.23853843349114209 0 0.5 -0.2632436946807013 0 0.49698509694093312 -0.24298405617109481 0 0.49397019388186669 -0.27213494004060668 0 0.49698509694093312 -0.24298405617109481 0 0.49397019388186669 -0.27213494004060668 0 0.4811570641520172 -0.25522559650600152 0 0.49698509694093312 -0.24298405617109481 0 0.5 -0.2632436946807013 0 0.49397019388186669 -0.27213494004060668 0 0.5 -0.2632436946807013 0 0.49397019388186669 -0.27213494004060668 0 0.5 -0.28794895587026048 0 0.49397019388186669 -0.27213494004060668 0 0.4811570641520172 -0.25522559650600152 0 0.47487608553602262 -0.28214421133509993 0 0.4811570641520172 -0.25522559650600152 0 0.47487608553602262 -0.28214421133509993 0 0.4811570641520172 -0.25522559650600152 0 0.45926391249383031 -0.258638209084114 0 0.47487608553602262 -0.28214421133509993 0 0.47383254417109399 -0.2399544340230641 0 0.4811570641520172 -0.25522559650600152 0 0.45926391249383031 -0.258638209084114 0 0.45926391249383031 -0.258638209084114 0 0.44916735689270137 -0.27580188542382428 0 0.46233123392923559 -0.28558469268191172 0 0.45926391249383031 -0.258638209084114 0 0.46233123392923559 -0.28558469268191172 0 0.47487608553602262 -0.28214421133509993 0 0.45926391249383031 -0.258638209084114 0 0.46233123392923559 -0.28558469268191172 0 0.45926391249383031 -0.258638209084114 0 0.44916735689270137 -0.27580188542382428 0 0.43624226937975019 -0.26633628301527718 0 0.44916735689270137 -0.27580188542382428 0 0.4383621270706663 -0.2812343874515783 0 0.43624226937975019 -0.26633628301527718 0 0.43834100586448171 -0.24830366113222299 0 0.45926391249383031 -0.258638209084114 0 0.43624226937975019 -0.26633628301527718 0 0.44335340265828288 -0.30098106707197259 0 0.4371577220376674 -0.29162202051415997 0 0.43636585569331282 -0.3094642374005625 0 0.45114919931979658 -0.30089521282421161 0 0.44701472297114342 -0.29541474628695558 0 0.45499893276587111 -0.29797867602809408 0 0.45114919931979658 -0.30089521282421161 0 0.44614857955057141 -0.30692870300724112 0 0.44335340265828288 -0.30098106707197259 0 0.45114919931979658 -0.30089521282421161 0 0.44335340265828288 -0.30098106707197259 0 0.44701472297114342 -0.29541474628695558 0 0.45114919931979658 -0.30089521282421161 0 0.45084407576704311 -0.30729767335169661 0 0.44614857955057141 -0.30692870300724112 0 0.45114919931979658 -0.30089521282421161 0 0.45084407576704311 -0.30729767335169661 0 0.45551772977017219 -0.30713132098134488 0 0.45084407576704311 -0.30729767335169661 0 0.45551772977017219 -0.30713132098134488 0 0.45056079442763231 -0.31423545659398849 0 0.45084407576704311 -0.30729767335169661 0 0.44614857955057141 -0.30692870300724112 0 0.45056079442763231 -0.31423545659398849 0 0.44614857955057141 -0.30692870300724112 0 0.44335340265828288 -0.30098106707197259 0 0.43636585569331282 -0.3094642374005625 0 0.44614857955057141 -0.30692870300724112 0 0.45056079442763231 -0.31423545659398849 0 0.43636585569331282 -0.3094642374005625 0 0.44874995240637772 -0.28703305923252359 0 0.44701472297114342 -0.29541474628695558 0 0.4371577220376674 -0.29162202051415997 0 0.44335340265828288 -0.30098106707197259 0 0.44701472297114342 -0.29541474628695558 0 0.4371577220376674 -0.29162202051415997 0 0.4383621270706663 -0.2812343874515783 0 0.44874995240637772 -0.28703305923252359 0 0.4371577220376674 -0.29162202051415997 0 0.44916735689270137 -0.27580188542382428 0 0.4383621270706663 -0.2812343874515783 0 0.44874995240637772 -0.28703305923252359 0 0.44874995240637772 -0.28703305923252359 0 0.44701472297114342 -0.29541474628695558 0 0.45499893276587111 -0.29797867602809408 0 0.44874995240637772 -0.28703305923252359 0 0.46233123392923559 -0.28558469268191172 0 0.45499893276587111 -0.29797867602809408 0 0.46233123392923559 -0.28558469268191172 0 0.46859510692002798 -0.30906282616419828 0 0.47487608553602262 -0.28214421133509993 0 0.44916735689270137 -0.27580188542382428 0 0.44874995240637772 -0.28703305923252359 0 0.46233123392923559 -0.28558469268191172 0 0.46233123392923559 -0.28558469268191172 0 0.45499893276587111 -0.29797867602809408 0 0.46539855536464098 -0.31253117627970939 0 0.46233123392923559 -0.28558469268191172 0 0.46539855536464098 -0.31253117627970939 0 0.46233123392923559 -0.28558469268191172 0 0.46539855536464098 -0.31253117627970939 0 0.46859510692002798 -0.30906282616419828 0 0.45114919931979658 -0.30089521282421161 0 0.45499893276587111 -0.29797867602809408 0 0.45551772977017219 -0.30713132098134488 0 0.45551772977017219 -0.30713132098134488 0 0.45663755013463708 -0.31593008330840161 0 0.45056079442763231 -0.31423545659398849 0 0.45499893276587111 -0.29797867602809408 0 0.45551772977017219 -0.30713132098134488 0 0.46539855536464098 -0.31253117627970939 0 0.45551772977017219 -0.30713132098134488 0 0.46539855536464098 -0.31253117627970939 0 0.45663755013463708 -0.31593008330840161 0 0.46539855536464098 -0.31253117627970939 0 0.46859510692002798 -0.30906282616419828 0 0.471382522272219 -0.31494906934539041 0 0.46859510692002798 -0.30906282616419828 0 0.47559033083996188 -0.31106495341043988 0 0.47516589064389408 -0.30196375434012318 0 0.46859510692002798 -0.30906282616419828 0 0.47516589064389408 -0.30196375434012318 0 0.47487608553602262 -0.28214421133509993 0 0.46859510692002798 -0.30906282616419828 0 0.47559033083996188 -0.31106495341043988 0 0.471382522272219 -0.31494906934539041 0 0.47978846713434642 -0.29864873283222199 0 0.48142526411553771 -0.30719496778922778 0 0.49095529082280021 -0.3012858239101186 0 0.47516589064389408 -0.30196375434012318 0 0.47978846713434642 -0.29864873283222199 0 0.48142526411553771 -0.30719496778922778 0 0.47559033083996188 -0.31106495341043988 0 0.48142526411553771 -0.30719496778922778 0 0.4811013565940766 -0.31507881300463481 0 0.47559033083996188 -0.31106495341043988 0 0.47516589064389408 -0.30196375434012318 0 0.48142526411553771 -0.30719496778922778 0 0.47978846713434642 -0.29864873283222199 0 0.47487608553602262 -0.28214421133509993 0 0.49095529082280021 -0.3012858239101186 0 0.46859510692002798 -0.30906282616419828 0 0.47487608553602262 -0.28214421133509993 0 0.47516589064389408 -0.30196375434012318 0 0.47978846713434642 -0.29864873283222199 0 0.47487608553602262 -0.28214421133509993 0 0.49397019388186669 -0.27213494004060668 0 0.5 -0.28794895587026048 0 0.49095529082280021 -0.3012858239101186 0 0.49397019388186669 -0.27213494004060668 0 0.47487608553602262 -0.28214421133509993 0 0.49095529082280021 -0.3012858239101186 0 0.49397019388186669 -0.27213494004060668 0 0.49095529082280021 -0.3012858239101186 0 0.5 -0.28794895587026048 0 0.49095529082280021 -0.3012858239101186 0 0.5 -0.31265421705981972 0 0.48142526411553771 -0.30719496778922778 0 0.49095529082280021 -0.3012858239101186 0 0.48921484117828451 -0.31629601996596668 0 0.49095529082280021 -0.3012858239101186 0 0.5 -0.31265421705981972 0 0.48921484117828451 -0.31629601996596668 0 0.5 -0.31265421705981972 0 0.48921484117828451 -0.31629601996596668 0 0.49999999999999822 -0.33735947824937901 0 0.48921484117828451 -0.31629601996596668 0 0.49999999999999822 -0.33735947824937901 0 0.48167628963253689 -0.32432609843138821 0 0.49999999999999822 -0.33735947824937901 0 0.47983833126722147 -0.33428234001476143 0 0.48167628963253689 -0.32432609843138821 0 0.49999999999999822 -0.33735947824937901 0 0.47983833126722147 -0.33428234001476143 0 0.47621390186653262 -0.34506346733291438 0 0.500000000000001 -0.34165139984117537 0 0.49999999999999822 -0.33735947824937901 0 0.47621390186653262 -0.34506346733291438 0 0.49999999999999822 -0.33735947824937901 0 0.47621390186653262 -0.34506346733291438 0 0.47983833126722147 -0.33428234001476143 0 0.47621390186653262 -0.34506346733291438 0 0.46846587680004542 -0.33947765987750722 0 0.47621390186653262 -0.34506346733291438 0 0.46910502227364281 -0.34509256636304908 0 0.46846587680004542 -0.33947765987750722 0 0.47621390186653262 -0.34506346733291438 0 0.46846587680004542 -0.33947765987750722 0 0.47983833126722147 -0.33428234001476143 0 0.47283558803699338 -0.32518499618261992 0 0.46846587680004542 -0.33947765987750722 0 0.46539855536464098 -0.31253117627970939 0 0.47283558803699338 -0.32518499618261992 0 0.46846587680004542 -0.33947765987750722 0 0.47283558803699338 -0.32518499618261992 0 0.471382522272219 -0.31494906934539041 0 0.47574099858925778 -0.31826356846783199 0 0.46539855536464098 -0.31253117627970939 0 0.47283558803699338 -0.32518499618261992 0 0.471382522272219 -0.31494906934539041 0 0.47559033083996188 -0.31106495341043988 0 0.471382522272219 -0.31494906934539041 0 0.47574099858925778 -0.31826356846783199 0 0.48142526411553771 -0.30719496778922778 0 0.48921484117828451 -0.31629601996596668 0 0.4811013565940766 -0.31507881300463481 0 0.47574099858925778 -0.31826356846783199 0 0.4811013565940766 -0.31507881300463481 0 0.48167628963253689 -0.32432609843138821 0 0.48921484117828451 -0.31629601996596668 0 0.4811013565940766 -0.31507881300463481 0 0.48167628963253689 -0.32432609843138821 0 0.47559033083996188 -0.31106495341043988 0 0.47574099858925778 -0.31826356846783199 0 0.4811013565940766 -0.31507881300463481 0 0.47283558803699338 -0.32518499618261992 0 0.47574099858925778 -0.31826356846783199 0 0.48167628963253689 -0.32432609843138821 0 0.47983833126722147 -0.33428234001476143 0 0.47283558803699338 -0.32518499618261992 0 0.48167628963253689 -0.32432609843138821 0 0.4934670563383724 -0.35750183685947401 0 0.48179212878373279 -0.36602358496787241 0 0.48460785480239499 -0.37899631519140781 0 0.50000000000000044 -0.36221165195399541 0 0.5 -0.37901481938011011 0 0.48460785480239499 -0.37899631519140781 0 0.50000000000000044 -0.36221165195399541 0 0.4934670563383724 -0.35750183685947401 0 0.48460785480239499 -0.37899631519140781 0 0.4934670563383724 -0.35750183685947401 0 0.48460785480239499 -0.37899631519140781 0 0.50000000000000044 -0.36221165195399541 0 0.4934670563383724 -0.35750183685947401 0 0.500000000000001 -0.34165139984117537 0 0.50000000000000044 -0.36221165195399541 0 0.4934670563383724 -0.35750183685947401 0 0.500000000000001 -0.34165139984117537 0 0.4934670563383724 -0.35750183685947401 0 0.4934670563383724 -0.35750183685947401 0 0.47621390186653262 -0.34506346733291438 0 0.500000000000001 -0.34165139984117537 0 0.4934670563383724 -0.35750183685947401 0 0.47621390186653262 -0.34506346733291438 0 0.4934670563383724 -0.35750183685947401 0 0.47697269661162128 -0.35365454636322641 0 0.48179212878373279 -0.36602358496787241 0 0.47071490409494549 -0.3468445168587781 0 0.47697269661162128 -0.35365454636322641 0 0.47257505634965358 -0.37557688901462688 0 0.4934670563383724 -0.35750183685947401 0 0.47621390186653262 -0.34506346733291438 0 0.47697269661162128 -0.35365454636322641 0 0.47621390186653262 -0.34506346733291438 0 0.47071490409494549 -0.3468445168587781 0 0.47697269661162128 -0.35365454636322641 0 0.47621390186653262 -0.34506346733291438 0 0.47071490409494549 -0.3468445168587781 0 0.47621390186653262 -0.34506346733291438 0 0.47071490409494549 -0.3468445168587781 0 0.46910502227364281 -0.34509256636304908 0 0.47071490409494549 -0.3468445168587781 0 0.46910502227364281 -0.34509256636304908 0 0.47071490409494549 -0.3468445168587781 0 0.47697269661162128 -0.35365454636322641 0 0.47071490409494549 -0.3468445168587781 0 0.47257505634965358 -0.37557688901462688 0 0.47697269661162128 -0.35365454636322641 0 0.48179212878373279 -0.36602358496787241 0 0.47257505634965358 -0.37557688901462688 0 0.48179212878373279 -0.36602358496787241 0 0.48460785480239499 -0.37899631519140781 0 0.47257505634965358 -0.37557688901462688 0 0.47071490409494549 -0.3468445168587781 0 0.46025142743764369 -0.36319476036645548 0 0.47257505634965358 -0.37557688901462688 0 0.46025142743764369 -0.36319476036645548 0 0.47257505634965358 -0.37557688901462688 0 0.45069180707823209 -0.37583994297444479 0 0.47071490409494549 -0.3468445168587781 0 0.46025142743764369 -0.36319476036645548 0 0.44838424757084472 -0.35407710848118978 0 0.47071490409494549 -0.3468445168587781 0 0.44838424757084472 -0.35407710848118978 0 0.47071490409494549 -0.3468445168587781 0 0.45612250758590939 -0.34390968811568617 0 0.44838424757084472 -0.35407710848118978 0 0.47071490409494549 -0.3468445168587781 0 0.46910502227364281 -0.34509256636304908 0 0.45612250758590939 -0.34390968811568617 0 0.44838424757084472 -0.35407710848118978 0 0.43869554835711599 -0.34327128536007229 0 0.42741389638984489 -0.36086911596681892 0 0.45612250758590939 -0.34390968811568617 0 0.44838424757084472 -0.35407710848118978 0 0.43869554835711599 -0.34327128536007229 0 0.44838424757084472 -0.35407710848118978 0 0.42741389638984489 -0.36086911596681892 0 0.44838424757084472 -0.35407710848118978 0 0.42741389638984489 -0.36086911596681892 0 0.45069180707823209 -0.37583994297444479 0 0.46025142743764369 -0.36319476036645548 0 0.44838424757084472 -0.35407710848118978 0 0.45069180707823209 -0.37583994297444479 0 0.46539855536464098 -0.31253117627970939 0 0.46846587680004542 -0.33947765987750722 0 0.45507312097610297 -0.3298223793785634 0 0.46539855536464098 -0.31253117627970939 0 0.46846587680004542 -0.33947765987750722 0 0.46539855536464098 -0.31253117627970939 0 0.45663755013463708 -0.31593008330840161 0 0.45507312097610297 -0.3298223793785634 0 0.45663755013463708 -0.31593008330840161 0 0.45507312097610297 -0.3298223793785634 0 0.45056079442763231 -0.31423545659398849 0 0.46846587680004542 -0.33947765987750722 0 0.45507312097610297 -0.3298223793785634 0 0.46910502227364281 -0.34509256636304908 0 0.45507312097610297 -0.3298223793785634 0 0.46910502227364281 -0.34509256636304908 0 0.46846587680004542 -0.33947765987750722 0 0.45507312097610297 -0.3298223793785634 0 0.46910502227364281 -0.34509256636304908 0 0.46846587680004542 -0.33947765987750722 0 0.46910502227364281 -0.34509256636304908 0 0.45612250758590939 -0.34390968811568617 0 0.45507312097610297 -0.3298223793785634 0 0.45507312097610297 -0.3298223793785634 0 0.43869554835711599 -0.34327128536007229 0 0.43926020039467462 -0.32876894507115739 0 0.45612250758590939 -0.34390968811568617 0 0.45507312097610297 -0.3298223793785634 0 0.43869554835711599 -0.34327128536007229 0 0.45507312097610297 -0.3298223793785634 0 0.43926020039467462 -0.32876894507115739 0 0.43326369658377262 -0.31409924421529728 0 0.45507312097610297 -0.3298223793785634 0 0.43326369658377262 -0.31409924421529728 0 0.45507312097610297 -0.3298223793785634 0 0.43326369658377262 -0.31409924421529728 0 0.43636585569331282 -0.3094642374005625 0 0.45507312097610297 -0.3298223793785634 0 0.45056079442763231 -0.31423545659398849 0 0.43636585569331282 -0.3094642374005625 0 0.45507312097610297 -0.3298223793785634 0 0.43636585569331282 -0.3094642374005625 0 0.43326369658377262 -0.31409924421529728 0 0.42329101165934369 -0.31519204054166561 0 0.42961918406832461 -0.3230241888868427 0 0.42329101165934369 -0.31519204054166561 0 0.42961918406832461 -0.3230241888868427 0 0.42346738779915238 -0.32389984213189532 0 0.42961918406832461 -0.3230241888868427 0 0.42346738779915238 -0.32389984213189532 0 0.42881362390467942 -0.33316087247419812 0 0.43926020039467462 -0.32876894507115739 0 0.43326369658377262 -0.31409924421529728 0 0.42961918406832461 -0.3230241888868427 0 0.43869554835711599 -0.34327128536007229 0 0.43926020039467462 -0.32876894507115739 0 0.42881362390467942 -0.33316087247419812 0 0.43869554835711599 -0.34327128536007229 0 0.42881362390467942 -0.33316087247419812 0 0.42044194506320087 -0.34683994890141578 0 0.43926020039467462 -0.32876894507115739 0 0.42961918406832461 -0.3230241888868427 0 0.42881362390467942 -0.33316087247419812 0 0.42346738779915238 -0.32389984213189532 0 0.42881362390467942 -0.33316087247419812 0 0.41614599321582402 -0.33172436381929299 0 0.41614599321582402 -0.33172436381929299 0 0.40513906330289567 -0.34435293233566538 0 0.40518470097916381 -0.3243049635531296 0 0.42881362390467942 -0.33316087247419812 0 0.41614599321582402 -0.33172436381929299 0 0.42044194506320087 -0.34683994890141578 0 0.41614599321582402 -0.33172436381929299 0 0.42044194506320087 -0.34683994890141578 0 0.40513906330289567 -0.34435293233566538 0 0.41614599321582402 -0.33172436381929299 0 0.41500044174884598 -0.31692759746226951 0 0.40518470097916381 -0.3243049635531296 0 0.41500044174884598 -0.31692759746226951 0 0.40518470097916381 -0.3243049635531296 0 0.40626570371790199 -0.30906790003712792 0 0.42329101165934369 -0.31519204054166561 0 0.42346738779915238 -0.32389984213189532 0 0.41500044174884598 -0.31692759746226951 0 0.42346738779915238 -0.32389984213189532 0 0.41614599321582402 -0.33172436381929299 0 0.41500044174884598 -0.31692759746226951 0 0.42741389638984489 -0.36086911596681892 0 0.45069180707823209 -0.37583994297444479 0 0.42910733482445229 -0.38267963278858719 0 0.43869554835711599 -0.34327128536007229 0 0.42741389638984489 -0.36086911596681892 0 0.42044194506320087 -0.34683994890141578 0 0.42044194506320087 -0.34683994890141578 0 0.40644354520884501 -0.36766112345244728 0 0.40513906330289567 -0.34435293233566538 0 0.42741389638984489 -0.36086911596681892 0 0.42044194506320087 -0.34683994890141578 0 0.40644354520884501 -0.36766112345244728 0 0.42741389638984489 -0.36086911596681892 0 0.40644354520884501 -0.36766112345244728 0 0.42910733482445229 -0.38267963278858719 0 0.42741389638984489 -0.36086911596681892 0 0.40644354520884501 -0.36766112345244728 0 0.40644354520884501 -0.36766112345244728 0 0.39149380937057521 -0.35775445069083289 0 0.38053196502919212 -0.37605352685216481 0 0.40644354520884501 -0.36766112345244728 0 0.38053196502919212 -0.37605352685216481 0 0.40644354520884501 -0.36766112345244728 0 0.39149380937057521 -0.35775445069083289 0 0.39149380937057521 -0.35775445069083289 0 0.40513906330289567 -0.34435293233566538 0 0.39086438725573491 -0.33607637074117508 0 0.40644354520884501 -0.36766112345244728 0 0.39149380937057521 -0.35775445069083289 0 0.40513906330289567 -0.34435293233566538 0 0.39149380937057521 -0.35775445069083289 0 0.37654407353230501 -0.34784777792921928 0 0.39086438725573491 -0.33607637074117508 0 0.39149380937057521 -0.35775445069083289 0 0.37654407353230501 -0.34784777792921928 0 0.37703334077947492 -0.36140396249036771 0 0.39149380937057521 -0.35775445069083289 0 0.37654407353230501 -0.34784777792921928 0 0.39149380937057521 -0.35775445069083289 0 0.37703334077947492 -0.36140396249036771 0 0.38053196502919212 -0.37605352685216481 0 0.39263304446966862 -0.32126119146515858 0 0.40518470097916381 -0.3243049635531296 0 0.39086438725573491 -0.33607637074117508 0 0.39263304446966862 -0.32126119146515858 0 0.38617333700593193 -0.31324099935306221 0 0.39573412612712172 -0.3096297002981423 0 0.39263304446966862 -0.32126119146515858 0 0.40518470097916381 -0.3243049635531296 0 0.39573412612712172 -0.3096297002981423 0 0.40518470097916381 -0.3243049635531296 0 0.39573412612712172 -0.3096297002981423 0 0.40626570371790199 -0.30906790003712792 0 0.40513906330289567 -0.34435293233566538 0 0.40518470097916381 -0.3243049635531296 0 0.39086438725573491 -0.33607637074117508 0 0.40518470097916381 -0.3243049635531296 0 0.39086438725573491 -0.33607637074117508 0 0.39086438725573491 -0.33607637074117508 0 0.38128505116632622 -0.32332636660823583 0 0.3746951524510434 -0.33389943494904722 0 0.37654407353230501 -0.34784777792921928 0 0.39086438725573491 -0.33607637074117508 0 0.3746951524510434 -0.33389943494904722 0 0.37654407353230501 -0.34784777792921928 0 0.39086438725573491 -0.33607637074117508 0 0.38128505116632622 -0.32332636660823583 0 0.37152605705190789 -0.32241778638969881 0 0.3746951524510434 -0.33389943494904722 0 0.39263304446966862 -0.32126119146515858 0 0.39086438725573491 -0.33607637074117508 0 0.38128505116632622 -0.32332636660823583 0 0.39263304446966862 -0.32126119146515858 0 0.38128505116632622 -0.32332636660823583 0 0.38617333700593193 -0.31324099935306221 0 0.38128505116632622 -0.32332636660823583 0 0.38617333700593193 -0.31324099935306221 0 0.37813547211910831 -0.31437520482735848 0 0.38128505116632622 -0.32332636660823583 0 0.37813547211910831 -0.31437520482735848 0 0.37152605705190789 -0.32241778638969881 0 0.38617333700593193 -0.31324099935306221 0 0.37813547211910831 -0.31437520482735848 0 0.3847742502826581 -0.29813946806994412 0 0.37813547211910831 -0.31437520482735848 0 0.3847742502826581 -0.29813946806994412 0 0.36691866508871701 -0.31475140371585109 0 0.3847742502826581 -0.29813946806994412 0 0.36691866508871701 -0.31475140371585109 0 0.38617333700593193 -0.31324099935306221 0 0.3847742502826581 -0.29813946806994412 0 0.39573412612712172 -0.3096297002981423 0 0.3847742502826581 -0.29813946806994412 0 0.39573412612712172 -0.3096297002981423 0 0.3998838524707124 -0.2978683852911882 0 0.3998838524707124 -0.2978683852911882 0 0.40626570371790199 -0.30906790003712792 0 0.41145427219144232 -0.29837610905203099 0 0.39573412612712172 -0.3096297002981423 0 0.3998838524707124 -0.2978683852911882 0 0.40626570371790199 -0.30906790003712792 0 0.3847742502826581 -0.29813946806994412 0 0.3998838524707124 -0.2978683852911882 0 0.40262983547659942 -0.28152753242403711 0 0.3998838524707124 -0.2978683852911882 0 0.40262983547659942 -0.28152753242403711 0 0.41145427219144232 -0.29837610905203099 0 0.3847742502826581 -0.29813946806994412 0 0.40262983547659942 -0.28152753242403711 0 0.3847742502826581 -0.29813946806994412 0 0.40262983547659942 -0.28152753242403711 0 0.37838188734062489 -0.27571335092725352 0 0.3847742502826581 -0.29813946806994412 0 0.37838188734062489 -0.27571335092725352 0 0.36799538525566211 -0.29579556858431022 0 0.37838188734062489 -0.27571335092725352 0 0.38876838942558789 -0.2556311332701966 0 0.37838188734062489 -0.27571335092725352 0 0.38876838942558789 -0.2556311332701966 0 0.39965857030190288 -0.26604019346793512 0 0.37838188734062489 -0.27571335092725352 0 0.38876838942558789 -0.2556311332701966 0 0.36351443947396811 -0.25529371512200533 0 0.38876838942558789 -0.2556311332701966 0 0.39965857030190288 -0.26604019346793512 0 0.4068291874041331 -0.25221511479299691 0 0.40262983547659942 -0.28152753242403711 0 0.37838188734062489 -0.27571335092725352 0 0.39965857030190288 -0.26604019346793512 0 0.40262983547659942 -0.28152753242403711 0 0.42048542067054051 -0.26491559677812998 0 0.40262983547659942 -0.28152753242403711 0 0.39965857030190288 -0.26604019346793512 0 0.42048542067054051 -0.26491559677812998 0 0.40262983547659942 -0.28152753242403711 0 0.42048542067054051 -0.26491559677812998 0 0.41765859041052239 -0.28910609542256172 0 0.39965857030190288 -0.26604019346793512 0 0.4068291874041331 -0.25221511479299691 0 0.42048542067054051 -0.26491559677812998 0 0.42099385082287433 -0.23940450220376311 0 0.4068291874041331 -0.25221511479299691 0 0.42048542067054051 -0.26491559677812998 0 0.43834100586448171 -0.24830366113222299 0 0.42048542067054051 -0.26491559677812998 0 0.42099385082287433 -0.23940450220376311 0 0.43834100586448171 -0.24830366113222299 0 0.42048542067054051 -0.26491559677812998 0 0.43834100586448171 -0.24830366113222299 0 0.42048542067054051 -0.26491559677812998 0 0.43624226937975019 -0.26633628301527718 0 0.42048542067054051 -0.26491559677812998 0 0.42806838628101151 -0.27806213659590923 0 0.43624226937975019 -0.26633628301527718 0 0.42048542067054051 -0.26491559677812998 0 0.42806838628101151 -0.27806213659590923 0 0.41765859041052239 -0.28910609542256172 0 0.4383621270706663 -0.2812343874515783 0 0.42806838628101151 -0.27806213659590923 0 0.43624226937975019 -0.26633628301527718 0 0.42872096064988852 -0.28843171049006311 0 0.4371577220376674 -0.29162202051415997 0 0.43636585569331282 -0.3094642374005625 0 0.4383621270706663 -0.2812343874515783 0 0.42872096064988852 -0.28843171049006311 0 0.4371577220376674 -0.29162202051415997 0 0.42872096064988852 -0.28843171049006311 0 0.43636585569331282 -0.3094642374005625 0 0.41765859041052239 -0.28910609542256172 0 0.4383621270706663 -0.2812343874515783 0 0.42806838628101151 -0.27806213659590923 0 0.42872096064988852 -0.28843171049006311 0 0.42806838628101151 -0.27806213659590923 0 0.42872096064988852 -0.28843171049006311 0 0.41765859041052239 -0.28910609542256172 0 0.43326369658377262 -0.31409924421529728 0 0.41145427219144232 -0.29837610905203099 0 0.43326369658377262 -0.31409924421529728 0 0.43636585569331282 -0.3094642374005625 0 0.41145427219144232 -0.29837610905203099 0 0.43326369658377262 -0.31409924421529728 0 0.42329101165934369 -0.31519204054166561 0 0.41145427219144232 -0.29837610905203099 0 0.43636585569331282 -0.3094642374005625 0 0.41765859041052239 -0.28910609542256172 0 0.42329101165934369 -0.31519204054166561 0 0.41500044174884598 -0.31692759746226951 0 0.41145427219144232 -0.29837610905203099 0 0.41500044174884598 -0.31692759746226951 0 0.40626570371790199 -0.30906790003712792 0 0.41145427219144232 -0.29837610905203099 0 0.43636585569331282 -0.3094642374005625 0 0.41145427219144232 -0.29837610905203099 0 0.41765859041052239 -0.28910609542256172 0 0.40262983547659942 -0.28152753242403711 0 0.41145427219144232 -0.29837610905203099 0 0.41765859041052239 -0.28910609542256172 0 0.44440693613145849 -0.49999999999999589 0 0.44572032663827871 -0.47334648073522623 0 0.46071154177703882 -0.46760864263986368 0 0.44440693613145849 -0.49999999999999589 0 0.47620895670267011 -0.4748561956410921 0 0.46071154177703882 -0.46760864263986368 0 0.44440693613145849 -0.49999999999999589 0 0.43834929035166892 -0.4800532016665201 0 0.44572032663827871 -0.47334648073522623 0 0.44440693613145849 -0.49999999999999589 0 0.43834929035166892 -0.4800532016665201 0 0.43834929035166892 -0.4800532016665201 0 0.44572032663827871 -0.47334648073522623 0 0.43229164457187808 -0.46010640333304459 0 0.5 -0.5 0 0.47620895670267011 -0.4748561956410921 0 0.5 -0.45662603617922032 0 0.44440693613145849 -0.49999999999999589 0 0.5 -0.5 0 0.47620895670267011 -0.4748561956410921 0 0.47620895670267011 -0.4748561956410921 0 0.5 -0.45662603617922032 0 0.47246805346753967 -0.45222721593187198 0 0.47620895670267011 -0.4748561956410921 0 0.47246805346753967 -0.45222721593187198 0 0.46071154177703882 -0.46760864263986368 0 0.5 -0.45662603617922032 0 0.47246805346753967 -0.45222721593187198 0 0.48125691475159588 -0.42869686092658321 0 0.47246805346753967 -0.45222721593187198 0 0.46251382950319619 -0.43260154655790672 0 0.48125691475159588 -0.42869686092658321 0 0.45411707807073748 -0.45297401364656648 0 0.46251382950319619 -0.43260154655790672 0 0.45411707807073748 -0.45297401364656648 0 0.45021393299112089 -0.43516394375884659 0 0.46251382950319619 -0.43260154655790672 0 0.47246805346753967 -0.45222721593187198 0 0.45411707807073748 -0.45297401364656648 0 0.46251382950319619 -0.43260154655790672 0 0.47246805346753967 -0.45222721593187198 0 0.45411707807073748 -0.45297401364656648 0 0.46071154177703882 -0.46760864263986368 0 0.44572032663827871 -0.47334648073522623 0 0.45411707807073748 -0.45297401364656648 0 0.46071154177703882 -0.46760864263986368 0 0.44572032663827871 -0.47334648073522623 0 0.44271153655677592 -0.45575697651464658 0 0.43229164457187808 -0.46010640333304459 0 0.44572032663827871 -0.47334648073522623 0 0.45411707807073748 -0.45297401364656648 0 0.44271153655677592 -0.45575697651464658 0 0.44572032663827871 -0.47334648073522623 0 0.45411707807073748 -0.45297401364656648 0 0.45411707807073748 -0.45297401364656648 0 0.4455788220778778 -0.44771672760347558 0 0.45021393299112089 -0.43516394375884659 0 0.45021393299112089 -0.43516394375884659 0 0.42623399879208712 -0.44015960499956919 0 0.44271153655677592 -0.45575697651464658 0 0.4455788220778778 -0.44771672760347558 0 0.43527274069287708 -0.44697197649384368 0 0.45021393299112089 -0.43516394375884659 0 0.43527274069287708 -0.44697197649384368 0 0.4455788220778778 -0.44771672760347558 0 0.45021393299112089 -0.43516394375884659 0 0.43527274069287708 -0.44697197649384368 0 0.45411707807073748 -0.45297401364656648 0 0.44271153655677592 -0.45575697651464658 0 0.4455788220778778 -0.44771672760347558 0 0.45021393299112089 -0.43516394375884659 0 0.44053873425858409 -0.41677333165715907 0 0.42623399879208712 -0.44015960499956919 0 0.45021393299112089 -0.43516394375884659 0 0.44053873425858409 -0.41677333165715907 0 0.46688945173042989 -0.42198527185527118 0 0.44053873425858409 -0.41677333165715907 0 0.46688945173042989 -0.42198527185527118 0 0.45177112444005951 -0.39769814212472743 0 0.46688945173042989 -0.42198527185527118 0 0.47574865326641269 -0.40049079352333949 0 0.45177112444005951 -0.39769814212472743 0 0.45021393299112089 -0.43516394375884659 0 0.46688945173042989 -0.42198527185527118 0 0.46688945173042989 -0.42198527185527118 0 0.46251382950319619 -0.43260154655790672 0 0.45021393299112089 -0.43516394375884659 0 0.46688945173042989 -0.42198527185527118 0 0.46251382950319619 -0.43260154655790672 0 0.45021393299112089 -0.43516394375884659 0 0.46251382950319619 -0.43260154655790672 0 0.46251382950319619 -0.43260154655790672 0 0.48125691475159588 -0.42869686092658321 0 0.5 -0.45662603617922032 0 0.48125691475159588 -0.42869686092658321 0 0.49999999999999589 -0.42479217529526081 0 0.46688945173042989 -0.42198527185527118 0 0.46251382950319619 -0.43260154655790672 0 0.48125691475159588 -0.42869686092658321 0 0.48125691475159588 -0.42869686092658321 0 0.49999999999999589 -0.42479217529526081 0 0.49999999999999589 -0.42479217529526081 0 0.48344472586521492 -0.40890162933074781 0 0.50000000000000011 -0.39581798680622471 0 0.48125691475159588 -0.42869686092658321 0 0.49999999999999589 -0.42479217529526081 0 0.48344472586521492 -0.40890162933074781 0 0.46688945173042989 -0.42198527185527118 0 0.47574865326641269 -0.40049079352333949 0 0.46688945173042989 -0.42198527185527118 0 0.48344472586521492 -0.40890162933074781 0 0.47574865326641269 -0.40049079352333949 0 0.46688945173042989 -0.42198527185527118 0 0.48344472586521492 -0.40890162933074781 0 0.46688945173042989 -0.42198527185527118 0 0.48125691475159588 -0.42869686092658321 0 0.48344472586521492 -0.40890162933074781 0 0.47574865326641269 -0.40049079352333949 0 0.48819383914194509 -0.3925926900173447 0 0.48460785480239499 -0.37899631519140781 0 0.48344472586521492 -0.40890162933074781 0 0.47574865326641269 -0.40049079352333949 0 0.48819383914194509 -0.3925926900173447 0 0.48344472586521492 -0.40890162933074781 0 0.50000000000000011 -0.39581798680622471 0 0.48819383914194509 -0.3925926900173447 0 0.48344472586521492 -0.40890162933074781 0 0.50000000000000011 -0.39581798680622471 0 0.50000000000000011 -0.39581798680622471 0 0.48819383914194509 -0.3925926900173447 0 0.5 -0.37901481938011011 0 0.48819383914194509 -0.3925926900173447 0 0.5 -0.37901481938011011 0 0.48460785480239499 -0.37899631519140781 0 0.47574865326641269 -0.40049079352333949 0 0.48460785480239499 -0.37899631519140781 0 0.47574865326641269 -0.40049079352333949 0 0.48460785480239499 -0.37899631519140781 0 0.46601700507524291 -0.38743070525762269 0 0.48460785480239499 -0.37899631519140781 0 0.47257505634965358 -0.37557688901462688 0 0.46601700507524291 -0.38743070525762269 0 0.46601700507524291 -0.38743070525762269 0 0.45177112444005951 -0.39769814212472743 0 0.45069180707823209 -0.37583994297444479 0 0.47257505634965358 -0.37557688901462688 0 0.46601700507524291 -0.38743070525762269 0 0.45069180707823209 -0.37583994297444479 0 0.47574865326641269 -0.40049079352333949 0 0.46601700507524291 -0.38743070525762269 0 0.45177112444005951 -0.39769814212472743 0 0.44053873425858409 -0.41677333165715907 0 0.45177112444005951 -0.39769814212472743 0 0.42946893824512089 -0.40105825301637382 0 0.45177112444005951 -0.39769814212472743 0 0.45069180707823209 -0.37583994297444479 0 0.42910733482445229 -0.38267963278858719 0 0.45177112444005951 -0.39769814212472743 0 0.42910733482445229 -0.38267963278858719 0 0.45177112444005951 -0.39769814212472743 0 0.42910733482445229 -0.38267963278858719 0 0.42946893824512089 -0.40105825301637382 0 0.42910733482445229 -0.38267963278858719 0 0.42946893824512089 -0.40105825301637382 0 0.40747592745058497 -0.39360676842739789 0 0.42946893824512089 -0.40105825301637382 0 0.40747592745058497 -0.39360676842739789 0 0.41845157025192392 -0.41453339008399748 0 0.40644354520884501 -0.36766112345244728 0 0.42910733482445229 -0.38267963278858719 0 0.40644354520884501 -0.36766112345244728 0 0.42910733482445229 -0.38267963278858719 0 0.40747592745058497 -0.39360676842739789 0 0.40644354520884501 -0.36766112345244728 0 0.39368270718540432 -0.38457910501368292 0 0.38053196502919212 -0.37605352685216481 0 0.40644354520884501 -0.36766112345244728 0 0.40747592745058497 -0.39360676842739789 0 0.39368270718540432 -0.38457910501368292 0 0.39368270718540432 -0.38457910501368292 0 0.38053196502919212 -0.37605352685216481 0 0.38027939105299519 -0.40099500132272209 0 0.40747592745058497 -0.39360676842739789 0 0.38027939105299519 -0.40099500132272209 0 0.39900070001686122 -0.41803652774129318 0 0.40747592745058497 -0.39360676842739789 0 0.39368270718540432 -0.38457910501368292 0 0.38027939105299519 -0.40099500132272209 0 0.38027939105299519 -0.40099500132272209 0 0.39900070001686122 -0.41803652774129318 0 0.37936100992434912 -0.42857144047604429 0 0.39900070001686122 -0.41803652774129318 0 0.37936100992434912 -0.42857144047604429 0 0.40260269662092779 -0.44508263687048821 0 0.39900070001686122 -0.41803652774129318 0 0.41181253672953039 -0.43024133603435077 0 0.40260269662092779 -0.44508263687048821 0 0.41181253672953039 -0.43024133603435077 0 0.41845157025192392 -0.41453339008399748 0 0.42623399879208712 -0.44015960499956919 0 0.40747592745058497 -0.39360676842739789 0 0.39900070001686122 -0.41803652774129318 0 0.41845157025192392 -0.41453339008399748 0 0.39900070001686122 -0.41803652774129318 0 0.41181253672953039 -0.43024133603435077 0 0.41845157025192392 -0.41453339008399748 0 0.44053873425858409 -0.41677333165715907 0 0.42946893824512089 -0.40105825301637382 0 0.41845157025192392 -0.41453339008399748 0 0.44053873425858409 -0.41677333165715907 0 0.41845157025192392 -0.41453339008399748 0 0.42623399879208712 -0.44015960499956919 0 0.41845157025192392 -0.41453339008399748 0 0.42623399879208712 -0.44015960499956919 0 0.45021393299112089 -0.43516394375884659 0 0.42623399879208712 -0.44015960499956919 0 0.43527274069287708 -0.44697197649384368 0 0.42623399879208712 -0.44015960499956919 0 0.43527274069287708 -0.44697197649384368 0 0.43229164457187808 -0.46010640333304459 0 0.42623399879208712 -0.44015960499956919 0 0.43229164457187808 -0.46010640333304459 0 0.42623399879208712 -0.44015960499956919 0 0.43229164457187808 -0.46010640333304459 0 0.40862232810157711 -0.46295958545274107 0 0.44271153655677592 -0.45575697651464658 0 0.43527274069287708 -0.44697197649384368 0 0.43229164457187808 -0.46010640333304459 0 0.43229164457187808 -0.46010640333304459 0 0.40862232810157711 -0.46295958545274107 0 0.4195096896208993 -0.47734413498328598 0 0.42623399879208712 -0.44015960499956919 0 0.40260269662092779 -0.44508263687048821 0 0.41181253672953039 -0.43024133603435077 0 0.42623399879208712 -0.44015960499956919 0 0.40260269662092779 -0.44508263687048821 0 0.42623399879208712 -0.44015960499956919 0 0.40862232810157711 -0.46295958545274107 0 0.40260269662092779 -0.44508263687048821 0 0.40862232810157711 -0.46295958545274107 0 0.40260269662092779 -0.44508263687048821 0 0.38348880610313441 -0.44816889113902802 0 0.37936100992434912 -0.42857144047604429 0 0.40260269662092779 -0.44508263687048821 0 0.38348880610313441 -0.44816889113902802 0 0.40862232810157711 -0.46295958545274107 0 0.38348880610313441 -0.44816889113902802 0 0.37994343463442859 -0.46720296892822422 0 0.40862232810157711 -0.46295958545274107 0 0.37994343463442859 -0.46720296892822422 0 0.39940953990460032 -0.4836014844641161 0 0.37994343463442859 -0.46720296892822422 0 0.39940953990460032 -0.4836014844641161 0 0.37994343463442859 -0.46720296892822422 0 0.39940953990460032 -0.4836014844641161 0 0.37904510690891569 -0.48562567689471808 0 0.39940953990460032 -0.4836014844641161 0 0.37904510690891569 -0.48562567689471808 0 0.39191141047530581 -0.5 0 0.37904510690891569 -0.48562567689471808 0 0.39191141047530581 -0.5 0 0.36494717577583741 -0.5 0 0.39940953990460032 -0.4836014844641161 0 0.39191141047530581 -0.5 0 0.41887564517477449 -0.50000000000000511 0 0.39940953990460032 -0.4836014844641161 0 0.41887564517477449 -0.50000000000000511 0 0.39940953990460032 -0.4836014844641161 0 0.41887564517477449 -0.50000000000000511 0 0.4195096896208993 -0.47734413498328598 0 0.40862232810157711 -0.46295958545274107 0 0.39940953990460032 -0.4836014844641161 0 0.4195096896208993 -0.47734413498328598 0 0.43834929035166892 -0.4800532016665201 0 0.43229164457187808 -0.46010640333304459 0 0.4195096896208993 -0.47734413498328598 0 0.43834929035166892 -0.4800532016665201 0 0.43229164457187808 -0.46010640333304459 0 0.44440693613145849 -0.49999999999999589 0 0.43834929035166892 -0.4800532016665201 0 0.41887564517477449 -0.50000000000000511 0 0.43834929035166892 -0.4800532016665201 0 0.41887564517477449 -0.50000000000000511 0 0.4195096896208993 -0.47734413498328598 0 0.31743299380041318 -0.47759441915023371 0 0.33798294107636878 -0.5 0 0.33562169187151092 -0.46531452736041662 0 0.31743299380041318 -0.47759441915023371 0 0.33798294107636878 -0.5 0 0.31101870637690032 -0.5 0 0.33798294107636878 -0.5 0 0.36494717577583741 -0.5 0 0.35901397375440641 -0.47732393108125021 0 0.33798294107636878 -0.5 0 0.35901397375440641 -0.47732393108125021 0 0.33562169187151092 -0.46531452736041662 0 0.37904510690891569 -0.48562567689471808 0 0.36494717577583741 -0.5 0 0.35901397375440641 -0.47732393108125021 0 0.37994343463442859 -0.46720296892822422 0 0.37904510690891569 -0.48562567689471808 0 0.35901397375440641 -0.47732393108125021 0 0.35901397375440641 -0.47732393108125021 0 0.36047732936425692 -0.45080445339233233 0 0.33562169187151092 -0.46531452736041662 0 0.37994343463442859 -0.46720296892822422 0 0.36047732936425692 -0.45080445339233233 0 0.38348880610313441 -0.44816889113902802 0 0.37994343463442859 -0.46720296892822422 0 0.36047732936425692 -0.45080445339233233 0 0.37994343463442859 -0.46720296892822422 0 0.35901397375440641 -0.47732393108125021 0 0.36047732936425692 -0.45080445339233233 0 0.38348880610313441 -0.44816889113902802 0 0.36047732936425692 -0.45080445339233233 0 0.36146053428335861 -0.43291747514265511 0 0.36047732936425692 -0.45080445339233233 0 0.34101122409408519 -0.43440593785644038 0 0.36047732936425692 -0.45080445339233233 0 0.34101122409408519 -0.43440593785644038 0 0.36146053428335861 -0.43291747514265511 0 0.36047732936425692 -0.45080445339233233 0 0.33562169187151092 -0.46531452736041662 0 0.34101122409408519 -0.43440593785644038 0 0.31743299380041318 -0.47759441915023371 0 0.33562169187151092 -0.46531452736041662 0 0.30904823644175439 -0.44533828154702981 0 0.33562169187151092 -0.46531452736041662 0 0.34101122409408519 -0.43440593785644038 0 0.30904823644175439 -0.44533828154702981 0 0.32154511882391529 -0.41800742232054611 0 0.34101122409408519 -0.43440593785644038 0 0.30904823644175439 -0.44533828154702981 0 0.31630750274956743 -0.42689403090679612 0 0.32154511882391529 -0.41800742232054611 0 0.30904823644175439 -0.44533828154702981 0 0.32154511882391529 -0.41800742232054611 0 0.30904823644175439 -0.44533828154702981 0 0.31275379608647941 -0.41060149080574632 0 0.32154511882391529 -0.41800742232054611 0 0.33042724732935491 -0.39858208115224031 0 0.31630750274956743 -0.42689403090679612 0 0.31275379608647941 -0.41060149080574632 0 0.32154511882391529 -0.41800742232054611 0 0.32154511882391529 -0.41800742232054611 0 0.33042724732935491 -0.39858208115224031 0 0.31275379608647941 -0.41060149080574632 0 0.32154511882391529 -0.41800742232054611 0 0.32154511882391529 -0.41800742232054611 0 0.33925575801719432 -0.41241626519906938 0 0.34101122409408519 -0.43440593785644038 0 0.32154511882391529 -0.41800742232054611 0 0.33925575801719432 -0.41241626519906938 0 0.33042724732935491 -0.39858208115224031 0 0.32154511882391529 -0.41800742232054611 0 0.34101122409408519 -0.43440593785644038 0 0.34101122409408519 -0.43440593785644038 0 0.36146053428335861 -0.43291747514265511 0 0.35803935207390242 -0.41355453255631441 0 0.37936100992434912 -0.42857144047604429 0 0.38348880610313441 -0.44816889113902802 0 0.36146053428335861 -0.43291747514265511 0 0.37936100992434912 -0.42857144047604429 0 0.36146053428335861 -0.43291747514265511 0 0.35803935207390242 -0.41355453255631441 0 0.38027939105299519 -0.40099500132272209 0 0.37936100992434912 -0.42857144047604429 0 0.35803935207390242 -0.41355453255631441 0 0.33925575801719432 -0.41241626519906938 0 0.34101122409408519 -0.43440593785644038 0 0.35803935207390242 -0.41355453255631441 0 0.33925575801719432 -0.41241626519906938 0 0.35803935207390242 -0.41355453255631441 0 0.34525584776471302 -0.39753135210980528 0 0.35803935207390242 -0.41355453255631441 0 0.34525584776471302 -0.39753135210980528 0 0.35979438344389408 -0.39007587065332888 0 0.38027939105299519 -0.40099500132272209 0 0.35979438344389408 -0.39007587065332888 0 0.38027939105299519 -0.40099500132272209 0 0.35803935207390242 -0.41355453255631441 0 0.35979438344389408 -0.39007587065332888 0 0.38053196502919212 -0.37605352685216481 0 0.35979438344389408 -0.39007587065332888 0 0.35418779738853939 -0.37679294957620829 0 0.38053196502919212 -0.37605352685216481 0 0.38027939105299519 -0.40099500132272209 0 0.35979438344389408 -0.39007587065332888 0 0.35979438344389408 -0.39007587065332888 0 0.33930937583479381 -0.37915673998393412 0 0.35979438344389408 -0.39007587065332888 0 0.35418779738853939 -0.37679294957620829 0 0.33930937583479381 -0.37915673998393412 0 0.34525584776471302 -0.39753135210980528 0 0.35979438344389408 -0.39007587065332888 0 0.33930937583479381 -0.37915673998393412 0 0.33930937583479381 -0.37915673998393412 0 0.33417301691681578 -0.38267710988670772 0 0.33042724732935491 -0.39858208115224031 0 0.33930937583479381 -0.37915673998393412 0 0.33042724732935491 -0.39858208115224031 0 0.33930937583479381 -0.37915673998393412 0 0.33417301691681578 -0.38267710988670772 0 0.33930937583479381 -0.37915673998393412 0 0.33417301691681578 -0.38267710988670772 0 0.32878807313751418 -0.37354856637931411 0 0.33930937583479381 -0.37915673998393412 0 0.32878807313751418 -0.37354856637931411 0 0.34525584776471302 -0.39753135210980528 0 0.33930937583479381 -0.37915673998393412 0 0.33042724732935491 -0.39858208115224031 0 0.33417301691681578 -0.38267710988670772 0 0.33042724732935491 -0.39858208115224031 0 0.32077093461199663 -0.39207502859253007 0 0.33925575801719432 -0.41241626519906938 0 0.34525584776471302 -0.39753135210980528 0 0.33042724732935491 -0.39858208115224031 0 0.31275379608647941 -0.41060149080574632 0 0.33042724732935491 -0.39858208115224031 0 0.32077093461199663 -0.39207502859253007 0 0.31275379608647941 -0.41060149080574632 0 0.32077093461199663 -0.39207502859253007 0 0.32077093461199663 -0.39207502859253007 0 0.31229094574247418 -0.37740750068180529 0 0.32878807313751418 -0.37354856637931411 0 0.33417301691681578 -0.38267710988670772 0 0.32077093461199663 -0.39207502859253007 0 0.32878807313751418 -0.37354856637931411 0 0.32077093461199663 -0.39207502859253007 0 0.32878807313751418 -0.37354856637931411 0 0.31229094574247418 -0.37740750068180529 0 0.29330009850327149 -0.39421342767646489 0 0.300157157685214 -0.37293963526796092 0 0.32077093461199663 -0.39207502859253007 0 0.31229094574247418 -0.37740750068180529 0 0.29330009850327149 -0.39421342767646489 0 0.31275379608647941 -0.41060149080574632 0 0.32077093461199663 -0.39207502859253007 0 0.29330009850327149 -0.39421342767646489 0 0.31275379608647941 -0.41060149080574632 0 0.29330009850327149 -0.39421342767646489 0 0.29330009850327149 -0.39421342767646489 0 0.27463962184506557 -0.38867295893154757 0 0.27880314201316247 -0.40499524497889328 0 0.29330009850327149 -0.39421342767646489 0 0.27463962184506557 -0.38867295893154757 0 0.2865272684430214 -0.37046373142479783 0 0.29330009850327149 -0.39421342767646489 0 0.300157157685214 -0.37293963526796092 0 0.2865272684430214 -0.37046373142479783 0 0.27463962184506557 -0.38867295893154757 0 0.2865272684430214 -0.37046373142479783 0 0.26926325657351191 -0.37302316310840439 0 0.27463962184506557 -0.38867295893154757 0 0.25689381979570231 -0.3804997278558726 0 0.26926325657351191 -0.37302316310840439 0 0.25689381979570231 -0.3804997278558726 0 0.2588318232830667 -0.40257564741810969 0 0.24101613762002599 -0.38843420399900591 0 0.27463962184506557 -0.38867295893154757 0 0.25689381979570231 -0.3804997278558726 0 0.2588318232830667 -0.40257564741810969 0 0.27463962184506557 -0.38867295893154757 0 0.2588318232830667 -0.40257564741810969 0 0.27880314201316247 -0.40499524497889328 0 0.27880314201316247 -0.40499524497889328 0 0.26986226617910802 -0.4158071585851329 0 0.29010511299636571 -0.42085277223663159 0 0.2588318232830667 -0.40257564741810969 0 0.27880314201316247 -0.40499524497889328 0 0.26986226617910802 -0.4158071585851329 0 0.26986226617910802 -0.4158071585851329 0 0.26958951777035539 -0.42414168128619578 0 0.29010511299636571 -0.42085277223663159 0 0.26986226617910802 -0.4158071585851329 0 0.25379442729734453 -0.42316350516699092 0 0.26958951777035539 -0.42414168128619578 0 0.2588318232830667 -0.40257564741810969 0 0.26986226617910802 -0.4158071585851329 0 0.25379442729734453 -0.42316350516699092 0 0.2645962646086033 -0.43674328915602811 0 0.23920819407438679 -0.43256201690307527 0 0.25379442729734453 -0.42316350516699092 0 0.2645962646086033 -0.43674328915602811 0 0.23920819407438679 -0.43256201690307527 0 0.25379442729734453 -0.42316350516699092 0 0.2645962646086033 -0.43674328915602811 0 0.26958951777035539 -0.42414168128619578 0 0.2645962646086033 -0.43674328915602811 0 0.26749575893483662 -0.43722081954406938 0 0.2645962646086033 -0.43674328915602811 0 0.26749575893483662 -0.43722081954406938 0 0.27595038175816561 -0.43484565896738908 0 0.2645962646086033 -0.43674328915602811 0 0.27595038175816561 -0.43484565896738908 0 0.29010511299636571 -0.42085277223663159 0 0.2645962646086033 -0.43674328915602811 0 0.29010511299636571 -0.42085277223663159 0 0.2645962646086033 -0.43674328915602811 0 0.26958951777035539 -0.42414168128619578 0 0.29010511299636571 -0.42085277223663159 0 0.28429746836956582 -0.43684983477033051 0 0.29010511299636571 -0.42085277223663159 0 0.30190227195662989 -0.43567781337490052 0 0.27595038175816561 -0.43484565896738908 0 0.28429746836956582 -0.43684983477033051 0 0.29010511299636571 -0.42085277223663159 0 0.29330009850327149 -0.39421342767646489 0 0.27880314201316247 -0.40499524497889328 0 0.29010511299636571 -0.42085277223663159 0 0.31275379608647941 -0.41060149080574632 0 0.29330009850327149 -0.39421342767646489 0 0.29010511299636571 -0.42085277223663159 0 0.31275379608647941 -0.41060149080574632 0 0.30190227195662989 -0.43567781337490052 0 0.31630750274956743 -0.42689403090679612 0 0.30190227195662989 -0.43567781337490052 0 0.30904823644175439 -0.44533828154702981 0 0.31630750274956743 -0.42689403090679612 0 0.31275379608647941 -0.41060149080574632 0 0.30190227195662989 -0.43567781337490052 0 0.31275379608647941 -0.41060149080574632 0 0.29010511299636571 -0.42085277223663159 0 0.30190227195662989 -0.43567781337490052 0 0.31630750274956743 -0.42689403090679612 0 0.30190227195662989 -0.43567781337490052 0 0.31743299380041318 -0.47759441915023371 0 0.30904823644175439 -0.44533828154702981 0 0.29655135405959249 -0.47266914077351341 0 0.30190227195662989 -0.43567781337490052 0 0.29476364000122579 -0.45217417236319579 0 0.30190227195662989 -0.43567781337490052 0 0.30904823644175439 -0.44533828154702981 0 0.29476364000122579 -0.45217417236319579 0 0.30904823644175439 -0.44533828154702981 0 0.29476364000122579 -0.45217417236319579 0 0.29655135405959249 -0.47266914077351341 0 0.30904823644175439 -0.44533828154702981 0 0.29655135405959249 -0.47266914077351341 0 0.28762500804582258 -0.46867053135149161 0 0.29476364000122579 -0.45217417236319579 0 0.29655135405959249 -0.47266914077351341 0 0.28762500804582258 -0.46867053135149161 0 0.28182629513110902 -0.45538627444814977 0 0.29476364000122579 -0.45217417236319579 0 0.28762500804582258 -0.46867053135149161 0 0.28182629513110902 -0.45538627444814977 0 0.27800765015157819 -0.47769313722407541 0 0.28762500804582258 -0.46867053135149161 0 0.29476364000122579 -0.45217417236319579 0 0.30190227195662989 -0.43567781337490052 0 0.28079182221549348 -0.44855019292892739 0 0.28182629513110902 -0.45538627444814977 0 0.29476364000122579 -0.45217417236319579 0 0.28079182221549348 -0.44855019292892739 0 0.28429746836956582 -0.43684983477033051 0 0.30190227195662989 -0.43567781337490052 0 0.28079182221549348 -0.44855019292892739 0 0.30190227195662989 -0.43567781337490052 0 0.29476364000122579 -0.45217417236319579 0 0.28079182221549348 -0.44855019292892739 0 0.28079182221549348 -0.44855019292892739 0 0.26399227412610238 -0.44945204746495221 0 0.25968137247435641 -0.46142257248295321 0 0.28429746836956582 -0.43684983477033051 0 0.28079182221549348 -0.44855019292892739 0 0.27325730388145669 -0.44256157912988581 0 0.28079182221549348 -0.44855019292892739 0 0.27325730388145669 -0.44256157912988581 0 0.26399227412610238 -0.44945204746495221 0 0.27595038175816561 -0.43484565896738908 0 0.28429746836956582 -0.43684983477033051 0 0.27325730388145669 -0.44256157912988581 0 0.26749575893483662 -0.43722081954406938 0 0.27595038175816561 -0.43484565896738908 0 0.27325730388145669 -0.44256157912988581 0 0.27325730388145669 -0.44256157912988581 0 0.26503302223334468 -0.44313277793246331 0 0.26399227412610238 -0.44945204746495221 0 0.26749575893483662 -0.43722081954406938 0 0.27325730388145669 -0.44256157912988581 0 0.26503302223334468 -0.44313277793246331 0 0.2645962646086033 -0.43674328915602811 0 0.26749575893483662 -0.43722081954406938 0 0.26503302223334468 -0.44313277793246331 0 0.2645962646086033 -0.43674328915602811 0 0.24237476080249651 -0.45058598314353271 0 0.26503302223334468 -0.44313277793246331 0 0.26399227412610238 -0.44945204746495221 0 0.24237476080249651 -0.45058598314353271 0 0.2645962646086033 -0.43674328915602811 0 0.26503302223334468 -0.44313277793246331 0 0.24237476080249651 -0.45058598314353271 0 0.26399227412610238 -0.44945204746495221 0 0.25968137247435641 -0.46142257248295321 0 0.24237476080249651 -0.45058598314353271 0 0.25968137247435641 -0.46142257248295321 0 0.27331045736245652 -0.46369583348445692 0 0.26332521970280443 -0.4734656223314877 0 0.28079182221549348 -0.44855019292892739 0 0.25968137247435641 -0.46142257248295321 0 0.27331045736245652 -0.46369583348445692 0 0.28182629513110902 -0.45538627444814977 0 0.27800765015157819 -0.47769313722407541 0 0.28079182221549348 -0.44855019292892739 0 0.25968137247435641 -0.46142257248295321 0 0.28182629513110902 -0.45538627444814977 0 0.27331045736245652 -0.46369583348445692 0 0.27800765015157819 -0.47769313722407541 0 0.28182629513110902 -0.45538627444814977 0 0.28079182221549348 -0.44855019292892739 0 0.27331045736245652 -0.46369583348445692 0 0.27800765015157819 -0.47769313722407541 0 0.26332521970280443 -0.4734656223314877 0 0.26121584151853022 -0.48629888041559111 0 0.27331045736245652 -0.46369583348445692 0 0.27800765015157819 -0.47769313722407541 0 0.26332521970280443 -0.4734656223314877 0 0.26332521970280443 -0.4734656223314877 0 0.26121584151853022 -0.48629888041559111 0 0.2385709227332192 -0.47429495203697908 0 0.25968137247435641 -0.46142257248295321 0 0.26332521970280443 -0.4734656223314877 0 0.2385709227332192 -0.47429495203697908 0 0.26121584151853022 -0.48629888041559111 0 0.27418900517204742 -0.50000000000000089 0 0.24824267786501319 -0.5 0 0.27800765015157819 -0.47769313722407541 0 0.27418900517204742 -0.50000000000000089 0 0.27800765015157819 -0.47769313722407541 0 0.27418900517204742 -0.50000000000000089 0 0.28405447167743181 -0.49999999999999739 0 0.27800765015157819 -0.47769313722407541 0 0.26121584151853022 -0.48629888041559111 0 0.27418900517204742 -0.50000000000000089 0 0.28405447167743181 -0.49999999999999739 0 0.29655135405959249 -0.47266914077351341 0 0.28762500804582258 -0.46867053135149161 0 0.27800765015157819 -0.47769313722407541 0 0.29655135405959249 -0.47266914077351341 0 0.27800765015157819 -0.47769313722407541 0 0.28405447167743181 -0.49999999999999739 0 0.29655135405959249 -0.47266914077351341 0 0.31743299380041318 -0.47759441915023371 0 0.29655135405959249 -0.47266914077351341 0 0.31101870637690032 -0.5 0 0.28405447167743181 -0.49999999999999739 0 0.29655135405959249 -0.47266914077351341 0 0.31101870637690032 -0.5 0 0.3259396163141281 -0.29048500049938991 0 0.34945045828173482 -0.27347709877548149 0 0.34577369348436982 -0.2953625978728982 0 0.33685847868082341 -0.30904388374729702 0 0.34577369348436982 -0.2953625978728982 0 0.34814331477345689 -0.30854789443009151 0 0.33685847868082341 -0.30904388374729702 0 0.32193281682988861 -0.31011624620081518 0 0.3259396163141281 -0.29048500049938991 0 0.33685847868082341 -0.30904388374729702 0 0.3259396163141281 -0.29048500049938991 0 0.34577369348436982 -0.2953625978728982 0 0.3259396163141281 -0.29048500049938991 0 0.30793810978995151 -0.30555238442781119 0 0.32193281682988861 -0.31011624620081518 0 0.3259396163141281 -0.29048500049938991 0 0.30793810978995151 -0.30555238442781119 0 0.32193281682988861 -0.31011624620081518 0 0.31063039118791308 -0.32100649723366848 0 0.30793810978995151 -0.30555238442781119 0 0.3259396163141281 -0.29048500049938991 0 0.32164388135004829 -0.26798874831197489 0 0.30191679947486072 -0.28180060791983308 0 0.32116178552012348 -0.24566351996414559 0 0.32164388135004829 -0.26798874831197489 0 0.34000800270091103 -0.25478811401778723 0 0.32116178552012348 -0.24566351996414559 0 0.32164388135004829 -0.26798874831197489 0 0.29554146630821282 -0.25635179194096758 0 0.32164388135004829 -0.26798874831197489 0 0.34000800270091103 -0.25478811401778723 0 0.34945045828173482 -0.27347709877548149 0 0.3259396163141281 -0.29048500049938991 0 0.32164388135004829 -0.26798874831197489 0 0.34945045828173482 -0.27347709877548149 0 0.34000800270091103 -0.25478811401778723 0 0.34945045828173482 -0.27347709877548149 0 0.36351443947396811 -0.25529371512200533 0 0.37838188734062489 -0.27571335092725352 0 0.34945045828173482 -0.27347709877548149 0 0.36351443947396811 -0.25529371512200533 0 0.37838188734062489 -0.27571335092725352 0 0.34945045828173482 -0.27347709877548149 0 0.35752939589687521 -0.28711706024471662 0 0.37838188734062489 -0.27571335092725352 0 0.36799538525566211 -0.29579556858431022 0 0.35752939589687521 -0.28711706024471662 0 0.37838188734062489 -0.27571335092725352 0 0.36799538525566211 -0.29579556858431022 0 0.36799538525566211 -0.29579556858431022 0 0.35752939589687521 -0.28711706024471662 0 0.355214819865728 -0.30060180128265318 0 0.34945045828173482 -0.27347709877548149 0 0.35752939589687521 -0.28711706024471662 0 0.34577369348436982 -0.2953625978728982 0 0.35752939589687521 -0.28711706024471662 0 0.34577369348436982 -0.2953625978728982 0 0.355214819865728 -0.30060180128265318 0 0.34577369348436982 -0.2953625978728982 0 0.34814331477345689 -0.30854789443009151 0 0.355214819865728 -0.30060180128265318 0 0.34814331477345689 -0.30854789443009151 0 0.355214819865728 -0.30060180128265318 0 0.35760888317069911 -0.31587778624136709 0 0.3847742502826581 -0.29813946806994412 0 0.36799538525566211 -0.29579556858431022 0 0.36691866508871701 -0.31475140371585109 0 0.36799538525566211 -0.29579556858431022 0 0.355214819865728 -0.30060180128265318 0 0.35760888317069911 -0.31587778624136709 0 0.36799538525566211 -0.29579556858431022 0 0.35760888317069911 -0.31587778624136709 0 0.36799538525566211 -0.29579556858431022 0 0.36691866508871701 -0.31475140371585109 0 0.35760888317069911 -0.31587778624136709 0 0.37813547211910831 -0.31437520482735848 0 0.36691866508871701 -0.31475140371585109 0 0.37152605705190789 -0.32241778638969881 0 0.36691866508871701 -0.31475140371585109 0 0.36320500240028653 -0.32153712494064679 0 0.35760888317069911 -0.31587778624136709 0 0.36691866508871701 -0.31475140371585109 0 0.36320500240028653 -0.32153712494064679 0 0.37152605705190789 -0.32241778638969881 0 0.36320500240028653 -0.32153712494064679 0 0.37152605705190789 -0.32241778638969881 0 0.36522924922367378 -0.32910899401660337 0 0.36320500240028653 -0.32153712494064679 0 0.36522924922367378 -0.32910899401660337 0 0.35606102280745572 -0.32557929525957252 0 0.36751884927494383 -0.33597032351497919 0 0.3746951524510434 -0.33389943494904722 0 0.36522924922367378 -0.32910899401660337 0 0.37152605705190789 -0.32241778638969881 0 0.3746951524510434 -0.33389943494904722 0 0.36522924922367378 -0.32910899401660337 0 0.36751884927494383 -0.33597032351497919 0 0.3746951524510434 -0.33389943494904722 0 0.36923003191837173 -0.34300101557716572 0 0.37654407353230501 -0.34784777792921928 0 0.3746951524510434 -0.33389943494904722 0 0.36923003191837173 -0.34300101557716572 0 0.36751884927494383 -0.33597032351497919 0 0.36923003191837173 -0.34300101557716572 0 0.36092096350668629 -0.33787184951710059 0 0.36923003191837173 -0.34300101557716572 0 0.36092096350668629 -0.33787184951710059 0 0.3556831260847132 -0.3485253705412219 0 0.36751884927494383 -0.33597032351497919 0 0.36092096350668629 -0.33787184951710059 0 0.36522924922367378 -0.32910899401660337 0 0.36092096350668629 -0.33787184951710059 0 0.36522924922367378 -0.32910899401660337 0 0.35606102280745572 -0.32557929525957252 0 0.36092096350668629 -0.33787184951710059 0 0.35178517416612642 -0.33442419589953759 0 0.35606102280745572 -0.32557929525957252 0 0.36092096350668629 -0.33787184951710059 0 0.35178517416612642 -0.33442419589953759 0 0.3556831260847132 -0.3485253705412219 0 0.35178517416612642 -0.33442419589953759 0 0.3472125557092488 -0.34327753101357528 0 0.33979969861510639 -0.33600151978753567 0 0.35178517416612642 -0.33442419589953759 0 0.3472125557092488 -0.34327753101357528 0 0.3556831260847132 -0.3485253705412219 0 0.35178517416612642 -0.33442419589953759 0 0.3452606986656645 -0.32185340300624182 0 0.33979969861510639 -0.33600151978753567 0 0.35178517416612642 -0.33442419589953759 0 0.3452606986656645 -0.32185340300624182 0 0.35606102280745572 -0.32557929525957252 0 0.34814331477345689 -0.30854789443009151 0 0.3452606986656645 -0.32185340300624182 0 0.35760888317069911 -0.31587778624136709 0 0.3452606986656645 -0.32185340300624182 0 0.35760888317069911 -0.31587778624136709 0 0.35606102280745572 -0.32557929525957252 0 0.36320500240028653 -0.32153712494064679 0 0.35760888317069911 -0.31587778624136709 0 0.35606102280745572 -0.32557929525957252 0 0.37703334077947492 -0.36140396249036771 0 0.38053196502919212 -0.37605352685216481 0 0.35818377704898752 -0.36294008178320569 0 0.38053196502919212 -0.37605352685216481 0 0.35418779738853939 -0.37679294957620829 0 0.35818377704898752 -0.36294008178320569 0 0.37654407353230501 -0.34784777792921928 0 0.37703334077947492 -0.36140396249036771 0 0.35818377704898752 -0.36294008178320569 0 0.36923003191837173 -0.34300101557716572 0 0.3556831260847132 -0.3485253705412219 0 0.35818377704898752 -0.36294008178320569 0 0.37654407353230501 -0.34784777792921928 0 0.35818377704898752 -0.36294008178320569 0 0.37654407353230501 -0.34784777792921928 0 0.36923003191837173 -0.34300101557716572 0 0.35818377704898752 -0.36294008178320569 0 0.37654407353230501 -0.34784777792921928 0 0.36923003191837173 -0.34300101557716572 0 0.3472125557092488 -0.34327753101357528 0 0.35032605080503382 -0.35567848945366382 0 0.33927871933938097 -0.34930618116512618 0 0.3472125557092488 -0.34327753101357528 0 0.3556831260847132 -0.3485253705412219 0 0.35032605080503382 -0.35567848945366382 0 0.35032605080503382 -0.35567848945366382 0 0.34586818220950971 -0.36481253730687307 0 0.33927871933938097 -0.34930618116512618 0 0.3556831260847132 -0.3485253705412219 0 0.35032605080503382 -0.35567848945366382 0 0.35818377704898752 -0.36294008178320569 0 0.33930937583479381 -0.37915673998393412 0 0.35818377704898752 -0.36294008178320569 0 0.33930937583479381 -0.37915673998393412 0 0.35818377704898752 -0.36294008178320569 0 0.34586818220950971 -0.36481253730687307 0 0.35418779738853939 -0.37679294957620829 0 0.33930937583479381 -0.37915673998393412 0 0.35818377704898752 -0.36294008178320569 0 0.35032605080503382 -0.35567848945366382 0 0.35818377704898752 -0.36294008178320569 0 0.34586818220950971 -0.36481253730687307 0 0.32878807313751418 -0.37354856637931411 0 0.33927871933938097 -0.34930618116512618 0 0.32122694756610032 -0.35539203400816938 0 0.32878807313751418 -0.37354856637931411 0 0.33714051072773699 -0.3688137355389095 0 0.33927871933938097 -0.34930618116512618 0 0.34586818220950971 -0.36481253730687307 0 0.33714051072773699 -0.3688137355389095 0 0.33927871933938097 -0.34930618116512618 0 0.32878807313751418 -0.37354856637931411 0 0.33927871933938097 -0.34930618116512618 0 0.33930937583479381 -0.37915673998393412 0 0.32878807313751418 -0.37354856637931411 0 0.33714051072773699 -0.3688137355389095 0 0.33930937583479381 -0.37915673998393412 0 0.34586818220950971 -0.36481253730687307 0 0.33714051072773699 -0.3688137355389095 0 0.33930937583479381 -0.37915673998393412 0 0.34586818220950971 -0.36481253730687307 0 0.33927871933938097 -0.34930618116512618 0 0.32122694756610032 -0.35539203400816938 0 0.32817595324756271 -0.34100599936465731 0 0.32122694756610032 -0.35539203400816938 0 0.32817595324756271 -0.34100599936465731 0 0.31470170776854062 -0.33654011040621251 0 0.32878807313751418 -0.37354856637931411 0 0.30629767792662033 -0.36156050326505268 0 0.31229094574247418 -0.37740750068180529 0 0.32878807313751418 -0.37354856637931411 0 0.30629767792662033 -0.36156050326505268 0 0.32878807313751418 -0.37354856637931411 0 0.32122694756610032 -0.35539203400816938 0 0.30629767792662033 -0.36156050326505268 0 0.33685847868082341 -0.30904388374729702 0 0.3452606986656645 -0.32185340300624182 0 0.32829748817662668 -0.32449346509590932 0 0.3452606986656645 -0.32185340300624182 0 0.32829748817662668 -0.32449346509590932 0 0.33979969861510639 -0.33600151978753567 0 0.33685847868082341 -0.30904388374729702 0 0.32193281682988861 -0.31011624620081518 0 0.32829748817662668 -0.32449346509590932 0 0.33685847868082341 -0.30904388374729702 0 0.34814331477345689 -0.30854789443009151 0 0.3452606986656645 -0.32185340300624182 0 0.32829748817662668 -0.32449346509590932 0 0.33979969861510639 -0.33600151978753567 0 0.32817595324756271 -0.34100599936465731 0 0.3472125557092488 -0.34327753101357528 0 0.33927871933938097 -0.34930618116512618 0 0.33979969861510639 -0.33600151978753567 0 0.33927871933938097 -0.34930618116512618 0 0.33979969861510639 -0.33600151978753567 0 0.32817595324756271 -0.34100599936465731 0 0.32829748817662668 -0.32449346509590932 0 0.32817595324756271 -0.34100599936465731 0 0.31470170776854062 -0.33654011040621251 0 0.32193281682988861 -0.31011624620081518 0 0.32829748817662668 -0.32449346509590932 0 0.31063039118791308 -0.32100649723366848 0 0.32829748817662668 -0.32449346509590932 0 0.31470170776854062 -0.33654011040621251 0 0.31063039118791308 -0.32100649723366848 0 0.31063039118791308 -0.32100649723366848 0 0.30055865366500117 -0.33113331068126772 0 0.28993660326577492 -0.32061976835623263 0 0.28993660326577492 -0.32061976835623263 0 0.30793810978995151 -0.30555238442781119 0 0.31063039118791308 -0.32100649723366848 0 0.28993660326577492 -0.32061976835623263 0 0.30793810978995151 -0.30555238442781119 0 0.31470170776854062 -0.33654011040621251 0 0.30055865366500117 -0.33113331068126772 0 0.29658102215384929 -0.34553959314641092 0 0.31470170776854062 -0.33654011040621251 0 0.31063039118791308 -0.32100649723366848 0 0.30055865366500117 -0.33113331068126772 0 0.29658102215384929 -0.34553959314641092 0 0.28380728271572658 -0.34957244015079081 0 0.27193509674159783 -0.33568715228465362 0 0.29658102215384929 -0.34553959314641092 0 0.27193509674159783 -0.33568715228465362 0 0.30055865366500117 -0.33113331068126772 0 0.29658102215384929 -0.34553959314641092 0 0.27193509674159783 -0.33568715228465362 0 0.30055865366500117 -0.33113331068126772 0 0.28993660326577492 -0.32061976835623263 0 0.27193509674159783 -0.33568715228465362 0 0.30629767792662033 -0.36156050326505268 0 0.300157157685214 -0.37293963526796092 0 0.2865272684430214 -0.37046373142479783 0 0.31229094574247418 -0.37740750068180529 0 0.30629767792662033 -0.36156050326505268 0 0.300157157685214 -0.37293963526796092 0 0.32122694756610032 -0.35539203400816938 0 0.30629767792662033 -0.36156050326505268 0 0.29658102215384929 -0.34553959314641092 0 0.32122694756610032 -0.35539203400816938 0 0.31470170776854062 -0.33654011040621251 0 0.29658102215384929 -0.34553959314641092 0 0.32122694756610032 -0.35539203400816938 0 0.29658102215384929 -0.34553959314641092 0 0.30629767792662033 -0.36156050326505268 0 0.28380728271572658 -0.34957244015079081 0 0.30629767792662033 -0.36156050326505268 0 0.29658102215384929 -0.34553959314641092 0 0.28380728271572658 -0.34957244015079081 0 0.30629767792662033 -0.36156050326505268 0 0.28380728271572658 -0.34957244015079081 0 0.2865272684430214 -0.37046373142479783 0 0.2865272684430214 -0.37046373142479783 0 0.26926325657351191 -0.37302316310840439 0 0.27014876756514561 -0.3580932421420947 0 0.28380728271572658 -0.34957244015079081 0 0.2865272684430214 -0.37046373142479783 0 0.27014876756514561 -0.3580932421420947 0 0.28380728271572658 -0.34957244015079081 0 0.27014876756514561 -0.3580932421420947 0 0.27116372063387928 -0.34751612654590391 0 0.28380728271572658 -0.34957244015079081 0 0.27116372063387928 -0.34751612654590391 0 0.27193509674159783 -0.33568715228465362 0 0.27014876756514561 -0.3580932421420947 0 0.27116372063387928 -0.34751612654590391 0 0.25876373551304699 -0.34671167160607691 0 0.25876373551304699 -0.34671167160607691 0 0.25650476022570567 -0.3611511873673604 0 0.24117282565575091 -0.3492490523166849 0 0.27014876756514561 -0.3580932421420947 0 0.25876373551304699 -0.34671167160607691 0 0.25650476022570567 -0.3611511873673604 0 0.25689381979570231 -0.3804997278558726 0 0.25650476022570567 -0.3611511873673604 0 0.24110731922683851 -0.36914120631080782 0 0.25689381979570231 -0.3804997278558726 0 0.26926325657351191 -0.37302316310840439 0 0.25650476022570567 -0.3611511873673604 0 0.26926325657351191 -0.37302316310840439 0 0.27014876756514561 -0.3580932421420947 0 0.25650476022570567 -0.3611511873673604 0 0.28993660326577492 -0.32061976835623263 0 0.27193509674159783 -0.33568715228465362 0 0.28993660326577492 -0.32061976835623263 0 0.27193509674159783 -0.33568715228465362 0 0.26780408325147798 -0.31184815812499972 0 0.27116372063387928 -0.34751612654590391 0 0.25876373551304699 -0.34671167160607691 0 0.27193509674159783 -0.33568715228465362 0 0.25876373551304699 -0.34671167160607691 0 0.27193509674159783 -0.33568715228465362 0 0.24859561112563369 -0.32635697303884292 0 0.27193509674159783 -0.33568715228465362 0 0.24859561112563369 -0.32635697303884292 0 0.25876373551304699 -0.34671167160607691 0 0.27193509674159783 -0.33568715228465362 0 0.26780408325147798 -0.31184815812499972 0 0.24332467908468519 -0.30944814607257592 0 0.24859561112563369 -0.32635697303884292 0 0.27193509674159783 -0.33568715228465362 0 0.26780408325147798 -0.31184815812499972 0 0.24859561112563369 -0.32635697303884292 0 0.25331344908616937 -0.29482229130053272 0 0.26780408325147798 -0.31184815812499972 0 0.24332467908468519 -0.30944814607257592 0 0.25331344908616937 -0.29482229130053272 0 0.26112502538112109 -0.28172937508639451 0 0.24430082788439131 -0.27772833589461149 0 0.25331344908616937 -0.29482229130053272 0 0.26112502538112109 -0.28172937508639451 0 0.27818218755525881 -0.28980256438306901 0 0.25331344908616937 -0.29482229130053272 0 0.27818218755525881 -0.28980256438306901 0 0.25331344908616937 -0.29482229130053272 0 0.27818218755525881 -0.28980256438306901 0 0.26780408325147798 -0.31184815812499972 0 0.27818218755525881 -0.28980256438306901 0 0.26780408325147798 -0.31184815812499972 0 0.29034067670549463 -0.30281533605356659 0 0.28993660326577492 -0.32061976835623263 0 0.26780408325147798 -0.31184815812499972 0 0.29034067670549463 -0.30281533605356659 0 0.28993660326577492 -0.32061976835623263 0 0.29034067670549463 -0.30281533605356659 0 0.30793810978995151 -0.30555238442781119 0 0.27818218755525881 -0.28980256438306901 0 0.29034067670549463 -0.30281533605356659 0 0.30191679947486072 -0.28180060791983308 0 0.27818218755525881 -0.28980256438306901 0 0.30191679947486072 -0.28180060791983308 0 0.28639040010865863 -0.27374875704041479 0 0.3259396163141281 -0.29048500049938991 0 0.30191679947486072 -0.28180060791983308 0 0.30793810978995151 -0.30555238442781119 0 0.29034067670549463 -0.30281533605356659 0 0.30191679947486072 -0.28180060791983308 0 0.30793810978995151 -0.30555238442781119 0 0.32116178552012348 -0.24566351996414559 0 0.29554146630821282 -0.25635179194096758 0 0.32164388135004829 -0.26798874831197489 0 0.30191679947486072 -0.28180060791983308 0 0.29554146630821282 -0.25635179194096758 0 0.28639040010865863 -0.27374875704041479 0 0.29554146630821282 -0.25635179194096758 0 0.26992114709630199 -0.26704006391778962 0 0.30191679947486072 -0.28180060791983308 0 0.28639040010865863 -0.27374875704041479 0 0.29554146630821282 -0.25635179194096758 0 0.29554146630821282 -0.25635179194096758 0 0.26992114709630199 -0.26704006391778962 0 0.27633270847087799 -0.24863650518181371 0 0.26992114709630199 -0.26704006391778962 0 0.26057931227469849 -0.2560736346160491 0 0.27633270847087799 -0.24863650518181371 0 0.29554146630821282 -0.25635179194096758 0 0.26992114709630199 -0.26704006391778962 0 0.26112502538112109 -0.28172937508639451 0 0.27818218755525881 -0.28980256438306901 0 0.26992114709630199 -0.26704006391778962 0 0.27818218755525881 -0.28980256438306901 0 0.28639040010865863 -0.27374875704041479 0 0.26992114709630199 -0.26704006391778962 0 0.26992114709630199 -0.26704006391778962 0 0.24866127007782829 -0.26406034866326927 0 0.24430082788439131 -0.27772833589461149 0 0.26992114709630199 -0.26704006391778962 0 0.24430082788439131 -0.27772833589461149 0 0.26112502538112109 -0.28172937508639451 0 0.26992114709630199 -0.26704006391778962 0 0.24430082788439131 -0.27772833589461149 0 0.26057931227469849 -0.2560736346160491 0 0.24116993313572799 -0.25182485922073539 0 0.24866127007782829 -0.26406034866326927 0 0.26992114709630199 -0.26704006391778962 0 0.26057931227469849 -0.2560736346160491 0 0.24866127007782829 -0.26406034866326927 0 0.24116993313572799 -0.25182485922073539 0 0.24866127007782829 -0.26406034866326927 0 0.22739685105721999 -0.27325938851180831 0 0.24866127007782829 -0.26406034866326927 0 0.24430082788439131 -0.27772833589461149 0 0.22739685105721999 -0.27325938851180831 0 0.22739685105721999 -0.27325938851180831 0 0.22143482377590079 -0.25412736860742452 0 0.21167573183480271 -0.28091199157732438 0 0.24430082788439131 -0.27772833589461149 0 0.22739685105721999 -0.27325938851180831 0 0.21868050867248059 -0.28841660787143347 0 0.22739685105721999 -0.27325938851180831 0 0.21167573183480271 -0.28091199157732438 0 0.21868050867248059 -0.28841660787143347 0 0.24116993313572799 -0.25182485922073539 0 0.22739685105721999 -0.27325938851180831 0 0.22143482377590079 -0.25412736860742452 0 0.22143482377590079 -0.25412736860742452 0 0.2035458411846999 -0.25106418637757938 0 0.20497076921580151 -0.2639292523983876 0 0.22143482377590079 -0.25412736860742452 0 0.20497076921580151 -0.2639292523983876 0 0.21167573183480271 -0.28091199157732438 0 0.22143482377590079 -0.25412736860742452 0 0.21167573183480271 -0.28091199157732438 0 0.20497076921580151 -0.2639292523983876 0 0.21167573183480271 -0.28091199157732438 0 0.1951031064446257 -0.2726611193962245 0 0.1951031064446257 -0.2726611193962245 0 0.19418408641475779 -0.28970903068393178 0 0.1810651820294952 -0.27921217315985392 0 0.21167573183480271 -0.28091199157732438 0 0.1951031064446257 -0.2726611193962245 0 0.19418408641475779 -0.28970903068393178 0 0.1951031064446257 -0.2726611193962245 0 0.19484049009949511 -0.25922997403764397 0 0.18160172031993041 -0.26194219892394788 0 0.19484049009949511 -0.25922997403764397 0 0.18160172031993041 -0.26194219892394788 0 0.1889810133324179 -0.24655311309208039 0 0.2035458411846999 -0.25106418637757938 0 0.19484049009949511 -0.25922997403764397 0 0.1889810133324179 -0.24655311309208039 0 0.20497076921580151 -0.2639292523983876 0 0.1951031064446257 -0.2726611193962245 0 0.19484049009949511 -0.25922997403764397 0 0.2035458411846999 -0.25106418637757938 0 0.20497076921580151 -0.2639292523983876 0 0.19484049009949511 -0.25922997403764397 0 0.20302295230678341 -0.30466024999096403 0 0.20191663989370459 -0.3076966145472243 0 0.19418408641475779 -0.28970903068393178 0 0.20191663989370459 -0.3076966145472243 0 0.17618261357011811 -0.29740919509564823 0 0.19657958478894089 -0.3115115659323423 0 0.20191663989370459 -0.3076966145472243 0 0.18321494570172361 -0.30903974820394042 0 0.20191663989370459 -0.3076966145472243 0 0.19418408641475779 -0.28970903068393178 0 0.17618261357011811 -0.29740919509564823 0 0.20302295230678341 -0.30466024999096403 0 0.20191663989370459 -0.3076966145472243 0 0.21167573183480271 -0.28091199157732438 0 0.20302295230678341 -0.30466024999096403 0 0.19418408641475779 -0.28970903068393178 0 0.21167573183480271 -0.28091199157732438 0 0.20302295230678341 -0.30466024999096403 0 0.21167573183480271 -0.28091199157732438 0 0.20302295230678341 -0.30466024999096403 0 0.21868050867248059 -0.28841660787143347 0 0.20302295230678341 -0.30466024999096403 0 0.2147983620421112 -0.30735679292342849 0 0.2284447106170801 -0.29984201821799639 0 0.20191663989370459 -0.3076966145472243 0 0.2252561255096692 -0.31702679379303339 0 0.20191663989370459 -0.3076966145472243 0 0.2147983620421112 -0.30735679292342849 0 0.2252561255096692 -0.31702679379303339 0 0.20302295230678341 -0.30466024999096403 0 0.2284447106170801 -0.29984201821799639 0 0.20302295230678341 -0.30466024999096403 0 0.21868050867248059 -0.28841660787143347 0 0.2284447106170801 -0.29984201821799639 0 0.20302295230678341 -0.30466024999096403 0 0.20191663989370459 -0.3076966145472243 0 0.2147983620421112 -0.30735679292342849 0 0.2147983620421112 -0.30735679292342849 0 0.2284447106170801 -0.29984201821799639 0 0.2252561255096692 -0.31702679379303339 0 0.2284447106170801 -0.29984201821799639 0 0.24332467908468519 -0.30944814607257592 0 0.2252561255096692 -0.31702679379303339 0 0.24430082788439131 -0.27772833589461149 0 0.21868050867248059 -0.28841660787143347 0 0.24430082788439131 -0.27772833589461149 0 0.21868050867248059 -0.28841660787143347 0 0.2284447106170801 -0.29984201821799639 0 0.25331344908616937 -0.29482229130053272 0 0.24430082788439131 -0.27772833589461149 0 0.2284447106170801 -0.29984201821799639 0 0.25331344908616937 -0.29482229130053272 0 0.2284447106170801 -0.29984201821799639 0 0.24332467908468519 -0.30944814607257592 0 0.25331344908616937 -0.29482229130053272 0 0.2284447106170801 -0.29984201821799639 0 0.24859561112563369 -0.32635697303884292 0 0.2252561255096692 -0.31702679379303339 0 0.24332467908468519 -0.30944814607257592 0 0.24859561112563369 -0.32635697303884292 0 0.2252561255096692 -0.31702679379303339 0 0.24859561112563369 -0.32635697303884292 0 0.22249369213593809 -0.33678010411725567 0 0.24117282565575091 -0.3492490523166849 0 0.25876373551304699 -0.34671167160607691 0 0.24859561112563369 -0.32635697303884292 0 0.24117282565575091 -0.3492490523166849 0 0.22249369213593809 -0.33678010411725567 0 0.2252561255096692 -0.31702679379303339 0 0.20907938582956681 -0.32363597724642501 0 0.24859561112563369 -0.32635697303884292 0 0.22249369213593809 -0.33678010411725567 0 0.2252561255096692 -0.31702679379303339 0 0.25650476022570567 -0.3611511873673604 0 0.24110731922683851 -0.36914120631080782 0 0.24117282565575091 -0.3492490523166849 0 0.24110731922683851 -0.36914120631080782 0 0.24117282565575091 -0.3492490523166849 0 0.22311861151123311 -0.35805091626532271 0 0.22249369213593809 -0.33678010411725567 0 0.24117282565575091 -0.3492490523166849 0 0.22311861151123311 -0.35805091626532271 0 0.24110731922683851 -0.36914120631080782 0 0.22311861151123311 -0.35805091626532271 0 0.2271201573209484 -0.37587773626449272 0 0.22311861151123311 -0.35805091626532271 0 0.20595609914006691 -0.37353813791874863 0 0.20707023001460881 -0.34930996850839102 0 0.22311861151123311 -0.35805091626532271 0 0.20595609914006691 -0.37353813791874863 0 0.2271201573209484 -0.37587773626449272 0 0.22249369213593809 -0.33678010411725567 0 0.22311861151123311 -0.35805091626532271 0 0.20707023001460881 -0.34930996850839102 0 0.20595609914006691 -0.37353813791874863 0 0.20707023001460881 -0.34930996850839102 0 0.19405323339755251 -0.35488017202580879 0 0.20707023001460881 -0.34930996850839102 0 0.19405323339755251 -0.35488017202580879 0 0.19751039115150759 -0.34227384272249611 0 0.19405323339755251 -0.35488017202580879 0 0.19751039115150759 -0.34227384272249611 0 0.1873168383189677 -0.3397333220760228 0 0.20595609914006691 -0.37353813791874863 0 0.19405323339755251 -0.35488017202580879 0 0.17805409184899451 -0.3679550782197033 0 0.20191663989370459 -0.3076966145472243 0 0.2252561255096692 -0.31702679379303339 0 0.20907938582956681 -0.32363597724642501 0 0.22249369213593809 -0.33678010411725567 0 0.20707023001460881 -0.34930996850839102 0 0.20577002927427779 -0.33621430873597202 0 0.22249369213593809 -0.33678010411725567 0 0.20907938582956681 -0.32363597724642501 0 0.20577002927427779 -0.33621430873597202 0 0.20707023001460881 -0.34930996850839102 0 0.20577002927427779 -0.33621430873597202 0 0.19751039115150759 -0.34227384272249611 0 0.20907938582956681 -0.32363597724642501 0 0.20577002927427779 -0.33621430873597202 0 0.1933416247521311 -0.33123144226628609 0 0.20577002927427779 -0.33621430873597202 0 0.19751039115150759 -0.34227384272249611 0 0.1933416247521311 -0.33123144226628609 0 0.19751039115150759 -0.34227384272249611 0 0.1933416247521311 -0.33123144226628609 0 0.1873168383189677 -0.3397333220760228 0 0.19657958478894089 -0.3115115659323423 0 0.1873168383189677 -0.3397333220760228 0 0.20191663989370459 -0.3076966145472243 0 0.20907938582956681 -0.32363597724642501 0 0.1933416247521311 -0.33123144226628609 0 0.19657958478894089 -0.3115115659323423 0 0.20191663989370459 -0.3076966145472243 0 0.1933416247521311 -0.33123144226628609 0 0.20191663989370459 -0.3076966145472243 0 0.1933416247521311 -0.33123144226628609 0 0.19657958478894089 -0.3115115659323423 0 0.18546668478000319 -0.32195667416645751 0 0.1873168383189677 -0.3397333220760228 0 0.19657958478894089 -0.3115115659323423 0 0.1933416247521311 -0.33123144226628609 0 0.1873168383189677 -0.3397333220760228 0 0.19657958478894089 -0.3115115659323423 0 0.18546668478000319 -0.32195667416645751 0 0.18321494570172361 -0.30903974820394042 0 0.17373536625925681 -0.32225991115542291 0 0.18546668478000319 -0.32195667416645751 0 0.18321494570172361 -0.30903974820394042 0 0.17373536625925681 -0.32225991115542291 0 0.18321494570172361 -0.30903974820394042 0 0.16395989634625779 -0.3093963675441645 0 0.17373536625925681 -0.32225991115542291 0 0.18546668478000319 -0.32195667416645751 0 0.17957910993132439 -0.33120985555335608 0 0.17373536625925681 -0.32225991115542291 0 0.17957910993132439 -0.33120985555335608 0 0.16611759493312131 -0.33845842690498151 0 0.18546668478000319 -0.32195667416645751 0 0.1873168383189677 -0.3397333220760228 0 0.17957910993132439 -0.33120985555335608 0 0.1873168383189677 -0.3397333220760228 0 0.17630276897353531 -0.33968975903975818 0 0.17957910993132439 -0.33120985555335608 0 0.17630276897353531 -0.33968975903975818 0 0.17957910993132439 -0.33120985555335608 0 0.16611759493312131 -0.33845842690498151 0 0.1873168383189677 -0.3397333220760228 0 0.17630276897353531 -0.33968975903975818 0 0.17243808895088369 -0.35050861108416692 0 0.17373536625925681 -0.32225991115542291 0 0.16611759493312131 -0.33845842690498151 0 0.15997752508645849 -0.32494873068602631 0 0.16611759493312131 -0.33845842690498151 0 0.15997752508645849 -0.32494873068602631 0 0.14475187609371171 -0.3407632369288045 0 0.17630276897353531 -0.33968975903975818 0 0.16611759493312131 -0.33845842690498151 0 0.17243808895088369 -0.35050861108416692 0 0.15997752508645849 -0.32494873068602631 0 0.14662676970131011 -0.3149245588672836 0 0.16395989634625779 -0.3093963675441645 0 0.17373536625925681 -0.32225991115542291 0 0.15997752508645849 -0.32494873068602631 0 0.16395989634625779 -0.3093963675441645 0 0.19405323339755251 -0.35488017202580879 0 0.1873168383189677 -0.3397333220760228 0 0.17805409184899451 -0.3679550782197033 0 0.1873168383189677 -0.3397333220760228 0 0.17805409184899451 -0.3679550782197033 0 0.17243808895088369 -0.35050861108416692 0 0.1873168383189677 -0.3397333220760228 0 0.17805409184899451 -0.3679550782197033 0 0.16611759493312131 -0.33845842690498151 0 0.17243808895088369 -0.35050861108416692 0 0.15753808381746989 -0.35929694102673659 0 0.17805409184899451 -0.3679550782197033 0 0.17243808895088369 -0.35050861108416692 0 0.15753808381746989 -0.35929694102673659 0 0.17805409184899451 -0.3679550782197033 0 0.15753808381746989 -0.35929694102673659 0 0.15084122464741909 -0.38519734212488049 0 0.15753808381746989 -0.35929694102673659 0 0.134133581504331 -0.36569971686447372 0 0.15084122464741909 -0.38519734212488049 0 0.15753808381746989 -0.35929694102673659 0 0.134133581504331 -0.36569971686447372 0 0.14475187609371171 -0.3407632369288045 0 0.16611759493312131 -0.33845842690498151 0 0.15753808381746989 -0.35929694102673659 0 0.14475187609371171 -0.3407632369288045 0 0.134133581504331 -0.36569971686447372 0 0.14475187609371171 -0.3407632369288045 0 0.1186634674843033 -0.34768702904090892 0 0.15997752508645849 -0.32494873068602631 0 0.14662676970131011 -0.3149245588672836 0 0.14475187609371171 -0.3407632369288045 0 0.14475187609371171 -0.3407632369288045 0 0.1234919871010286 -0.32293074263788141 0 0.1186634674843033 -0.34768702904090892 0 0.14662676970131011 -0.3149245588672836 0 0.1355644715382002 -0.29991549954456992 0 0.1234919871010286 -0.32293074263788141 0 0.14662676970131011 -0.3149245588672836 0 0.14475187609371171 -0.3407632369288045 0 0.1234919871010286 -0.32293074263788141 0 0.1355644715382002 -0.29991549954456992 0 0.11664308792027719 -0.30585107913540821 0 0.1234919871010286 -0.32293074263788141 0 0.14662676970131011 -0.3149245588672836 0 0.1355644715382002 -0.29991549954456992 0 0.15044858724653151 -0.2871217756440726 0 0.14662676970131011 -0.3149245588672836 0 0.15044858724653151 -0.2871217756440726 0 0.16395989634625779 -0.3093963675441645 0 0.1355644715382002 -0.29991549954456992 0 0.12346645652640539 -0.28446058756049369 0 0.11664308792027719 -0.30585107913540821 0 0.1355644715382002 -0.29991549954456992 0 0.15044858724653151 -0.2871217756440726 0 0.12346645652640539 -0.28446058756049369 0 0.15044858724653151 -0.2871217756440726 0 0.13932399192774189 -0.2685656179176496 0 0.12346645652640539 -0.28446058756049369 0 0.13932399192774189 -0.2685656179176496 0 0.118827040988815 -0.26249271755857662 0 0.12346645652640539 -0.28446058756049369 0 0.13932399192774189 -0.2685656179176496 0 0.118827040988815 -0.26249271755857662 0 0.13317140248590861 -0.24842089328534631 0 0.13932399192774189 -0.2685656179176496 0 0.118827040988815 -0.26249271755857662 0 0.13932399192774189 -0.2685656179176496 0 0.15233139425818679 -0.2423651802453976 0 0.13317140248590861 -0.24842089328534631 0 0.13932399192774189 -0.2685656179176496 0 0.16170195094851231 -0.26773350629355419 0 0.15233139425818679 -0.2423651802453976 0 0.15044858724653151 -0.2871217756440726 0 0.13932399192774189 -0.2685656179176496 0 0.16170195094851231 -0.26773350629355419 0 0.15044858724653151 -0.2871217756440726 0 0.16170195094851231 -0.26773350629355419 0 0.1673495834486643 -0.2828691625482822 0 0.16170195094851231 -0.26773350629355419 0 0.1810651820294952 -0.27921217315985392 0 0.1673495834486643 -0.2828691625482822 0 0.16170195094851231 -0.26773350629355419 0 0.17141093371415589 -0.24639770326239391 0 0.15233139425818679 -0.2423651802453976 0 0.16170195094851231 -0.26773350629355419 0 0.18160172031993041 -0.26194219892394788 0 0.17141093371415589 -0.24639770326239391 0 0.18160172031993041 -0.26194219892394788 0 0.1889810133324179 -0.24655311309208039 0 0.17141093371415589 -0.24639770326239391 0 0.1951031064446257 -0.2726611193962245 0 0.18160172031993041 -0.26194219892394788 0 0.1810651820294952 -0.27921217315985392 0 0.16170195094851231 -0.26773350629355419 0 0.18160172031993041 -0.26194219892394788 0 0.1810651820294952 -0.27921217315985392 0 0.1810651820294952 -0.27921217315985392 0 0.17618261357011811 -0.29740919509564823 0 0.1673495834486643 -0.2828691625482822 0 0.19418408641475779 -0.28970903068393178 0 0.1810651820294952 -0.27921217315985392 0 0.17618261357011811 -0.29740919509564823 0 0.17618261357011811 -0.29740919509564823 0 0.18321494570172361 -0.30903974820394042 0 0.16395989634625779 -0.3093963675441645 0 0.20191663989370459 -0.3076966145472243 0 0.17618261357011811 -0.29740919509564823 0 0.18321494570172361 -0.30903974820394042 0 0.15044858724653151 -0.2871217756440726 0 0.17618261357011811 -0.29740919509564823 0 0.16395989634625779 -0.3093963675441645 0 0.15044858724653151 -0.2871217756440726 0 0.17618261357011811 -0.29740919509564823 0 0.1673495834486643 -0.2828691625482822 0 0.15044858724653151 -0.2871217756440726 0 0.17618261357011811 -0.29740919509564823 0 0.19635002325094481 -0.50003971114503076 0 0.1995277692247194 -0.47625364306099249 0 0.1850528740429076 -0.48610881972844261 0 0.1995277692247194 -0.47625364306099249 0 0.1784729071708204 -0.47159931371741742 0 0.1850528740429076 -0.48610881972844261 0 0.1995277692247194 -0.47625364306099249 0 0.21746047299208199 -0.48716733159100489 0 0.22015325699638891 -0.46442867713103642 0 0.19635002325094481 -0.50003971114503076 0 0.21746047299208199 -0.48716733159100489 0 0.19635002325094481 -0.50003971114503076 0 0.1995277692247194 -0.47625364306099249 0 0.21746047299208199 -0.48716733159100489 0 0.19635002325094481 -0.50003971114503076 0 0.21746047299208199 -0.48716733159100489 0 0.22229635055797889 -0.5 0 0.22229635055797889 -0.5 0 0.23254895840333351 -0.48912519268815841 0 0.24824267786501319 -0.5 0 0.21746047299208199 -0.48716733159100489 0 0.22229635055797889 -0.5 0 0.23254895840333351 -0.48912519268815841 0 0.23254895840333351 -0.48912519268815841 0 0.24824267786501319 -0.5 0 0.2385709227332192 -0.47429495203697908 0 0.26121584151853022 -0.48629888041559111 0 0.24824267786501319 -0.5 0 0.2385709227332192 -0.47429495203697908 0 0.21746047299208199 -0.48716733159100489 0 0.2385709227332192 -0.47429495203697908 0 0.21746047299208199 -0.48716733159100489 0 0.23254895840333351 -0.48912519268815841 0 0.2385709227332192 -0.47429495203697908 0 0.21746047299208199 -0.48716733159100489 0 0.2385709227332192 -0.47429495203697908 0 0.22015325699638891 -0.46442867713103642 0 0.22015325699638891 -0.46442867713103642 0 0.24237476080249651 -0.45058598314353271 0 0.2385709227332192 -0.47429495203697908 0 0.22015325699638891 -0.46442867713103642 0 0.24237476080249651 -0.45058598314353271 0 0.22015325699638891 -0.46442867713103642 0 0.24237476080249651 -0.45058598314353271 0 0.22249734545735689 -0.44494246710337859 0 0.25968137247435641 -0.46142257248295321 0 0.2385709227332192 -0.47429495203697908 0 0.25968137247435641 -0.46142257248295321 0 0.2385709227332192 -0.47429495203697908 0 0.24237476080249651 -0.45058598314353271 0 0.24237476080249651 -0.45058598314353271 0 0.22249734545735689 -0.44494246710337859 0 0.23920819407438679 -0.43256201690307527 0 0.2645962646086033 -0.43674328915602811 0 0.24237476080249651 -0.45058598314353271 0 0.23920819407438679 -0.43256201690307527 0 0.22015325699638891 -0.46442867713103642 0 0.22249734545735689 -0.44494246710337859 0 0.19693039187334219 -0.44875491368912468 0 0.22249734545735689 -0.44494246710337859 0 0.19693039187334219 -0.44875491368912468 0 0.21382012354017019 -0.4283807446501241 0 0.1995277692247194 -0.47625364306099249 0 0.22015325699638891 -0.46442867713103642 0 0.19693039187334219 -0.44875491368912468 0 0.1995277692247194 -0.47625364306099249 0 0.19693039187334219 -0.44875491368912468 0 0.1784729071708204 -0.47159931371741742 0 0.18843205300595331 -0.42419947239717293 0 0.21382012354017019 -0.4283807446501241 0 0.19693039187334219 -0.44875491368912468 0 0.18843205300595331 -0.42419947239717293 0 0.21382012354017019 -0.4283807446501241 0 0.18843205300595331 -0.42419947239717293 0 0.21120353043776599 -0.40975111457295987 0 0.19573601725088011 -0.39818593846068578 0 0.18843205300595331 -0.42419947239717293 0 0.21120353043776599 -0.40975111457295987 0 0.21382012354017019 -0.4283807446501241 0 0.21382012354017019 -0.4283807446501241 0 0.23920819407438679 -0.43256201690307527 0 0.234289548337966 -0.41094346686909239 0 0.21382012354017019 -0.4283807446501241 0 0.23920819407438679 -0.43256201690307527 0 0.22249734545735689 -0.44494246710337859 0 0.21382012354017019 -0.4283807446501241 0 0.23920819407438679 -0.43256201690307527 0 0.25379442729734453 -0.42316350516699092 0 0.23920819407438679 -0.43256201690307527 0 0.234289548337966 -0.41094346686909239 0 0.2588318232830667 -0.40257564741810969 0 0.25379442729734453 -0.42316350516699092 0 0.234289548337966 -0.41094346686909239 0 0.21120353043776599 -0.40975111457295987 0 0.21382012354017019 -0.4283807446501241 0 0.234289548337966 -0.41094346686909239 0 0.21120353043776599 -0.40975111457295987 0 0.234289548337966 -0.41094346686909239 0 0.22099186133952589 -0.39318257603171552 0 0.234289548337966 -0.41094346686909239 0 0.22099186133952589 -0.39318257603171552 0 0.24101613762002599 -0.38843420399900591 0 0.2588318232830667 -0.40257564741810969 0 0.234289548337966 -0.41094346686909239 0 0.24101613762002599 -0.38843420399900591 0 0.25689381979570231 -0.3804997278558726 0 0.24110731922683851 -0.36914120631080782 0 0.24101613762002599 -0.38843420399900591 0 0.24110731922683851 -0.36914120631080782 0 0.24101613762002599 -0.38843420399900591 0 0.2271201573209484 -0.37587773626449272 0 0.22099186133952589 -0.39318257603171552 0 0.24101613762002599 -0.38843420399900591 0 0.2271201573209484 -0.37587773626449272 0 0.20595609914006691 -0.37353813791874863 0 0.22099186133952589 -0.39318257603171552 0 0.2271201573209484 -0.37587773626449272 0 0.20595609914006691 -0.37353813791874863 0 0.22099186133952589 -0.39318257603171552 0 0.19573601725088011 -0.39818593846068578 0 0.21120353043776599 -0.40975111457295987 0 0.22099186133952589 -0.39318257603171552 0 0.19573601725088011 -0.39818593846068578 0 0.20595609914006691 -0.37353813791874863 0 0.17805409184899451 -0.3679550782197033 0 0.19573601725088011 -0.39818593846068578 0 0.17805409184899451 -0.3679550782197033 0 0.1687913453790213 -0.39617683436338402 0 0.17805409184899451 -0.3679550782197033 0 0.19573601725088011 -0.39818593846068578 0 0.1687913453790213 -0.39617683436338402 0 0.19573601725088011 -0.39818593846068578 0 0.1687913453790213 -0.39617683436338402 0 0.1775824823490369 -0.41090951826685862 0 0.1687913453790213 -0.39617683436338402 0 0.15084122464741909 -0.38519734212488049 0 0.1533890053292491 -0.40797377725421391 0 0.17805409184899451 -0.3679550782197033 0 0.1687913453790213 -0.39617683436338402 0 0.15084122464741909 -0.38519734212488049 0 0.134133581504331 -0.36569971686447372 0 0.15084122464741909 -0.38519734212488049 0 0.1259367965440063 -0.38844338107605852 0 0.15084122464741909 -0.38519734212488049 0 0.1259367965440063 -0.38844338107605852 0 0.1375518517681891 -0.4044613699812557 0 0.1259367965440063 -0.38844338107605852 0 0.1375518517681891 -0.4044613699812557 0 0.12017898068721911 -0.41274411065810029 0 0.15084122464741909 -0.38519734212488049 0 0.1375518517681891 -0.4044613699812557 0 0.1533890053292491 -0.40797377725421391 0 0.1533890053292491 -0.40797377725421391 0 0.15182524204929451 -0.42049479946562529 0 0.15952859890904811 -0.42439859050706469 0 0.1375518517681891 -0.4044613699812557 0 0.1533890053292491 -0.40797377725421391 0 0.1428190244470485 -0.42099219502969731 0 0.1533890053292491 -0.40797377725421391 0 0.15182524204929451 -0.42049479946562529 0 0.1428190244470485 -0.42099219502969731 0 0.1375518517681891 -0.4044613699812557 0 0.131979564857507 -0.41736552676273919 0 0.12017898068721911 -0.41274411065810029 0 0.1375518517681891 -0.4044613699812557 0 0.1428190244470485 -0.42099219502969731 0 0.131979564857507 -0.41736552676273919 0 0.131979564857507 -0.41736552676273919 0 0.12775293766587739 -0.42955651344735701 0 0.12017898068721911 -0.41274411065810029 0 0.1428190244470485 -0.42099219502969731 0 0.12775293766587739 -0.42955651344735701 0 0.14568339725155999 -0.43822524390021689 0 0.1428190244470485 -0.42099219502969731 0 0.131979564857507 -0.41736552676273919 0 0.12775293766587739 -0.42955651344735701 0 0.1428190244470485 -0.42099219502969731 0 0.15156433951183251 -0.42861463507152558 0 0.14568339725155999 -0.43822524390021689 0 0.15182524204929451 -0.42049479946562529 0 0.1428190244470485 -0.42099219502969731 0 0.15156433951183251 -0.42861463507152558 0 0.15182524204929451 -0.42049479946562529 0 0.15156433951183251 -0.42861463507152558 0 0.15952859890904811 -0.42439859050706469 0 0.15156433951183251 -0.42861463507152558 0 0.1608193641129895 -0.43786570159609262 0 0.14568339725155999 -0.43822524390021689 0 0.15156433951183251 -0.42861463507152558 0 0.15952859890904811 -0.42439859050706469 0 0.1608193641129895 -0.43786570159609262 0 0.15952859890904811 -0.42439859050706469 0 0.17403641467354361 -0.43244071997250838 0 0.1608193641129895 -0.43786570159609262 0 0.15952859890904811 -0.42439859050706469 0 0.16304398247173649 -0.42001820014422159 0 0.17403641467354361 -0.43244071997250838 0 0.1687913453790213 -0.39617683436338402 0 0.1533890053292491 -0.40797377725421391 0 0.15952859890904811 -0.42439859050706469 0 0.1687913453790213 -0.39617683436338402 0 0.15952859890904811 -0.42439859050706469 0 0.1687913453790213 -0.39617683436338402 0 0.15952859890904811 -0.42439859050706469 0 0.16304398247173649 -0.42001820014422159 0 0.1687913453790213 -0.39617683436338402 0 0.16304398247173649 -0.42001820014422159 0 0.1775824823490369 -0.41090951826685862 0 0.18843205300595331 -0.42419947239717293 0 0.19573601725088011 -0.39818593846068578 0 0.1775824823490369 -0.41090951826685862 0 0.18843205300595331 -0.42419947239717293 0 0.16304398247173649 -0.42001820014422159 0 0.1775824823490369 -0.41090951826685862 0 0.18843205300595331 -0.42419947239717293 0 0.16304398247173649 -0.42001820014422159 0 0.18843205300595331 -0.42419947239717293 0 0.16304398247173649 -0.42001820014422159 0 0.17403641467354361 -0.43244071997250838 0 0.19693039187334219 -0.44875491368912468 0 0.18843205300595331 -0.42419947239717293 0 0.17403641467354361 -0.43244071997250838 0 0.19693039187334219 -0.44875491368912468 0 0.17403641467354361 -0.43244071997250838 0 0.1733371098049884 -0.45190468308903342 0 0.19693039187334219 -0.44875491368912468 0 0.1733371098049884 -0.45190468308903342 0 0.1784729071708204 -0.47159931371741742 0 0.1580335303985109 -0.45231190208022432 0 0.1493906126956823 -0.47363678438992662 0 0.16362016575704291 -0.47067896187740421 0 0.1733371098049884 -0.45190468308903342 0 0.16362016575704291 -0.47067896187740421 0 0.1784729071708204 -0.47159931371741742 0 0.1733371098049884 -0.45190468308903342 0 0.1580335303985109 -0.45231190208022432 0 0.16362016575704291 -0.47067896187740421 0 0.1733371098049884 -0.45190468308903342 0 0.1580335303985109 -0.45231190208022432 0 0.1608193641129895 -0.43786570159609262 0 0.17403641467354361 -0.43244071997250838 0 0.1733371098049884 -0.45190468308903342 0 0.1608193641129895 -0.43786570159609262 0 0.1580335303985109 -0.45231190208022432 0 0.1608193641129895 -0.43786570159609262 0 0.14568339725155999 -0.43822524390021689 0 0.1580335303985109 -0.45231190208022432 0 0.14568339725155999 -0.43822524390021689 0 0.13989235630654059 -0.45453998116877042 0 0.14568339725155999 -0.43822524390021689 0 0.12886520184832259 -0.44498377728799599 0 0.13989235630654059 -0.45453998116877042 0 0.12775293766587739 -0.42955651344735701 0 0.14568339725155999 -0.43822524390021689 0 0.12886520184832259 -0.44498377728799599 0 0.14527300143199751 -0.47200752798834122 0 0.1208805430146922 -0.46235592017938693 0 0.13989235630654059 -0.45453998116877042 0 0.14527300143199751 -0.47200752798834122 0 0.1208805430146922 -0.46235592017938693 0 0.12886520184832259 -0.44498377728799599 0 0.13989235630654059 -0.45453998116877042 0 0.1208805430146922 -0.46235592017938693 0 0.1580335303985109 -0.45231190208022432 0 0.14527300143199751 -0.47200752798834122 0 0.1580335303985109 -0.45231190208022432 0 0.13989235630654059 -0.45453998116877042 0 0.14527300143199751 -0.47200752798834122 0 0.1580335303985109 -0.45231190208022432 0 0.1493906126956823 -0.47363678438992662 0 0.14527300143199751 -0.47200752798834122 0 0.1493906126956823 -0.47363678438992662 0 0.15037866208549039 -0.48266258956563157 0 0.15695999221066109 -0.47809973200125538 0 0.14527300143199751 -0.47200752798834122 0 0.13620502990331301 -0.48600376399417172 0 0.15037866208549039 -0.48266258956563157 0 0.14527300143199751 -0.47200752798834122 0 0.13620502990331301 -0.48600376399417172 0 0.1493906126956823 -0.47363678438992662 0 0.15037866208549039 -0.48266258956563157 0 0.14527300143199751 -0.47200752798834122 0 0.1493906126956823 -0.47363678438992662 0 0.14527300143199751 -0.47200752798834122 0 0.14527300143199751 -0.47200752798834122 0 0.13620502990331301 -0.48600376399417172 0 0.1208805430146922 -0.46235592017938693 0 0.12713705837462549 -0.50000000000000033 0 0.13620502990331301 -0.48600376399417172 0 0.11755589593868609 -0.48385686886998031 0 0.12713705837462549 -0.50000000000000033 0 0.13620502990331301 -0.48600376399417172 0 0.1502080466667319 -0.5 0 0.12713705837462549 -0.50000000000000033 0 0.13620502990331301 -0.48600376399417172 0 0.15037866208549039 -0.48266258956563157 0 0.13620502990331301 -0.48600376399417172 0 0.1502080466667319 -0.5 0 0.15037866208549039 -0.48266258956563157 0 0.1502080466667319 -0.5 0 0.16445052830442911 -0.48542059217205968 0 0.1502080466667319 -0.5 0 0.16445052830442911 -0.48542059217205968 0 0.17327903495883831 -0.5 0 0.16445052830442911 -0.48542059217205968 0 0.15695999221066109 -0.47809973200125538 0 0.16362016575704291 -0.47067896187740421 0 0.15037866208549039 -0.48266258956563157 0 0.16445052830442911 -0.48542059217205968 0 0.15695999221066109 -0.47809973200125538 0 0.1493906126956823 -0.47363678438992662 0 0.15695999221066109 -0.47809973200125538 0 0.16362016575704291 -0.47067896187740421 0 0.16445052830442911 -0.48542059217205968 0 0.16362016575704291 -0.47067896187740421 0 0.1784729071708204 -0.47159931371741742 0 0.16445052830442911 -0.48542059217205968 0 0.1784729071708204 -0.47159931371741742 0 0.1850528740429076 -0.48610881972844261 0 0.19635002325094481 -0.50003971114503076 0 0.17327903495883831 -0.5 0 0.1850528740429076 -0.48610881972844261 0 0.16445052830442911 -0.48542059217205968 0 0.17327903495883831 -0.5 0 0.1850528740429076 -0.48610881972844261 0 0.068479737828228471 -0.5 0 0.075358106088717236 -0.48291198548403103 0 0.0888124086308658 -0.4999999999999975 0 0.068479737828228471 -0.5 0 0.075358106088717236 -0.48291198548403103 0 0.058276980442483257 -0.4863268386298889 0 0.063994249926361102 -0.47091389844152992 0 0.075358106088717236 -0.48291198548403103 0 0.058276980442483257 -0.4863268386298889 0 0.063994249926361102 -0.47091389844152992 0 0.075358106088717236 -0.48291198548403103 0 0.079898591105813821 -0.46352697927971631 0 0.075358106088717236 -0.48291198548403103 0 0.092650246614124895 -0.47635215618521531 0 0.079898591105813821 -0.46352697927971631 0 0.075358106088717236 -0.48291198548403103 0 0.092650246614124895 -0.47635215618521531 0 0.0888124086308658 -0.4999999999999975 0 0.092650246614124895 -0.47635215618521531 0 0.0888124086308658 -0.4999999999999975 0 0.092650246614124895 -0.47635215618521531 0 0.0888124086308658 -0.4999999999999975 0 0.1079747335027457 -0.5 0 0.092650246614124895 -0.47635215618521531 0 0.1079747335027457 -0.5 0 0.11755589593868609 -0.48385686886998031 0 0.12713705837462549 -0.50000000000000033 0 0.1079747335027457 -0.5 0 0.11755589593868609 -0.48385686886998031 0 0.13620502990331301 -0.48600376399417172 0 0.11755589593868609 -0.48385686886998031 0 0.1208805430146922 -0.46235592017938693 0 0.092650246614124895 -0.47635215618521531 0 0.11755589593868609 -0.48385686886998031 0 0.1208805430146922 -0.46235592017938693 0 0.092650246614124895 -0.47635215618521531 0 0.1208805430146922 -0.46235592017938693 0 0.096488084597386337 -0.45270431237043351 0 0.092650246614124895 -0.47635215618521531 0 0.096488084597386337 -0.45270431237043351 0 0.1208805430146922 -0.46235592017938693 0 0.096488084597386337 -0.45270431237043351 0 0.12886520184832259 -0.44498377728799599 0 0.1208805430146922 -0.46235592017938693 0 0.11439631505519909 -0.44309420510781189 0 0.1208805430146922 -0.46235592017938693 0 0.11439631505519909 -0.44309420510781189 0 0.096488084597386337 -0.45270431237043351 0 0.12775293766587739 -0.42955651344735701 0 0.12886520184832259 -0.44498377728799599 0 0.11439631505519909 -0.44309420510781189 0 0.096488084597386337 -0.45270431237043351 0 0.10085911849582339 -0.42577104228704749 0 0.11439631505519909 -0.44309420510781189 0 0.096488084597386337 -0.45270431237043351 0 0.10085911849582339 -0.42577104228704749 0 0.096488084597386337 -0.45270431237043351 0 0.078370901986160035 -0.44553570565702788 0 0.10085911849582339 -0.42577104228704749 0 0.096488084597386337 -0.45270431237043351 0 0.078370901986160035 -0.44553570565702788 0 0.096488084597386337 -0.45270431237043351 0 0.078370901986160035 -0.44553570565702788 0 0.079898591105813821 -0.46352697927971631 0 0.092650246614124895 -0.47635215618521531 0 0.096488084597386337 -0.45270431237043351 0 0.079898591105813821 -0.46352697927971631 0 0.078370901986160035 -0.44553570565702788 0 0.079898591105813821 -0.46352697927971631 0 0.056380670718737487 -0.45530056486068382 0 0.063994249926361102 -0.47091389844152992 0 0.079898591105813821 -0.46352697927971631 0 0.056380670718737487 -0.45530056486068382 0 0.078370901986160035 -0.44553570565702788 0 0.060253719374933547 -0.43836709894362269 0 0.056380670718737487 -0.45530056486068382 0 0.078370901986160035 -0.44553570565702788 0 0.060253719374933547 -0.43836709894362269 0 0.078370901986160035 -0.44553570565702788 0 0.071806724294509933 -0.41998043051604972 0 0.060253719374933547 -0.43836709894362269 0 0.071806724294509933 -0.41998043051604972 0 0.10085911849582339 -0.42577104228704749 0 0.084825109613130056 -0.40206321921854199 0 0.078370901986160035 -0.44553570565702788 0 0.071806724294509933 -0.41998043051604972 0 0.10085911849582339 -0.42577104228704749 0 0.12775293766587739 -0.42955651344735701 0 0.10085911849582339 -0.42577104228704749 0 0.12017898068721911 -0.41274411065810029 0 0.12775293766587739 -0.42955651344735701 0 0.11439631505519909 -0.44309420510781189 0 0.10085911849582339 -0.42577104228704749 0 0.10085911849582339 -0.42577104228704749 0 0.10523015239426251 -0.39883777220366179 0 0.084825109613130056 -0.40206321921854199 0 0.10085911849582339 -0.42577104228704749 0 0.12017898068721911 -0.41274411065810029 0 0.10523015239426251 -0.39883777220366179 0 0.10085911849582339 -0.42577104228704749 0 0.10523015239426251 -0.39883777220366179 0 0.1259367965440063 -0.38844338107605852 0 0.12017898068721911 -0.41274411065810029 0 0.10523015239426251 -0.39883777220366179 0 0.1259367965440063 -0.38844338107605852 0 0.10523015239426251 -0.39883777220366179 0 0.10960118629270151 -0.37190450212027609 0 0.134133581504331 -0.36569971686447372 0 0.1259367965440063 -0.38844338107605852 0 0.10960118629270151 -0.37190450212027609 0 0.10523015239426251 -0.39883777220366179 0 0.10960118629270151 -0.37190450212027609 0 0.10523015239426251 -0.39883777220366179 0 0.083468480521475374 -0.38170135199181249 0 0.10960118629270151 -0.37190450212027609 0 0.10523015239426251 -0.39883777220366179 0 0.083468480521475374 -0.38170135199181249 0 0.084825109613130056 -0.40206321921854199 0 0.071806724294509933 -0.41998043051604972 0 0.084825109613130056 -0.40206321921854199 0 0.056109842486288919 -0.39122607871055998 0 0.083468480521475374 -0.38170135199181249 0 0.084825109613130056 -0.40206321921854199 0 0.056109842486288919 -0.39122607871055998 0 0.083468480521475374 -0.38170135199181249 0 0.056109842486288919 -0.39122607871055998 0 0.063183704052122883 -0.36403259838820079 0 0.056109842486288919 -0.39122607871055998 0 0.063183704052122883 -0.36403259838820079 0 0.056109842486288919 -0.39122607871055998 0 0.049035980920454927 -0.41841955903291927 0 0.056109842486288919 -0.39122607871055998 0 0.030662692066915739 -0.39995974112954907 0 0.049035980920454927 -0.41841955903291927 0 0.056109842486288919 -0.39122607871055998 0 0.048088764410121811 -0.36661145673173728 0 0.033531716477542252 -0.37361404035393858 0 0.056109842486288919 -0.39122607871055998 0 0.030662692066915739 -0.39995974112954907 0 0.033531716477542252 -0.37361404035393858 0 0.0058521116818773073 -0.38091771838259703 0 0.030662692066915739 -0.39995974112954907 0 0.033531716477542252 -0.37361404035393858 0 -0.01410324192039995 -0.4006017929723687 0 0.0058521116818773073 -0.38091771838259703 0 0.0091068225207085914 -0.41068960460455362 0 0.0058521116818773073 -0.38091771838259703 0 0.030662692066915739 -0.39995974112954907 0 0.0091068225207085914 -0.41068960460455362 0 0.030662692066915739 -0.39995974112954907 0 0.0091068225207085914 -0.41068960460455362 0 0.030674391766231941 -0.42773865640711872 0 -0.010567141488510019 -0.42547896032122628 0 0.0091068225207085914 -0.41068960460455362 0 0.012122123018136539 -0.42944075841446239 0 -0.010567141488510019 -0.42547896032122628 0 0.012122123018136539 -0.42944075841446239 0 0.0035629439345276422 -0.44506126091951909 0 0.0091068225207085914 -0.41068960460455362 0 0.012122123018136539 -0.42944075841446239 0 0.030674391766231941 -0.42773865640711872 0 0.012122123018136539 -0.42944075841446239 0 0.030674391766231941 -0.42773865640711872 0 0.020365723788384912 -0.44924074371342571 0 0.030674391766231941 -0.42773865640711872 0 0.049035980920454927 -0.41841955903291927 0 0.04196211935462095 -0.44561303935527857 0 0.049035980920454927 -0.41841955903291927 0 0.04196211935462095 -0.44561303935527857 0 0.030662692066915739 -0.39995974112954907 0 0.030674391766231941 -0.42773865640711872 0 0.049035980920454927 -0.41841955903291927 0 0.071806724294509933 -0.41998043051604972 0 0.056109842486288919 -0.39122607871055998 0 0.049035980920454927 -0.41841955903291927 0 0.071806724294509933 -0.41998043051604972 0 0.049035980920454927 -0.41841955903291927 0 0.060253719374933547 -0.43836709894362269 0 0.049035980920454927 -0.41841955903291927 0 0.060253719374933547 -0.43836709894362269 0 0.04196211935462095 -0.44561303935527857 0 0.060253719374933547 -0.43836709894362269 0 0.056380670718737487 -0.45530056486068382 0 0.04196211935462095 -0.44561303935527857 0 0.063994249926361102 -0.47091389844152992 0 0.056380670718737487 -0.45530056486068382 0 0.034888257788786958 -0.47280651967763782 0 0.056380670718737487 -0.45530056486068382 0 0.04196211935462095 -0.44561303935527857 0 0.034888257788786958 -0.47280651967763782 0 0.04196211935462095 -0.44561303935527857 0 0.020365723788384912 -0.44924074371342571 0 0.034888257788786958 -0.47280651967763782 0 0.04196211935462095 -0.44561303935527857 0 0.034888257788786958 -0.47280651967763782 0 0.030674391766231941 -0.42773865640711872 0 0.04196211935462095 -0.44561303935527857 0 0.020365723788384912 -0.44924074371342571 0 0.012122123018136539 -0.42944075841446239 0 0.020365723788384912 -0.44924074371342571 0 0.0035629439345276422 -0.44506126091951909 0 0.020365723788384912 -0.44924074371342571 0 0.0035629439345276422 -0.44506126091951909 0 0.0084015630449614329 -0.46570557133314849 0 0.020365723788384912 -0.44924074371342571 0 0.0084015630449614329 -0.46570557133314849 0 0.034888257788786958 -0.47280651967763782 0 0.0084015630449614329 -0.46570557133314849 0 0.01299603085288226 -0.48448346343985221 0 0.034888257788786958 -0.47280651967763782 0 -0.0069617622844289177 -0.47660733798683769 0 0.0084015630449614329 -0.46570557133314849 0 0.01299603085288226 -0.48448346343985221 0 -0.0018223345171891701 -0.49999999999999939 0 -0.0069617622844289177 -0.47660733798683769 0 0.01299603085288226 -0.48448346343985221 0 -0.0018223345171891701 -0.49999999999999939 0 0.01299603085288226 -0.48448346343985221 0 0.027814396222953671 -0.49999999999999722 0 0.01299603085288226 -0.48448346343985221 0 0.027814396222953671 -0.49999999999999722 0 0.034888257788786958 -0.47280651967763782 0 0.027814396222953671 -0.49999999999999722 0 0.034888257788786958 -0.47280651967763782 0 0.027814396222953671 -0.49999999999999722 0 0.034888257788786958 -0.47280651967763782 0 0.048147067025591017 -0.5 0 0.063994249926361102 -0.47091389844152992 0 0.034888257788786958 -0.47280651967763782 0 0.058276980442483257 -0.4863268386298889 0 0.034888257788786958 -0.47280651967763782 0 0.048147067025591017 -0.5 0 0.058276980442483257 -0.4863268386298889 0 0.068479737828228471 -0.5 0 0.048147067025591017 -0.5 0 0.058276980442483257 -0.4863268386298889 0 0.082800389652214659 -0.27726691050947128 0 0.09972173878624592 -0.2915589948224398 0 0.080740209190626827 -0.29635500982742952 0 0.082800389652214659 -0.27726691050947128 0 0.09972173878624592 -0.2915589948224398 0 0.080740209190626827 -0.29635500982742952 0 0.097644611284195382 -0.31361928931119182 0 0.0722357376172479 -0.31519406782858289 0 0.080740209190626827 -0.29635500982742952 0 0.09972173878624592 -0.2915589948224398 0 0.097644611284195382 -0.31361928931119182 0 0.064427500955350533 -0.3010617002513255 0 0.0722357376172479 -0.31519406782858289 0 0.055973090036571263 -0.31009159413228571 0 0.080740209190626827 -0.29635500982742952 0 0.064427500955350533 -0.3010617002513255 0 0.0722357376172479 -0.31519406782858289 0 0.080740209190626827 -0.29635500982742952 0 0.064427500955350533 -0.3010617002513255 0 0.065363287537033202 -0.28658978138036401 0 0.080740209190626827 -0.29635500982742952 0 0.065363287537033202 -0.28658978138036401 0 0.082800389652214659 -0.27726691050947128 0 0.065879040518185453 -0.26297482619650059 0 0.08073723810193302 -0.26237943230703697 0 0.082800389652214659 -0.27726691050947128 0 0.065363287537033202 -0.28658978138036401 0 0.065879040518185453 -0.26297482619650059 0 0.082800389652214659 -0.27726691050947128 0 0.065879040518185453 -0.26297482619650059 0 0.082800389652214659 -0.27726691050947128 0 0.065879040518185453 -0.26297482619650059 0 0.077833139110961097 -0.2503469168404307 0 0.053823571366758888 -0.2527925540750659 0 0.065879040518185453 -0.26297482619650059 0 0.077833139110961097 -0.2503469168404307 0 0.08073723810193302 -0.26237943230703697 0 0.065879040518185453 -0.26297482619650059 0 0.077833139110961097 -0.2503469168404307 0 0.077833139110961097 -0.2503469168404307 0 0.08073723810193302 -0.26237943230703697 0 0.098330090049888103 -0.25641981719950352 0 0.08073723810193302 -0.26237943230703697 0 0.082800389652214659 -0.27726691050947128 0 0.098330090049888103 -0.25641981719950352 0 0.077833139110961097 -0.2503469168404307 0 0.098330090049888103 -0.25641981719950352 0 0.077833139110961097 -0.2503469168404307 0 0.098330090049888103 -0.25641981719950352 0 0.083253100753367268 -0.24462145090065349 0 0.082800389652214659 -0.27726691050947128 0 0.1044850426606308 -0.27411621813678411 0 0.09972173878624592 -0.2915589948224398 0 0.082800389652214659 -0.27726691050947128 0 0.1044850426606308 -0.27411621813678411 0 0.098330090049888103 -0.25641981719950352 0 0.098330090049888103 -0.25641981719950352 0 0.118827040988815 -0.26249271755857662 0 0.1105935436615688 -0.24750838434240799 0 0.098330090049888103 -0.25641981719950352 0 0.118827040988815 -0.26249271755857662 0 0.1044850426606308 -0.27411621813678411 0 0.098330090049888103 -0.25641981719950352 0 0.118827040988815 -0.26249271755857662 0 0.118827040988815 -0.26249271755857662 0 0.1105935436615688 -0.24750838434240799 0 0.13317140248590861 -0.24842089328534631 0 0.1044850426606308 -0.27411621813678411 0 0.118827040988815 -0.26249271755857662 0 0.12346645652640539 -0.28446058756049369 0 0.12346645652640539 -0.28446058756049369 0 0.09972173878624592 -0.2915589948224398 0 0.11664308792027719 -0.30585107913540821 0 0.1044850426606308 -0.27411621813678411 0 0.12346645652640539 -0.28446058756049369 0 0.09972173878624592 -0.2915589948224398 0 0.09972173878624592 -0.2915589948224398 0 0.11664308792027719 -0.30585107913540821 0 0.09972173878624592 -0.2915589948224398 0 0.11664308792027719 -0.30585107913540821 0 0.097644611284195382 -0.31361928931119182 0 0.11664308792027719 -0.30585107913540821 0 0.1234919871010286 -0.32293074263788141 0 0.097644611284195382 -0.31361928931119182 0 0.1234919871010286 -0.32293074263788141 0 0.10442834713617451 -0.33515146852271038 0 0.1186634674843033 -0.34768702904090892 0 0.10442834713617451 -0.33515146852271038 0 0.095573826777872406 -0.34967250717130688 0 0.085688479716628907 -0.33077765143980048 0 0.1234919871010286 -0.32293074263788141 0 0.10442834713617451 -0.33515146852271038 0 0.097644611284195382 -0.31361928931119182 0 0.10442834713617451 -0.33515146852271038 0 0.097644611284195382 -0.31361928931119182 0 0.085688479716628907 -0.33077765143980048 0 0.134133581504331 -0.36569971686447372 0 0.10960118629270151 -0.37190450212027609 0 0.1186634674843033 -0.34768702904090892 0 0.10960118629270151 -0.37190450212027609 0 0.1186634674843033 -0.34768702904090892 0 0.095573826777872406 -0.34967250717130688 0 0.10442834713617451 -0.33515146852271038 0 0.1186634674843033 -0.34768702904090892 0 0.095573826777872406 -0.34967250717130688 0 0.10960118629270151 -0.37190450212027609 0 0.095573826777872406 -0.34967250717130688 0 0.083864441397117476 -0.36315676938338781 0 0.083468480521475374 -0.38170135199181249 0 0.10960118629270151 -0.37190450212027609 0 0.083864441397117476 -0.36315676938338781 0 0.095573826777872406 -0.34967250717130688 0 0.083864441397117476 -0.36315676938338781 0 0.074273461335494756 -0.34749830188600578 0 0.083864441397117476 -0.36315676938338781 0 0.074273461335494756 -0.34749830188600578 0 0.063183704052122883 -0.36403259838820079 0 0.083468480521475374 -0.38170135199181249 0 0.083864441397117476 -0.36315676938338781 0 0.063183704052122883 -0.36403259838820079 0 0.097644611284195382 -0.31361928931119182 0 0.085688479716628907 -0.33077765143980048 0 0.0722357376172479 -0.31519406782858289 0 0.095573826777872406 -0.34967250717130688 0 0.074273461335494756 -0.34749830188600578 0 0.085688479716628907 -0.33077765143980048 0 0.074273461335494756 -0.34749830188600578 0 0.085688479716628907 -0.33077765143980048 0 0.068981780298507919 -0.33067736562704608 0 0.074273461335494756 -0.34749830188600578 0 0.068981780298507919 -0.33067736562704608 0 0.056735175474252483 -0.33699305012271408 0 0.085688479716628907 -0.33077765143980048 0 0.068981780298507919 -0.33067736562704608 0 0.0722357376172479 -0.31519406782858289 0 0.068981780298507919 -0.33067736562704608 0 0.0722357376172479 -0.31519406782858289 0 0.052742443860367728 -0.32380497616819809 0 0.0722357376172479 -0.31519406782858289 0 0.052742443860367728 -0.32380497616819809 0 0.055973090036571263 -0.31009159413228571 0 0.052742443860367728 -0.32380497616819809 0 0.041163050659053728 -0.3122820918692582 0 0.055973090036571263 -0.31009159413228571 0 0.068981780298507919 -0.33067736562704608 0 0.052742443860367728 -0.32380497616819809 0 0.056735175474252483 -0.33699305012271408 0 0.052742443860367728 -0.32380497616819809 0 0.056735175474252483 -0.33699305012271408 0 0.037792749774094712 -0.3358904979815332 0 0.056735175474252483 -0.33699305012271408 0 0.037792749774094712 -0.3358904979815332 0 0.046303564091190429 -0.34891238190757001 0 0.052742443860367728 -0.32380497616819809 0 0.037792749774094712 -0.3358904979815332 0 0.032022556344288571 -0.32297984339951741 0 0.032022556344288571 -0.32297984339951741 0 0.025576725405031 -0.30554884197350107 0 0.041163050659053728 -0.3122820918692582 0 0.052742443860367728 -0.32380497616819809 0 0.032022556344288571 -0.32297984339951741 0 0.041163050659053728 -0.3122820918692582 0 0.063183704052122883 -0.36403259838820079 0 0.048088764410121811 -0.36661145673173728 0 0.046303564091190429 -0.34891238190757001 0 0.056109842486288919 -0.39122607871055998 0 0.063183704052122883 -0.36403259838820079 0 0.048088764410121811 -0.36661145673173728 0 0.074273461335494756 -0.34749830188600578 0 0.063183704052122883 -0.36403259838820079 0 0.046303564091190429 -0.34891238190757001 0 0.074273461335494756 -0.34749830188600578 0 0.056735175474252483 -0.33699305012271408 0 0.046303564091190429 -0.34891238190757001 0 0.074273461335494756 -0.34749830188600578 0 0.046303564091190429 -0.34891238190757001 0 0.046303564091190429 -0.34891238190757001 0 0.018333666846885852 -0.3503264619291343 0 0.037792749774094712 -0.3358904979815332 0 0.046303564091190429 -0.34891238190757001 0 0.018333666846885852 -0.3503264619291343 0 0.046303564091190429 -0.34891238190757001 0 0.033531716477542252 -0.37361404035393858 0 0.018333666846885852 -0.3503264619291343 0 0.048088764410121811 -0.36661145673173728 0 0.046303564091190429 -0.34891238190757001 0 0.033531716477542252 -0.37361404035393858 0 0.0058521116818773073 -0.38091771838259703 0 0.033531716477542252 -0.37361404035393858 0 0.018333666846885852 -0.3503264619291343 0 -0.0096362303974187047 -0.35174054195069848 0 0.018333666846885852 -0.3503264619291343 0 -0.0017702694144507011 -0.33304088001850451 0 -0.0096362303974187047 -0.35174054195069848 0 0.018333666846885852 -0.3503264619291343 0 -0.0096362303974187047 -0.35174054195069848 0 0.0058521116818773073 -0.38091771838259703 0 0.018333666846885852 -0.3503264619291343 0 0.032022556344288571 -0.32297984339951741 0 0.0113652573079623 -0.3205613608642956 0 0.025576725405031 -0.30554884197350107 0 0.032022556344288571 -0.32297984339951741 0 0.020619092027583191 -0.33232627436206541 0 0.0113652573079623 -0.3205613608642956 0 0.0113652573079623 -0.3205613608642956 0 0.025576725405031 -0.30554884197350107 0 0.037792749774094712 -0.3358904979815332 0 0.018333666846885852 -0.3503264619291343 0 0.020619092027583191 -0.33232627436206541 0 0.037792749774094712 -0.3358904979815332 0 0.032022556344288571 -0.32297984339951741 0 0.020619092027583191 -0.33232627436206541 0 -0.0017702694144507011 -0.33304088001850451 0 0.018333666846885852 -0.3503264619291343 0 0.020619092027583191 -0.33232627436206541 0 -0.0017702694144507011 -0.33304088001850451 0 0.020619092027583191 -0.33232627436206541 0 0.0113652573079623 -0.3205613608642956 0 -0.0017702694144507011 -0.33304088001850451 0 0.0113652573079623 -0.3205613608642956 0 0.0014187768173629411 -0.31311980254864968 0 0.0113652573079623 -0.3205613608642956 0 0.0014187768173629411 -0.31311980254864968 0 0.025576725405031 -0.30554884197350107 0 -0.0023678010226833111 -0.30101747639334192 0 0.0014187768173629411 -0.31311980254864968 0 0.0094511851052114827 -0.2964222574631043 0 0.0014187768173629411 -0.31311980254864968 0 0.025576725405031 -0.30554884197350107 0 0.0014187768173629411 -0.31311980254864968 0 0.0094511851052114827 -0.2964222574631043 0 0.025576725405031 -0.30554884197350107 0 -0.0072874811663168997 -0.28983154552684243 0 0.0094511851052114827 -0.2964222574631043 0 0.0061836277560249533 -0.28030274058131471 0 0.0094511851052114827 -0.2964222574631043 0 0.02537476759362892 -0.28561566336862421 0 0.0061836277560249533 -0.28030274058131471 0 0.0094511851052114827 -0.2964222574631043 0 0.02537476759362892 -0.28561566336862421 0 0.025576725405031 -0.30554884197350107 0 0.025576725405031 -0.30554884197350107 0 0.041163050659053728 -0.3122820918692582 0 0.049296717090836453 -0.2981151345440638 0 0.025576725405031 -0.30554884197350107 0 0.049296717090836453 -0.2981151345440638 0 0.025576725405031 -0.30554884197350107 0 0.045727882961608367 -0.28426183408500089 0 0.049296717090836453 -0.2981151345440638 0 0.02537476759362892 -0.28561566336862421 0 0.025576725405031 -0.30554884197350107 0 0.045727882961608367 -0.28426183408500089 0 0.025576725405031 -0.30554884197350107 0 0.045727882961608367 -0.28426183408500089 0 0.064427500955350533 -0.3010617002513255 0 0.065363287537033202 -0.28658978138036401 0 0.049296717090836453 -0.2981151345440638 0 0.065363287537033202 -0.28658978138036401 0 0.045727882961608367 -0.28426183408500089 0 0.049296717090836453 -0.2981151345440638 0 0.064427500955350533 -0.3010617002513255 0 0.055973090036571263 -0.31009159413228571 0 0.049296717090836453 -0.2981151345440638 0 0.041163050659053728 -0.3122820918692582 0 0.055973090036571263 -0.31009159413228571 0 0.049296717090836453 -0.2981151345440638 0 0.065879040518185453 -0.26297482619650059 0 0.053823571366758888 -0.2527925540750659 0 0.048249514390524863 -0.26621447558948969 0 0.053823571366758888 -0.2527925540750659 0 0.048249514390524863 -0.26621447558948969 0 0.038631050327627113 -0.25850145195850421 0 0.065879040518185453 -0.26297482619650059 0 0.053823571366758888 -0.2527925540750659 0 0.065879040518185453 -0.26297482619650059 0 0.045727882961608367 -0.28426183408500089 0 0.065363287537033202 -0.28658978138036401 0 0.065879040518185453 -0.26297482619650059 0 0.045727882961608367 -0.28426183408500089 0 0.065879040518185453 -0.26297482619650059 0 0.045727882961608367 -0.28426183408500089 0 0.048249514390524863 -0.26621447558948969 0 0.02537476759362892 -0.28561566336862421 0 0.045727882961608367 -0.28426183408500089 0 0.036344378747429677 -0.27289664779945411 0 0.036344378747429677 -0.27289664779945411 0 0.038631050327627113 -0.25850145195850421 0 0.022734202156535668 -0.26989751901094111 0 0.045727882961608367 -0.28426183408500089 0 0.048249514390524863 -0.26621447558948969 0 0.036344378747429677 -0.27289664779945411 0 0.048249514390524863 -0.26621447558948969 0 0.036344378747429677 -0.27289664779945411 0 0.038631050327627113 -0.25850145195850421 0 0.053823571366758888 -0.2527925540750659 0 0.038631050327627113 -0.25850145195850421 0 0.041768102215334307 -0.24261028195362899 0 0.038631050327627113 -0.25850145195850421 0 0.021989358683265049 -0.25254272777208708 0 0.041768102215334307 -0.24261028195362899 0 0.038631050327627113 -0.25850145195850421 0 0.021989358683265049 -0.25254272777208708 0 0.022734202156535668 -0.26989751901094111 0 0.02537476759362892 -0.28561566336862421 0 0.022734202156535668 -0.26989751901094111 0 0.0061836277560249533 -0.28030274058131471 0 0.02537476759362892 -0.28561566336862421 0 0.036344378747429677 -0.27289664779945411 0 0.022734202156535668 -0.26989751901094111 0 -0.0015780053148804799 -0.26447762952010873 0 0.022734202156535668 -0.26989751901094111 0 0.0061836277560249533 -0.28030274058131471 0 -0.0015780053148804799 -0.26447762952010873 0 0.022734202156535668 -0.26989751901094111 0 -0.0015780053148804799 -0.26447762952010873 0 0.021989358683265049 -0.25254272777208708 0 0.0071600346355602182 -0.24437074822792321 0 -0.0015780053148804799 -0.26447762952010873 0 0.021989358683265049 -0.25254272777208708 0 0.022734202156535668 -0.26989751901094111 0 0.0071600346355602182 -0.24437074822792321 0 0.001850392632153141 -0.2279750586834822 0 0.021809247423743579 -0.23529267031855611 0 0.001850392632153141 -0.2279750586834822 0 0.021809247423743579 -0.23529267031855611 0 0.001850392632153141 -0.2279750586834822 0 0.027219680534790999 -0.23535100395187439 0 -0.0001473723906542323 -0.22724260841378141 0 0.001850392632153141 -0.2279750586834822 0 0.001850392632153141 -0.2279750586834822 0 0.02169222445557455 -0.2194182796540983 0 0.027219680534790999 -0.23535100395187439 0 0.001850392632153141 -0.2279750586834822 0 0.027219680534790999 -0.23535100395187439 0 0.021809247423743579 -0.23529267031855611 0 0.027219680534790999 -0.23535100395187439 0 0.021809247423743579 -0.23529267031855611 0 0.041768102215334307 -0.24261028195362899 0 0.021989358683265049 -0.25254272777208708 0 0.021809247423743579 -0.23529267031855611 0 0.041768102215334307 -0.24261028195362899 0 0.021989358683265049 -0.25254272777208708 0 0.0071600346355602182 -0.24437074822792321 0 0.021809247423743579 -0.23529267031855611 0 0.01245133441685355 -0.20729951492583529 0 0.022989717587001642 -0.18674598234406931 0 0.0034329602273533359 -0.1860487201670272 0 -0.0034245390449026761 -0.21122125959071181 0 0.01245133441685355 -0.20729951492583529 0 0.0034329602273533359 -0.1860487201670272 0 -0.0034245390449026761 -0.21122125959071181 0 0.001850392632153141 -0.2279750586834822 0 0.01245133441685355 -0.20729951492583529 0 0.001850392632153141 -0.2279750586834822 0 0.01245133441685355 -0.20729951492583529 0 0.001850392632153141 -0.2279750586834822 0 0.02169222445557455 -0.2194182796540983 0 0.01245133441685355 -0.20729951492583529 0 0.02169222445557455 -0.2194182796540983 0 0.01245133441685355 -0.20729951492583529 0 0.030489001296685421 -0.20356951059032061 0 0.01245133441685355 -0.20729951492583529 0 0.022989717587001642 -0.18674598234406931 0 0.01245133441685355 -0.20729951492583529 0 0.030489001296685421 -0.20356951059032061 0 0.022989717587001642 -0.18674598234406931 0 0.030489001296685421 -0.20356951059032061 0 0.039315868975255998 -0.18423867937362551 0 0.022989717587001642 -0.18674598234406931 0 0.030489001296685421 -0.20356951059032061 0 0.05511972945425217 -0.1932762979598594 0 0.039315868975255998 -0.18423867937362551 0 0.02169222445557455 -0.2194182796540983 0 0.030489001296685421 -0.20356951059032061 0 0.045372488696568687 -0.21642937624045369 0 0.030489001296685421 -0.20356951059032061 0 0.045372488696568687 -0.21642937624045369 0 0.05511972945425217 -0.1932762979598594 0 0.045372488696568687 -0.21642937624045369 0 0.05511972945425217 -0.1932762979598594 0 0.070140945053876275 -0.20724649641538981 0 0.045372488696568687 -0.21642937624045369 0 0.067664376798050443 -0.2265357326944861 0 0.070140945053876275 -0.20724649641538981 0 0.021809247423743579 -0.23529267031855611 0 0.041768102215334307 -0.24261028195362899 0 0.041768102215334307 -0.24261028195362899 0 0.037154042874353851 -0.23829438771655501 0 0.052526409822876062 -0.24284896039615239 0 0.037154042874353851 -0.23829438771655501 0 0.052526409822876062 -0.24284896039615239 0 0.041768102215334307 -0.24261028195362899 0 0.037154042874353851 -0.23829438771655501 0 0.0465126627546424 -0.24434980317206981 0 0.041768102215334307 -0.24261028195362899 0 0.027219680534790999 -0.23535100395187439 0 0.037154042874353851 -0.23829438771655501 0 0.027219680534790999 -0.23535100395187439 0 0.041768102215334307 -0.24261028195362899 0 0.037154042874353851 -0.23829438771655501 0 0.027219680534790999 -0.23535100395187439 0 0.045372488696568687 -0.21642937624045369 0 0.037154042874353851 -0.23829438771655501 0 0.045372488696568687 -0.21642937624045369 0 0.037154042874353851 -0.23829438771655501 0 0.052526409822876062 -0.24284896039615239 0 0.02169222445557455 -0.2194182796540983 0 0.027219680534790999 -0.23535100395187439 0 0.045372488696568687 -0.21642937624045369 0 0.045372488696568687 -0.21642937624045369 0 0.052526409822876062 -0.24284896039615239 0 0.067664376798050443 -0.2265357326944861 0 0.077833139110961097 -0.2503469168404307 0 0.053823571366758888 -0.2527925540750659 0 0.052526409822876062 -0.24284896039615239 0 0.0465126627546424 -0.24434980317206981 0 0.041768102215334307 -0.24261028195362899 0 0.052526409822876062 -0.24284896039615239 0 0.053823571366758888 -0.2527925540750659 0 0.0465126627546424 -0.24434980317206981 0 0.041768102215334307 -0.24261028195362899 0 0.053823571366758888 -0.2527925540750659 0 0.041768102215334307 -0.24261028195362899 0 0.053823571366758888 -0.2527925540750659 0 0.0465126627546424 -0.24434980317206981 0 0.052526409822876062 -0.24284896039615239 0 0.052526409822876062 -0.24284896039615239 0 0.071948323300073003 -0.23934799573141169 0 0.067664376798050443 -0.2265357326944861 0 0.077833139110961097 -0.2503469168404307 0 0.052526409822876062 -0.24284896039615239 0 0.071948323300073003 -0.23934799573141169 0 0.077833139110961097 -0.2503469168404307 0 0.052526409822876062 -0.24284896039615239 0 0.071948323300073003 -0.23934799573141169 0 0.083253100753367268 -0.24462145090065349 0 0.078861318742190586 -0.2328697861452512 0 0.077833139110961097 -0.2503469168404307 0 0.071948323300073003 -0.23934799573141169 0 0.083253100753367268 -0.24462145090065349 0 0.077833139110961097 -0.2503469168404307 0 0.083253100753367268 -0.24462145090065349 0 0.083253100753367268 -0.24462145090065349 0 0.090767602654048096 -0.2325664270771611 0 0.078861318742190586 -0.2328697861452512 0 0.083253100753367268 -0.24462145090065349 0 0.090767602654048096 -0.2325664270771611 0 0.097396572848693713 -0.24294569914286579 0 0.098330090049888103 -0.25641981719950352 0 0.083253100753367268 -0.24462145090065349 0 0.097396572848693713 -0.24294569914286579 0 0.090767602654048096 -0.2325664270771611 0 0.093847149352684983 -0.20522431804709099 0 0.090767602654048096 -0.2325664270771611 0 0.08067319020541408 -0.22127732432254371 0 0.093847149352684983 -0.20522431804709099 0 0.090767602654048096 -0.2325664270771611 0 0.078861318742190586 -0.2328697861452512 0 0.08067319020541408 -0.22127732432254371 0 0.071948323300073003 -0.23934799573141169 0 0.078861318742190586 -0.2328697861452512 0 0.067664376798050443 -0.2265357326944861 0 0.078861318742190586 -0.2328697861452512 0 0.08067319020541408 -0.22127732432254371 0 0.067664376798050443 -0.2265357326944861 0 0.08067319020541408 -0.22127732432254371 0 0.067664376798050443 -0.2265357326944861 0 0.070140945053876275 -0.20724649641538981 0 0.05511972945425217 -0.1932762979598594 0 0.070140945053876275 -0.20724649641538981 0 0.07660320359216452 -0.18217267726100261 0 0.070140945053876275 -0.20724649641538981 0 0.093847149352684983 -0.20522431804709099 0 0.07660320359216452 -0.18217267726100261 0 0.093847149352684983 -0.20522431804709099 0 0.096926696051321898 -0.1778822090170209 0 0.07660320359216452 -0.18217267726100261 0 0.08067319020541408 -0.22127732432254371 0 0.070140945053876275 -0.20724649641538981 0 0.093847149352684983 -0.20522431804709099 0 0.093847149352684983 -0.20522431804709099 0 0.1116307160485491 -0.19256321174663901 0 0.1056414948098551 -0.2203971967814865 0 0.093847149352684983 -0.20522431804709099 0 0.1116307160485491 -0.19256321174663901 0 0.096926696051321898 -0.1778822090170209 0 0.093847149352684983 -0.20522431804709099 0 0.096926696051321898 -0.1778822090170209 0 0.1116307160485491 -0.19256321174663901 0 0.1217121467602401 -0.17439442532510599 0 0.131918562592889 -0.1970513436318698 0 0.1116307160485491 -0.19256321174663901 0 0.1219770006881303 -0.21286735454571409 0 0.131918562592889 -0.1970513436318698 0 0.1116307160485491 -0.19256321174663901 0 0.1219770006881303 -0.21286735454571409 0 0.1056414948098551 -0.2203971967814865 0 0.1219770006881303 -0.21286735454571409 0 0.1185692515638205 -0.23461675862994169 0 0.1056414948098551 -0.2203971967814865 0 0.1185692515638205 -0.23461675862994169 0 0.1056414948098551 -0.2203971967814865 0 0.1042408470892468 -0.2343392664133237 0 0.1185692515638205 -0.23461675862994169 0 0.1105935436615688 -0.24750838434240799 0 0.13317140248590861 -0.24842089328534631 0 0.1185692515638205 -0.23461675862994169 0 0.1105935436615688 -0.24750838434240799 0 0.1042408470892468 -0.2343392664133237 0 0.1105935436615688 -0.24750838434240799 0 0.097396572848693713 -0.24294569914286579 0 0.1042408470892468 -0.2343392664133237 0 0.098330090049888103 -0.25641981719950352 0 0.1105935436615688 -0.24750838434240799 0 0.097396572848693713 -0.24294569914286579 0 0.090767602654048096 -0.2325664270771611 0 0.097396572848693713 -0.24294569914286579 0 0.1042408470892468 -0.2343392664133237 0 0.090767602654048096 -0.2325664270771611 0 0.1056414948098551 -0.2203971967814865 0 0.1042408470892468 -0.2343392664133237 0 0.090767602654048096 -0.2325664270771611 0 0.093847149352684983 -0.20522431804709099 0 0.1056414948098551 -0.2203971967814865 0 0.10358126263828971 -0.14275173797887619 0 0.1000062427499588 -0.150540099986951 0 0.11150573092759131 -0.15173750701834221 0 0.10358126263828971 -0.14275173797887619 0 0.096215984584704789 -0.13551153018050241 0 0.092896371706395059 -0.14448508018255041 0 0.10358126263828971 -0.14275173797887619 0 0.1000062427499588 -0.150540099986951 0 0.092896371706395059 -0.14448508018255041 0 0.10358126263828971 -0.14275173797887619 0 0.1047247536135735 -0.126598902361543 0 0.1152172934858233 -0.1469841576342425 0 0.10358126263828971 -0.14275173797887619 0 0.096215984584704789 -0.13551153018050241 0 0.1047247536135735 -0.126598902361543 0 0.096215984584704789 -0.13551153018050241 0 0.1047247536135735 -0.126598902361543 0 0.090906432777895715 -0.12128878533967399 0 0.1047247536135735 -0.126598902361543 0 0.1152172934858233 -0.1469841576342425 0 0.1047247536135735 -0.126598902361543 0 0.1167313736650579 -0.1364194733960139 0 0.1152172934858233 -0.1469841576342425 0 0.1047247536135735 -0.126598902361543 0 0.1167313736650579 -0.1364194733960139 0 0.11960212245850629 -0.13053432943718651 0 0.1047247536135735 -0.126598902361543 0 0.11960212245850629 -0.13053432943718651 0 0.1155063264196927 -0.12058211986939781 0 0.1167313736650579 -0.1364194733960139 0 0.11960212245850629 -0.13053432943718651 0 0.12738132510232841 -0.1415605041510837 0 0.1152172934858233 -0.1469841576342425 0 0.12570983335807309 -0.16736941290694199 0 0.12827777420880981 -0.15286173782655171 0 0.1152172934858233 -0.1469841576342425 0 0.11150573092759131 -0.15173750701834221 0 0.12570983335807309 -0.16736941290694199 0 0.1167313736650579 -0.1364194733960139 0 0.1152172934858233 -0.1469841576342425 0 0.12738132510232841 -0.1415605041510837 0 0.1152172934858233 -0.1469841576342425 0 0.12827777420880981 -0.15286173782655171 0 0.12738132510232841 -0.1415605041510837 0 0.10358126263828971 -0.14275173797887619 0 0.1152172934858233 -0.1469841576342425 0 0.11150573092759131 -0.15173750701834221 0 0.11150573092759131 -0.15173750701834221 0 0.1217121467602401 -0.17439442532510599 0 0.11150573092759131 -0.15173750701834221 0 0.1217121467602401 -0.17439442532510599 0 0.12570983335807309 -0.16736941290694199 0 0.11150573092759131 -0.15173750701834221 0 0.1217121467602401 -0.17439442532510599 0 0.1080149072406625 -0.1668577827891842 0 0.1152172934858233 -0.1469841576342425 0 0.12570983335807309 -0.16736941290694199 0 0.1116307160485491 -0.19256321174663901 0 0.1217121467602401 -0.17439442532510599 0 0.1095711165251934 -0.17792440721948749 0 0.1217121467602401 -0.17439442532510599 0 0.1095711165251934 -0.17792440721948749 0 0.1080149072406625 -0.1668577827891842 0 0.1116307160485491 -0.19256321174663901 0 0.1095711165251934 -0.17792440721948749 0 0.096926696051321898 -0.1778822090170209 0 0.1095711165251934 -0.17792440721948749 0 0.096926696051321898 -0.1778822090170209 0 0.1080149072406625 -0.1668577827891842 0 0.1000062427499588 -0.150540099986951 0 0.096926696051321898 -0.1778822090170209 0 0.086359194879081627 -0.16537365900922879 0 0.1000062427499588 -0.150540099986951 0 0.096926696051321898 -0.1778822090170209 0 0.1080149072406625 -0.1668577827891842 0 0.1000062427499588 -0.150540099986951 0 0.11150573092759131 -0.15173750701834221 0 0.1080149072406625 -0.1668577827891842 0 0.1000062427499588 -0.150540099986951 0 0.096926696051321898 -0.1778822090170209 0 0.086359194879081627 -0.16537365900922879 0 0.07660320359216452 -0.18217267726100261 0 0.072454298098179937 -0.16267693151391441 0 0.1000062427499588 -0.150540099986951 0 0.086359194879081627 -0.16537365900922879 0 0.085805533903783038 -0.15359637726725539 0 0.086359194879081627 -0.16537365900922879 0 0.072454298098179937 -0.16267693151391441 0 0.085805533903783038 -0.15359637726725539 0 0.096926696051321898 -0.1778822090170209 0 0.086359194879081627 -0.16537365900922879 0 0.07660320359216452 -0.18217267726100261 0 0.07660320359216452 -0.18217267726100261 0 0.072454298098179937 -0.16267693151391441 0 0.054452795781190992 -0.1714091562115751 0 0.072454298098179937 -0.16267693151391441 0 0.073705596438322016 -0.14872831850478091 0 0.059696591115557668 -0.15376694465463431 0 0.073705596438322016 -0.14872831850478091 0 0.067486458352594994 -0.13346385126010371 0 0.059696591115557668 -0.15376694465463431 0 0.072454298098179937 -0.16267693151391441 0 0.073705596438322016 -0.14872831850478091 0 0.085805533903783038 -0.15359637726725539 0 0.073705596438322016 -0.14872831850478091 0 0.085805533903783038 -0.15359637726725539 0 0.084549348131251867 -0.13929802259606491 0 0.085805533903783038 -0.15359637726725539 0 0.092896371706395059 -0.14448508018255041 0 0.084549348131251867 -0.13929802259606491 0 0.1000062427499588 -0.150540099986951 0 0.085805533903783038 -0.15359637726725539 0 0.092896371706395059 -0.14448508018255041 0 0.084549348131251867 -0.13929802259606491 0 0.067486458352594994 -0.13346385126010371 0 0.090906432777895715 -0.12128878533967399 0 0.067486458352594994 -0.13346385126010371 0 0.090906432777895715 -0.12128878533967399 0 0.096215984584704789 -0.13551153018050241 0 0.084549348131251867 -0.13929802259606491 0 0.090906432777895715 -0.12128878533967399 0 0.096215984584704789 -0.13551153018050241 0 0.092896371706395059 -0.14448508018255041 0 0.084549348131251867 -0.13929802259606491 0 0.073705596438322016 -0.14872831850478091 0 0.084549348131251867 -0.13929802259606491 0 0.067486458352594994 -0.13346385126010371 0 0.067486458352594994 -0.13346385126010371 0 0.054734562290569388 -0.124832433616204 0 0.066386986073841303 -0.1225082709041754 0 0.067486458352594994 -0.13346385126010371 0 0.044066483927295758 -0.14563891718053601 0 0.054734562290569388 -0.124832433616204 0 0.067486458352594994 -0.13346385126010371 0 0.044066483927295758 -0.14563891718053601 0 0.044066483927295758 -0.14563891718053601 0 0.054734562290569388 -0.124832433616204 0 0.044066483927295758 -0.14563891718053601 0 0.054734562290569388 -0.124832433616204 0 0.042094747683737332 -0.1179863256554685 0 0.067486458352594994 -0.13346385126010371 0 0.059696591115557668 -0.15376694465463431 0 0.044066483927295758 -0.14563891718053601 0 0.059696591115557668 -0.15376694465463431 0 0.044066483927295758 -0.14563891718053601 0 0.04699456654450529 -0.1599535614688174 0 0.044066483927295758 -0.14563891718053601 0 0.024260504494019251 -0.15593521814311229 0 0.044066483927295758 -0.14563891718053601 0 0.033528100757149779 -0.1661924497623033 0 0.044066483927295758 -0.14563891718053601 0 0.033528100757149779 -0.1661924497623033 0 0.024260504494019251 -0.15593521814311229 0 0.044066483927295758 -0.14563891718053601 0 0.02758368873485122 -0.12307217077427129 0 0.042094747683737332 -0.1179863256554685 0 0.05511972945425217 -0.1932762979598594 0 0.054452795781190992 -0.1714091562115751 0 0.039315868975255998 -0.18423867937362551 0 0.05511972945425217 -0.1932762979598594 0 0.07660320359216452 -0.18217267726100261 0 0.054452795781190992 -0.1714091562115751 0 0.072454298098179937 -0.16267693151391441 0 0.059696591115557668 -0.15376694465463431 0 0.054452795781190992 -0.1714091562115751 0 0.059696591115557668 -0.15376694465463431 0 0.04699456654450529 -0.1599535614688174 0 0.054452795781190992 -0.1714091562115751 0 0.04699456654450529 -0.1599535614688174 0 0.054452795781190992 -0.1714091562115751 0 0.033528100757149779 -0.1661924497623033 0 0.044066483927295758 -0.14563891718053601 0 0.04699456654450529 -0.1599535614688174 0 0.033528100757149779 -0.1661924497623033 0 0.033528100757149779 -0.1661924497623033 0 0.039315868975255998 -0.18423867937362551 0 0.022989717587001642 -0.18674598234406931 0 0.054452795781190992 -0.1714091562115751 0 0.033528100757149779 -0.1661924497623033 0 0.039315868975255998 -0.18423867937362551 0 0.033528100757149779 -0.1661924497623033 0 0.022989717587001642 -0.18674598234406931 0 0.018998716312567158 -0.17172125070004091 0 0.033528100757149779 -0.1661924497623033 0 0.022989717587001642 -0.18674598234406931 0 0.0044545250607441328 -0.16623151910569131 0 0.02139723561533045 -0.15223387418888229 0 0.024260504494019251 -0.15593521814311229 0 0.033528100757149779 -0.1661924497623033 0 0.018998716312567158 -0.17172125070004091 0 0.024260504494019251 -0.15593521814311229 0 0.018998716312567158 -0.17172125070004091 0 0.0044545250607441328 -0.16623151910569131 0 0.024260504494019251 -0.15593521814311229 0 0.0044545250607441328 -0.16623151910569131 0 0.024260504494019251 -0.15593521814311229 0 0.022989717587001642 -0.18674598234406931 0 0.018998716312567158 -0.17172125070004091 0 0.0034329602273533359 -0.1860487201670272 0 0.018998716312567158 -0.17172125070004091 0 0.0044545250607441328 -0.16623151910569131 0 0.0034329602273533359 -0.1860487201670272 0 0.02139723561533045 -0.15223387418888229 0 0.02758368873485122 -0.12307217077427129 0 0.044066483927295758 -0.14563891718053601 0 0.02139723561533045 -0.15223387418888229 0 0.02758368873485122 -0.12307217077427129 0 0.02139723561533045 -0.15223387418888229 0 0.0090378767511883288 -0.13437486366001539 0 0.02758368873485122 -0.12307217077427129 0 0.044066483927295758 -0.14563891718053601 0 0.02139723561533045 -0.15223387418888229 0 0.024260504494019251 -0.15593521814311229 0 0.02139723561533045 -0.15223387418888229 0 0.0032261101365381331 -0.14892545287734371 0 0.0090378767511883288 -0.13437486366001539 0 0.0044545250607441328 -0.16623151910569131 0 0.02139723561533045 -0.15223387418888229 0 0.0032261101365381331 -0.14892545287734371 0 0.0090378767511883288 -0.13437486366001539 0 0.0031293108519285032 -0.1123315394043807 0 0.02758368873485122 -0.12307217077427129 0 0.0031293108519285032 -0.1123315394043807 0 0.02758368873485122 -0.12307217077427129 0 0.021534685296471519 -0.106551858381586 0 0.02758368873485122 -0.12307217077427129 0 0.021534685296471519 -0.106551858381586 0 0.033770141854371813 -0.093910467359660327 0 0.02758368873485122 -0.12307217077427129 0 0.033770141854371813 -0.093910467359660327 0 0.021534685296471519 -0.106551858381586 0 0.01890981479263509 -0.089155846798826072 0 0.033770141854371813 -0.093910467359660327 0 0.0031293108519285032 -0.1123315394043807 0 0.01890981479263509 -0.089155846798826072 0 0.0031293108519285032 -0.1123315394043807 0 0.002064634101435865 -0.094646214576444551 0 0.01890981479263509 -0.089155846798826072 0 0.0031293108519285032 -0.1123315394043807 0 0.021534685296471519 -0.106551858381586 0 0.01890981479263509 -0.089155846798826072 0 -0.0084648568107918362 -0.080397212085674671 0 0.0055048381763041004 -0.07040764260375279 0 0.01890981479263509 -0.089155846798826072 0 -0.0084648568107918362 -0.080397212085674671 0 0.01890981479263509 -0.089155846798826072 0 -0.0084648568107918362 -0.080397212085674671 0 0.002064634101435865 -0.094646214576444551 0 0.01890981479263509 -0.089155846798826072 0 0.0055048381763041004 -0.07040764260375279 0 0.018553065716504169 -0.072484474850002548 0 0.01890981479263509 -0.089155846798826072 0 0.0055048381763041004 -0.07040764260375279 0 0.012868939379861249 -0.063003231751091515 0 0.018553065716504169 -0.072484474850002548 0 0.018553065716504169 -0.072484474850002548 0 0.01890981479263509 -0.089155846798826072 0 0.031358789505832811 -0.070872931862048863 0 0.012868939379861249 -0.063003231751091515 0 0.018553065716504169 -0.072484474850002548 0 0.025753469941002711 -0.06405493812533794 0 0.018553065716504169 -0.072484474850002548 0 0.025753469941002711 -0.06405493812533794 0 0.031358789505832811 -0.070872931862048863 0 0.01890981479263509 -0.089155846798826072 0 0.031358789505832811 -0.070872931862048863 0 0.033770141854371813 -0.093910467359660327 0 0.01890981479263509 -0.089155846798826072 0 0.031358789505832811 -0.070872931862048863 0 0.01890981479263509 -0.089155846798826072 0 0.033770141854371813 -0.093910467359660327 0 0.038246621283102099 -0.072809238122131206 0 0.033770141854371813 -0.093910467359660327 0 0.04330869195513249 -0.082653737050624343 0 0.038246621283102099 -0.072809238122131206 0 0.033770141854371813 -0.093910467359660327 0 0.038246621283102099 -0.072809238122131206 0 0.031358789505832811 -0.070872931862048863 0 0.033770141854371813 -0.093910467359660327 0 0.04330869195513249 -0.082653737050624343 0 0.047472259416005337 -0.089811785187377924 0 0.033770141854371813 -0.093910467359660327 0 0.038246621283102099 -0.072809238122131206 0 0.031358789505832811 -0.070872931862048863 0 0.043128449987737107 -0.066389263681569319 0 0.031358789505832811 -0.070872931862048863 0 0.043128449987737107 -0.066389263681569319 0 0.042367998630158561 -0.061411401540524269 0 0.038246621283102099 -0.072809238122131206 0 0.043128449987737107 -0.066389263681569319 0 0.048382656153349177 -0.073330585256173114 0 0.04330869195513249 -0.082653737050624343 0 0.038246621283102099 -0.072809238122131206 0 0.048382656153349177 -0.073330585256173114 0 0.050069882365921373 -0.065537692685617821 0 0.048382656153349177 -0.073330585256173114 0 0.056530673270214063 -0.067285142416909138 0 0.050069882365921373 -0.065537692685617821 0 0.056530673270214063 -0.067285142416909138 0 0.053856544147576332 -0.061418788686698873 0 0.043128449987737107 -0.066389263681569319 0 0.050069882365921373 -0.065537692685617821 0 0.048451088270730178 -0.059264683386738681 0 0.043128449987737107 -0.066389263681569319 0 0.050069882365921373 -0.065537692685617821 0 0.048382656153349177 -0.073330585256173114 0 0.056530673270214063 -0.067285142416909138 0 0.063442659708876067 -0.067483557275152831 0 0.0639362567003115 -0.077831181755010706 0 0.048382656153349177 -0.073330585256173114 0 0.056530673270214063 -0.067285142416909138 0 0.0639362567003115 -0.077831181755010706 0 0.048382656153349177 -0.073330585256173114 0 0.051830974013420822 -0.082809872302891108 0 0.0639362567003115 -0.077831181755010706 0 0.056530673270214063 -0.067285142416909138 0 0.060983334197952169 -0.06117530721991106 0 0.063442659708876067 -0.067483557275152831 0 0.056530673270214063 -0.067285142416909138 0 0.053856544147576332 -0.061418788686698873 0 0.060983334197952169 -0.06117530721991106 0 0.047472259416005337 -0.089811785187377924 0 0.058850934535274409 -0.090709378503531987 0 0.049600554721827672 -0.098975470720180356 0 0.047472259416005337 -0.089811785187377924 0 0.051830974013420822 -0.082809872302891108 0 0.058850934535274409 -0.090709378503531987 0 0.04330869195513249 -0.082653737050624343 0 0.047472259416005337 -0.089811785187377924 0 0.051830974013420822 -0.082809872302891108 0 0.04330869195513249 -0.082653737050624343 0 0.048382656153349177 -0.073330585256173114 0 0.051830974013420822 -0.082809872302891108 0 0.051830974013420822 -0.082809872302891108 0 0.058850934535274409 -0.090709378503531987 0 0.0639362567003115 -0.077831181755010706 0 0.058850934535274409 -0.090709378503531987 0 0.049600554721827672 -0.098975470720180356 0 0.065430967589284017 -0.1040404740806989 0 0.049600554721827672 -0.098975470720180356 0 0.065430967589284017 -0.1040404740806989 0 0.049600554721827672 -0.098975470720180356 0 0.052811517864407923 -0.11160004040491441 0 0.065430967589284017 -0.1040404740806989 0 0.054734562290569388 -0.124832433616204 0 0.052811517864407923 -0.11160004040491441 0 0.065430967589284017 -0.1040404740806989 0 0.049600554721827672 -0.098975470720180356 0 0.052811517864407923 -0.11160004040491441 0 0.042094747683737332 -0.1179863256554685 0 0.054734562290569388 -0.124832433616204 0 0.065430967589284017 -0.1040404740806989 0 0.054734562290569388 -0.124832433616204 0 0.067394348610428575 -0.11456494045845821 0 0.065430967589284017 -0.1040404740806989 0 0.054734562290569388 -0.124832433616204 0 0.052811517864407923 -0.11160004040491441 0 0.042094747683737332 -0.1179863256554685 0 0.02758368873485122 -0.12307217077427129 0 0.042094747683737332 -0.1179863256554685 0 0.033770141854371813 -0.093910467359660327 0 0.047472259416005337 -0.089811785187377924 0 0.049600554721827672 -0.098975470720180356 0 0.033770141854371813 -0.093910467359660327 0 0.049600554721827672 -0.098975470720180356 0 0.042094747683737332 -0.1179863256554685 0 0.033770141854371813 -0.093910467359660327 0 0.049600554721827672 -0.098975470720180356 0 0.033770141854371813 -0.093910467359660327 0 0.030887095042777851 -0.0053979945756472223 0 0.0067479369879116582 -0.007765601535749676 0 0.02366031043858453 -0.021533589772351092 0 0.030887095042777851 -0.0053979945756472223 0 0.0067479369879116582 -0.007765601535749676 0 0.01387820488690315 0.01121806494355861 0 0.030887095042777851 -0.0053979945756472223 0 0.0067479369879116582 -0.007765601535749676 0 -0.0062950599919664469 0.001842533104863542 0 0.0029948208537307168 0.0048516543320618116 0 0.0067479369879116582 -0.007765601535749676 0 0.0067479369879116582 -0.007765601535749676 0 0.0086190644477862934 -0.024054927573209831 0 0.02366031043858453 -0.021533589772351092 0 -0.0037990618172862381 -0.015780342430704711 0 0.0067479369879116582 -0.007765601535749676 0 0.0086190644477862934 -0.024054927573209831 0 -0.001720343861461474 -0.027913753244978919 0 -0.0037990618172862381 -0.015780342430704711 0 0.0086190644477862934 -0.024054927573209831 0 -0.001720343861461474 -0.027913753244978919 0 0.0086190644477862934 -0.024054927573209831 0 0.0027778392732508892 -0.037419988898024961 0 0.0086190644477862934 -0.024054927573209831 0 0.02366031043858453 -0.021533589772351092 0 0.019088450150815631 -0.034952132971455538 0 0.030887095042777851 -0.0053979945756472223 0 0.02366031043858453 -0.021533589772351092 0 0.036604671520990437 -0.024119268380177479 0 0.02366031043858453 -0.021533589772351092 0 0.029882292896523631 -0.032088327485498017 0 0.019088450150815631 -0.034952132971455538 0 0.02366031043858453 -0.021533589772351092 0 0.029882292896523631 -0.032088327485498017 0 0.036604671520990437 -0.024119268380177479 0 0.029882292896523631 -0.032088327485498017 0 0.029421587066230059 -0.043710630273990532 0 0.019088450150815631 -0.034952132971455538 0 0.029421587066230059 -0.043710630273990532 0 0.019088450150815631 -0.034952132971455538 0 0.0174611966146575 -0.050084091281460567 0 0.019088450150815631 -0.034952132971455538 0 0.01142009143559857 -0.042857620342506932 0 0.0174611966146575 -0.050084091281460567 0 0.0027778392732508892 -0.037419988898024961 0 0.01142009143559857 -0.042857620342506932 0 0.002782278211465206 -0.054119284764627767 0 0.019088450150815631 -0.034952132971455538 0 0.0027778392732508892 -0.037419988898024961 0 0.01142009143559857 -0.042857620342506932 0 0.0086190644477862934 -0.024054927573209831 0 0.019088450150815631 -0.034952132971455538 0 0.0027778392732508892 -0.037419988898024961 0 0.01142009143559857 -0.042857620342506932 0 0.002782278211465206 -0.054119284764627767 0 0.0174611966146575 -0.050084091281460567 0 0.0055048381763041004 -0.07040764260375279 0 0.012868939379861249 -0.063003231751091515 0 0.002782278211465206 -0.054119284764627767 0 0.012868939379861249 -0.063003231751091515 0 0.002782278211465206 -0.054119284764627767 0 0.0174611966146575 -0.050084091281460567 0 0.012868939379861249 -0.063003231751091515 0 0.025753469941002711 -0.06405493812533794 0 0.020173181466002329 -0.058227682491913201 0 0.012868939379861249 -0.063003231751091515 0 0.020173181466002329 -0.058227682491913201 0 0.0174611966146575 -0.050084091281460567 0 0.020173181466002329 -0.058227682491913201 0 0.0174611966146575 -0.050084091281460567 0 0.027323439861384701 -0.053733471819594841 0 0.029421587066230059 -0.043710630273990532 0 0.0174611966146575 -0.050084091281460567 0 0.027323439861384701 -0.053733471819594841 0 0.025753469941002711 -0.06405493812533794 0 0.020173181466002329 -0.058227682491913201 0 0.027323439861384701 -0.053733471819594841 0 0.025753469941002711 -0.06405493812533794 0 0.031358789505832811 -0.070872931862048863 0 0.043807764219030709 -0.052590016925271793 0 0.031358789505832811 -0.070872931862048863 0 0.043807764219030709 -0.052590016925271793 0 0.025753469941002711 -0.06405493812533794 0 0.043807764219030709 -0.052590016925271793 0 0.031358789505832811 -0.070872931862048863 0 0.043807764219030709 -0.052590016925271793 0 0.042367998630158561 -0.061411401540524269 0 0.025753469941002711 -0.06405493812533794 0 0.027323439861384701 -0.053733471819594841 0 0.043807764219030709 -0.052590016925271793 0 0.029421587066230059 -0.043710630273990532 0 0.027323439861384701 -0.053733471819594841 0 0.043807764219030709 -0.052590016925271793 0 0.043807764219030709 -0.052590016925271793 0 0.046591669227768258 -0.057401290287187871 0 0.042367998630158561 -0.061411401540524269 0 0.043128449987737107 -0.066389263681569319 0 0.042367998630158561 -0.061411401540524269 0 0.048451088270730178 -0.059264683386738681 0 0.046591669227768258 -0.057401290287187871 0 0.042367998630158561 -0.061411401540524269 0 0.048451088270730178 -0.059264683386738681 0 0.043807764219030709 -0.052590016925271793 0 0.061009126418758393 -0.041666728586403023 0 0.065255421088128124 -0.049916571031813337 0 0.043807764219030709 -0.052590016925271793 0 0.061009126418758393 -0.041666728586403023 0 0.043807764219030709 -0.052590016925271793 0 0.046591669227768258 -0.057401290287187871 0 0.053819907412299028 -0.056280925296386973 0 0.043807764219030709 -0.052590016925271793 0 0.065255421088128124 -0.049916571031813337 0 0.050069882365921373 -0.065537692685617821 0 0.048451088270730178 -0.059264683386738681 0 0.053856544147576332 -0.061418788686698873 0 0.043807764219030709 -0.052590016925271793 0 0.053819907412299028 -0.056280925296386973 0 0.065255421088128124 -0.049916571031813337 0 0.046591669227768258 -0.057401290287187871 0 0.048451088270730178 -0.059264683386738681 0 0.053819907412299028 -0.056280925296386973 0 0.048451088270730178 -0.059264683386738681 0 0.053819907412299028 -0.056280925296386973 0 0.053856544147576332 -0.061418788686698873 0 0.053819907412299028 -0.056280925296386973 0 0.060983334197952169 -0.06117530721991106 0 0.065255421088128124 -0.049916571031813337 0 0.053819907412299028 -0.056280925296386973 0 0.053856544147576332 -0.061418788686698873 0 0.060983334197952169 -0.06117530721991106 0 0.043807764219030709 -0.052590016925271793 0 0.056805908209127211 -0.033500576518988003 0 0.040636445305997478 -0.036126016029515491 0 0.043807764219030709 -0.052590016925271793 0 0.056805908209127211 -0.033500576518988003 0 0.056805908209127211 -0.033500576518988003 0 0.040636445305997478 -0.036126016029515491 0 0.046749610028084608 -0.028424873330538902 0 0.043807764219030709 -0.052590016925271793 0 0.061009126418758393 -0.041666728586403023 0 0.056805908209127211 -0.033500576518988003 0 0.061009126418758393 -0.041666728586403023 0 0.056805908209127211 -0.033500576518988003 0 0.029421587066230059 -0.043710630273990532 0 0.043807764219030709 -0.052590016925271793 0 0.040636445305997478 -0.036126016029515491 0 0.029882292896523631 -0.032088327485498017 0 0.029421587066230059 -0.043710630273990532 0 0.040636445305997478 -0.036126016029515491 0 0.030887095042777851 -0.0053979945756472223 0 0.036604671520990437 -0.024119268380177479 0 0.049174527819515257 -0.018674077004156062 0 0.029882292896523631 -0.032088327485498017 0 0.040636445305997478 -0.036126016029515491 0 0.036604671520990437 -0.024119268380177479 0 0.040636445305997478 -0.036126016029515491 0 0.036604671520990437 -0.024119268380177479 0 0.046749610028084608 -0.028424873330538902 0 0.036604671520990437 -0.024119268380177479 0 0.046749610028084608 -0.028424873330538902 0 0.049174527819515257 -0.018674077004156062 0 0.056805908209127211 -0.033500576518988003 0 0.06798565968081885 -0.01708167858721496 0 0.056805908209127211 -0.033500576518988003 0 0.049174527819515257 -0.018674077004156062 0 0.06798565968081885 -0.01708167858721496 0 0.056805908209127211 -0.033500576518988003 0 0.049174527819515257 -0.018674077004156062 0 0.056805908209127211 -0.033500576518988003 0 0.046749610028084608 -0.028424873330538902 0 0.049174527819515257 -0.018674077004156062 0 0.049174527819515257 -0.018674077004156062 0 0.055026253097644043 -0.0030303876155447721 0 0.06798565968081885 -0.01708167858721496 0 0.030887095042777851 -0.0053979945756472223 0 0.049174527819515257 -0.018674077004156062 0 0.055026253097644043 -0.0030303876155447721 0 0.030887095042777851 -0.0053979945756472223 0 0.055026253097644043 -0.0030303876155447721 0 0.043319234528787789 0.0082185119832953596 0 0.030887095042777851 -0.0053979945756472223 0 0.055026253097644043 -0.0030303876155447721 0 0.089028829084301347 -0.0041578778281385412 0 0.085491875519469088 -0.010332199574168021 0 0.092110555478514586 -0.021916555697424012 0 0.095662718955640602 0.0052042782372958701 0 0.089028829084301347 -0.0041578778281385412 0 0.092110555478514586 -0.021916555697424012 0 0.089028829084301347 -0.0041578778281385412 0 0.085491875519469088 -0.010332199574168021 0 0.084419418092404622 -0.0037927205718126908 0 0.089028829084301347 -0.0041578778281385412 0 0.085470256183996229 -0.00046654070803734749 0 0.084419418092404622 -0.0037927205718126908 0 0.085491875519469088 -0.010332199574168021 0 0.081615083565017552 -0.01455149832361001 0 0.092110555478514586 -0.021916555697424012 0 0.085491875519469088 -0.010332199574168021 0 0.081615083565017552 -0.01455149832361001 0 0.080285491377107318 -0.0072423454498548598 0 0.081615083565017552 -0.01455149832361001 0 0.080285491377107318 -0.0072423454498548598 0 0.077018939745260084 -0.012199376913176159 0 0.080285491377107318 -0.0072423454498548598 0 0.084419418092404622 -0.0037927205718126908 0 0.081317856886149426 -0.0033974175477193042 0 0.080285491377107318 -0.0072423454498548598 0 0.079165411152510134 -0.0006627806554415724 0 0.077018939745260084 -0.012199376913176159 0 0.085491875519469088 -0.010332199574168021 0 0.080285491377107318 -0.0072423454498548598 0 0.084419418092404622 -0.0037927205718126908 0 0.085470256183996229 -0.00046654070803734749 0 0.084419418092404622 -0.0037927205718126908 0 0.081317856886149426 -0.0033974175477193042 0 0.085470256183996229 -0.00046654070803734749 0 0.081317856886149426 -0.0033974175477193042 0 0.079165411152510134 -0.0006627806554415724 0 0.080285491377107318 -0.0072423454498548598 0 0.081317856886149426 -0.0033974175477193042 0 0.079165411152510134 -0.0006627806554415724 0 0.079165411152510134 -0.0006627806554415724 0 0.06798565968081885 -0.01708167858721496 0 0.055026253097644043 -0.0030303876155447721 0 0.079165411152510134 -0.0006627806554415724 0 0.055026253097644043 -0.0030303876155447721 0 0.079165411152510134 -0.0006627806554415724 0 0.06798565968081885 -0.01708167858721496 0 0.079165411152510134 -0.0006627806554415724 0 0.077018939745260084 -0.012199376913176159 0 0.06798565968081885 -0.01708167858721496 0 0.077018939745260084 -0.012199376913176159 0 0.076043052950846526 -0.021458581549759371 0 0.06798565968081885 -0.01708167858721496 0 0.056805908209127211 -0.033500576518988003 0 0.06798565968081885 -0.01708167858721496 0 0.070013819890827167 -0.026235649568668539 0 0.076043052950846526 -0.021458581549759371 0 0.06798565968081885 -0.01708167858721496 0 0.070013819890827167 -0.026235649568668539 0 0.070013819890827167 -0.026235649568668539 0 0.07059015953785984 -0.035582536757348661 0 0.076043052950846526 -0.021458581549759371 0 0.070013819890827167 -0.026235649568668539 0 0.07059015953785984 -0.035582536757348661 0 0.076043052950846526 -0.021458581549759371 0 0.092110555478514586 -0.021916555697424012 0 0.07059015953785984 -0.035582536757348661 0 0.081615083565017552 -0.01455149832361001 0 0.076043052950846526 -0.021458581549759371 0 0.092110555478514586 -0.021916555697424012 0 0.092110555478514586 -0.021916555697424012 0 0.07059015953785984 -0.035582536757348661 0 0.081615083565017552 -0.01455149832361001 0 0.077018939745260084 -0.012199376913176159 0 0.076043052950846526 -0.021458581549759371 0 0.092110555478514586 -0.021916555697424012 0 0.089011506898169723 -0.045577849003426783 0 0.07059015953785984 -0.035582536757348661 0 0.092110555478514586 -0.021916555697424012 0 0.089011506898169723 -0.045577849003426783 0 0.092110555478514586 -0.021916555697424012 0 0.089011506898169723 -0.045577849003426783 0 0.099394017594351028 -0.031827221213426141 0 0.089011506898169723 -0.045577849003426783 0 0.07059015953785984 -0.035582536757348661 0 0.071404761177386311 -0.048793478721125369 0 0.056805908209127211 -0.033500576518988003 0 0.070013819890827167 -0.026235649568668539 0 0.07059015953785984 -0.035582536757348661 0 0.061009126418758393 -0.041666728586403023 0 0.056805908209127211 -0.033500576518988003 0 0.07059015953785984 -0.035582536757348661 0 0.061009126418758393 -0.041666728586403023 0 0.07059015953785984 -0.035582536757348661 0 0.061009126418758393 -0.041666728586403023 0 0.065255421088128124 -0.049916571031813337 0 0.07059015953785984 -0.035582536757348661 0 0.067064867055533176 -0.043989828774172617 0 0.071404761177386311 -0.048793478721125369 0 0.061009126418758393 -0.041666728586403023 0 0.07059015953785984 -0.035582536757348661 0 0.067064867055533176 -0.043989828774172617 0 0.061009126418758393 -0.041666728586403023 0 0.067064867055533176 -0.043989828774172617 0 0.065255421088128124 -0.049916571031813337 0 0.07059015953785984 -0.035582536757348661 0 0.071404761177386311 -0.048793478721125369 0 0.067064867055533176 -0.043989828774172617 0 0.071404761177386311 -0.048793478721125369 0 0.065255421088128124 -0.049916571031813337 0 0.071404761177386311 -0.048793478721125369 0 0.065255421088128124 -0.049916571031813337 0 0.072320374667027329 -0.063642597708780405 0 0.071404761177386311 -0.048793478721125369 0 0.065255421088128124 -0.049916571031813337 0 0.065255421088128124 -0.049916571031813337 0 0.072320374667027329 -0.063642597708780405 0 0.060983334197952169 -0.06117530721991106 0 0.065255421088128124 -0.049916571031813337 0 0.072320374667027329 -0.063642597708780405 0 0.071404761177386311 -0.048793478721125369 0 0.079778058281550532 -0.055929261460779527 0 0.072320374667027329 -0.063642597708780405 0 0.071404761177386311 -0.048793478721125369 0 0.072320374667027329 -0.063642597708780405 0 0.089011506898169723 -0.045577849003426783 0 0.086375590383619555 -0.065703120409785806 0 0.089011506898169723 -0.045577849003426783 0 0.079778058281550532 -0.055929261460779527 0 0.086375590383619555 -0.065703120409785806 0 0.089011506898169723 -0.045577849003426783 0 0.098571642974734586 -0.058416090867053197 0 0.086375590383619555 -0.065703120409785806 0 0.089011506898169723 -0.045577849003426783 0 0.071404761177386311 -0.048793478721125369 0 0.079778058281550532 -0.055929261460779527 0 0.079778058281550532 -0.055929261460779527 0 0.072320374667027329 -0.063642597708780405 0 0.086375590383619555 -0.065703120409785806 0 0.089011506898169723 -0.045577849003426783 0 0.071404761177386311 -0.048793478721125369 0 0.089011506898169723 -0.045577849003426783 0 0.098571642974734586 -0.058416090867053197 0 0.10533444444802401 -0.042596689174242919 0 0.098571642974734586 -0.058416090867053197 0 0.11715430576387879 -0.061137142951248703 0 0.10533444444802401 -0.042596689174242919 0 0.11715430576387879 -0.061137142951248703 0 0.12165738199787821 -0.039615529345059262 0 0.10533444444802401 -0.042596689174242919 0 0.11715430576387879 -0.061137142951248703 0 0.12165738199787821 -0.039615529345059262 0 0.13290759600485391 -0.053201376139083829 0 0.12165738199787821 -0.039615529345059262 0 0.10533444444802401 -0.042596689174242919 0 0.12165738199787821 -0.039615529345059262 0 0.10533444444802401 -0.042596689174242919 0 0.1119886706365049 -0.02697759646267063 0 0.089011506898169723 -0.045577849003426783 0 0.10533444444802401 -0.042596689174242919 0 0.089011506898169723 -0.045577849003426783 0 0.10533444444802401 -0.042596689174242919 0 0.099394017594351028 -0.031827221213426141 0 0.10533444444802401 -0.042596689174242919 0 0.099394017594351028 -0.031827221213426141 0 0.1119886706365049 -0.02697759646267063 0 0.099394017594351028 -0.031827221213426141 0 0.1119886706365049 -0.02697759646267063 0 0.1044841484923711 -0.014059019607619331 0 0.092110555478514586 -0.021916555697424012 0 0.099394017594351028 -0.031827221213426141 0 0.1044841484923711 -0.014059019607619331 0 0.092110555478514586 -0.021916555697424012 0 0.1044841484923711 -0.014059019607619331 0 0.1119886706365049 -0.02697759646267063 0 0.1161883255134349 -0.010216488111713469 0 0.1044841484923711 -0.014059019607619331 0 0.1119886706365049 -0.02697759646267063 0 0.1161883255134349 -0.010216488111713469 0 0.1269385985780391 -0.020754729118671301 0 0.12165738199787821 -0.039615529345059262 0 0.1119886706365049 -0.02697759646267063 0 0.1269385985780391 -0.020754729118671301 0 0.1100384861595171 0.00069035143238784728 0 0.1161883255134349 -0.010216488111713469 0 0.1044841484923711 -0.014059019607619331 0 0.1214108478999421 0.0053438791373986898 0 0.1161883255134349 -0.010216488111713469 0 0.13607736512613211 -0.0019411686113227199 0 0.1214108478999421 0.0053438791373986898 0 0.1100384861595171 0.00069035143238784728 0 0.1161883255134349 -0.010216488111713469 0 0.1100384861595171 0.00069035143238784728 0 0.095662718955640602 0.0052042782372958701 0 0.1044841484923711 -0.014059019607619331 0 0.095662718955640602 0.0052042782372958701 0 0.092110555478514586 -0.021916555697424012 0 0.1044841484923711 -0.014059019607619331 0 0.095662718955640602 0.0052042782372958701 0 0.092110555478514586 -0.021916555697424012 0 0.083739673869071246 -0.085828391816145155 0 0.09423221374132372 -0.1062136470888434 0 0.083739673869071246 -0.085828391816145155 0 0.098175673598446464 -0.090627669490980167 0 0.09423221374132372 -0.1062136470888434 0 0.082728843969646748 -0.093546096819028424 0 0.083739673869071246 -0.085828391816145155 0 0.09423221374132372 -0.1062136470888434 0 0.084055705341695541 -0.1040572453735933 0 0.084512404916388464 -0.1134341736042714 0 0.074749358739423233 -0.1030350639822301 0 0.084055705341695541 -0.1040572453735933 0 0.074749358739423233 -0.1030350639822301 0 0.082728843969646748 -0.093546096819028424 0 0.084055705341695541 -0.1040572453735933 0 0.082728843969646748 -0.093546096819028424 0 0.09423221374132372 -0.1062136470888434 0 0.084055705341695541 -0.1040572453735933 0 0.084512404916388464 -0.1134341736042714 0 0.09423221374132372 -0.1062136470888434 0 0.090906432777895715 -0.12128878533967399 0 0.084512404916388464 -0.1134341736042714 0 0.09423221374132372 -0.1062136470888434 0 0.090906432777895715 -0.12128878533967399 0 0.084512404916388464 -0.1134341736042714 0 0.07569819529446814 -0.1184229837378107 0 0.084512404916388464 -0.1134341736042714 0 0.07569819529446814 -0.1184229837378107 0 0.074749358739423233 -0.1030350639822301 0 0.07569819529446814 -0.1184229837378107 0 0.067394348610428575 -0.11456494045845821 0 0.074749358739423233 -0.1030350639822301 0 0.067486458352594994 -0.13346385126010371 0 0.090906432777895715 -0.12128878533967399 0 0.07569819529446814 -0.1184229837378107 0 0.07569819529446814 -0.1184229837378107 0 0.074749358739423233 -0.1030350639822301 0 0.067486458352594994 -0.13346385126010371 0 0.07569819529446814 -0.1184229837378107 0 0.066386986073841303 -0.1225082709041754 0 0.07569819529446814 -0.1184229837378107 0 0.066386986073841303 -0.1225082709041754 0 0.067394348610428575 -0.11456494045845821 0 0.054734562290569388 -0.124832433616204 0 0.066386986073841303 -0.1225082709041754 0 0.067394348610428575 -0.11456494045845821 0 0.065430967589284017 -0.1040404740806989 0 0.073800522184376327 -0.087647144226649723 0 0.065430967589284017 -0.1040404740806989 0 0.074749358739423233 -0.1030350639822301 0 0.073800522184376327 -0.087647144226649723 0 0.067394348610428575 -0.11456494045845821 0 0.065430967589284017 -0.1040404740806989 0 0.074749358739423233 -0.1030350639822301 0 0.058850934535274409 -0.090709378503531987 0 0.065430967589284017 -0.1040404740806989 0 0.073800522184376327 -0.087647144226649723 0 0.074749358739423233 -0.1030350639822301 0 0.073800522184376327 -0.087647144226649723 0 0.082728843969646748 -0.093546096819028424 0 0.074749358739423233 -0.1030350639822301 0 0.073800522184376327 -0.087647144226649723 0 0.058850934535274409 -0.090709378503531987 0 0.073800522184376327 -0.087647144226649723 0 0.0639362567003115 -0.077831181755010706 0 0.077425335471570128 -0.080577490675596691 0 0.073800522184376327 -0.087647144226649723 0 0.077425335471570128 -0.080577490675596691 0 0.073800522184376327 -0.087647144226649723 0 0.072320374667027329 -0.063642597708780405 0 0.077425335471570128 -0.080577490675596691 0 0.072320374667027329 -0.063642597708780405 0 0.083739673869071246 -0.085828391816145155 0 0.073800522184376327 -0.087647144226649723 0 0.072320374667027329 -0.063642597708780405 0 0.073800522184376327 -0.087647144226649723 0 0.0639362567003115 -0.077831181755010706 0 0.072320374667027329 -0.063642597708780405 0 0.072320374667027329 -0.063642597708780405 0 0.083739673869071246 -0.085828391816145155 0 0.060983334197952169 -0.06117530721991106 0 0.063442659708876067 -0.067483557275152831 0 0.072320374667027329 -0.063642597708780405 0 0.063442659708876067 -0.067483557275152831 0 0.0639362567003115 -0.077831181755010706 0 0.072320374667027329 -0.063642597708780405 0 0.072320374667027329 -0.063642597708780405 0 0.086375590383619555 -0.065703120409785806 0 0.083739673869071246 -0.085828391816145155 0 0.098571642974734586 -0.058416090867053197 0 0.086375590383619555 -0.065703120409785806 0 0.094982367379980365 -0.077065652796561732 0 0.086375590383619555 -0.065703120409785806 0 0.083739673869071246 -0.085828391816145155 0 0.086375590383619555 -0.065703120409785806 0 0.083739673869071246 -0.085828391816145155 0 0.094982367379980365 -0.077065652796561732 0 0.073800522184376327 -0.087647144226649723 0 0.082728843969646748 -0.093546096819028424 0 0.083739673869071246 -0.085828391816145155 0 0.082728843969646748 -0.093546096819028424 0 0.083739673869071246 -0.085828391816145155 0 0.077425335471570128 -0.080577490675596691 0 0.073800522184376327 -0.087647144226649723 0 0.083739673869071246 -0.085828391816145155 0 0.083739673869071246 -0.085828391816145155 0 0.098175673598446464 -0.090627669490980167 0 0.094982367379980365 -0.077065652796561732 0 0.098175673598446464 -0.090627669490980167 0 0.11284542973398511 -0.082846313485247985 0 0.1096238257862579 -0.099068733428671618 0 0.098175673598446464 -0.090627669490980167 0 0.094982367379980365 -0.077065652796561732 0 0.11284542973398511 -0.082846313485247985 0 0.11715430576387879 -0.061137142951248703 0 0.094982367379980365 -0.077065652796561732 0 0.11284542973398511 -0.082846313485247985 0 0.098571642974734586 -0.058416090867053197 0 0.11715430576387879 -0.061137142951248703 0 0.094982367379980365 -0.077065652796561732 0 0.11715430576387879 -0.061137142951248703 0 0.11284542973398511 -0.082846313485247985 0 0.13340302175921781 -0.073788656955807941 0 0.11284542973398511 -0.082846313485247985 0 0.12587512666347639 -0.093746000990699824 0 0.13340302175921781 -0.073788656955807941 0 0.11284542973398511 -0.082846313485247985 0 0.1096238257862579 -0.099068733428671618 0 0.12587512666347639 -0.093746000990699824 0 0.1189798759468795 -0.10836656121596271 0 0.1096238257862579 -0.099068733428671618 0 0.12587512666347639 -0.093746000990699824 0 0.1189798759468795 -0.10836656121596271 0 0.1096238257862579 -0.099068733428671618 0 0.107634635033436 -0.1126122083002957 0 0.1096238257862579 -0.099068733428671618 0 0.09423221374132372 -0.1062136470888434 0 0.107634635033436 -0.1126122083002957 0 0.098175673598446464 -0.090627669490980167 0 0.1096238257862579 -0.099068733428671618 0 0.09423221374132372 -0.1062136470888434 0 0.1047247536135735 -0.126598902361543 0 0.09423221374132372 -0.1062136470888434 0 0.107634635033436 -0.1126122083002957 0 0.1047247536135735 -0.126598902361543 0 0.09423221374132372 -0.1062136470888434 0 0.1047247536135735 -0.126598902361543 0 0.090906432777895715 -0.12128878533967399 0 0.09423221374132372 -0.1062136470888434 0 0.1047247536135735 -0.126598902361543 0 0.107634635033436 -0.1126122083002957 0 0.1155063264196927 -0.12058211986939781 0 0.1189798759468795 -0.10836656121596271 0 0.1155063264196927 -0.12058211986939781 0 0.13154425954336929 -0.1231580187760869 0 0.11960212245850629 -0.13053432943718651 0 0.1155063264196927 -0.12058211986939781 0 0.13154425954336929 -0.1231580187760869 0 0.1189798759468795 -0.10836656121596271 0 0.107634635033436 -0.1126122083002957 0 0.1155063264196927 -0.12058211986939781 0 0.13154425954336929 -0.1231580187760869 0 0.15339938721463461 -0.11581754724590421 0 0.135571030420121 -0.1070170889976752 0 0.1189798759468795 -0.10836656121596271 0 0.13154425954336929 -0.1231580187760869 0 0.135571030420121 -0.1070170889976752 0 0.13154425954336929 -0.1231580187760869 0 0.15339938721463461 -0.11581754724590421 0 0.1441715719670261 -0.13551426139435169 0 0.15339938721463461 -0.11581754724590421 0 0.135571030420121 -0.1070170889976752 0 0.14395559748076861 -0.091472681490559066 0 0.1189798759468795 -0.10836656121596271 0 0.135571030420121 -0.1070170889976752 0 0.12587512666347639 -0.093746000990699824 0 0.135571030420121 -0.1070170889976752 0 0.12587512666347639 -0.093746000990699824 0 0.14395559748076861 -0.091472681490559066 0 0.12587512666347639 -0.093746000990699824 0 0.13340302175921781 -0.073788656955807941 0 0.14395559748076861 -0.091472681490559066 0 0.11715430576387879 -0.061137142951248703 0 0.13340302175921781 -0.073788656955807941 0 0.13290759600485391 -0.053201376139083829 0 0.13340302175921781 -0.073788656955807941 0 0.15637032820579089 -0.066331512044266808 0 0.13290759600485391 -0.053201376139083829 0 0.13340302175921781 -0.073788656955807941 0 0.14395559748076861 -0.091472681490559066 0 0.15637032820579089 -0.066331512044266808 0 0.14395559748076861 -0.091472681490559066 0 0.15637032820579089 -0.066331512044266808 0 0.14395559748076861 -0.091472681490559066 0 0.15637032820579089 -0.066331512044266808 0 0.17303127119062131 -0.082805372228005547 0 0.14395559748076861 -0.091472681490559066 0 0.17303127119062131 -0.082805372228005547 0 0.1743789398450574 -0.1061967997110599 0 0.15637032820579089 -0.066331512044266808 0 0.17303127119062131 -0.082805372228005547 0 0.18401407623007079 -0.060478089975392613 0 0.17303127119062131 -0.082805372228005547 0 0.18401407623007079 -0.060478089975392613 0 0.19631665729710521 -0.080065035971453605 0 0.17303127119062131 -0.082805372228005547 0 0.1743789398450574 -0.1061967997110599 0 0.1983814701592119 -0.10448944786542549 0 0.1743789398450574 -0.1061967997110599 0 0.18518756104964801 -0.11835135482718651 0 0.16988682547384601 -0.12246087980870229 0 0.1743789398450574 -0.1061967997110599 0 0.18518756104964801 -0.11835135482718651 0 0.1983814701592119 -0.10448944786542549 0 0.15339938721463461 -0.11581754724590421 0 0.16988682547384601 -0.12246087980870229 0 0.16152243531919611 -0.13618019586874611 0 0.15339938721463461 -0.11581754724590421 0 0.1743789398450574 -0.1061967997110599 0 0.16988682547384601 -0.12246087980870229 0 0.15339938721463461 -0.11581754724590421 0 0.14395559748076861 -0.091472681490559066 0 0.1743789398450574 -0.1061967997110599 0 0.13607736512613211 -0.0019411686113227199 0 0.14496839172710069 -0.019764005575277219 0 0.16327794218489669 -0.0045693455112001471 0 0.1161883255134349 -0.010216488111713469 0 0.13607736512613211 -0.0019411686113227199 0 0.1269385985780391 -0.020754729118671301 0 0.13607736512613211 -0.0019411686113227199 0 0.1269385985780391 -0.020754729118671301 0 0.14496839172710069 -0.019764005575277219 0 0.1269385985780391 -0.020754729118671301 0 0.14496839172710069 -0.019764005575277219 0 0.13433408927126869 -0.032804762496352162 0 0.12165738199787821 -0.039615529345059262 0 0.1269385985780391 -0.020754729118671301 0 0.13433408927126869 -0.032804762496352162 0 0.14496839172710069 -0.019764005575277219 0 0.14772717982379119 -0.039816124918520018 0 0.13433408927126869 -0.032804762496352162 0 0.14496839172710069 -0.019764005575277219 0 0.14772717982379119 -0.039816124918520018 0 0.16119167246448751 -0.02427779835093085 0 0.14772717982379119 -0.039816124918520018 0 0.13433408927126869 -0.032804762496352162 0 0.13290759600485391 -0.053201376139083829 0 0.12165738199787821 -0.039615529345059262 0 0.13433408927126869 -0.032804762496352162 0 0.13290759600485391 -0.053201376139083829 0 0.15637032820579089 -0.066331512044266808 0 0.14772717982379119 -0.039816124918520018 0 0.13290759600485391 -0.053201376139083829 0 0.15637032820579089 -0.066331512044266808 0 0.1687850589308133 -0.041190342597974557 0 0.15637032820579089 -0.066331512044266808 0 0.18401407623007079 -0.060478089975392613 0 0.1687850589308133 -0.041190342597974557 0 0.15637032820579089 -0.066331512044266808 0 0.14772717982379119 -0.039816124918520018 0 0.1687850589308133 -0.041190342597974557 0 0.18401407623007079 -0.060478089975392613 0 0.1687850589308133 -0.041190342597974557 0 0.19818287018779721 -0.038132722014213513 0 0.1687850589308133 -0.041190342597974557 0 0.18119978965583561 -0.01604917315168233 0 0.19818287018779721 -0.038132722014213513 0 0.14772717982379119 -0.039816124918520018 0 0.1687850589308133 -0.041190342597974557 0 0.16119167246448751 -0.02427779835093085 0 0.14496839172710069 -0.019764005575277219 0 0.16119167246448751 -0.02427779835093085 0 0.16327794218489669 -0.0045693455112001471 0 0.1687850589308133 -0.041190342597974557 0 0.16119167246448751 -0.02427779835093085 0 0.18119978965583561 -0.01604917315168233 0 0.1687850589308133 -0.041190342597974557 0 0.18119978965583561 -0.01604917315168233 0 0.18119978965583561 -0.01604917315168233 0 0.17795813263685351 -0.0036213451233312139 0 0.16327794218489669 -0.0045693455112001471 0 0.18119978965583561 -0.01604917315168233 0 0.17795813263685351 -0.0036213451233312139 0 0.19076198086849511 -0.0059015262495032738 0 0.16119167246448751 -0.02427779835093085 0 0.18119978965583561 -0.01604917315168233 0 0.16327794218489669 -0.0045693455112001471 0 0.2048382041248519 0.001847506743513572 0 0.21355690284405451 -0.010781606829415161 0 0.20049584196518361 -0.01777664132142311 0 0.2048382041248519 0.001847506743513572 0 0.2177544361960416 0.001237136429661227 0 0.21355690284405451 -0.010781606829415161 0 0.18119978965583561 -0.01604917315168233 0 0.19076198086849511 -0.0059015262495032738 0 0.20049584196518361 -0.01777664132142311 0 0.20280881374257029 0.002579439371367231 0 0.19076198086849511 -0.0059015262495032738 0 0.20049584196518361 -0.01777664132142311 0 0.20280881374257029 0.002579439371367231 0 0.20049584196518361 -0.01777664132142311 0 0.2048382041248519 0.001847506743513572 0 0.20280881374257029 0.002579439371367231 0 0.20049584196518361 -0.01777664132142311 0 0.18119978965583561 -0.01604917315168233 0 0.20049584196518361 -0.01777664132142311 0 0.19818287018779721 -0.038132722014213513 0 0.20049584196518361 -0.01777664132142311 0 0.19818287018779721 -0.038132722014213513 0 0.21355690284405451 -0.010781606829415161 0 0.20049584196518361 -0.01777664132142311 0 0.22244453258013119 -0.031494034711884708 0 0.20049584196518361 -0.01777664132142311 0 0.19818287018779721 -0.038132722014213513 0 0.22244453258013119 -0.031494034711884708 0 0.19818287018779721 -0.038132722014213513 0 0.21064184799791441 -0.061670627325713927 0 0.22244453258013119 -0.031494034711884708 0 0.18401407623007079 -0.060478089975392613 0 0.19818287018779721 -0.038132722014213513 0 0.21064184799791441 -0.061670627325713927 0 0.25438004673302828 -0.041704364969997687 0 0.23001191155239339 -0.054701467735383917 0 0.22244453258013119 -0.031494034711884708 0 0.21064184799791441 -0.061670627325713927 0 0.23001191155239339 -0.054701467735383917 0 0.22244453258013119 -0.031494034711884708 0 0.25438004673302828 -0.041704364969997687 0 0.23001191155239339 -0.054701467735383917 0 0.25438004673302828 -0.041704364969997687 0 0.23001191155239339 -0.054701467735383917 0 0.24679860410923049 -0.066168330913984899 0 0.25438004673302828 -0.041704364969997687 0 0.22244453258013119 -0.031494034711884708 0 0.24453295732942329 -0.020041075254526631 0 0.21355690284405451 -0.010781606829415161 0 0.22244453258013119 -0.031494034711884708 0 0.2290149227584187 -0.0086915153707108426 0 0.22244453258013119 -0.031494034711884708 0 0.24453295732942329 -0.020041075254526631 0 0.2290149227584187 -0.0086915153707108426 0 0.24453295732942329 -0.020041075254526631 0 0.2491447540649577 -0.00048297328675847567 0 0.2290149227584187 -0.0086915153707108426 0 0.2177544361960416 0.001237136429661227 0 0.21355690284405451 -0.010781606829415161 0 0.2290149227584187 -0.0086915153707108426 0 0.1983814701592119 -0.10448944786542549 0 0.23007482407267671 -0.1101384468078319 0 0.20507884937927071 -0.12760181735428189 0 0.1983814701592119 -0.10448944786542549 0 0.21399863578564571 -0.08775567373904182 0 0.23007482407267671 -0.1101384468078319 0 0.18518756104964801 -0.11835135482718651 0 0.1983814701592119 -0.10448944786542549 0 0.20507884937927071 -0.12760181735428189 0 0.1983814701592119 -0.10448944786542549 0 0.19631665729710521 -0.080065035971453605 0 0.21399863578564571 -0.08775567373904182 0 0.17303127119062131 -0.082805372228005547 0 0.1983814701592119 -0.10448944786542549 0 0.19631665729710521 -0.080065035971453605 0 0.18401407623007079 -0.060478089975392613 0 0.21064184799791441 -0.061670627325713927 0 0.19631665729710521 -0.080065035971453605 0 0.21064184799791441 -0.061670627325713927 0 0.19631665729710521 -0.080065035971453605 0 0.21399863578564571 -0.08775567373904182 0 0.21399863578564571 -0.08775567373904182 0 0.2345783794013202 -0.082414810724784099 0 0.23007482407267671 -0.1101384468078319 0 0.21064184799791441 -0.061670627325713927 0 0.23001191155239339 -0.054701467735383917 0 0.2345783794013202 -0.082414810724784099 0 0.21064184799791441 -0.061670627325713927 0 0.21399863578564571 -0.08775567373904182 0 0.2345783794013202 -0.082414810724784099 0 0.23001191155239339 -0.054701467735383917 0 0.24679860410923049 -0.066168330913984899 0 0.2345783794013202 -0.082414810724784099 0 0.25725146010028871 -0.095573666370958751 0 0.24679860410923049 -0.066168330913984899 0 0.2345783794013202 -0.082414810724784099 0 0.25725146010028871 -0.095573666370958751 0 0.2345783794013202 -0.082414810724784099 0 0.23007482407267671 -0.1101384468078319 0 0.25725146010028871 -0.095573666370958751 0 0.25794968146209418 -0.1166590157004577 0 0.23007482407267671 -0.1101384468078319 0 0.23007482407267671 -0.1101384468078319 0 0.22785539137631841 -0.13229979009072901 0 0.20507884937927071 -0.12760181735428189 0 0.25794968146209418 -0.1166590157004577 0 0.23007482407267671 -0.1101384468078319 0 0.24755713688486619 -0.1342292048917374 0 0.23007482407267671 -0.1101384468078319 0 0.24755713688486619 -0.1342292048917374 0 0.22785539137631841 -0.13229979009072901 0 0.24755713688486619 -0.1342292048917374 0 0.23459829815636279 -0.14716631889783649 0 0.22785539137631841 -0.13229979009072901 0 0.24755713688486619 -0.1342292048917374 0 0.24769271438547791 -0.15459183885866221 0 0.23459829815636279 -0.14716631889783649 0 0.24769271438547791 -0.15459183885866221 0 0.23459829815636279 -0.14716631889783649 0 0.23727707904069689 -0.16080736912348359 0 0.23459829815636279 -0.14716631889783649 0 0.2201122359501568 -0.1531826673264543 0 0.23727707904069689 -0.16080736912348359 0 0.23459829815636279 -0.14716631889783649 0 0.2201122359501568 -0.1531826673264543 0 0.22785539137631841 -0.13229979009072901 0 0.2201122359501568 -0.1531826673264543 0 0.22785539137631841 -0.13229979009072901 0 0.20507884937927071 -0.12760181735428189 0 0.2201122359501568 -0.1531826673264543 0 0.20507884937927071 -0.12760181735428189 0 0.2201122359501568 -0.1531826673264543 0 0.20507884937927071 -0.12760181735428189 0 0.20469658938962251 -0.1559862939047055 0 0.20507884937927071 -0.12760181735428189 0 0.20469658938962251 -0.1559862939047055 0 0.19015759124121689 -0.14737093227075251 0 0.20469658938962251 -0.1559862939047055 0 0.19015759124121689 -0.14737093227075251 0 0.18905928895252511 -0.16464175592364949 0 0.20507884937927071 -0.12760181735428189 0 0.19015759124121689 -0.14737093227075251 0 0.1807717992519246 -0.13431980271094149 0 0.18518756104964801 -0.11835135482718651 0 0.20507884937927071 -0.12760181735428189 0 0.1807717992519246 -0.13431980271094149 0 0.19444493660944781 -0.18339172069776441 0 0.18905928895252511 -0.16464175592364949 0 0.18073407843048711 -0.1796598714850422 0 0.19444493660944781 -0.18339172069776441 0 0.18905928895252511 -0.16464175592364949 0 0.20416987083611379 -0.17164595700564669 0 0.20469658938962251 -0.1559862939047055 0 0.18905928895252511 -0.16464175592364949 0 0.20416987083611379 -0.17164595700564669 0 0.20469658938962251 -0.1559862939047055 0 0.20416987083611379 -0.17164595700564669 0 0.22069538665644531 -0.16914224898969921 0 0.2201122359501568 -0.1531826673264543 0 0.20469658938962251 -0.1559862939047055 0 0.22069538665644531 -0.16914224898969921 0 0.19444493660944781 -0.18339172069776441 0 0.20416987083611379 -0.17164595700564669 0 0.21136815704991721 -0.1849395892246837 0 0.20416987083611379 -0.17164595700564669 0 0.21136815704991721 -0.1849395892246837 0 0.22069538665644531 -0.16914224898969921 0 0.21136815704991721 -0.1849395892246837 0 0.22069538665644531 -0.16914224898969921 0 0.2306663680610086 -0.19087509539628669 0 0.22069538665644531 -0.16914224898969921 0 0.2306663680610086 -0.19087509539628669 0 0.22069538665644531 -0.16914224898969921 0 0.2351456225210429 -0.17876351729862669 0 0.2306663680610086 -0.19087509539628669 0 0.2201122359501568 -0.1531826673264543 0 0.23727707904069689 -0.16080736912348359 0 0.2351456225210429 -0.17876351729862669 0 0.2201122359501568 -0.1531826673264543 0 0.2351456225210429 -0.17876351729862669 0 0.2201122359501568 -0.1531826673264543 0 0.22069538665644531 -0.16914224898969921 0 0.2351456225210429 -0.17876351729862669 0 0.24769271438547791 -0.15459183885866221 0 0.248836524190444 -0.1703325032358384 0 0.23727707904069689 -0.16080736912348359 0 0.248836524190444 -0.1703325032358384 0 0.23727707904069689 -0.16080736912348359 0 0.2351456225210429 -0.17876351729862669 0 0.25728011405567253 -0.18494519425096431 0 0.248836524190444 -0.1703325032358384 0 0.2351456225210429 -0.17876351729862669 0 0.25017900909192903 -0.20434436727079919 0 0.24063734946557189 -0.2126079418028741 0 0.2306663680610086 -0.19087509539628669 0 0.25017900909192903 -0.20434436727079919 0 0.2351456225210429 -0.17876351729862669 0 0.24063734946557189 -0.2126079418028741 0 0.2306663680610086 -0.19087509539628669 0 0.25017900909192903 -0.20434436727079919 0 0.25728011405567253 -0.18494519425096431 0 0.2351456225210429 -0.17876351729862669 0 0.25017900909192903 -0.20434436727079919 0 0.2351456225210429 -0.17876351729862669 0 0.2306663680610086 -0.19087509539628669 0 0.24063734946557189 -0.2126079418028741 0 0.22583418826292601 -0.20624584390349421 0 0.2306663680610086 -0.19087509539628669 0 0.24063734946557189 -0.2126079418028741 0 0.22973835005626689 -0.21617594703076409 0 0.22583418826292601 -0.20624584390349421 0 0.24063734946557189 -0.2126079418028741 0 0.22973835005626689 -0.21617594703076409 0 0.2311939157169989 -0.22734274563752471 0 0.22973835005626689 -0.21617594703076409 0 0.22583418826292601 -0.20624584390349421 0 0.22015673489358439 -0.2189174947762996 0 0.22583418826292601 -0.20624584390349421 0 0.2306663680610086 -0.19087509539628669 0 0.21544377209209289 -0.19808551877889741 0 0.21136815704991721 -0.1849395892246837 0 0.2306663680610086 -0.19087509539628669 0 0.21544377209209289 -0.19808551877889741 0 0.25060833087013518 -0.23434078820946161 0 0.23610175087469071 -0.24190894041878649 0 0.2311939157169989 -0.22734274563752471 0 0.25060833087013518 -0.23434078820946161 0 0.24116993313572799 -0.25182485922073539 0 0.23610175087469071 -0.24190894041878649 0 0.25060833087013518 -0.23434078820946161 0 0.24063734946557189 -0.2126079418028741 0 0.2311939157169989 -0.22734274563752471 0 0.25060833087013518 -0.23434078820946161 0 0.24063734946557189 -0.2126079418028741 0 0.22015673489358439 -0.2189174947762996 0 0.2311939157169989 -0.22734274563752471 0 0.20774816924235359 -0.23181657865900859 0 0.22973835005626689 -0.21617594703076409 0 0.22015673489358439 -0.2189174947762996 0 0.2311939157169989 -0.22734274563752471 0 0.22143482377590079 -0.25412736860742452 0 0.23610175087469071 -0.24190894041878649 0 0.2311939157169989 -0.22734274563752471 0 0.22143482377590079 -0.25412736860742452 0 0.2311939157169989 -0.22734274563752471 0 0.22143482377590079 -0.25412736860742452 0 0.2311939157169989 -0.22734274563752471 0 0.20774816924235359 -0.23181657865900859 0 0.24116993313572799 -0.25182485922073539 0 0.22143482377590079 -0.25412736860742452 0 0.23610175087469071 -0.24190894041878649 0 0.22143482377590079 -0.25412736860742452 0 0.2035458411846999 -0.25106418637757938 0 0.20774816924235359 -0.23181657865900859 0 0.22015673489358439 -0.2189174947762996 0 0.20774816924235359 -0.23181657865900859 0 0.21003575471016619 -0.20941118251916341 0 0.20774816924235359 -0.23181657865900859 0 0.19266541515253319 -0.21425565351081469 0 0.18254919708464939 -0.2304982965031413 0 0.20774816924235359 -0.23181657865900859 0 0.1889810133324179 -0.24655311309208039 0 0.18254919708464939 -0.2304982965031413 0 0.2035458411846999 -0.25106418637757938 0 0.20774816924235359 -0.23181657865900859 0 0.1889810133324179 -0.24655311309208039 0 0.21544377209209289 -0.19808551877889741 0 0.21003575471016619 -0.20941118251916341 0 0.20002450130009089 -0.1983595362100849 0 0.21136815704991721 -0.1849395892246837 0 0.21544377209209289 -0.19808551877889741 0 0.20002450130009089 -0.1983595362100849 0 0.20774816924235359 -0.23181657865900859 0 0.21003575471016619 -0.20941118251916341 0 0.19266541515253319 -0.21425565351081469 0 0.22583418826292601 -0.20624584390349421 0 0.22015673489358439 -0.2189174947762996 0 0.21003575471016619 -0.20941118251916341 0 0.22583418826292601 -0.20624584390349421 0 0.21544377209209289 -0.19808551877889741 0 0.21003575471016619 -0.20941118251916341 0 0.21003575471016619 -0.20941118251916341 0 0.19266541515253319 -0.21425565351081469 0 0.20002450130009089 -0.1983595362100849 0 0.19266541515253319 -0.21425565351081469 0 0.20002450130009089 -0.1983595362100849 0 0.18027919958657929 -0.1966385958783293 0 0.19444493660944781 -0.18339172069776441 0 0.20002450130009089 -0.1983595362100849 0 0.18027919958657929 -0.1966385958783293 0 0.19444493660944781 -0.18339172069776441 0 0.21136815704991721 -0.1849395892246837 0 0.20002450130009089 -0.1983595362100849 0 0.19266541515253319 -0.21425565351081469 0 0.18027919958657929 -0.1966385958783293 0 0.1698091394711902 -0.2153146865801846 0 0.1698091394711902 -0.2153146865801846 0 0.15704203486496809 -0.19995592102514981 0 0.1421249784255379 -0.21970826193863369 0 0.18027919958657929 -0.1966385958783293 0 0.1698091394711902 -0.2153146865801846 0 0.15704203486496809 -0.19995592102514981 0 0.18027919958657929 -0.1966385958783293 0 0.15704203486496809 -0.19995592102514981 0 0.16672747365926069 -0.18474195939308691 0 0.15704203486496809 -0.19995592102514981 0 0.15031166551670319 -0.18429850073719689 0 0.16672747365926069 -0.18474195939308691 0 0.1889810133324179 -0.24655311309208039 0 0.18254919708464939 -0.2304982965031413 0 0.17141093371415589 -0.24639770326239391 0 0.18254919708464939 -0.2304982965031413 0 0.16364512859074401 -0.2308568257059502 0 0.17141093371415589 -0.24639770326239391 0 0.1698091394711902 -0.2153146865801846 0 0.18254919708464939 -0.2304982965031413 0 0.16364512859074401 -0.2308568257059502 0 0.19266541515253319 -0.21425565351081469 0 0.1698091394711902 -0.2153146865801846 0 0.18254919708464939 -0.2304982965031413 0 0.1698091394711902 -0.2153146865801846 0 0.16364512859074401 -0.2308568257059502 0 0.1421249784255379 -0.21970826193863369 0 0.16364512859074401 -0.2308568257059502 0 0.17141093371415589 -0.24639770326239391 0 0.15233139425818679 -0.2423651802453976 0 0.15233139425818679 -0.2423651802453976 0 0.1421249784255379 -0.21970826193863369 0 0.13317140248590861 -0.24842089328534631 0 0.15233139425818679 -0.2423651802453976 0 0.1421249784255379 -0.21970826193863369 0 0.16364512859074401 -0.2308568257059502 0 0.15233139425818679 -0.2423651802453976 0 0.1421249784255379 -0.21970826193863369 0 0.1185692515638205 -0.23461675862994169 0 0.1421249784255379 -0.21970826193863369 0 0.13317140248590861 -0.24842089328534631 0 0.1219770006881303 -0.21286735454571409 0 0.1185692515638205 -0.23461675862994169 0 0.1421249784255379 -0.21970826193863369 0 0.15704203486496809 -0.19995592102514981 0 0.131918562592889 -0.1970513436318698 0 0.15031166551670319 -0.18429850073719689 0 0.15704203486496809 -0.19995592102514981 0 0.1421249784255379 -0.21970826193863369 0 0.131918562592889 -0.1970513436318698 0 0.1219770006881303 -0.21286735454571409 0 0.1421249784255379 -0.21970826193863369 0 0.131918562592889 -0.1970513436318698 0 0.1421249784255379 -0.21970826193863369 0 0.131918562592889 -0.1970513436318698 0 0.131918562592889 -0.1970513436318698 0 0.13660294844139881 -0.17891165357398359 0 0.15031166551670319 -0.18429850073719689 0 0.1217121467602401 -0.17439442532510599 0 0.131918562592889 -0.1970513436318698 0 0.13660294844139881 -0.17891165357398359 0 0.1217121467602401 -0.17439442532510599 0 0.131918562592889 -0.1970513436318698 0 0.1217121467602401 -0.17439442532510599 0 0.13660294844139881 -0.17891165357398359 0 0.1333577655474463 -0.16978874391548451 0 0.13660294844139881 -0.17891165357398359 0 0.1445769730876576 -0.16926729561758749 0 0.1333577655474463 -0.16978874391548451 0 0.13660294844139881 -0.17891165357398359 0 0.15031166551670319 -0.18429850073719689 0 0.1445769730876576 -0.16926729561758749 0 0.15031166551670319 -0.18429850073719689 0 0.1445769730876576 -0.16926729561758749 0 0.1600794429136535 -0.1725880895528806 0 0.1445769730876576 -0.16926729561758749 0 0.1453480403297561 -0.15763538952671269 0 0.15679563686301559 -0.16183571116131981 0 0.1445769730876576 -0.16926729561758749 0 0.1600794429136535 -0.1725880895528806 0 0.15679563686301559 -0.16183571116131981 0 0.1445769730876576 -0.16926729561758749 0 0.1453480403297561 -0.15763538952671269 0 0.1341855670754788 -0.1607046385303674 0 0.1445769730876576 -0.16926729561758749 0 0.1341855670754788 -0.1607046385303674 0 0.1333577655474463 -0.16978874391548451 0 0.1341855670754788 -0.1607046385303674 0 0.1333577655474463 -0.16978874391548451 0 0.12570983335807309 -0.16736941290694199 0 0.1217121467602401 -0.17439442532510599 0 0.1333577655474463 -0.16978874391548451 0 0.12570983335807309 -0.16736941290694199 0 0.1341855670754788 -0.1607046385303674 0 0.12570983335807309 -0.16736941290694199 0 0.12827777420880981 -0.15286173782655171 0 0.12738132510232841 -0.1415605041510837 0 0.1388948520223455 -0.14768997591012251 0 0.1441715719670261 -0.13551426139435169 0 0.12827777420880981 -0.15286173782655171 0 0.12738132510232841 -0.1415605041510837 0 0.1388948520223455 -0.14768997591012251 0 0.1341855670754788 -0.1607046385303674 0 0.12827777420880981 -0.15286173782655171 0 0.1388948520223455 -0.14768997591012251 0 0.1453480403297561 -0.15763538952671269 0 0.1341855670754788 -0.1607046385303674 0 0.1388948520223455 -0.14768997591012251 0 0.11960212245850629 -0.13053432943718651 0 0.13154425954336929 -0.1231580187760869 0 0.12738132510232841 -0.1415605041510837 0 0.13154425954336929 -0.1231580187760869 0 0.12738132510232841 -0.1415605041510837 0 0.1441715719670261 -0.13551426139435169 0 0.15339938721463461 -0.11581754724590421 0 0.1441715719670261 -0.13551426139435169 0 0.16152243531919611 -0.13618019586874611 0 0.1441715719670261 -0.13551426139435169 0 0.15228717260028299 -0.14867932641416651 0 0.16152243531919611 -0.13618019586874611 0 0.1453480403297561 -0.15763538952671269 0 0.1388948520223455 -0.14768997591012251 0 0.15228717260028299 -0.14867932641416651 0 0.1388948520223455 -0.14768997591012251 0 0.1441715719670261 -0.13551426139435169 0 0.15228717260028299 -0.14867932641416651 0 0.1453480403297561 -0.15763538952671269 0 0.15228717260028299 -0.14867932641416651 0 0.15679563686301559 -0.16183571116131981 0 0.1711814292327416 -0.154304991460184 0 0.16152243531919611 -0.13618019586874611 0 0.1807717992519246 -0.13431980271094149 0 0.15228717260028299 -0.14867932641416651 0 0.1711814292327416 -0.154304991460184 0 0.16152243531919611 -0.13618019586874611 0 0.15228717260028299 -0.14867932641416651 0 0.1711814292327416 -0.154304991460184 0 0.15679563686301559 -0.16183571116131981 0 0.16988682547384601 -0.12246087980870229 0 0.16152243531919611 -0.13618019586874611 0 0.1807717992519246 -0.13431980271094149 0 0.18518756104964801 -0.11835135482718651 0 0.16988682547384601 -0.12246087980870229 0 0.1807717992519246 -0.13431980271094149 0 0.19015759124121689 -0.14737093227075251 0 0.18905928895252511 -0.16464175592364949 0 0.1711814292327416 -0.154304991460184 0 0.19015759124121689 -0.14737093227075251 0 0.1711814292327416 -0.154304991460184 0 0.1807717992519246 -0.13431980271094149 0 0.18905928895252511 -0.16464175592364949 0 0.18073407843048711 -0.1796598714850422 0 0.1703949740601863 -0.1699098144499383 0 0.18905928895252511 -0.16464175592364949 0 0.1711814292327416 -0.154304991460184 0 0.1703949740601863 -0.1699098144499383 0 0.19444493660944781 -0.18339172069776441 0 0.18027919958657929 -0.1966385958783293 0 0.18073407843048711 -0.1796598714850422 0 0.18027919958657929 -0.1966385958783293 0 0.18073407843048711 -0.1796598714850422 0 0.16672747365926069 -0.18474195939308691 0 0.18073407843048711 -0.1796598714850422 0 0.16672747365926069 -0.18474195939308691 0 0.1703949740601863 -0.1699098144499383 0 0.15031166551670319 -0.18429850073719689 0 0.16672747365926069 -0.18474195939308691 0 0.1600794429136535 -0.1725880895528806 0 0.16672747365926069 -0.18474195939308691 0 0.1600794429136535 -0.1725880895528806 0 0.1703949740601863 -0.1699098144499383 0 0.1600794429136535 -0.1725880895528806 0 0.15679563686301559 -0.16183571116131981 0 0.1703949740601863 -0.1699098144499383 0 0.1711814292327416 -0.154304991460184 0 0.15679563686301559 -0.16183571116131981 0 0.1703949740601863 -0.1699098144499383 0 
</DataArray>
</Points>
<Cells>
<DataArray type="UInt32" Name="connectivity" format="ascii">
0 1 2 3 4 5 6 7 8 9 10 11 12 13 14 15 16 17 18 19 20 21 22 23 24 25 26 27 28 29 30 31 32 33 34 35 36 37 38 39 40 41 42 43 44 45 46 47 48 49 50 51 52 53 54 55 56 57 58 59 60 61 62 63 64 65 66 67 68 69 70 71 72 73 74 75 76 77 78 79 80 81 82 83 84 85 86 87 88 89 90 91 92 93 94 95 96 97 98 99 100 101 102 103 104 105 106 107 108 109 110 111 112 113 114 115 116 117 118 119 120 121 122 123 124 125 126 127 128 129 130 131 132 133 134 135 136 137 138 139 140 141 142 143 144 145 146 147 148 149 150 151 152 153 154 155 156 157 158 159 160 161 162 163 164 165 166 167 168 169 170 171 172 173 174 175 176 177 178 179 180 181 182 183 184 185 186 187 188 189 190 191 192 193 194 195 196 197 198 199 200 201 202 203 204 205 206 207 208 209 210 211 212 213 214 215 216 217 218 219 220 221 222 223 224 225 226 227 228 229 230 231 232 233 234 235 236 237 238 239 240 241 242 243 244 245 246 247 248 249 250 251 252 253 254 255 256 257 258 259 260 261 262 263 264 265 266 267 268 269 270 271 272 273 274 275 276 277 278 279 280 281 282 283 284 285 286 287 288 289 290 291 292 293 294 295 296 297 298 299 300 301 302 303 304 305 306 307 308 309 310 311 312 313 314 315 316 317 318 319 320 321 322 323 324 325 326 327 328 329 330 331 332 333 334 335 336 337 338 339 340 341 342 343 344 345 346 347 348 349 350 351 352 353 354 355 356 357 358 359 360 361 362 363 364 365 366 367 368 369 370 371 372 373 374 375 376 377 378 379 380 381 382 383 384 385 386 387 388 389 390 391 392 393 394 395 396 397 398 399 400 401 402 403 404 405 406 407 408 409 410 411 412 413 414 415 416 417 418 419 420 421 422 423 424 425 426 427 428 429 430 431 432 433 434 435 436 437 438 439 440 441 442 443 444 445 446 447 448 449 450 451 452 453 454 455 456 457 458 459 460 461 462 463 464 465 466 467 468 469 470 471 472 473 474 475 476 477 478 479 480 481 482 483 484 485 486 487 488 489 490 491 492 493 494 495 496 497 498 499 500 501 502 503 504 505 506 507 508 509 510 511 512 513 514 515 516 517 518 519 520 521 522 523 524 525 526 527 528 529 530 531 532 533 534 535 536 537 538 539 540 541 542 543 544 545 546 547 548 549 550 551 552 553 554 555 556 557 558 559 560 561 562 563 564 565 566 567 568 569 570 571 572 573 574 575 576 577 578 579 580 581 582 583 584 585 586 587 588 589 590 591 592 593 594 595 596 597 598 599 600 601 602 603 604 605 606 607 608 609 610 611 612 613 614 615 616 617 618 619 620 621 622 623 624 625 626 627 628 629 630 631 632 633 634 635 636 637 638 639 640 641 642 643 644 645 646 647 648 649 650 651 652 653 654 655 656 657 658 659 660 661 662 663 664 665 666 667 668 669 670 671 672 673 674 675 676 677 678 679 680 681 682 683 684 685 686 687 688 689 690 691 692 693 694 695 696 697 698 699 700 701 702 703 704 705 706 707 708 709 710 711 712 713 714 715 716 717 718 719 720 721 722 723 724 725 726 727 728 729 730 731 732 733 734 735 736 737 738 739 740 741 742 743 744 745 746 747 748 749 750 751 752 753 754 755 756 757 758 759 760 761 762 763 764 765 766 767 768 769 770 771 772 773 774 775 776 777 778 779 780 781 782 783 784 785 786 787 788 789 790 791 792 793 794 795 796 797 798 799 800 801 802 803 804 805 806 807 808 809 810 811 812 813 814 815 816 817 818 819 820 821 822 823 824 825 826 827 828 829 830 831 832 833 834 835 836 837 838 839 840 841 842 843 844 845 846 847 848 849 850 851 852 853 854 855 856 857 858 859 860 861 862 863 864 865 866 867 868 869 870 871 872 873 874 875 876 877 878 879 880 881 882 883 884 885 886 887 888 889 890 891 892 893 894 895 896 897 898 899 900 901 902 903 904 905 906 907 908 909 910 911 912 913 914 915 916 917 918 919 920 921 922 923 924 925 926 927 928 929 930 931 932 933 934 935 936 937 938 939 940 941 942 943 944 945 946 947 948 949 950 951 952 953 954 955 956 957 958 959 960 961 962 963 964 965 966 967 968 969 970 971 972 973 974 975 976 977 978 979 980 981 982 983 984 985 986 987 988 989 990 991 992 993 994 995 996 997 998 999 1000 1001 1002 1003 1004 1005 1006 1007 1008 1009 1010 1011 1012 1013 1014 1015 1016 1017 1018 1019 1020 1021 1022 1023 1024 1025 1026 1027 1028 1029 1030 1031 1032 1033 1034 1035 1036 1037 1038 1039 1040 1041 1042 1043 1044 1045 1046 1047 1048 1049 1050 1051 1052 1053 1054 1055 1056 1057 1058 1059 1060 1061 1062 1063 1064 1065 1066 1067 1068 1069 1070 1071 1072 1073 1074 1075 1076 1077 1078 1079 1080 1081 1082 1083 1084 1085 1086 1087 1088 1089 1090 1091 1092 1093 1094 1095 1096 1097 1098 1099 1100 1101 1102 1103 1104 1105 1106 1107 1108 1109 1110 1111 1112 1113 1114 1115 1116 1117 1118 1119 1120 1121 1122 1123 1124 1125 1126 1127 1128 1129 1130 1131 1132 1133 1134 1135 1136 1137 1138 1139 1140 1141 1142 1143 1144 1145 1146 1147 1148 1149 1150 1151 1152 1153 1154 1155 1156 1157 1158 1159 1160 1161 1162 1163 1164 1165 1166 1167 1168 1169 1170 1171 1172 1173 1174 1175 1176 1177 1178 1179 1180 1181 1182 1183 1184 1185 1186 1187 1188 1189 1190 1191 1192 1193 1194 1195 1196 1197 1198 1199 1200 1201 1202 1203 1204 1205 1206 1207 1208 1209 1210 1211 1212 1213 1214 1215 1216 1217 1218 1219 1220 1221 1222 1223 1224 1225 1226 1227 1228 1229 1230 1231 1232 1233 1234 1235 1236 1237 1238 1239 1240 1241 1242 1243 1244 1245 1246 1247 1248 1249 1250 1251 1252 1253 1254 1255 1256 1257 1258 1259 1260 1261 1262 1263 1264 1265 1266 1267 1268 1269 1270 1271 1272 1273 1274 1275 1276 1277 1278 1279 1280 1281 1282 1283 1284 1285 1286 1287 1288 1289 1290 1291 1292 1293 1294 1295 1296 1297 1298 1299 1300 1301 1302 1303 1304 1305 1306 1307 1308 1309 1310 1311 1312 1313 1314 1315 1316 1317 1318 1319 1320 1321 1322 1323 1324 1325 1326 1327 1328 1329 1330 1331 1332 1333 1334 1335 1336 1337 1338 1339 1340 1341 1342 1343 1344 1345 1346 1347 1348 1349 1350 1351 1352 1353 1354 1355 1356 1357 1358 1359 1360 1361 1362 1363 1364 1365 1366 1367 1368 1369 1370 1371 1372 1373 1374 1375 1376 1377 1378 1379 1380 1381 1382 1383 1384 1385 1386 1387 1388 1389 1390 1391 1392 1393 1394 1395 1396 1397 1398 1399 1400 1401 1402 1403 1404 1405 1406 1407 1408 1409 1410 1411 1412 1413 1414 1415 1416 1417 1418 1419 1420 1421 1422 1423 1424 1425 1426 1427 1428 1429 1430 1431 1432 1433 1434 1435 1436 1437 1438 1439 1440 1441 1442 1443 1444 1445 1446 1447 1448 1449 1450 1451 1452 1453 1454 1455 1456 1457 1458 1459 1460 1461 1462 1463 1464 1465 1466 1467 1468 1469 1470 1471 1472 1473 1474 1475 1476 1477 1478 1479 1480 1481 1482 1483 1484 1485 1486 1487 1488 1489 1490 1491 1492 1493 1494 1495 1496 1497 1498 1499 1500 1501 1502 1503 1504 1505 1506 1507 1508 1509 1510 1511 1512 1513 1514 1515 1516 1517 1518 1519 1520 1521 1522 1523 1524 1525 1526 1527 1528 1529 1530 1531 1532 1533 1534 1535 1536 1537 1538 1539 1540 1541 1542 1543 1544 1545 1546 1547 1548 1549 1550 1551 1552 1553 1554 1555 1556 1557 1558 1559 1560 1561 1562 1563 1564 1565 1566 1567 1568 1569 1570 1571 1572 1573 1574 1575 1576 1577 1578 1579 1580 1581 1582 1583 1584 1585 1586 1587 1588 1589 1590 1591 1592 1593 1594 1595 1596 1597 1598 1599 1600 1601 1602 1603 1604 1605 1606 1607 1608 1609 1610 1611 1612 1613 1614 1615 1616 1617 1618 1619 1620 1621 1622 1623 1624 1625 1626 1627 1628 1629 1630 1631 1632 1633 1634 1635 1636 1637 1638 1639 1640 1641 1642 1643 1644 1645 1646 1647 1648 1649 1650 1651 1652 1653 1654 1655 1656 1657 1658 1659 1660 1661 1662 1663 1664 1665 1666 1667 1668 1669 1670 1671 1672 1673 1674 1675 1676 1677 1678 1679 1680 1681 1682 1683 1684 1685 1686 1687 1688 1689 1690 1691 1692 1693 1694 1695 1696 1697 1698 1699 1700 1701 1702 1703 1704 1705 1706 1707 1708 1709 1710 1711 1712 1713 1714 1715 1716 1717 1718 1719 1720 1721 1722 1723 1724 1725 1726 1727 1728 1729 1730 1731 1732 1733 1734 1735 1736 1737 1738 1739 1740 1741 1742 1743 1744 1745 1746 1747 1748 1749 1750 1751 1752 1753 1754 1755 1756 1757 1758 1759 1760 1761 1762 1763 1764 1765 1766 1767 1768 1769 1770 1771 1772 1773 1774 1775 1776 1777 1778 1779 1780 1781 1782 1783 1784 1785 1786 1787 1788 1789 1790 1791 1792 1793 1794 1795 1796 1797 1798 1799 1800 1801 1802 1803 1804 1805 1806 1807 1808 1809 1810 1811 1812 1813 1814 1815 1816 1817 1818 1819 1820 1821 1822 1823 1824 1825 1826 1827 1828 1829 1830 1831 1832 1833 1834 1835 1836 1837 1838 1839 1840 1841 1842 1843 1844 1845 1846 1847 1848 1849 1850 1851 1852 1853 1854 1855 1856 1857 1858 1859 1860 1861 1862 1863 1864 1865 1866 1867 1868 1869 1870 1871 1872 1873 1874 1875 1876 1877 1878 1879 1880 1881 1882 1883 1884 1885 1886 1887 1888 1889 1890 1891 1892 1893 1894 1895 1896 1897 1898 1899 1900 1901 1902 1903 1904 1905 1906 1907 1908 1909 1910 1911 1912 1913 1914 1915 1916 1917 1918 1919 1920 1921 1922 1923 1924 1925 1926 1927 1928 1929 1930 1931 1932 1933 1934 1935 1936 1937 1938 1939 1940 1941 1942 1943 1944 1945 1946 1947 1948 1949 1950 1951 1952 1953 1954 1955 1956 1957 1958 1959 1960 1961 1962 1963 1964 1965 1966 1967 1968 1969 1970 1971 1972 1973 1974 1975 1976 1977 1978 1979 1980 1981 1982 1983 1984 1985 1986 1987 1988 1989 1990 1991 1992 1993 1994 1995 1996 1997 1998 1999 2000 2001 2002 2003 2004 2005 2006 2007 2008 2009 2010 2011 2012 2013 2014 2015 2016 2017 2018 2019 2020 2021 2022 2023 2024 2025 2026 2027 2028 2029 2030 2031 2032 2033 2034 2035 2036 2037 2038 2039 2040 2041 2042 2043 2044 2045 2046 2047 2048 2049 2050 2051 2052 2053 2054 2055 2056 2057 2058 2059 2060 2061 2062 2063 2064 2065 2066 2067 2068 2069 2070 2071 2072 2073 2074 2075 2076 2077 2078 2079 2080 2081 2082 2083 2084 2085 2086 2087 2088 2089 2090 2091 2092 2093 2094 2095 2096 2097 2098 2099 2100 2101 2102 2103 2104 2105 2106 2107 2108 2109 2110 2111 2112 2113 2114 2115 2116 2117 2118 2119 2120 2121 2122 2123 2124 2125 2126 2127 2128 2129 2130 2131 2132 2133 2134 2135 2136 2137 2138 2139 2140 2141 2142 2143 2144 2145 2146 2147 2148 2149 2150 2151 2152 2153 2154 2155 2156 2157 2158 2159 2160 2161 2162 2163 2164 2165 2166 2167 2168 2169 2170 2171 2172 2173 2174 2175 2176 2177 2178 2179 2180 2181 2182 2183 2184 2185 2186 2187 2188 2189 2190 2191 2192 2193 2194 2195 2196 2197 2198 2199 2200 2201 2202 2203 2204 2205 2206 2207 2208 2209 2210 2211 2212 2213 2214 2215 2216 2217 2218 2219 2220 2221 2222 2223 2224 2225 2226 2227 2228 2229 2230 2231 2232 2233 2234 2235 2236 2237 2238 2239 2240 2241 2242 2243 2244 2245 2246 2247 2248 2249 2250 2251 2252 2253 2254 2255 2256 2257 2258 2259 2260 2261 2262 2263 2264 2265 2266 2267 2268 2269 2270 2271 2272 2273 2274 2275 2276 2277 2278 2279 2280 2281 2282 2283 2284 2285 2286 2287 2288 2289 2290 2291 2292 2293 2294 2295 2296 2297 2298 2299 2300 2301 2302 2303 2304 2305 2306 2307 2308 2309 2310 2311 2312 2313 2314 2315 2316 2317 2318 2319 2320 2321 2322 2323 2324 2325 2326 2327 2328 2329 2330 2331 2332 2333 2334 2335 2336 2337 2338 2339 2340 2341 2342 2343 2344 2345 2346 2347 2348 2349 2350 2351 2352 2353 2354 2355 2356 2357 2358 2359 2360 2361 2362 2363 2364 2365 2366 2367 2368 2369 2370 2371 2372 2373 2374 2375 2376 2377 2378 2379 2380 2381 2382 2383 2384 2385 2386 2387 2388 2389 2390 2391 2392 2393 2394 2395 2396 2397 2398 2399 2400 2401 2402 2403 2404 2405 2406 2407 2408 2409 2410 2411 2412 2413 2414 2415 2416 2417 2418 2419 2420 2421 2422 2423 2424 2425 2426 2427 2428 2429 2430 2431 2432 2433 2434 2435 2436 2437 2438 2439 2440 2441 2442 2443 2444 2445 2446 2447 2448 2449 2450 2451 2452 2453 2454 2455 2456 2457 2458 2459 2460 2461 2462 2463 2464 2465 2466 2467 2468 2469 2470 2471 2472 2473 2474 2475 2476 2477 2478 2479 2480 2481 2482 2483 2484 2485 2486 2487 2488 2489 2490 2491 2492 2493 2494 2495 2496 2497 2498 2499 2500 2501 2502 2503 2504 2505 2506 2507 2508 2509 2510 2511 2512 2513 2514 2515 2516 2517 2518 2519 2520 2521 2522 2523 2524 2525 2526 2527 2528 2529 2530 2531 2532 2533 2534 2535 2536 2537 2538 2539 2540 2541 2542 2543 2544 2545 2546 2547 2548 2549 2550 2551 2552 2553 2554 2555 2556 2557 2558 2559 2560 2561 2562 2563 2564 2565 2566 2567 2568 2569 2570 2571 2572 2573 2574 2575 2576 2577 2578 2579 2580 2581 2582 2583 2584 2585 2586 2587 2588 2589 2590 2591 2592 2593 2594 2595 2596 2597 2598 2599 2600 2601 2602 2603 2604 2605 2606 2607 2608 2609 2610 2611 2612 2613 2614 2615 2616 2617 2618 2619 2620 2621 2622 2623 2624 2625 2626 2627 2628 2629 2630 2631 2632 2633 2634 2635 2636 2637 2638 2639 2640 2641 2642 2643 2644 2645 2646 2647 2648 2649 2650 2651 2652 2653 2654 2655 2656 2657 2658 2659 2660 2661 2662 2663 2664 2665 2666 2667 2668 2669 2670 2671 2672 2673 2674 2675 2676 2677 2678 2679 2680 2681 2682 2683 2684 2685 2686 2687 2688 2689 2690 2691 2692 2693 2694 2695 2696 2697 2698 2699 2700 2701 2702 2703 2704 2705 2706 2707 2708 2709 2710 2711 2712 2713 2714 2715 2716 2717 2718 2719 2720 2721 2722 2723 2724 2725 2726 2727 2728 2729 2730 2731 2732 2733 2734 2735 2736 2737 2738 2739 2740 2741 2742 2743 2744 2745 2746 2747 2748 2749 2750 2751 2752 2753 2754 2755 2756 2757 2758 2759 2760 2761 2762 2763 2764 2765 2766 2767 2768 2769 2770 2771 2772 2773 2774 2775 2776 2777 2778 2779 2780 2781 2782 2783 2784 2785 2786 2787 2788 2789 2790 2791 2792 2793 2794 2795 2796 2797 2798 2799 2800 2801 2802 2803 2804 2805 2806 2807 2808 2809 2810 2811 2812 2813 2814 2815 2816 2817 2818 2819 2820 2821 2822 2823 2824 2825 2826 2827 2828 2829 2830 2831 2832 2833 2834 2835 2836 2837 2838 2839 2840 2841 2842 2843 2844 2845 2846 2847 2848 2849 2850 2851 2852 2853 2854 2855 2856 2857 2858 2859 2860 2861 2862 2863 2864 2865 2866 2867 2868 2869 2870 2871 2872 2873 2874 2875 2876 2877 2878 2879 2880 2881 2882 2883 2884 2885 2886 2887 2888 2889 2890 2891 2892 2893 2894 2895 2896 2897 2898 2899 2900 2901 2902 2903 2904 2905 2906 2907 2908 2909 2910 2911 2912 2913 2914 2915 2916 2917 2918 2919 2920 2921 2922 2923 2924 2925 2926 2927 2928 2929 2930 2931 2932 2933 2934 2935 2936 2937 2938 2939 2940 2941 2942 2943 2944 2945 2946 2947 2948 2949 2950 2951 2952 2953 2954 2955 2956 2957 2958 2959 2960 2961 2962 2963 2964 2965 2966 2967 2968 2969 2970 2971 2972 2973 2974 2975 2976 2977 2978 2979 2980 2981 2982 2983 2984 2985 2986 2987 2988 2989 2990 2991 2992 2993 2994 2995 2996 2997 2998 2999 3000 3001 3002 3003 3004 3005 3006 3007 3008 3009 3010 3011 3012 3013 3014 3015 3016 3017 3018 3019 3020 3021 3022 3023 3024 3025 3026 3027 3028 3029 3030 3031 3032 3033 3034 3035 3036 3037 3038 3039 3040 3041 3042 3043 3044 3045 3046 3047 3048 3049 3050 3051 3052 3053 3054 3055 3056 3057 3058 3059 3060 3061 3062 3063 3064 3065 3066 3067 3068 3069 3070 3071 3072 3073 3074 3075 3076 3077 3078 3079 3080 3081 3082 3083 3084 3085 3086 3087 3088 3089 3090 3091 3092 3093 3094 3095 3096 3097 3098 3099 3100 3101 3102 3103 3104 3105 3106 3107 3108 3109 3110 3111 3112 3113 3114 3115 3116 3117 3118 3119 3120 3121 3122 3123 3124 3125 3126 3127 3128 3129 3130 3131 3132 3133 3134 3135 3136 3137 3138 3139 3140 3141 3142 3143 3144 3145 3146 3147 3148 3149 3150 3151 3152 3153 3154 3155 3156 3157 3158 3159 3160 3161 3162 3163 3164 3165 3166 3167 3168 3169 3170 3171 3172 3173 3174 3175 3176 3177 3178 3179 3180 3181 3182 3183 3184 3185 3186 3187 3188 3189 3190 3191 3192 3193 3194 3195 3196 3197 3198 3199 3200 3201 3202 3203 3204 3205 3206 3207 3208 3209 3210 3211 3212 3213 3214 3215 3216 3217 3218 3219 3220 3221 3222 3223 3224 3225 3226 3227 3228 3229 3230 3231 3232 3233 3234 3235 3236 3237 3238 3239 3240 3241 3242 3243 3244 3245 3246 3247 3248 3249 3250 3251 3252 3253 3254 3255 3256 3257 3258 3259 3260 3261 3262 3263 3264 3265 3266 3267 3268 3269 3270 3271 3272 3273 3274 3275 3276 3277 3278 3279 3280 3281 3282 3283 3284 3285 3286 3287 3288 3289 3290 3291 3292 3293 3294 3295 3296 3297 3298 3299 3300 3301 3302 3303 3304 3305 3306 3307 3308 3309 3310 3311 3312 3313 3314 3315 3316 3317 3318 3319 3320 3321 3322 3323 3324 3325 3326 3327 3328 3329 3330 3331 3332 3333 3334 3335 3336 3337 3338 3339 3340 3341 3342 3343 3344 3345 3346 3347 3348 3349 3350 3351 3352 3353 3354 3355 3356 3357 3358 3359 3360 3361 3362 3363 3364 3365 3366 3367 3368 3369 3370 3371 3372 3373 3374 3375 3376 3377 3378 3379 3380 3381 3382 3383 3384 3385 3386 3387 3388 3389 3390 3391 3392 3393 3394 3395 3396 3397 3398 3399 3400 3401 3402 3403 3404 3405 3406 3407 3408 3409 3410 3411 3412 3413 3414 3415 3416 3417 3418 3419 3420 3421 3422 3423 3424 3425 3426 3427 3428 3429 3430 3431 3432 3433 3434 3435 3436 3437 3438 3439 3440 3441 3442 3443 3444 3445 3446 3447 3448 3449 3450 3451 3452 3453 3454 3455 3456 3457 3458 3459 3460 3461 3462 3463 3464 3465 3466 3467 3468 3469 3470 3471 3472 3473 3474 3475 3476 3477 3478 3479 3480 3481 3482 3483 3484 3485 3486 3487 3488 3489 3490 3491 3492 3493 3494 3495 3496 3497 3498 3499 3500 3501 3502 3503 3504 3505 3506 3507 3508 3509 3510 3511 3512 3513 3514 3515 3516 3517 3518 3519 3520 3521 3522 3523 3524 3525 3526 3527 3528 3529 3530 3531 3532 3533 3534 3535 3536 3537 3538 3539 3540 3541 3542 3543 3544 3545 3546 3547 3548 3549 3550 3551 3552 3553 3554 3555 3556 3557 3558 3559 3560 3561 3562 3563 3564 3565 3566 3567 3568 3569 3570 3571 3572 3573 3574 3575 3576 3577 3578 3579 3580 3581 3582 3583 3584 3585 3586 3587 3588 3589 3590 3591 3592 3593 3594 3595 3596 3597 3598 3599 3600 3601 3602 3603 3604 3605 3606 3607 3608 3609 3610 3611 3612 3613 3614 3615 3616 3617 3618 3619 3620 3621 3622 3623 3624 3625 3626 3627 3628 3629 3630 3631 3632 3633 3634 3635 3636 3637 3638 3639 3640 3641 3642 3643 3644 3645 3646 3647 3648 3649 3650 3651 3652 3653 3654 3655 3656 3657 3658 3659 3660 3661 3662 3663 3664 3665 3666 3667 3668 3669 3670 3671 3672 3673 3674 3675 3676 3677 3678 3679 3680 3681 3682 3683 3684 3685 3686 3687 3688 3689 3690 3691 3692 3693 3694 3695 3696 3697 3698 3699 3700 3701 3702 3703 3704 3705 3706 3707 3708 3709 3710 3711 3712 3713 3714 3715 3716 3717 3718 3719 3720 3721 3722 3723 3724 3725 3726 3727 3728 3729 3730 3731 3732 3733 3734 3735 3736 3737 3738 3739 3740 3741 3742 3743 3744 3745 3746 3747 3748 3749 3750 3751 3752 3753 3754 3755 3756 3757 3758 3759 3760 3761 3762 3763 3764 3765 3766 3767 3768 3769 3770 3771 3772 3773 3774 3775 3776 3777 3778 3779 3780 3781 3782 3783 3784 3785 3786 3787 3788 3789 3790 3791 3792 3793 3794 3795 3796 3797 3798 3799 3800 3801 3802 3803 3804 3805 3806 3807 3808 3809 3810 3811 3812 3813 3814 3815 3816 3817 3818 3819 3820 3821 3822 3823 3824 3825 3826 3827 3828 3829 3830 3831 3832 3833 3834 3835 3836 3837 3838 3839 3840 3841 3842 3843 3844 3845 3846 3847 3848 3849 3850 3851 3852 3853 3854 3855 3856 3857 3858 3859 3860 3861 3862 3863 3864 3865 3866 3867 3868 3869 3870 3871 3872 3873 3874 3875 3876 3877 3878 3879 3880 3881 3882 3883 3884 3885 3886 3887 3888 3889 3890 3891 3892 3893 3894 3895 3896 3897 3898 3899 3900 3901 3902 3903 3904 3905 3906 3907 3908 3909 3910 3911 3912 3913 3914 3915 3916 3917 3918 3919 3920 3921 3922 3923 3924 3925 3926 3927 3928 3929 3930 3931 3932 3933 3934 3935 3936 3937 3938 3939 3940 3941 3942 3943 3944 3945 3946 3947 3948 3949 3950 3951 3952 3953 3954 3955 3956 3957 3958 3959 3960 3961 3962 3963 3964 3965 3966 3967 3968 3969 3970 3971 3972 3973 3974 3975 3976 3977 3978 3979 3980 3981 3982 3983 3984 3985 3986 3987 3988 3989 3990 3991 3992 3993 3994 3995 3996 3997 3998 3999 4000 4001 4002 4003 4004 4005 4006 4007 4008 4009 4010 4011 4012 4013 4014 4015 4016 4017 4018 4019 4020 4021 4022 4023 4024 4025 4026 4027 4028 4029 4030 4031 4032 4033 4034 4035 4036 4037 4038 4039 4040 4041 4042 4043 4044 4045 4046 4047 4048 4049 4050 4051 4052 4053 4054 4055 4056 4057 4058 4059 4060 4061 4062 4063 4064 4065 4066 4067 4068 4069 4070 4071 4072 4073 4074 4075 4076 4077 4078 4079 4080 4081 4082 4083 4084 4085 4086 4087 4088 4089 4090 4091 4092 4093 4094 4095 4096 4097 4098 4099 4100 4101 4102 4103 4104 4105 4106 4107 4108 4109 4110 4111 4112 4113 4114 4115 4116 4117 4118 4119 4120 4121 4122 4123 4124 4125 4126 4127 4128 4129 4130 4131 4132 4133 4134 4135 4136 4137 4138 4139 4140 4141 4142 4143 4144 4145 4146 4147 4148 4149 4150 4151 4152 4153 4154 4155 4156 4157 4158 4159 4160 4161 4162 4163 4164 4165 4166 4167 4168 4169 4170 4171 4172 4173 4174 4175 4176 4177 4178 4179 4180 4181 4182 4183 4184 4185 4186 4187 4188 4189 4190 4191 4192 4193 4194 4195 4196 4197 4198 4199 4200 4201 4202 4203 4204 4205 4206 4207 4208 4209 4210 4211 4212 4213 4214 4215 4216 4217 4218 4219 4220 4221 4222 4223 4224 4225 4226 4227 4228 4229 4230 4231 4232 4233 4234 4235 4236 4237 4238 4239 4240 4241 4242 4243 4244 4245 4246 4247 4248 4249 4250 4251 4252 4253 4254 4255 4256 4257 4258 4259 4260 4261 4262 4263 4264 4265 4266 4267 4268 4269 4270 4271 4272 4273 4274 4275 4276 4277 4278 4279 4280 4281 4282 4283 4284 4285 4286 4287 4288 4289 4290 4291 4292 4293 4294 4295 4296 4297 4298 4299 4300 4301 4302 4303 4304 4305 4306 4307 4308 4309 4310 4311 4312 4313 4314 4315 4316 4317 4318 4319 4320 4321 4322 4323 4324 4325 4326 4327 4328 4329 4330 4331 4332 4333 4334 4335 4336 4337 4338 4339 4340 4341 4342 4343 4344 4345 4346 4347 4348 4349 4350 4351 4352 4353 4354 4355 4356 4357 4358 4359 4360 4361 4362 4363 4364 4365 4366 4367 4368 4369 4370 4371 4372 4373 4374 4375 4376 4377 4378 4379 4380 4381 4382 4383 4384 4385 4386 4387 4388 4389 4390 4391 4392 4393 4394 4395 4396 4397 4398 4399 4400 4401 4402 4403 4404 4405 4406 4407 4408 4409 4410 4411 4412 4413 4414 4415 4416 4417 4418 4419 4420 4421 4422 4423 4424 4425 4426 4427 4428 4429 4430 4431 4432 4433 4434 4435 4436 4437 4438 4439 4440 4441 4442 4443 4444 4445 4446 4447 4448 4449 4450 4451 4452 4453 4454 4455 4456 4457 4458 4459 4460 4461 4462 4463 4464 4465 4466 4467 4468 4469 4470 4471 4472 4473 4474 4475 4476 4477 4478 4479 4480 4481 4482 4483 4484 4485 4486 4487 4488 4489 4490 4491 4492 4493 4494 4495 4496 4497 4498 4499 4500 4501 4502 4503 4504 4505 4506 4507 4508 4509 4510 4511 4512 4513 4514 4515 4516 4517 4518 4519 4520 4521 4522 4523 4524 4525 4526 4527 4528 4529 4530 4531 4532 4533 4534 4535 4536 4537 4538 4539 4540 4541 4542 4543 4544 4545 4546 4547 4548 4549 4550 4551 4552 4553 4554 4555 4556 4557 4558 4559 4560 4561 4562 4563 4564 4565 4566 4567 4568 4569 4570 4571 4572 4573 4574 4575 4576 4577 4578 4579 4580 4581 4582 4583 4584 4585 4586 4587 4588 4589 4590 4591 4592 4593 4594 4595 4596 4597 4598 4599 4600 4601 4602 4603 4604 4605 4606 4607 4608 4609 4610 4611 4612 4613 4614 4615 4616 4617 4618 4619 4620 4621 4622 4623 4624 4625 4626 4627 4628 4629 4630 4631 4632 4633 4634 4635 4636 4637 4638 4639 4640 4641 4642 4643 4644 4645 4646 4647 4648 4649 4650 4651 4652 4653 4654 4655 4656 4657 4658 4659 4660 4661 4662 4663 4664 4665 4666 4667 4668 4669 4670 4671 4672 4673 4674 4675 4676 4677 4678 4679 4680 4681 4682 4683 4684 4685 4686 4687 4688 4689 4690 4691 4692 4693 4694 4695 4696 4697 4698 4699 4700 4701 4702 4703 4704 4705 4706 4707 4708 4709 4710 4711 4712 4713 4714 4715 4716 4717 4718 4719 4720 4721 4722 4723 4724 4725 4726 4727 4728 4729 4730 4731 4732 4733 4734 4735 4736 4737 4738 4739 4740 4741 4742 4743 4744 4745 4746 4747 4748 4749 4750 4751 4752 4753 4754 4755 4756 4757 4758 4759 4760 4761 4762 4763 4764 4765 4766 4767 4768 4769 4770 4771 4772 4773 4774 4775 4776 4777 4778 4779 4780 4781 4782 4783 4784 4785 4786 4787 4788 4789 4790 4791 4792 4793 4794 4795 4796 4797 4798 4799 4800 4801 4802 4803 4804 4805 4806 4807 4808 4809 4810 4811 4812 4813 4814 4815 4816 4817 4818 4819 4820 4821 4822 4823 4824 4825 4826 4827 4828 4829 4830 4831 4832 4833 4834 4835 4836 4837 4838 4839 4840 4841 4842 4843 4844 4845 4846 4847 4848 4849 4850 4851 4852 4853 4854 4855 4856 4857 4858 4859 4860 4861 4862 4863 4864 4865 4866 4867 4868 4869 4870 4871 4872 4873 4874 4875 4876 4877 4878 4879 4880 4881 4882 4883 4884 4885 4886 4887 4888 4889 4890 4891 4892 4893 4894 4895 4896 4897 4898 4899 4900 4901 4902 4903 4904 4905 4906 4907 4908 4909 4910 4911 4912 4913 4914 4915 4916 4917 4918 4919 4920 4921 4922 4923 4924 4925 4926 4927 4928 4929 4930 4931 4932 4933 4934 4935 4936 4937 4938 4939 4940 4941 4942 4943 4944 4945 4946 4947 4948 4949 4950 4951 4952 4953 4954 4955 4956 4957 4958 4959 4960 4961 4962 4963 4964 4965 4966 4967 4968 4969 4970 4971 4972 4973 4974 4975 4976 4977 4978 4979 4980 4981 4982 4983 4984 4985 4986 4987 4988 4989 4990 4991 4992 4993 4994 4995 4996 4997 4998 4999 5000 5001 5002 5003 5004 5005 5006 5007 5008 5009 5010 5011 5012 5013 5014 5015 5016 5017 5018 5019 5020 5021 5022 5023 5024 5025 5026 5027 5028 5029 5030 5031 5032 5033 5034 5035 5036 5037 5038 5039 5040 5041 5042 5043 5044 5045 5046 5047 5048 5049 5050 5051 5052 5053 5054 5055 5056 5057 5058 5059 5060 5061 5062 5063 5064 5065 5066 5067 5068 5069 5070 5071 5072 5073 5074 5075 5076 5077 5078 5079 5080 5081 5082 5083 5084 5085 5086 5087 5088 5089 5090 5091 5092 5093 5094 5095 5096 5097 5098 5099 5100 5101 5102 5103 5104 5105 5106 5107 5108 5109 5110 5111 5112 5113 5114 5115 5116 5117 5118 5119 5120 5121 5122 5123 5124 5125 5126 5127 5128 5129 5130 5131 5132 5133 5134 5135 5136 5137 5138 5139 5140 5141 5142 5143 5144 5145 5146 5147 5148 5149 5150 5151 5152 5153 5154 5155 5156 5157 5158 5159 5160 5161 5162 5163 5164 5165 5166 5167 5168 5169 5170 5171 5172 5173 5174 5175 5176 5177 5178 5179 5180 5181 5182 5183 5184 5185 5186 5187 5188 5189 5190 5191 5192 5193 5194 5195 5196 5197 5198 5199 5200 5201 5202 5203 5204 5205 5206 5207 5208 5209 5210 5211 5212 5213 5214 5215 5216 5217 5218 5219 5220 5221 5222 5223 5224 5225 5226 5227 5228 5229 5230 5231 5232 5233 5234 5235 5236 5237 5238 5239 5240 5241 5242 5243 5244 5245 5246 5247 5248 5249 5250 5251 5252 5253 5254 5255 5256 5257 5258 5259 5260 5261 5262 5263 5264 5265 5266 5267 5268 5269 5270 5271 5272 5273 5274 5275 5276 5277 5278 5279 5280 5281 5282 5283 5284 5285 5286 5287 5288 5289 5290 5291 5292 5293 5294 5295 5296 5297 5298 5299 5300 5301 5302 5303 5304 5305 5306 5307 5308 5309 5310 5311 5312 5313 5314 5315 5316 5317 5318 5319 5320 5321 5322 5323 5324 5325 5326 5327 5328 5329 5330 5331 5332 5333 5334 5335 5336 5337 5338 5339 5340 5341 5342 5343 5344 5345 5346 5347 5348 5349 5350 5351 5352 5353 5354 5355 5356 5357 5358 5359 5360 5361 5362 5363 5364 5365 5366 5367 5368 5369 5370 5371 5372 5373 5374 5375 5376 5377 5378 5379 5380 5381 5382 5383 5384 5385 5386 5387 5388 5389 5390 5391 5392 5393 5394 5395 5396 5397 5398 5399 5400 5401 5402 5403 5404 5405 5406 5407 5408 5409 5410 5411 5412 5413 5414 5415 5416 5417 5418 5419 5420 5421 5422 5423 5424 5425 5426 5427 5428 5429 5430 5431 5432 5433 5434 5435 5436 5437 5438 5439 5440 5441 5442 5443 5444 5445 5446 5447 5448 5449 5450 5451 5452 5453 5454 5455 5456 5457 5458 5459 5460 5461 5462 5463 5464 5465 5466 5467 5468 5469 5470 5471 5472 5473 5474 5475 5476 5477 5478 5479 5480 5481 5482 5483 5484 5485 5486 5487 5488 5489 5490 5491 5492 5493 5494 5495 5496 5497 5498 5499 5500 5501 5502 5503 5504 5505 5506 5507 5508 5509 5510 5511 5512 5513 5514 5515 5516 5517 5518 5519 5520 5521 5522 5523 5524 5525 5526 5527 5528 5529 5530 5531 5532 5533 5534 5535 5536 5537 5538 5539 5540 5541 5542 5543 5544 5545 5546 5547 5548 5549 5550 5551 5552 5553 5554 5555 5556 5557 5558 5559 5560 5561 5562 5563 5564 5565 5566 5567 5568 5569 5570 5571 5572 5573 5574 5575 5576 5577 5578 5579 5580 5581 5582 5583 5584 5585 5586 5587 5588 5589 5590 5591 5592 5593 5594 5595 5596 5597 5598 5599 5600 5601 5602 5603 5604 5605 5606 5607 5608 5609 5610 5611 5612 5613 5614 5615 5616 5617 5618 5619 5620 5621 5622 5623 5624 5625 5626 5627 5628 5629 5630 5631 5632 5633 5634 5635 5636 5637 5638 5639 5640 5641 5642 5643 5644 5645 5646 5647 5648 5649 5650 5651 5652 5653 5654 5655 5656 5657 5658 5659 5660 5661 5662 5663 5664 5665 5666 5667 5668 5669 5670 5671 5672 5673 5674 5675 5676 5677 5678 5679 5680 5681 5682 5683 5684 5685 5686 5687 5688 5689 5690 5691 5692 5693 5694 5695 5696 5697 5698 5699 5700 5701 5702 5703 5704 5705 5706 5707 5708 5709 5710 5711 5712 5713 5714 5715 5716 5717 5718 5719 5720 5721 5722 5723 5724 5725 5726 5727 5728 5729 5730 5731 5732 5733 5734 5735 5736 5737 5738 5739 5740 5741 5742 5743 5744 5745 5746 5747 5748 5749 5750 5751 5752 5753 5754 5755 5756 5757 5758 5759 5760 5761 5762 5763 5764 5765 5766 5767 5768 5769 5770 5771 5772 5773 5774 5775 5776 5777 5778 5779 5780 5781 5782 5783 5784 5785 5786 5787 5788 5789 5790 5791 5792 5793 5794 5795 5796 5797 5798 5799 5800 5801 5802 5803 5804 5805 5806 5807 5808 5809 5810 5811 5812 5813 5814 5815 5816 5817 5818 5819 5820 5821 5822 5823 5824 5825 5826 5827 5828 5829 5830 5831 5832 5833 5834 5835 5836 5837 5838 5839 5840 5841 5842 5843 5844 5845 5846 5847 5848 5849 5850 5851 5852 5853 5854 5855 5856 5857 5858 5859 5860 5861 5862 5863 5864 5865 5866 5867 5868 5869 5870 5871 5872 5873 5874 5875 5876 5877 5878 5879 5880 5881 5882 5883 5884 5885 5886 5887 5888 5889 5890 5891 5892 5893 5894 5895 5896 5897 5898 5899 5900 5901 5902 5903 5904 5905 5906 5907 5908 5909 5910 5911 5912 5913 5914 5915 5916 5917 5918 5919 5920 5921 5922 5923 5924 5925 5926 5927 5928 5929 5930 5931 5932 5933 5934 5935 5936 5937 5938 5939 5940 5941 5942 5943 5944 5945 5946 5947 5948 5949 5950 5951 5952 5953 5954 5955 5956 5957 5958 5959 5960 5961 5962 5963 5964 5965 5966 5967 5968 5969 5970 5971 5972 5973 5974 5975 5976 5977 5978 5979 5980 5981 5982 5983 5984 5985 5986 5987 5988 5989 5990 5991 5992 5993 5994 5995 5996 5997 5998 5999 6000 6001 6002 6003 6004 6005 6006 6007 6008 6009 6010 6011 6012 6013 6014 6015 6016 6017 6018 6019 6020 6021 6022 6023 6024 6025 6026 6027 6028 6029 6030 6031 6032 6033 6034 6035 6036 6037 6038 6039 6040 6041 6042 6043 6044 6045 6046 6047 6048 6049 6050 6051 6052 6053 6054 6055 6056 6057 6058 6059 6060 6061 6062 6063 6064 6065 6066 6067 6068 6069 6070 6071 6072 6073 6074 6075 6076 6077 6078 6079 6080 6081 6082 6083 6084 6085 6086 6087 6088 6089 6090 6091 6092 6093 6094 6095 6096 6097 6098 6099 6100 6101 6102 6103 6104 6105 6106 6107 6108 6109 6110 6111 6112 6113 6114 6115 6116 6117 6118 6119 6120 6121 6122 6123 6124 6125 6126 6127 6128 6129 6130 6131 6132 6133 6134 6135 6136 6137 6138 6139 6140 6141 6142 6143 6144 6145 6146 6147 6148 6149 6150 6151 6152 6153 6154 6155 6156 6157 6158 6159 6160 6161 6162 6163 6164 6165 6166 6167 6168 6169 6170 6171 6172 6173 6174 6175 6176 6177 6178 6179 6180 6181 6182 6183 6184 6185 6186 6187 6188 6189 6190 6191 6192 6193 6194 6195 6196 6197 6198 6199 6200 6201 6202 6203 6204 6205 6206 6207 6208 6209 6210 6211 6212 6213 6214 6215 6216 6217 6218 6219 6220 6221 6222 6223 6224 6225 6226 6227 6228 6229 6230 6231 6232 6233 6234 6235 6236 6237 6238 6239 6240 6241 6242 6243 6244 6245 6246 6247 6248 6249 6250 6251 6252 6253 6254 6255 6256 6257 6258 6259 6260 6261 6262 6263 6264 6265 6266 6267 6268 6269 6270 6271 6272 6273 6274 6275 6276 6277 6278 6279 6280 6281 6282 6283 6284 6285 6286 6287 6288 6289 6290 6291 6292 6293 6294 6295 6296 6297 6298 6299 6300 6301 6302 6303 6304 6305 6306 6307 6308 6309 6310 6311 6312 6313 6314 6315 6316 6317 6318 6319 6320 6321 6322 6323 6324 6325 6326 6327 6328 6329 6330 6331 6332 6333 6334 6335 6336 6337 6338 6339 6340 6341 6342 6343 6344 6345 6346 6347 6348 6349 6350 6351 6352 6353 6354 6355 6356 6357 6358 6359 6360 6361 6362 6363 6364 6365 6366 6367 6368 6369 6370 6371 6372 6373 6374 6375 6376 6377 6378 6379 6380 6381 6382 6383 6384 6385 6386 6387 6388 6389 6390 6391 6392 6393 6394 6395 6396 6397 6398 6399 6400 6401 6402 6403 6404 6405 6406 6407 6408 6409 6410 6411 6412 6413 6414 6415 6416 6417 6418 6419 6420 6421 6422 6423 6424 6425 6426 6427 6428 6429 6430 6431 6432 6433 6434 6435 6436 6437 6438 6439 6440 6441 6442 6443 6444 6445 6446 6447 6448 6449 6450 6451 6452 6453 6454 6455 6456 6457 6458 6459 6460 6461 6462 6463 6464 6465 6466 6467 6468 6469 6470 6471 6472 6473 6474 6475 6476 6477 6478 6479 6480 6481 6482 6483 6484 6485 6486 6487 6488 6489 6490 6491 6492 6493 6494 6495 6496 6497 6498 6499 6500 6501 6502 6503 6504 6505 6506 6507 6508 6509 6510 6511 6512 6513 6514 6515 6516 6517 6518 6519 6520 6521 6522 6523 6524 6525 6526 6527 6528 6529 6530 6531 6532 6533 6534 6535 6536 6537 6538 6539 6540 6541 6542 6543 6544 6545 6546 6547 6548 6549 6550 6551 6552 6553 6554 6555 6556 6557 6558 6559 6560 6561 6562 6563 6564 6565 6566 6567 6568 6569 6570 6571 6572 6573 6574 6575 6576 6577 6578 6579 6580 6581 6582 6583 6584 6585 6586 6587 6588 6589 6590 6591 6592 6593 6594 6595 6596 6597 6598 6599 6600 6601 6602 6603 6604 6605 6606 6607 6608 6609 6610 6611 6612 6613 6614 6615 6616 6617 6618 6619 6620 6621 6622 6623 6624 6625 6626 6627 6628 6629 6630 6631 6632 6633 6634 6635 6636 6637 6638 6639 6640 6641 6642 6643 6644 6645 6646 6647 6648 6649 6650 6651 6652 6653 6654 6655 6656 6657 6658 6659 6660 6661 6662 6663 6664 6665 6666 6667 6668 6669 6670 6671 6672 6673 6674 6675 6676 6677 6678 6679 6680 6681 6682 6683 6684 6685 6686 6687 6688 6689 6690 6691 6692 6693 6694 6695 6696 6697 6698 6699 6700 6701 6702 6703 6704 6705 6706 6707 6708 6709 6710 6711 6712 6713 6714 6715 6716 6717 6718 6719 6720 6721 6722 6723 6724 6725 6726 6727 6728 6729 6730 6731 6732 6733 6734 6735 6736 6737 6738 6739 6740 6741 6742 6743 6744 6745 6746 6747 6748 6749 6750 6751 6752 6753 6754 6755 6756 6757 6758 6759 6760 6761 6762 6763 6764 6765 6766 6767 6768 6769 6770 6771 6772 6773 6774 6775 6776 6777 6778 6779 6780 6781 6782 6783 6784 6785 6786 6787 6788 6789 6790 6791 6792 6793 6794 6795 6796 6797 6798 6799 6800 6801 6802 6803 6804 6805 6806 6807 6808 6809 6810 6811 6812 6813 6814 6815 6816 6817 6818 6819 6820 6821 6822 6823 6824 6825 6826 6827 6828 6829 6830 6831 6832 6833 6834 6835 6836 6837 6838 6839 6840 6841 6842 6843 6844 6845 6846 6847 6848 6849 6850 6851 6852 6853 6854 6855 6856 6857 6858 6859 6860 6861 6862 6863 6864 6865 6866 6867 6868 6869 6870 6871 6872 6873 6874 6875 6876 6877 6878 6879 6880 6881 6882 6883 6884 6885 6886 6887 6888 6889 6890 6891 6892 6893 6894 6895 6896 6897 6898 6899 6900 6901 6902 6903 6904 6905 6906 6907 6908 6909 6910 6911 6912 6913 6914 6915 6916 6917 6918 6919 6920 6921 6922 6923 6924 6925 6926 6927 6928 6929 6930 6931 6932 6933 6934 6935 6936 6937 6938 6939 6940 6941 6942 6943 6944 6945 6946 6947 6948 6949 6950 6951 6952 6953 6954 6955 6956 6957 6958 6959 6960 6961 6962 6963 6964 6965 6966 6967 6968 6969 6970 6971 6972 6973 6974 6975 6976 6977 6978 6979 6980 6981 6982 6983 6984 6985 6986 6987 6988 6989 6990 6991 6992 6993 6994 6995 6996 6997 6998 6999 7000 7001 7002 7003 7004 7005 7006 7007 7008 7009 7010 7011 7012 7013 7014 7015 7016 7017 7018 7019 7020 7021 7022 7023 7024 7025 7026 7027 7028 7029 7030 7031 7032 7033 7034 7035 7036 7037 7038 7039 7040 7041 7042 7043 7044 7045 7046 7047 7048 7049 7050 7051 7052 7053 7054 7055 7056 7057 7058 7059 7060 7061 7062 7063 7064 7065 7066 7067 7068 7069 7070 7071 7072 7073 7074 7075 7076 7077 7078 7079 7080 7081 7082 7083 7084 7085 7086 7087 7088 7089 7090 7091 7092 7093 7094 7095 7096 7097 7098 7099 7100 7101 7102 7103 7104 7105 7106 7107 7108 7109 7110 7111 7112 7113 7114 7115 7116 7117 7118 7119 7120 7121 7122 7123 7124 7125 7126 7127 7128 7129 7130 7131 7132 7133 7134 7135 7136 7137 7138 7139 7140 7141 7142 7143 7144 7145 7146 7147 7148 7149 7150 7151 7152 7153 7154 7155 7156 7157 7158 7159 7160 7161 7162 7163 7164 7165 7166 7167 7168 7169 7170 7171 7172 7173 7174 7175 7176 7177 7178 7179 7180 7181 7182 7183 7184 7185 7186 7187 7188 7189 7190 7191 7192 7193 7194 7195 7196 7197 7198 7199 7200 7201 7202 7203 7204 7205 7206 7207 7208 7209 7210 7211 7212 7213 7214 7215 7216 7217 7218 7219 7220 7221 7222 7223 7224 7225 7226 7227 7228 7229 7230 7231 7232 7233 7234 7235 7236 7237 7238 7239 7240 7241 7242 7243 7244 7245 7246 7247 7248 7249 7250 7251 7252 7253 7254 7255 7256 7257 7258 7259 7260 7261 7262 7263 7264 7265 7266 7267 7268 7269 7270 7271 7272 7273 7274 7275 7276 7277 7278 7279 7280 7281 7282 7283 7284 7285 7286 7287 7288 7289 7290 7291 7292 7293 7294 7295 7296 7297 7298 7299 7300 7301 7302 7303 7304 7305 7306 7307 7308 7309 7310 7311 7312 7313 7314 7315 7316 7317 7318 7319 7320 7321 7322 7323 7324 7325 7326 7327 7328 7329 7330 7331 7332 7333 7334 7335 7336 7337 7338 7339 7340 7341 7342 7343 7344 7345 7346 7347 7348 7349 7350 7351 7352 7353 7354 7355 7356 7357 7358 7359 7360 7361 7362 7363 7364 7365 7366 7367 7368 7369 7370 7371 7372 7373 7374 7375 7376 7377 7378 7379 7380 7381 7382 7383 7384 7385 7386 7387 7388 7389 7390 7391 7392 7393 7394 7395 7396 7397 7398 7399 7400 7401 7402 7403 7404 7405 7406 7407 7408 7409 7410 7411 7412 7413 7414 7415 7416 7417 7418 7419 7420 7421 7422 7423 7424 7425 7426 7427 7428 7429 7430 7431 7432 7433 7434 7435 7436 7437 7438 7439 7440 7441 7442 7443 7444 7445 7446 7447 7448 7449 7450 7451 7452 7453 7454 7455 7456 7457 7458 7459 7460 7461 7462 7463 7464 7465 7466 7467 7468 7469 7470 7471 7472 7473 7474 7475 7476 7477 7478 7479 7480 7481 7482 7483 7484 7485 7486 7487 7488 7489 7490 7491 7492 7493 7494 7495 7496 7497 7498 7499 7500 7501 7502 7503 7504 7505 7506 7507 7508 7509 7510 7511 7512 7513 7514 7515 7516 7517 7518 7519 7520 7521 7522 7523 7524 7525 7526 7527 7528 7529 7530 7531 7532 7533 7534 7535 7536 7537 7538 7539 7540 7541 7542 7543 7544 7545 7546 7547 7548 7549 7550 7551 7552 7553 7554 7555 7556 7557 7558 7559 7560 7561 7562 7563 7564 7565 7566 7567 7568 7569 7570 7571 7572 7573 7574 7575 7576 7577 7578 7579 7580 7581 7582 7583 7584 7585 7586 7587 7588 7589 7590 7591 7592 7593 7594 7595 7596 7597 7598 7599 7600 7601 7602 7603 7604 7605 7606 7607 7608 7609 7610 7611 7612 7613 7614 7615 7616 7617 7618 7619 7620 7621 7622 7623 7624 7625 7626 7627 7628 7629 7630 7631 7632 7633 7634 7635 7636 7637 7638 7639 7640 7641 7642 7643 7644 7645 7646 7647 7648 7649 7650 7651 7652 7653 7654 7655 7656 7657 7658 7659 7660 7661 7662 7663 7664 7665 7666 7667 7668 7669 7670 7671 7672 7673 7674 7675 7676 7677 7678 7679 7680 7681 7682 7683 7684 7685 7686 7687 7688 7689 7690 7691 7692 7693 7694 7695 7696 7697 7698 7699 7700 7701 7702 7703 7704 7705 7706 7707 7708 7709 7710 7711 7712 7713 7714 7715 7716 7717 7718 7719 7720 7721 7722 7723 7724 7725 7726 7727 7728 7729 7730 7731 7732 7733 7734 7735 7736 7737 7738 7739 7740 7741 7742 7743 7744 7745 7746 7747 7748 7749 7750 7751 7752 7753 7754 7755 7756 7757 7758 7759 7760 7761 7762 7763 7764 7765 7766 7767 7768 7769 7770 7771 7772 7773 7774 7775 7776 7777 7778 7779 7780 7781 7782 7783 7784 7785 7786 7787 7788 7789 7790 7791 7792 7793 7794 7795 7796 7797 7798 7799 7800 7801 7802 7803 7804 7805 7806 7807 7808 7809 7810 7811 7812 7813 7814 7815 7816 7817 7818 7819 7820 7821 7822 7823 7824 7825 7826 7827 7828 7829 7830 7831 7832 7833 7834 7835 7836 7837 7838 7839 7840 7841 7842 7843 7844 7845 7846 7847 7848 7849 7850 7851 7852 7853 7854 7855 7856 7857 7858 7859 7860 7861 7862 7863 7864 7865 7866 7867 7868 7869 7870 7871 7872 7873 7874 7875 7876 7877 7878 7879 7880 7881 7882 7883 7884 7885 7886 7887 7888 7889 7890 7891 7892 7893 7894 7895 7896 7897 7898 7899 7900 7901 7902 7903 7904 7905 7906 7907 7908 7909 7910 7911 7912 7913 7914 7915 7916 7917 7918 7919 7920 7921 7922 7923 7924 7925 7926 7927 7928 7929 7930 7931 7932 7933 7934 7935 7936 7937 7938 7939 7940 7941 7942 7943 7944 7945 7946 7947 7948 7949 7950 7951 7952 7953 7954 7955 7956 7957 7958 7959 7960 7961 7962 7963 7964 7965 7966 7967 7968 7969 7970 7971 7972 7973 7974 7975 7976 7977 7978 7979 7980 7981 7982 7983 7984 7985 7986 7987 7988 7989 7990 7991 7992 7993 7994 7995 7996 7997 7998 7999 8000 8001 8002 8003 8004 8005 8006 8007 8008 8009 8010 8011 8012 8013 8014 8015 8016 8017 8018 8019 8020 8021 8022 8023 8024 8025 8026 8027 8028 8029 8030 8031 8032 8033 8034 8035 8036 8037 8038 8039 8040 8041 8042 8043 8044 8045 8046 8047 8048 8049 8050 8051 8052 8053 8054 8055 8056 8057 8058 8059 8060 8061 8062 8063 8064 8065 8066 8067 8068 8069 8070 8071 8072 8073 8074 8075 8076 8077 8078 8079 8080 8081 8082 8083 8084 8085 8086 8087 8088 8089 8090 8091 8092 8093 8094 8095 8096 8097 8098 8099 8100 8101 8102 8103 8104 8105 8106 8107 8108 8109 8110 8111 8112 8113 8114 8115 8116 8117 8118 8119 8120 8121 8122 8123 8124 8125 8126 8127 8128 8129 8130 8131 8132 8133 8134 8135 8136 8137 8138 8139 8140 8141 8142 8143 8144 8145 8146 8147 8148 8149 8150 8151 8152 8153 8154 8155 8156 8157 8158 8159 8160 8161 8162 8163 8164 8165 8166 8167 8168 8169 8170 8171 8172 8173 8174 8175 8176 8177 8178 8179 8180 8181 8182 8183 8184 8185 8186 8187 8188 8189 8190 8191 8192 8193 8194 8195 8196 8197 8198 8199 8200 8201 8202 8203 8204 8205 8206 8207 8208 8209 8210 8211 8212 8213 8214 8215 8216 8217 8218 8219 8220 8221 8222 8223 8224 8225 8226 8227 8228 8229 8230 8231 8232 8233 8234 8235 8236 8237 8238 8239 8240 8241 8242 8243 8244 8245 8246 8247 8248 8249 8250 8251 8252 8253 8254 8255 8256 8257 8258 8259 8260 8261 8262 8263 8264 8265 8266 8267 8268 8269 8270 8271 8272 8273 8274 8275 8276 8277 8278 8279 8280 8281 8282 8283 8284 8285 8286 8287 8288 8289 8290 8291 8292 8293 8294 8295 8296 8297 8298 8299 8300 8301 8302 8303 8304 8305 8306 8307 8308 8309 8310 8311 8312 8313 8314 8315 8316 8317 8318 8319 8320 8321 8322 8323 8324 8325 8326 8327 8328 8329 8330 8331 8332 8333 8334 8335 8336 8337 8338 8339 8340 8341 8342 8343 8344 8345 8346 8347 8348 8349 8350 8351 8352 8353 8354 8355 8356 8357 8358 8359 8360 8361 8362 8363 8364 8365 8366 8367 8368 8369 8370 8371 8372 8373 8374 8375 8376 8377 8378 8379 8380 8381 8382 8383 8384 8385 8386 8387 8388 8389 8390 8391 8392 8393 8394 8395 8396 8397 8398 8399 8400 8401 8402 8403 8404 8405 8406 8407 8408 8409 8410 8411 8412 8413 8414 8415 8416 8417 8418 8419 8420 8421 8422 8423 8424 8425 8426 8427 8428 8429 8430 8431 8432 8433 8434 8435 8436 8437 8438 8439 8440 8441 8442 8443 8444 8445 8446 8447 8448 8449 8450 8451 8452 8453 8454 8455 8456 8457 8458 8459 8460 8461 8462 8463 8464 8465 8466 8467 8468 8469 8470 8471 8472 8473 8474 8475 8476 8477 8478 8479 8480 8481 8482 8483 8484 8485 8486 8487 8488 8489 8490 8491 8492 8493 8494 8495 8496 8497 8498 8499 8500 8501 8502 8503 8504 8505 8506 8507 8508 8509 8510 8511 8512 8513 8514 8515 8516 8517 8518 8519 8520 8521 8522 8523 8524 8525 8526 8527 8528 8529 8530 8531 8532 8533 8534 8535 8536 8537 8538 8539 8540 8541 8542 8543 8544 8545 8546 8547 8548 8549 8550 8551 8552 8553 8554 8555 8556 8557 8558 8559 8560 8561 8562 8563 8564 8565 8566 8567 8568 8569 8570 8571 8572 8573 8574 8575 8576 8577 8578 8579 8580 8581 8582 8583 8584 8585 8586 8587 8588 8589 8590 8591 8592 8593 8594 8595 8596 8597 8598 8599 8600 8601 8602 8603 8604 8605 8606 8607 8608 8609 8610 8611 8612 8613 8614 8615 8616 8617 8618 8619 8620 8621 8622 8623 8624 8625 8626 8627 8628 8629 8630 8631 8632 8633 8634 8635 8636 8637 8638 8639 8640 8641 8642 8643 8644 8645 8646 8647 8648 8649 8650 8651 8652 8653 8654 8655 8656 8657 8658 8659 8660 8661 8662 8663 8664 8665 8666 8667 8668 8669 8670 8671 8672 8673 8674 8675 8676 8677 8678 8679 8680 8681 8682 8683 8684 8685 8686 8687 8688 8689 8690 8691 8692 8693 8694 8695 8696 8697 8698 8699 8700 8701 8702 8703 8704 8705 8706 8707 8708 8709 8710 8711 8712 8713 8714 8715 8716 8717 8718 8719 8720 8721 8722 8723 8724 8725 8726 8727 8728 8729 8730 8731 8732 8733 8734 8735 8736 8737 8738 8739 8740 8741 8742 8743 8744 8745 8746 8747 8748 8749 8750 8751 8752 8753 8754 8755 8756 8757 8758 8759 8760 8761 8762 8763 8764 8765 8766 8767 8768 8769 8770 8771 8772 8773 8774 8775 8776 8777 8778 8779 8780 8781 8782 8783 8784 8785 8786 8787 8788 8789 8790 8791 8792 8793 8794 8795 8796 8797 8798 8799 8800 8801 8802 8803 8804 8805 8806 8807 8808 8809 8810 8811 8812 8813 8814 8815 8816 8817 8818 8819 8820 8821 8822 8823 8824 8825 8826 8827 8828 8829 8830 8831 8832 8833 8834 8835 8836 8837 8838 8839 8840 8841 8842 8843 8844 8845 8846 8847 8848 8849 8850 8851 8852 8853 8854 8855 8856 8857 8858 8859 8860 8861 8862 8863 8864 8865 8866 8867 8868 8869 8870 8871 8872 8873 8874 8875 8876 8877 8878 8879 8880 8881 8882 8883 8884 8885 8886 8887 8888 8889 8890 8891 8892 8893 8894 8895 8896 8897 8898 8899 8900 8901 8902 8903 8904 8905 8906 8907 8908 8909 8910 8911 8912 8913 8914 8915 8916 8917 8918 8919 8920 8921 8922 8923 8924 8925 8926 8927 8928 8929 8930 8931 8932 8933 8934 8935 8936 8937 8938 8939 8940 8941 8942 8943 8944 8945 8946 8947 8948 8949 8950 8951 8952 8953 8954 8955 8956 8957 8958 8959 8960 8961 8962 8963 8964 8965 8966 8967 8968 8969 8970 8971 8972 8973 8974 8975 8976 8977 8978 8979 8980 8981 8982 8983 8984 8985 8986 8987 8988 8989 8990 8991 8992 8993 8994 8995 8996 8997 8998 8999 9000 9001 9002 9003 9004 9005 9006 9007 9008 9009 9010 9011 9012 9013 9014 9015 9016 9017 9018 9019 9020 9021 9022 9023 9024 9025 9026 9027 9028 9029 9030 9031 9032 9033 9034 9035 9036 9037 9038 9039 9040 9041 9042 9043 9044 9045 9046 9047 9048 9049 9050 9051 9052 9053 9054 9055 9056 9057 9058 9059 9060 9061 9062 9063 9064 9065 9066 9067 9068 9069 9070 9071 9072 9073 9074 9075 9076 9077 9078 9079 9080 9081 9082 9083 9084 9085 9086 9087 9088 9089 9090 9091 9092 9093 9094 9095 9096 9097 9098 9099 9100 9101 9102 9103 9104 9105 9106 9107 9108 9109 9110 9111 9112 9113 9114 9115 9116 9117 9118 9119 9120 9121 9122 9123 9124 9125 9126 9127 9128 9129 9130 9131 9132 9133 9134 9135 9136 9137 9138 9139 9140 9141 9142 9143 9144 9145 9146 9147 9148 9149 9150 9151 9152 9153 9154 9155 9156 9157 9158 9159 9160 9161 9162 9163 9164 9165 9166 9167 9168 9169 9170 9171 9172 9173 9174 9175 9176 9177 9178 9179 9180 9181 9182 9183 9184 9185 9186 9187 9188 9189 9190 9191 9192 9193 9194 9195 9196 9197 9198 9199 9200 9201 9202 9203 9204 9205 9206 9207 9208 9209 9210 9211 9212 9213 9214 9215 9216 9217 9218 9219 9220 9221 9222 9223 9224 9225 9226 9227 9228 9229 9230 9231 9232 9233 9234 9235 9236 9237 9238 9239 9240 9241 9242 9243 9244 9245 9246 9247 9248 9249 9250 9251 9252 9253 9254 9255 9256 9257 9258 9259 9260 9261 9262 9263 9264 9265 9266 9267 9268 9269 9270 9271 9272 9273 9274 9275 9276 9277 9278 9279 9280 9281 9282 9283 9284 9285 9286 9287 9288 9289 9290 9291 9292 9293 9294 9295 9296 9297 9298 9299 9300 9301 9302 9303 9304 9305 9306 9307 9308 9309 9310 9311 9312 9313 9314 9315 9316 9317 9318 9319 9320 9321 9322 9323 9324 9325 9326 9327 9328 9329 9330 9331 9332 9333 9334 9335 9336 9337 9338 9339 9340 9341 9342 9343 9344 9345 9346 9347 9348 9349 9350 9351 9352 9353 9354 9355 9356 9357 9358 9359 9360 9361 9362 9363 9364 9365 9366 9367 9368 9369 9370 9371 9372 9373 9374 9375 9376 9377 9378 9379 9380 9381 9382 9383 9384 9385 9386 9387 9388 9389 9390 9391 9392 9393 9394 9395 9396 9397 9398 9399 9400 9401 9402 9403 9404 9405 9406 9407 9408 9409 9410 9411 9412 9413 9414 9415 9416 9417 9418 9419 9420 9421 9422 9423 9424 9425 9426 9427 9428 9429 9430 9431 9432 9433 9434 9435 9436 9437 9438 9439 9440 9441 9442 9443 9444 9445 9446 9447 9448 9449 9450 9451 9452 9453 9454 9455 9456 9457 9458 9459 9460 9461 9462 9463 9464 9465 9466 9467 9468 9469 9470 9471 9472 9473 9474 9475 9476 9477 9478 9479 9480 9481 9482 9483 9484 9485 9486 9487 9488 9489 9490 9491 9492 9493 9494 9495 9496 9497 9498 9499 9500 9501 9502 9503 9504 9505 9506 9507 9508 9509 9510 9511 9512 9513 9514 9515 9516 9517 9518 9519 9520 9521 9522 9523 9524 9525 9526 9527 9528 9529 9530 9531 9532 9533 9534 9535 9536 9537 9538 9539 9540 9541 9542 9543 9544 9545 9546 9547 9548 9549 9550 9551 9552 9553 9554 9555 9556 9557 9558 9559 9560 9561 9562 9563 9564 9565 9566 9567 9568 9569 9570 9571 9572 9573 9574 9575 9576 9577 9578 9579 9580 9581 9582 9583 9584 9585 9586 9587 9588 9589 9590 9591 9592 9593 9594 9595 9596 9597 9598 9599 9600 9601 9602 9603 9604 9605 9606 9607 9608 9609 9610 9611 9612 9613 9614 9615 9616 9617 9618 9619 9620 9621 9622 9623 9624 9625 9626 9627 9628 9629 9630 9631 9632 9633 9634 9635 9636 9637 9638 9639 9640 9641 9642 9643 9644 9645 9646 9647 9648 9649 9650 9651 9652 9653 9654 9655 9656 9657 9658 9659 9660 9661 9662 9663 9664 9665 9666 9667 9668 9669 9670 9671 9672 9673 9674 9675 9676 9677 9678 9679 9680 9681 9682 9683 9684 9685 9686 9687 9688 9689 9690 9691 9692 9693 9694 9695 9696 9697 9698 9699 9700 9701 9702 9703 9704 9705 9706 9707 9708 9709 9710 9711 9712 9713 9714 9715 9716 9717 9718 9719 9720 9721 9722 9723 9724 9725 9726 9727 9728 9729 9730 9731 9732 9733 9734 9735 9736 9737 9738 9739 9740 9741 9742 9743 9744 9745 9746 9747 9748 9749 9750 9751 9752 9753 9754 9755 9756 9757 9758 9759 9760 9761 9762 9763 9764 9765 9766 9767 9768 9769 9770 9771 9772 9773 9774 9775 9776 9777 9778 9779 9780 9781 9782 9783 9784 9785 9786 9787 9788 9789 9790 9791 9792 9793 9794 9795 9796 9797 9798 9799 9800 9801 9802 9803 9804 9805 9806 9807 9808 9809 9810 9811 9812 9813 9814 9815 9816 9817 9818 9819 9820 9821 9822 9823 9824 9825 9826 9827 9828 9829 9830 9831 9832 9833 9834 9835 9836 9837 9838 9839 9840 9841 9842 9843 9844 9845 9846 9847 9848 9849 9850 9851 9852 9853 9854 9855 9856 9857 9858 9859 9860 9861 9862 9863 9864 9865 9866 9867 9868 9869 9870 9871 9872 9873 9874 9875 9876 9877 9878 9879 9880 9881 9882 9883 9884 9885 9886 9887 9888 9889 9890 9891 9892 9893 9894 9895 9896 9897 9898 9899 9900 9901 9902 9903 9904 9905 9906 9907 9908 9909 9910 9911 9912 9913 9914 9915 9916 9917 9918 9919 9920 9921 9922 9923 9924 9925 9926 9927 9928 9929 9930 9931 9932 9933 9934 9935 9936 9937 9938 9939 9940 9941 9942 9943 9944 9945 9946 9947 9948 9949 9950 9951 9952 9953 9954 9955 9956 9957 9958 9959 9960 9961 9962 9963 9964 9965 9966 9967 9968 9969 9970 9971 9972 9973 9974 9975 9976 9977 9978 9979 9980 9981 9982 9983 9984 9985 9986 9987 9988 9989 9990 9991 9992 9993 9994 9995 9996 9997 9998 9999 10000 10001 10002 10003 10004 10005 10006 10007 10008 10009 10010 10011 10012 10013 10014 10015 10016 10017 10018 10019 10020 10021 10022 10023 10024 10025 10026 10027 10028 10029 10030 10031 10032 10033 10034 10035 10036 10037 10038 10039 10040 10041 10042 10043 10044 10045 10046 10047 10048 10049 10050 10051 10052 10053 10054 10055 10056 10057 10058 10059 10060 10061 10062 10063 10064 10065 10066 10067 10068 10069 10070 10071 10072 10073 10074 10075 10076 10077 10078 10079 10080 10081 10082 10083 10084 10085 10086 10087 10088 10089 10090 10091 10092 10093 10094 10095 10096 10097 10098 10099 10100 10101 10102 10103 10104 10105 10106 10107 10108 10109 10110 10111 10112 10113 10114 10115 10116 10117 10118 10119 10120 10121 10122 10123 10124 10125 10126 10127 10128 10129 10130 10131 10132 10133 10134 10135 10136 10137 10138 10139 10140 10141 10142 10143 10144 10145 10146 10147 10148 10149 10150 10151 10152 10153 10154 10155 10156 10157 10158 10159 10160 10161 10162 10163 10164 10165 10166 10167 10168 10169 10170 10171 10172 10173 10174 10175 10176 10177 10178 10179 10180 10181 10182 10183 10184 10185 10186 10187 10188 10189 10190 10191 10192 10193 10194 10195 10196 10197 10198 10199 10200 10201 10202 10203 10204 10205 10206 10207 10208 10209 10210 10211 10212 10213 10214 10215 10216 10217 10218 10219 10220 10221 10222 10223 10224 10225 10226 10227 10228 10229 10230 10231 10232 10233 10234 10235 10236 10237 10238 10239 10240 10241 10242 10243 10244 10245 10246 10247 10248 10249 10250 10251 10252 10253 10254 10255 10256 10257 10258 10259 10260 10261 10262 10263 10264 10265 10266 10267 10268 10269 10270 10271 10272 10273 10274 10275 10276 10277 10278 10279 10280 10281 10282 10283 10284 10285 10286 10287 10288 10289 10290 10291 10292 10293 10294 10295 10296 10297 10298 10299 10300 10301 10302 10303 10304 10305 10306 10307 10308 10309 10310 10311 10312 10313 10314 10315 10316 10317 10318 10319 10320 10321 10322 10323 10324 10325 10326 10327 10328 10329 10330 10331 10332 10333 10334 10335 10336 10337 10338 10339 10340 10341 10342 10343 10344 10345 10346 10347 10348 10349 10350 10351 10352 10353 10354 10355 10356 10357 10358 10359 10360 10361 10362 10363 10364 10365 10366 10367 10368 10369 10370 10371 10372 10373 10374 10375 10376 10377 10378 10379 10380 10381 10382 10383 10384 10385 10386 10387 10388 10389 10390 10391 10392 10393 10394 10395 10396 10397 10398 10399 10400 10401 10402 10403 10404 10405 10406 10407 10408 10409 10410 10411 10412 10413 10414 10415 10416 10417 10418 10419 10420 10421 10422 10423 10424 10425 10426 10427 10428 10429 10430 10431 10432 10433 10434 10435 10436 10437 10438 10439 10440 10441 10442 10443 10444 10445 10446 10447 10448 10449 10450 10451 10452 10453 10454 10455 10456 10457 10458 10459 10460 10461 10462 10463 10464 10465 10466 10467 10468 10469 10470 10471 10472 10473 10474 10475 10476 10477 10478 10479 10480 10481 10482 10483 10484 10485 10486 10487 10488 10489 10490 10491 10492 10493 10494 10495 10496 10497 10498 10499 10500 10501 10502 10503 10504 10505 10506 10507 10508 10509 10510 10511 10512 10513 10514 10515 10516 10517 10518 10519 10520 10521 10522 10523 10524 10525 10526 10527 10528 10529 10530 10531 10532 10533 10534 10535 10536 10537 10538 10539 10540 10541 10542 10543 10544 10545 10546 10547 10548 10549 10550 10551 10552 10553 10554 10555 10556 10557 10558 10559 10560 10561 10562 10563 10564 10565 10566 10567 10568 10569 10570 10571 10572 10573 10574 10575 10576 10577 10578 10579 10580 10581 10582 10583 10584 10585 10586 10587 10588 10589 10590 10591 10592 10593 10594 10595 10596 10597 10598 10599 10600 10601 10602 10603 10604 10605 10606 10607 10608 10609 10610 10611 10612 10613 10614 10615 10616 10617 10618 10619 10620 10621 10622 10623 10624 10625 10626 10627 10628 10629 10630 10631 10632 10633 10634 10635 10636 10637 10638 10639 10640 10641 10642 10643 10644 10645 10646 10647 10648 10649 10650 10651 10652 10653 10654 10655 10656 10657 10658 10659 10660 10661 10662 10663 10664 10665 10666 10667 10668 10669 10670 10671 10672 10673 10674 10675 10676 10677 10678 10679 10680 10681 10682 10683 10684 10685 10686 10687 10688 10689 10690 10691 10692 10693 10694 10695 10696 10697 10698 10699 10700 10701 10702 10703 10704 10705 10706 10707 10708 10709 10710 10711 10712 10713 10714 10715 10716 10717 10718 10719 10720 10721 10722 10723 10724 10725 10726 10727 10728 10729 10730 10731 10732 10733 10734 10735 10736 10737 10738 10739 10740 10741 10742 10743 10744 10745 10746 10747 10748 10749 10750 10751 10752 10753 10754 10755 10756 10757 10758 10759 10760 10761 10762 10763 10764 10765 10766 10767 10768 10769 10770 10771 10772 10773 10774 10775 10776 10777 10778 10779 10780 10781 10782 10783 10784 10785 10786 10787 10788 10789 10790 10791 10792 10793 10794 10795 10796 10797 10798 10799 10800 10801 10802 10803 10804 10805 10806 10807 10808 10809 10810 10811 10812 10813 10814 10815 10816 10817 10818 10819 10820 10821 10822 10823 10824 10825 10826 10827 10828 10829 10830 10831 10832 10833 10834 10835 10836 10837 10838 10839 10840 10841 10842 10843 10844 10845 10846 10847 10848 10849 10850 10851 10852 10853 10854 10855 10856 10857 10858 10859 10860 10861 10862 10863 10864 10865 10866 10867 10868 10869 10870 10871 10872 10873 10874 10875 10876 10877 10878 10879 10880 10881 10882 10883 10884 10885 10886 10887 10888 10889 10890 10891 10892 10893 10894 10895 10896 10897 10898 10899 10900 10901 10902 10903 10904 10905 10906 10907 10908 10909 10910 10911 10912 10913 10914 10915 10916 10917 10918 10919 10920 10921 10922 10923 10924 10925 10926 10927 10928 10929 10930 10931 10932 10933 10934 10935 10936 10937 10938 10939 10940 10941 10942 10943 10944 10945 10946 10947 10948 10949 10950 10951 10952 10953 10954 10955 10956 10957 10958 10959 10960 10961 10962 10963 10964 10965 10966 10967 10968 10969 10970 10971 10972 10973 10974 10975 10976 10977 10978 10979 10980 10981 10982 10983 10984 10985 10986 10987 10988 10989 10990 10991 10992 10993 10994 10995 10996 10997 10998 10999 11000 11001 11002 11003 11004 11005 11006 11007 11008 11009 11010 11011 11012 11013 11014 11015 11016 11017 11018 11019 11020 11021 11022 11023 11024 11025 11026 11027 11028 11029 11030 11031 11032 11033 11034 11035 11036 11037 11038 11039 11040 11041 11042 11043 11044 11045 11046 11047 11048 11049 11050 11051 11052 11053 11054 11055 11056 11057 11058 11059 11060 11061 11062 11063 11064 11065 11066 11067 11068 11069 11070 11071 11072 11073 11074 11075 11076 11077 11078 11079 11080 11081 11082 11083 11084 11085 11086 11087 11088 11089 11090 11091 11092 11093 11094 11095 11096 11097 11098 11099 11100 11101 11102 11103 11104 11105 11106 11107 11108 11109 11110 11111 11112 11113 11114 11115 11116 11117 11118 11119 11120 11121 11122 11123 11124 11125 11126 11127 11128 11129 11130 11131 11132 11133 11134 11135 11136 11137 11138 11139 11140 11141 11142 11143 11144 11145 11146 11147 11148 11149 11150 11151 11152 11153 11154 11155 11156 11157 11158 11159 11160 11161 11162 11163 11164 11165 11166 11167 11168 11169 11170 11171 11172 11173 11174 11175 11176 11177 11178 11179 11180 11181 11182 11183 11184 11185 11186 11187 11188 11189 11190 11191 11192 11193 11194 11195 11196 11197 11198 11199 11200 11201 11202 11203 11204 11205 11206 11207 11208 11209 11210 11211 11212 11213 11214 11215 11216 11217 11218 11219 11220 11221 11222 11223 11224 11225 11226 11227 11228 11229 11230 11231 11232 11233 11234 11235 11236 11237 11238 11239 11240 11241 11242 11243 11244 11245 11246 11247 11248 11249 11250 11251 11252 11253 11254 11255 11256 11257 11258 11259 11260 11261 11262 11263 11264 11265 11266 11267 11268 11269 11270 11271 11272 11273 11274 11275 11276 11277 11278 11279 11280 11281 11282 11283 11284 11285 11286 11287 11288 11289 11290 11291 11292 11293 11294 11295 11296 11297 11298 11299 11300 11301 11302 11303 11304 11305 11306 11307 11308 11309 11310 11311 11312 11313 11314 11315 11316 11317 11318 11319 11320 11321 11322 11323 11324 11325 11326 11327 11328 11329 11330 11331 11332 11333 11334 11335 11336 11337 11338 11339 11340 11341 11342 11343 11344 11345 11346 11347 11348 11349 11350 11351 11352 11353 11354 11355 11356 11357 11358 11359 11360 11361 11362 11363 11364 11365 11366 11367 11368 11369 11370 11371 11372 11373 11374 11375 11376 11377 11378 11379 11380 11381 11382 11383 11384 11385 11386 11387 11388 11389 11390 11391 11392 11393 11394 11395 11396 11397 11398 11399 11400 11401 11402 11403 11404 11405 11406 11407 11408 11409 11410 11411 11412 11413 11414 11415 11416 11417 11418 11419 11420 11421 11422 11423 11424 11425 11426 11427 11428 11429 11430 11431 11432 11433 11434 11435 11436 11437 11438 11439 11440 11441 11442 11443 11444 11445 11446 11447 11448 11449 11450 11451 11452 11453 11454 11455 11456 11457 11458 11459 11460 11461 11462 11463 11464 11465 11466 11467 11468 11469 11470 11471 11472 11473 11474 11475 11476 11477 11478 11479 11480 11481 11482 11483 11484 11485 11486 11487 11488 11489 11490 11491 11492 11493 11494 11495 11496 11497 11498 11499 11500 11501 11502 11503 11504 11505 11506 11507 11508 11509 11510 11511 11512 11513 11514 11515 11516 11517 11518 11519 11520 11521 11522 11523 11524 11525 11526 11527 11528 11529 11530 11531 11532 11533 11534 11535 11536 11537 11538 11539 11540 11541 11542 11543 11544 11545 11546 11547 11548 11549 11550 11551 11552 11553 11554 11555 11556 11557 11558 11559 11560 11561 11562 11563 11564 11565 11566 11567 11568 11569 11570 11571 11572 11573 11574 11575 11576 11577 11578 11579 11580 11581 11582 11583 11584 11585 11586 11587 11588 11589 11590 11591 11592 11593 11594 11595 11596 11597 11598 11599 11600 11601 11602 11603 11604 11605 11606 11607 11608 11609 11610 11611 11612 11613 11614 11615 11616 11617 11618 11619 11620 11621 11622 11623 11624 11625 11626 11627 11628 11629 11630 11631 11632 11633 11634 11635 11636 11637 11638 11639 11640 11641 11642 11643 11644 11645 11646 11647 11648 11649 11650 11651 11652 11653 11654 11655 11656 11657 11658 11659 11660 11661 11662 11663 11664 11665 11666 11667 11668 11669 11670 11671 11672 11673 11674 11675 11676 11677 11678 11679 11680 11681 11682 11683 11684 11685 11686 11687 11688 11689 11690 11691 11692 11693 11694 11695 11696 11697 11698 11699 11700 11701 11702 11703 11704 11705 11706 11707 11708 11709 11710 11711 11712 11713 11714 11715 11716 11717 11718 11719 11720 11721 11722 11723 11724 11725 11726 11727 11728 11729 11730 11731 11732 11733 11734 11735 11736 11737 11738 11739 11740 11741 11742 11743 11744 11745 11746 11747 11748 11749 11750 11751 11752 11753 11754 11755 11756 11757 11758 11759 11760 11761 11762 11763 11764 11765 11766 11767 11768 11769 11770 11771 11772 11773 11774 11775 11776 11777 11778 11779 11780 11781 11782 11783 11784 11785 11786 11787 11788 11789 11790 11791 11792 11793 11794 11795 11796 11797 11798 11799 11800 11801 11802 11803 11804 11805 11806 11807 11808 11809 11810 11811 11812 11813 11814 11815 11816 11817 11818 11819 11820 11821 11822 11823 11824 11825 11826 11827 11828 11829 11830 11831 11832 11833 11834 11835 11836 11837 11838 11839 11840 11841 11842 11843 11844 11845 11846 11847 11848 11849 11850 11851 11852 11853 11854 11855 11856 11857 11858 11859 11860 11861 11862 11863 11864 11865 11866 11867 11868 11869 11870 11871 11872 11873 11874 11875 11876 11877 11878 11879 11880 11881 11882 11883 11884 11885 11886 11887 11888 11889 11890 11891 11892 11893 11894 11895 11896 11897 11898 11899 11900 11901 11902 11903 11904 11905 11906 11907 11908 11909 11910 11911 11912 11913 11914 11915 11916 11917 11918 11919 11920 11921 11922 11923 11924 11925 11926 11927 11928 11929 11930 11931 11932 11933 11934 11935 11936 11937 11938 11939 11940 11941 11942 11943 11944 11945 11946 11947 11948 11949 11950 11951 11952 11953 11954 11955 11956 11957 11958 11959 11960 11961 11962 11963 11964 11965 11966 11967 11968 11969 11970 11971 11972 11973 11974 11975 11976 11977 11978 11979 11980 11981 11982 11983 11984 11985 11986 11987 11988 11989 11990 11991 11992 11993 11994 11995 11996 11997 11998 11999 12000 12001 12002 12003 12004 12005 12006 12007 12008 12009 12010 12011 12012 12013 12014 12015 12016 12017 12018 12019 12020 12021 12022 12023 12024 12025 12026 12027 12028 12029 12030 12031 12032 12033 12034 12035 12036 12037 12038 12039 12040 12041 12042 12043 12044 12045 12046 12047 12048 12049 12050 12051 12052 12053 12054 12055 12056 12057 12058 12059 12060 12061 12062 12063 12064 12065 12066 12067 12068 12069 12070 12071 12072 12073 12074 12075 12076 12077 12078 12079 12080 12081 12082 12083 12084 12085 12086 12087 12088 12089 12090 12091 12092 12093 12094 12095 12096 12097 12098 12099 12100 12101 12102 12103 12104 12105 12106 12107 12108 12109 12110 12111 12112 12113 12114 12115 12116 12117 12118 12119 12120 12121 12122 12123 12124 12125 12126 12127 12128 12129 12130 12131 12132 12133 12134 12135 12136 12137 12138 12139 12140 12141 12142 12143 12144 12145 12146 12147 12148 12149 12150 12151 12152 12153 12154 12155 12156 12157 12158 12159 12160 12161 12162 12163 12164 12165 12166 12167 12168 12169 12170 12171 12172 12173 12174 12175 12176 12177 12178 12179 12180 12181 12182 12183 12184 12185 12186 12187 12188 12189 12190 12191 12192 12193 12194 12195 12196 12197 12198 12199 12200 12201 12202 12203 12204 12205 12206 12207 12208 12209 12210 12211 12212 12213 12214 12215 12216 12217 12218 12219 12220 12221 12222 12223 12224 12225 12226 12227 12228 12229 12230 12231 12232 12233 12234 12235 12236 12237 12238 12239 12240 12241 12242 12243 12244 12245 12246 12247 12248 12249 12250 12251 12252 12253 12254 12255 12256 12257 12258 12259 12260 12261 12262 12263 12264 12265 12266 12267 12268 12269 12270 12271 12272 12273 12274 12275 12276 12277 12278 12279 12280 12281 12282 12283 12284 12285 12286 12287 12288 12289 12290 12291 12292 12293 12294 12295 12296 12297 12298 12299 12300 12301 12302 12303 12304 12305 12306 12307 12308 12309 12310 12311 12312 12313 12314 12315 12316 12317 12318 12319 12320 12321 12322 12323 12324 12325 12326 12327 12328 12329 12330 12331 12332 12333 12334 12335 12336 12337 12338 12339 12340 12341 12342 12343 12344 12345 12346 12347 12348 12349 12350 12351 12352 12353 12354 12355 12356 12357 12358 12359 12360 12361 12362 12363 12364 12365 12366 12367 12368 12369 12370 12371 12372 12373 12374 12375 12376 12377 12378 12379 12380 12381 12382 12383 12384 12385 12386 12387 12388 12389 12390 12391 12392 12393 12394 12395 12396 12397 12398 12399 12400 12401 12402 12403 12404 12405 12406 12407 12408 12409 12410 12411 12412 12413 12414 12415 12416 12417 12418 12419 12420 12421 12422 12423 12424 12425 12426 12427 12428 12429 12430 12431 12432 12433 12434 12435 12436 12437 12438 12439 12440 12441 12442 12443 12444 12445 12446 12447 12448 12449 12450 12451 12452 12453 12454 12455 12456 12457 12458 12459 12460 12461 12462 12463 12464 12465 12466 12467 12468 12469 12470 12471 12472 12473 12474 12475 12476 12477 12478 12479 12480 12481 12482 12483 12484 12485 12486 12487 12488 12489 12490 12491 12492 12493 12494 12495 12496 12497 12498 12499 12500 12501 12502 12503 12504 12505 12506 12507 12508 12509 12510 12511 12512 12513 12514 12515 12516 12517 12518 12519 12520 12521 12522 12523 12524 12525 12526 12527 12528 12529 12530 12531 12532 12533 12534 12535 12536 12537 12538 12539 12540 12541 12542 12543 12544 12545 12546 12547 12548 12549 12550 12551 12552 12553 12554 12555 12556 12557 12558 12559 12560 12561 12562 12563 12564 12565 12566 12567 12568 12569 12570 12571 12572 12573 12574 12575 12576 12577 12578 12579 12580 12581 12582 12583 12584 12585 12586 12587 12588 12589 12590 12591 12592 12593 12594 12595 12596 12597 12598 12599 12600 12601 12602 12603 12604 12605 12606 12607 12608 12609 12610 12611 12612 12613 12614 12615 12616 12617 12618 12619 12620 12621 12622 12623 12624 12625 12626 12627 12628 12629 12630 12631 12632 12633 12634 12635 12636 12637 12638 12639 12640 12641 12642 12643 12644 12645 12646 12647 12648 12649 12650 12651 12652 12653 12654 12655 12656 12657 12658 12659 12660 12661 12662 12663 12664 12665 12666 12667 12668 12669 12670 12671 12672 12673 12674 12675 12676 12677 12678 12679 12680 12681 12682 12683 12684 12685 12686 12687 12688 12689 12690 12691 12692 12693 12694 12695 12696 12697 12698 12699 12700 12701 12702 12703 12704 12705 12706 12707 12708 12709 12710 12711 12712 12713 12714 12715 12716 12717 12718 12719 12720 12721 12722 12723 12724 12725 12726 12727 12728 12729 12730 12731 12732 12733 12734 12735 12736 12737 12738 12739 12740 12741 12742 12743 12744 12745 12746 12747 12748 12749 12750 12751 12752 12753 12754 12755 12756 12757 12758 12759 12760 12761 12762 12763 12764 12765 12766 12767 12768 12769 12770 12771 12772 12773 12774 12775 12776 12777 12778 12779 12780 12781 12782 12783 12784 12785 12786 12787 12788 12789 12790 12791 12792 12793 12794 12795 12796 12797 12798 12799 12800 12801 12802 12803 12804 12805 12806 12807 12808 12809 12810 12811 12812 12813 12814 12815 12816 12817 12818 12819 12820 12821 12822 12823 12824 12825 12826 12827 12828 12829 12830 12831 12832 12833 12834 12835 12836 12837 12838 12839 12840 12841 12842 12843 12844 12845 12846 12847 12848 12849 12850 12851 12852 12853 12854 12855 12856 12857 12858 12859 12860 12861 12862 12863 12864 12865 12866 12867 12868 12869 12870 12871 12872 12873 12874 12875 12876 12877 12878 12879 12880 12881 12882 12883 12884 12885 12886 12887 12888 12889 12890 12891 12892 12893 12894 12895 12896 12897 12898 12899 12900 12901 12902 12903 12904 12905 12906 12907 12908 12909 12910 12911 12912 12913 12914 12915 12916 12917 12918 12919 12920 12921 12922 12923 12924 12925 12926 12927 12928 12929 12930 12931 12932 12933 12934 12935 12936 12937 12938 12939 12940 12941 12942 12943 12944 12945 12946 12947 12948 12949 12950 12951 12952 12953 12954 12955 12956 12957 12958 12959 12960 12961 12962 12963 12964 12965 12966 12967 12968 12969 12970 12971 12972 12973 12974 12975 12976 12977 12978 12979 12980 12981 12982 12983 12984 12985 12986 12987 12988 12989 12990 12991 12992 12993 12994 12995 12996 12997 12998 12999 13000 13001 13002 13003 13004 13005 13006 13007 13008 13009 13010 13011 13012 13013 13014 13015 13016 13017 13018 13019 13020 13021 13022 13023 13024 13025 13026 13027 13028 13029 13030 13031 13032 13033 13034 13035 13036 13037 13038 13039 13040 13041 13042 13043 13044 13045 13046 13047 13048 13049 13050 13051 13052 13053 13054 13055 13056 13057 13058 13059 13060 13061 13062 13063 13064 13065 13066 13067 13068 13069 13070 13071 13072 13073 13074 13075 13076 13077 13078 13079 13080 13081 13082 13083 13084 13085 13086 13087 13088 13089 13090 13091 13092 13093 13094 13095 13096 13097 13098 13099 13100 13101 13102 13103 13104 13105 13106 13107 13108 13109 13110 13111 13112 13113 13114 13115 13116 13117 13118 13119 13120 13121 13122 13123 13124 13125 13126 13127 13128 13129 13130 13131 13132 13133 13134 13135 13136 13137 13138 13139 13140 13141 13142 13143 13144 13145 13146 13147 13148 13149 13150 13151 13152 13153 13154 13155 13156 13157 13158 13159 13160 13161 13162 13163 13164 13165 13166 13167 13168 13169 13170 13171 13172 13173 13174 13175 13176 13177 13178 13179 13180 13181 13182 13183 13184 13185 13186 13187 13188 13189 13190 13191 13192 13193 13194 13195 13196 13197 13198 13199 13200 13201 13202 13203 13204 13205 13206 13207 13208 13209 13210 13211 13212 13213 13214 13215 13216 13217 13218 13219 13220 13221 13222 13223 13224 13225 13226 13227 13228 13229 13230 13231 13232 13233 13234 13235 13236 13237 13238 13239 13240 13241 13242 13243 13244 13245 13246 13247 13248 13249 13250 13251 13252 13253 13254 13255 13256 13257 13258 13259 13260 13261 13262 13263 13264 13265 13266 13267 13268 13269 13270 13271 13272 13273 13274 13275 13276 13277 13278 13279 13280 13281 13282 13283 13284 13285 13286 13287 13288 13289 13290 13291 13292 13293 13294 13295 13296 13297 13298 13299 13300 13301 13302 13303 13304 13305 13306 13307 13308 13309 13310 13311 13312 13313 13314 13315 13316 13317 13318 13319 13320 13321 13322 13323 13324 13325 13326 13327 13328 13329 13330 13331 13332 13333 13334 13335 13336 13337 13338 13339 13340 13341 13342 13343 13344 13345 13346 13347 13348 13349 13350 13351 13352 13353 13354 13355 13356 13357 13358 13359 13360 13361 13362 13363 13364 13365 13366 13367 13368 13369 13370 13371 13372 13373 13374 13375 13376 13377 13378 13379 13380 13381 13382 13383 13384 13385 13386 13387 13388 13389 13390 13391 13392 13393 13394 13395 13396 13397 13398 13399 13400 13401 13402 13403 13404 13405 13406 13407 13408 13409 13410 13411 13412 13413 13414 13415 13416 13417 13418 13419 13420 13421 13422 13423 13424 13425 13426 13427 13428 13429 13430 13431 13432 13433 13434 13435 13436 13437 13438 13439 13440 13441 13442 13443 13444 13445 13446 13447 13448 13449 13450 13451 13452 13453 13454 13455 13456 13457 13458 13459 13460 13461 13462 13463 13464 13465 13466 13467 13468 13469 13470 13471 13472 13473 13474 13475 13476 13477 13478 13479 13480 13481 13482 13483 13484 13485 13486 13487 13488 13489 13490 13491 13492 13493 13494 13495 13496 13497 13498 13499 13500 13501 13502 13503 13504 13505 13506 13507 13508 13509 13510 13511 13512 13513 13514 13515 13516 13517 13518 13519 13520 13521 13522 13523 13524 13525 13526 13527 13528 13529 13530 13531 13532 13533 13534 13535 13536 13537 13538 13539 13540 13541 13542 13543 13544 13545 13546 13547 13548 13549 13550 13551 13552 13553 13554 13555 13556 13557 13558 13559 13560 13561 13562 13563 13564 13565 13566 13567 13568 13569 13570 13571 13572 13573 13574 13575 13576 13577 13578 13579 13580 13581 13582 13583 13584 13585 13586 13587 13588 13589 13590 13591 13592 13593 13594 13595 13596 13597 13598 13599 13600 13601 13602 13603 13604 13605 13606 13607 13608 13609 13610 13611 13612 13613 13614 13615 13616 13617 13618 13619 13620 13621 13622 13623 13624 13625 13626 13627 13628 13629 13630 13631 13632 13633 13634 13635 13636 13637 13638 13639 13640 13641 13642 13643 13644 13645 13646 13647 13648 13649 13650 13651 13652 13653 13654 13655 13656 13657 13658 13659 13660 13661 13662 13663 13664 13665 13666 13667 13668 13669 13670 13671 13672 13673 13674 13675 13676 13677 13678 13679 13680 13681 13682 13683 13684 13685 13686 13687 13688 13689 13690 13691 13692 13693 13694 13695 13696 13697 13698 13699 13700 13701 13702 13703 13704 13705 13706 13707 13708 13709 13710 13711 13712 13713 13714 13715 13716 13717 13718 13719 13720 13721 13722 13723 13724 13725 13726 13727 13728 13729 13730 13731 13732 13733 13734 13735 13736 13737 13738 13739 13740 13741 13742 13743 13744 13745 13746 13747 13748 13749 13750 13751 13752 13753 13754 13755 13756 13757 13758 13759 13760 13761 13762 13763 13764 13765 13766 13767 13768 13769 13770 13771 13772 13773 13774 13775 13776 13777 13778 13779 13780 13781 13782 13783 13784 13785 13786 13787 13788 13789 13790 13791 13792 13793 13794 13795 13796 13797 13798 13799 13800 13801 13802 13803 13804 13805 13806 13807 13808 13809 13810 13811 13812 13813 13814 13815 13816 13817 13818 13819 13820 13821 13822 13823 13824 13825 13826 13827 13828 13829 13830 13831 13832 13833 13834 13835 13836 13837 13838 13839 13840 13841 13842 13843 13844 13845 13846 13847 13848 13849 13850 13851 13852 13853 13854 13855 13856 13857 13858 13859 13860 13861 13862 13863 13864 13865 13866 13867 13868 13869 13870 13871 13872 13873 13874 13875 13876 13877 13878 13879 13880 13881 13882 13883 13884 13885 13886 13887 13888 13889 13890 13891 13892 13893 13894 13895 13896 13897 13898 13899 13900 13901 13902 13903 13904 13905 13906 13907 13908 13909 13910 13911 13912 13913 13914 13915 13916 13917 13918 13919 13920 13921 13922 13923 13924 13925 13926 13927 13928 13929 13930 13931 13932 13933 13934 13935 13936 13937 13938 13939 13940 13941 13942 13943 13944 13945 13946 13947 13948 13949 13950 13951 13952 13953 13954 13955 13956 13957 13958 13959 13960 13961 13962 13963 13964 13965 13966 13967 13968 13969 13970 13971 13972 13973 13974 13975 13976 13977 13978 13979 13980 13981 13982 13983 13984 13985 13986 13987 13988 13989 13990 13991 13992 13993 13994 13995 13996 13997 13998 13999 14000 14001 14002 14003 14004 14005 14006 14007 14008 14009 14010 14011 14012 14013 14014 14015 14016 14017 14018 14019 14020 14021 14022 14023 14024 14025 14026 14027 14028 14029 14030 14031 14032 14033 14034 14035 14036 14037 14038 14039 14040 14041 14042 14043 14044 14045 14046 14047 14048 14049 14050 14051 14052 14053 14054 14055 14056 14057 14058 14059 14060 14061 14062 14063 14064 14065 14066 14067 14068 14069 14070 14071 14072 14073 14074 14075 14076 14077 14078 14079 14080 14081 14082 14083 14084 14085 14086 14087 14088 14089 14090 14091 14092 14093 14094 14095 14096 14097 14098 14099 14100 14101 14102 14103 14104 14105 14106 14107 14108 14109 14110 14111 14112 14113 14114 14115 14116 14117 14118 14119 14120 14121 14122 14123 14124 14125 14126 14127 14128 14129 14130 14131 14132 14133 14134 14135 14136 14137 14138 14139 14140 14141 14142 14143 14144 14145 14146 14147 14148 14149 14150 14151 14152 14153 14154 14155 14156 14157 14158 14159 14160 14161 14162 14163 14164 14165 14166 14167 14168 14169 14170 14171 14172 14173 14174 14175 14176 14177 14178 14179 14180 14181 14182 14183 14184 14185 14186 14187 14188 14189 14190 14191 14192 14193 14194 14195 14196 14197 14198 14199 14200 14201 14202 14203 14204 14205 14206 14207 14208 14209 14210 14211 14212 14213 14214 14215 14216 14217 14218 14219 14220 14221 14222 14223 14224 14225 14226 14227 14228 14229 14230 14231 14232 14233 14234 14235 14236 14237 14238 14239 14240 14241 14242 14243 14244 14245 14246 14247 14248 14249 14250 14251 14252 14253 14254 14255 14256 14257 14258 14259 14260 14261 14262 14263 14264 14265 14266 14267 14268 14269 14270 14271 14272 14273 14274 14275 14276 14277 14278 14279 14280 14281 14282 14283 14284 14285 14286 14287 14288 14289 14290 14291 14292 14293 14294 14295 14296 14297 14298 14299 14300 14301 14302 14303 14304 14305 14306 14307 14308 14309 14310 14311 14312 14313 14314 14315 14316 14317 14318 14319 14320 14321 14322 14323 14324 14325 14326 14327 14328 14329 14330 14331 14332 14333 14334 14335 14336 14337 14338 14339 14340 14341 14342 14343 14344 14345 14346 14347 14348 14349 14350 14351 14352 14353 14354 14355 14356 14357 14358 14359 14360 14361 14362 14363 14364 14365 14366 14367 14368 14369 14370 14371 14372 14373 14374 14375 14376 14377 14378 14379 14380 14381 14382 14383 14384 14385 14386 14387 14388 14389 14390 14391 14392 14393 14394 14395 14396 14397 14398 14399 14400 14401 14402 14403 14404 14405 14406 14407 14408 14409 14410 14411 14412 14413 14414 14415 14416 14417 14418 14419 14420 14421 14422 14423 14424 14425 14426 14427 14428 14429 14430 14431 14432 14433 14434 14435 14436 14437 14438 14439 14440 14441 14442 14443 14444 14445 14446 14447 14448 14449 14450 14451 14452 14453 14454 14455 14456 14457 14458 14459 14460 14461 14462 14463 14464 14465 14466 14467 14468 14469 14470 14471 14472 14473 14474 14475 14476 14477 14478 14479 14480 14481 14482 14483 14484 14485 14486 14487 14488 14489 14490 14491 14492 14493 14494 14495 14496 14497 14498 14499 14500 14501 14502 14503 14504 14505 14506 14507 14508 14509 14510 14511 14512 14513 14514 14515 14516 14517 14518 14519 14520 14521 14522 14523 14524 14525 14526 14527 14528 14529 14530 14531 14532 14533 14534 14535 14536 14537 14538 14539 14540 14541 14542 14543 14544 14545 14546 14547 14548 14549 14550 14551 14552 14553 14554 14555 14556 14557 14558 14559 14560 14561 14562 14563 14564 14565 14566 14567 14568 14569 14570 14571 14572 14573 14574 14575 14576 14577 14578 14579 14580 14581 14582 14583 14584 14585 14586 14587 14588 14589 14590 14591 14592 14593 14594 14595 14596 14597 14598 14599 14600 14601 14602 14603 14604 14605 14606 14607 14608 14609 14610 14611 14612 14613 14614 14615 14616 14617 14618 14619 14620 14621 14622 14623 14624 14625 14626 14627 14628 14629 14630 14631 14632 14633 14634 14635 14636 14637 14638 14639 14640 14641 14642 14643 14644 14645 14646 14647 14648 14649 14650 14651 14652 14653 14654 14655 14656 14657 14658 14659 14660 14661 14662 14663 14664 14665 14666 14667 14668 14669 14670 14671 14672 14673 14674 14675 14676 14677 14678 14679 14680 14681 14682 14683 14684 14685 14686 14687 14688 14689 14690 14691 14692 14693 14694 14695 14696 14697 14698 14699 14700 14701 14702 14703 14704 14705 14706 14707 14708 14709 14710 14711 14712 14713 14714 14715 14716 14717 14718 14719 14720 14721 14722 14723 14724 14725 14726 14727 14728 14729 14730 14731 14732 14733 14734 14735 14736 14737 14738 14739 14740 14741 14742 14743 14744 14745 14746 14747 14748 14749 14750 14751 14752 14753 14754 14755 14756 14757 14758 14759 14760 14761 14762 14763 14764 14765 14766 14767 14768 14769 14770 14771 14772 14773 14774 14775 14776 14777 14778 14779 14780 14781 14782 14783 14784 14785 14786 14787 14788 14789 14790 14791 14792 14793 14794 14795 14796 14797 14798 14799 14800 14801 14802 14803 14804 14805 14806 14807 14808 14809 14810 14811 14812 14813 14814 14815 14816 14817 14818 14819 14820 14821 14822 14823 14824 14825 14826 14827 14828 14829 14830 14831 14832 14833 14834 14835 14836 14837 14838 14839 14840 14841 14842 14843 14844 14845 14846 14847 14848 14849 14850 14851 14852 14853 14854 14855 14856 14857 14858 14859 14860 14861 14862 14863 14864 14865 14866 14867 14868 14869 14870 14871 14872 14873 14874 14875 14876 14877 14878 14879 14880 14881 14882 14883 14884 14885 14886 14887 14888 14889 14890 14891 14892 14893 14894 14895 14896 14897 14898 14899 14900 14901 14902 14903 14904 14905 14906 14907 14908 14909 14910 14911 14912 14913 14914 14915 14916 14917 14918 14919 14920 14921 14922 14923 14924 14925 14926 14927 14928 14929 14930 14931 14932 14933 14934 14935 14936 14937 14938 14939 14940 14941 14942 14943 14944 14945 14946 14947 14948 14949 14950 14951 14952 14953 14954 14955 14956 14957 14958 14959 14960 14961 14962 14963 14964 14965 14966 14967 14968 14969 14970 14971 14972 14973 14974 14975 14976 14977 14978 14979 14980 14981 14982 14983 14984 14985 14986 14987 14988 14989 14990 14991 14992 14993 14994 14995 14996 14997 14998 14999 15000 15001 15002 15003 15004 15005 15006 15007 15008 15009 15010 15011 15012 15013 15014 15015 15016 15017 15018 15019 15020 15021 15022 15023 15024 15025 15026 15027 15028 15029 15030 15031 15032 15033 15034 15035 15036 15037 15038 15039 15040 15041 15042 15043 15044 15045 15046 15047 15048 15049 15050 15051 15052 15053 15054 15055 15056 15057 15058 15059 15060 15061 15062 15063 15064 15065 15066 15067 15068 15069 15070 15071 15072 15073 15074 15075 15076 15077 15078 15079 15080 15081 15082 15083 15084 15085 15086 15087 15088 15089 15090 15091 15092 15093 15094 15095 15096 15097 15098 15099 15100 15101 15102 15103 15104 15105 15106 15107 15108 15109 15110 15111 15112 15113 15114 15115 15116 15117 15118 15119 15120 15121 15122 15123 15124 15125 15126 15127 15128 15129 15130 15131 15132 15133 15134 15135 15136 15137 15138 15139 15140 15141 15142 15143 15144 15145 15146 15147 15148 15149 15150 15151 15152 15153 15154 15155 15156 15157 15158 15159 15160 15161 15162 15163 15164 15165 15166 15167 15168 15169 15170 15171 15172 15173 15174 15175 15176 15177 15178 15179 15180 15181 15182 15183 15184 15185 15186 15187 15188 15189 15190 15191 15192 15193 15194 15195 15196 15197 15198 15199 15200 15201 15202 15203 15204 15205 15206 15207 15208 15209 15210 15211 15212 15213 15214 15215 15216 15217 15218 15219 15220 15221 15222 15223 15224 15225 15226 15227 15228 15229 15230 15231 15232 15233 15234 15235 15236 15237 15238 15239 15240 15241 15242 15243 15244 15245 15246 15247 15248 15249 15250 15251 15252 15253 15254 15255 15256 15257 15258 15259 15260 15261 15262 15263 15264 15265 15266 15267 15268 15269 15270 15271 15272 15273 15274 15275 15276 15277 15278 15279 15280 15281 15282 15283 15284 15285 15286 15287 15288 15289 15290 15291 15292 15293 15294 15295 15296 15297 15298 15299 15300 15301 15302 15303 15304 15305 15306 15307 15308 15309 15310 15311 15312 15313 15314 15315 15316 15317 15318 15319 15320 15321 15322 15323 15324 15325 15326 15327 15328 15329 15330 15331 15332 15333 15334 15335 15336 15337 15338 15339 15340 15341 15342 15343 15344 15345 15346 15347 15348 15349 15350 15351 15352 15353 15354 15355 15356 15357 15358 15359 15360 15361 15362 15363 15364 15365 15366 15367 15368 15369 15370 15371 15372 15373 15374 15375 15376 15377 15378 15379 15380 15381 15382 15383 15384 15385 15386 15387 15388 15389 15390 15391 15392 15393 15394 15395 15396 15397 15398 15399 15400 15401 15402 15403 15404 15405 15406 15407 15408 15409 15410 15411 15412 15413 15414 15415 15416 15417 15418 15419 15420 15421 15422 15423 15424 15425 15426 15427 15428 15429 15430 15431 15432 15433 15434 15435 15436 15437 15438 15439 15440 15441 15442 15443 15444 15445 15446 15447 15448 15449 15450 15451 15452 15453 15454 15455 15456 15457 15458 15459 15460 15461 15462 15463 15464 15465 15466 15467 15468 15469 15470 15471 15472 15473 15474 15475 15476 15477 15478 15479 15480 15481 15482 15483 15484 15485 15486 15487 15488 15489 15490 15491 15492 15493 15494 15495 15496 15497 15498 15499 15500 15501 15502 15503 15504 15505 15506 15507 15508 15509 15510 15511 15512 15513 15514 15515 15516 15517 15518 15519 15520 15521 15522 15523 15524 15525 15526 15527 15528 15529 15530 15531 15532 15533 15534 15535 15536 15537 15538 15539 15540 15541 15542 15543 15544 15545 15546 15547 15548 15549 15550 15551 15552 15553 15554 15555 15556 15557 15558 15559 15560 15561 15562 15563 15564 15565 15566 15567 15568 15569 15570 15571 15572 15573 15574 15575 15576 15577 15578 15579 15580 15581 15582 15583 15584 15585 15586 15587 15588 15589 15590 15591 15592 15593 15594 15595 15596 15597 15598 15599 15600 15601 15602 15603 15604 15605 15606 15607 15608 15609 15610 15611 15612 15613 15614 15615 15616 15617 15618 15619 15620 15621 15622 15623 15624 15625 15626 15627 15628 15629 15630 15631 15632 15633 15634 15635 15636 15637 15638 15639 15640 15641 15642 15643 15644 15645 15646 15647 15648 15649 15650 15651 15652 15653 15654 15655 15656 15657 15658 15659 15660 15661 15662 15663 15664 15665 15666 15667 15668 15669 15670 15671 15672 15673 15674 15675 15676 15677 15678 15679 15680 15681 15682 15683 15684 15685 15686 15687 15688 15689 15690 15691 15692 15693 15694 15695 15696 15697 15698 15699 15700 15701 15702 15703 15704 15705 15706 15707 15708 15709 15710 15711 15712 15713 15714 15715 15716 15717 15718 15719 15720 15721 15722 15723 15724 15725 15726 15727 15728 15729 15730 15731 15732 15733 15734 15735 15736 15737 15738 15739 15740 15741 15742 15743 15744 15745 15746 15747 15748 15749 15750 15751 15752 15753 15754 15755 15756 15757 15758 15759 15760 15761 15762 15763 15764 15765 15766 15767 15768 15769 15770 15771 15772 15773 15774 15775 15776 15777 15778 15779 15780 15781 15782 15783 15784 15785 15786 15787 15788 15789 15790 15791 15792 15793 15794 15795 15796 15797 15798 15799 15800 15801 15802 15803 15804 15805 15806 15807 15808 15809 15810 15811 15812 15813 15814 15815 15816 15817 15818 15819 15820 15821 15822 15823 15824 15825 15826 15827 15828 15829 15830 15831 15832 15833 15834 15835 15836 15837 15838 15839 15840 15841 15842 15843 15844 15845 15846 15847 15848 15849 15850 15851 15852 15853 15854 15855 15856 15857 15858 15859 15860 15861 15862 15863 15864 15865 15866 15867 15868 15869 15870 15871 15872 15873 15874 15875 15876 15877 15878 15879 15880 15881 15882 15883 15884 15885 15886 15887 15888 15889 15890 15891 15892 15893 15894 15895 15896 15897 15898 15899 15900 15901 15902 15903 15904 15905 15906 15907 15908 15909 15910 15911 15912 15913 15914 15915 15916 15917 15918 15919 15920 15921 15922 15923 15924 15925 15926 15927 15928 15929 15930 15931 15932 15933 15934 15935 15936 15937 15938 15939 15940 15941 15942 15943 15944 15945 15946 15947 15948 15949 15950 15951 15952 15953 15954 15955 15956 15957 15958 15959 15960 15961 15962 15963 15964 15965 15966 15967 15968 15969 15970 15971 15972 15973 15974 15975 15976 15977 15978 15979 15980 15981 15982 15983 15984 15985 15986 15987 15988 15989 15990 15991 15992 15993 15994 15995 15996 15997 15998 15999 16000 16001 16002 16003 16004 16005 16006 16007 16008 16009 16010 16011 16012 16013 16014 16015 16016 16017 16018 16019 16020 16021 16022 16023 16024 16025 16026 16027 16028 16029 16030 16031 16032 16033 16034 16035 16036 16037 16038 16039 16040 16041 16042 16043 16044 16045 16046 16047 16048 16049 16050 16051 16052 16053 16054 16055 16056 16057 16058 16059 16060 16061 16062 16063 16064 16065 16066 16067 16068 16069 16070 16071 16072 16073 16074 16075 16076 16077 16078 16079 16080 16081 16082 16083 16084 16085 16086 16087 16088 16089 16090 16091 16092 16093 16094 16095 16096 16097 16098 16099 16100 16101 16102 16103 16104 16105 16106 16107 16108 16109 16110 16111 16112 16113 16114 16115 16116 16117 16118 16119 16120 16121 16122 16123 16124 16125 16126 16127 16128 16129 16130 16131 16132 16133 16134 16135 16136 16137 16138 16139 16140 16141 16142 16143 16144 16145 16146 16147 16148 16149 16150 16151 16152 16153 16154 16155 16156 16157 16158 16159 16160 16161 16162 16163 16164 16165 16166 16167 16168 16169 16170 16171 16172 16173 16174 16175 16176 16177 16178 16179 16180 16181 16182 16183 16184 16185 16186 16187 16188 16189 16190 16191 16192 16193 16194 16195 16196 16197 16198 16199 16200 16201 16202 16203 16204 16205 16206 16207 16208 16209 16210 16211 16212 16213 16214 16215 16216 16217 16218 16219 16220 16221 16222 16223 16224 16225 16226 16227 16228 16229 16230 16231 16232 16233 16234 16235 16236 16237 16238 16239 16240 16241 16242 16243 16244 16245 16246 16247 16248 16249 16250 16251 16252 16253 16254 16255 16256 16257 16258 16259 16260 16261 16262 16263 16264 16265 16266 16267 16268 16269 16270 16271 16272 16273 16274 16275 16276 16277 16278 16279 16280 16281 16282 16283 16284 16285 16286 16287 16288 16289 16290 16291 16292 16293 16294 16295 16296 16297 16298 16299 16300 16301 16302 16303 16304 16305 16306 16307 16308 16309 16310 16311 16312 16313 16314 16315 16316 16317 16318 16319 16320 16321 16322 16323 16324 16325 16326 16327 16328 16329 16330 16331 16332 16333 16334 16335 16336 16337 16338 16339 16340 16341 16342 16343 16344 16345 16346 16347 16348 16349 16350 16351 16352 16353 16354 16355 16356 16357 16358 16359 16360 16361 16362 16363 16364 16365 16366 16367 16368 16369 16370 16371 16372 16373 16374 16375 16376 16377 16378 16379 16380 16381 16382 16383 16384 16385 16386 16387 16388 16389 16390 16391 16392 16393 16394 16395 16396 16397 16398 16399 16400 16401 16402 16403 16404 16405 16406 16407 16408 16409 16410 16411 16412 16413 16414 16415 16416 16417 16418 16419 16420 16421 16422 16423 16424 16425 16426 16427 16428 16429 16430 16431 16432 16433 16434 16435 16436 16437 16438 16439 16440 16441 16442 16443 16444 16445 16446 16447 16448 16449 16450 16451 16452 16453 16454 16455 16456 16457 16458 16459 16460 16461 16462 16463 16464 16465 16466 16467 16468 16469 16470 16471 16472 16473 16474 16475 16476 16477 16478 16479 16480 16481 16482 16483 16484 16485 16486 16487 16488 16489 16490 16491 16492 16493 16494 16495 16496 16497 16498 16499 16500 16501 16502 16503 16504 16505 16506 16507 16508 16509 16510 16511 16512 16513 16514 16515 16516 16517 16518 16519 16520 16521 16522 16523 16524 16525 16526 16527 16528 16529 16530 16531 16532 16533 16534 16535 16536 16537 16538 16539 16540 16541 16542 16543 16544 16545 16546 16547 16548 16549 16550 16551 16552 16553 16554 16555 16556 16557 16558 16559 16560 16561 16562 16563 16564 16565 16566 16567 16568 16569 16570 16571 16572 16573 16574 16575 16576 16577 16578 16579 16580 16581 16582 16583 16584 16585 16586 16587 16588 16589 16590 16591 16592 16593 16594 16595 16596 16597 16598 16599 16600 16601 16602 16603 16604 16605 16606 16607 16608 16609 16610 16611 16612 16613 16614 16615 16616 16617 16618 16619 16620 16621 16622 16623 16624 16625 16626 16627 16628 16629 16630 16631 16632 16633 16634 16635 16636 16637 16638 16639 16640 16641 16642 16643 16644 16645 16646 16647 16648 16649 16650 16651 16652 16653 16654 16655 16656 16657 16658 16659 16660 16661 16662 16663 16664 16665 16666 16667 16668 16669 16670 16671 16672 16673 16674 16675 16676 16677 16678 16679 16680 16681 16682 16683 16684 16685 16686 16687 16688 16689 16690 16691 16692 16693 16694 16695 16696 16697 16698 16699 16700 16701 16702 16703 16704 16705 16706 16707 16708 16709 16710 16711 16712 16713 16714 16715 16716 16717 16718 16719 16720 16721 16722 16723 16724 16725 16726 16727 16728 16729 16730 16731 16732 16733 16734 16735 16736 16737 16738 16739 16740 16741 16742 16743 16744 16745 16746 16747 16748 16749 16750 16751 16752 16753 16754 16755 16756 16757 16758 16759 16760 16761 16762 16763 16764 16765 16766 16767 16768 16769 16770 16771 16772 16773 16774 16775 16776 16777 16778 16779 16780 16781 16782 16783 16784 16785 16786 16787 16788 16789 16790 16791 16792 16793 16794 16795 16796 16797 16798 16799 16800 16801 16802 16803 16804 16805 16806 16807 16808 16809 16810 16811 16812 16813 16814 16815 16816 16817 16818 16819 16820 16821 16822 16823 16824 16825 16826 16827 16828 16829 16830 16831 16832 16833 16834 16835 16836 16837 16838 16839 16840 16841 16842 16843 16844 16845 16846 16847 16848 16849 16850 16851 16852 16853 16854 16855 16856 16857 16858 16859 16860 16861 16862 16863 16864 16865 16866 16867 16868 16869 16870 16871 16872 16873 16874 16875 16876 16877 16878 16879 16880 16881 16882 16883 16884 16885 16886 16887 16888 16889 16890 16891 16892 16893 16894 16895 16896 16897 16898 16899 16900 16901 16902 16903 16904 16905 16906 16907 16908 16909 16910 16911 16912 16913 16914 16915 16916 16917 16918 16919 16920 16921 16922 16923 16924 16925 16926 16927 16928 16929 16930 16931 16932 16933 16934 16935 16936 16937 16938 16939 16940 16941 16942 16943 16944 16945 16946 16947 16948 16949 16950 16951 16952 16953 16954 16955 16956 16957 16958 16959 16960 16961 16962 16963 16964 16965 16966 16967 16968 16969 16970 16971 16972 16973 16974 16975 16976 16977 16978 16979 16980 16981 16982 16983 16984 16985 16986 16987 16988 16989 16990 16991 16992 16993 16994 16995 16996 16997 16998 16999 17000 17001 17002 17003 17004 17005 17006 17007 17008 17009 17010 17011 17012 17013 17014 17015 17016 17017 17018 17019 17020 17021 17022 17023 17024 17025 17026 17027 17028 17029 17030 17031 17032 17033 17034 17035 17036 17037 17038 17039 17040 17041 17042 17043 17044 17045 17046 17047 17048 17049 17050 17051 17052 17053 17054 17055 17056 17057 17058 17059 17060 17061 17062 17063 17064 17065 17066 17067 17068 17069 17070 17071 17072 17073 17074 17075 17076 17077 17078 17079 17080 17081 17082 17083 17084 17085 17086 17087 17088 17089 17090 17091 17092 17093 17094 17095 17096 17097 17098 17099 17100 17101 17102 17103 17104 17105 17106 17107 17108 17109 17110 17111 17112 17113 17114 17115 17116 17117 17118 17119 17120 17121 17122 17123 17124 17125 17126 17127 17128 17129 17130 17131 17132 17133 17134 17135 17136 17137 17138 17139 17140 17141 17142 17143 17144 17145 17146 17147 17148 17149 17150 17151 17152 17153 17154 17155 17156 17157 17158 17159 17160 17161 17162 17163 17164 17165 17166 17167 17168 17169 17170 17171 17172 17173 17174 17175 17176 17177 17178 17179 17180 17181 17182 17183 17184 17185 17186 17187 17188 17189 17190 17191 17192 17193 17194 17195 17196 17197 17198 17199 17200 17201 17202 17203 17204 17205 17206 17207 17208 17209 17210 17211 17212 17213 17214 17215 17216 17217 17218 17219 17220 17221 17222 17223 17224 17225 17226 17227 17228 17229 17230 17231 17232 17233 17234 17235 17236 17237 17238 17239 17240 17241 17242 17243 17244 17245 17246 17247 17248 17249 17250 17251 17252 17253 17254 17255 17256 17257 17258 17259 17260 17261 17262 17263 17264 17265 17266 17267 17268 17269 17270 17271 17272 17273 17274 17275 17276 17277 17278 17279 17280 17281 17282 17283 17284 17285 17286 17287 17288 17289 17290 17291 17292 17293 17294 17295 17296 17297 17298 17299 17300 17301 17302 17303 17304 17305 17306 17307 17308 17309 17310 17311 17312 17313 17314 17315 17316 17317 17318 17319 17320 17321 17322 17323 17324 17325 17326 17327 17328 17329 17330 17331 17332 17333 17334 17335 17336 17337 17338 17339 17340 17341 17342 17343 17344 17345 17346 17347 17348 17349 17350 17351 17352 17353 17354 17355 17356 17357 17358 17359 17360 17361 17362 17363 17364 17365 17366 17367 17368 17369 17370 17371 17372 17373 17374 17375 17376 17377 17378 17379 17380 17381 17382 17383 17384 17385 17386 17387 17388 17389 17390 17391 17392 17393 17394 17395 17396 17397 17398 17399 17400 17401 17402 17403 17404 17405 17406 17407 17408 17409 17410 17411 17412 17413 17414 17415 17416 17417 17418 17419 17420 17421 17422 17423 17424 17425 17426 17427 17428 17429 17430 17431 17432 17433 17434 17435 17436 17437 17438 17439 17440 17441 17442 17443 17444 17445 17446 17447 17448 17449 17450 17451 17452 17453 17454 17455 17456 17457 17458 17459 17460 17461 17462 17463 17464 17465 17466 17467 17468 17469 17470 17471 17472 17473 17474 17475 17476 17477 17478 17479 17480 17481 17482 17483 17484 17485 17486 17487 17488 17489 17490 17491 17492 17493 17494 17495 17496 17497 17498 17499 17500 17501 17502 17503 17504 17505 17506 17507 17508 17509 17510 17511 17512 17513 17514 17515 17516 17517 17518 17519 17520 17521 17522 17523 17524 17525 17526 17527 17528 17529 17530 17531 17532 17533 17534 17535 17536 17537 17538 17539 17540 17541 17542 17543 17544 17545 17546 17547 17548 17549 17550 17551 17552 17553 17554 17555 17556 17557 17558 17559 17560 17561 17562 17563 17564 17565 17566 17567 17568 17569 17570 17571 17572 17573 17574 17575 17576 17577 17578 17579 17580 17581 17582 17583 17584 17585 17586 17587 17588 17589 17590 17591 17592 17593 17594 17595 17596 17597 17598 17599 17600 17601 17602 17603 17604 17605 17606 17607 17608 17609 17610 17611 17612 17613 17614 17615 17616 17617 17618 17619 17620 17621 17622 17623 17624 17625 17626 17627 17628 17629 17630 17631 17632 17633 17634 17635 17636 17637 17638 17639 17640 17641 17642 17643 17644 17645 17646 17647 17648 17649 17650 17651 17652 17653 17654 17655 17656 17657 17658 17659 17660 17661 17662 17663 17664 17665 17666 17667 17668 17669 17670 17671 17672 17673 17674 17675 17676 17677 17678 17679 17680 17681 17682 17683 17684 17685 17686 17687 17688 17689 17690 17691 17692 17693 17694 17695 17696 17697 17698 17699 17700 17701 17702 17703 17704 17705 17706 17707 17708 17709 17710 17711 17712 17713 17714 17715 17716 17717 17718 17719 17720 17721 17722 17723 17724 17725 17726 17727 17728 17729 17730 17731 17732 17733 17734 17735 17736 17737 17738 17739 17740 17741 17742 17743 17744 17745 17746 17747 17748 17749 17750 17751 17752 17753 17754 17755 17756 17757 17758 17759 17760 17761 17762 17763 17764 17765 17766 17767 17768 17769 17770 17771 17772 17773 17774 17775 17776 17777 17778 17779 17780 17781 17782 17783 17784 17785 17786 17787 17788 17789 17790 17791 17792 17793 17794 17795 17796 17797 17798 17799 17800 17801 17802 17803 17804 17805 17806 17807 17808 17809 17810 17811 17812 17813 17814 17815 17816 17817 17818 17819 17820 17821 17822 17823 17824 17825 17826 17827 17828 17829 17830 17831 17832 17833 17834 17835 17836 17837 17838 17839 17840 17841 17842 17843 17844 17845 17846 17847 17848 17849 17850 17851 17852 17853 17854 17855 17856 17857 17858 17859 17860 17861 17862 17863 17864 17865 17866 17867 17868 17869 17870 17871 17872 17873 17874 17875 17876 17877 17878 17879 17880 17881 17882 17883 17884 17885 17886 17887 17888 17889 17890 17891 17892 17893 17894 17895 17896 17897 17898 17899 17900 17901 17902 17903 17904 17905 17906 17907 17908 17909 17910 17911 17912 17913 17914 17915 17916 17917 17918 17919 17920 17921 17922 17923 17924 17925 17926 17927 17928 17929 17930 17931 17932 17933 17934 17935 17936 17937 17938 17939 17940 17941 17942 17943 17944 17945 17946 17947 17948 17949 17950 17951 17952 17953 17954 17955 17956 17957 17958 17959 17960 17961 17962 17963 17964 17965 17966 17967 17968 17969 17970 17971 17972 17973 17974 17975 17976 17977 17978 17979 17980 17981 17982 17983 17984 17985 17986 17987 17988 17989 17990 17991 17992 17993 17994 17995 17996 17997 17998 17999 18000 18001 18002 18003 18004 18005 18006 18007 18008 18009 18010 18011 18012 18013 18014 18015 18016 18017 18018 18019 18020 18021 18022 18023 18024 18025 18026 18027 18028 18029 18030 18031 18032 18033 18034 18035 18036 18037 18038 18039 18040 18041 18042 18043 18044 18045 18046 18047 18048 18049 18050 18051 18052 18053 18054 18055 18056 18057 18058 18059 18060 18061 18062 18063 18064 18065 18066 18067 18068 18069 18070 18071 18072 18073 18074 18075 18076 18077 18078 18079 18080 18081 18082 18083 18084 18085 18086 18087 18088 18089 18090 18091 18092 18093 18094 18095 18096 18097 18098 18099 18100 18101 18102 18103 18104 18105 18106 18107 18108 18109 18110 18111 18112 18113 18114 18115 18116 18117 18118 18119 18120 18121 18122 18123 18124 18125 18126 18127 18128 18129 18130 18131 18132 18133 18134 18135 18136 18137 18138 18139 18140 18141 18142 18143 18144 18145 18146 18147 18148 18149 18150 18151 18152 18153 18154 18155 18156 18157 18158 18159 18160 18161 18162 18163 18164 18165 18166 18167 18168 18169 18170 18171 18172 18173 18174 18175 18176 18177 18178 18179 18180 18181 18182 18183 18184 18185 18186 18187 18188 18189 18190 18191 18192 18193 18194 18195 18196 18197 18198 18199 18200 18201 18202 18203 18204 18205 18206 18207 18208 18209 18210 18211 18212 18213 18214 18215 18216 18217 18218 18219 18220 18221 18222 18223 18224 18225 18226 18227 18228 18229 18230 18231 18232 18233 18234 18235 18236 18237 18238 18239 18240 18241 18242 18243 18244 18245 18246 18247 18248 18249 18250 18251 18252 18253 18254 18255 18256 18257 18258 18259 18260 18261 18262 18263 18264 18265 18266 18267 18268 18269 18270 18271 18272 18273 18274 18275 18276 18277 18278 18279 18280 18281 18282 18283 18284 18285 18286 18287 18288 18289 18290 18291 18292 18293 18294 18295 18296 18297 18298 18299 18300 18301 18302 18303 18304 18305 18306 18307 18308 18309 18310 18311 18312 18313 18314 18315 18316 18317 18318 18319 18320 18321 18322 18323 18324 18325 18326 18327 18328 18329 18330 18331 18332 18333 18334 18335 18336 18337 18338 18339 18340 18341 18342 18343 18344 18345 18346 18347 18348 18349 18350 18351 18352 18353 18354 18355 18356 18357 18358 18359 18360 18361 18362 18363 18364 18365 18366 18367 18368 18369 18370 18371 18372 18373 18374 18375 18376 18377 18378 18379 18380 18381 18382 18383 18384 18385 18386 18387 18388 18389 18390 18391 18392 18393 18394 18395 18396 18397 18398 18399 18400 18401 18402 18403 18404 18405 18406 18407 18408 18409 18410 18411 18412 18413 18414 18415 18416 18417 18418 18419 18420 18421 18422 18423 18424 18425 18426 18427 18428 18429 18430 18431 18432 18433 18434 18435 18436 18437 18438 18439 18440 18441 18442 18443 18444 18445 18446 18447 18448 18449 18450 18451 18452 18453 18454 18455 18456 18457 18458 18459 18460 18461 18462 18463 18464 18465 18466 18467 18468 18469 18470 18471 18472 18473 18474 18475 18476 18477 18478 18479 18480 18481 18482 18483 18484 18485 18486 18487 18488 18489 18490 18491 18492 18493 18494 18495 18496 18497 18498 18499 18500 18501 18502 18503 18504 18505 18506 18507 18508 18509 18510 18511 18512 18513 18514 18515 18516 18517 18518 18519 18520 18521 18522 18523 18524 18525 18526 18527 18528 18529 18530 18531 18532 18533 18534 18535 18536 18537 18538 18539 18540 18541 18542 18543 18544 18545 18546 18547 18548 18549 18550 18551 18552 18553 18554 18555 18556 18557 18558 18559 18560 18561 18562 18563 18564 18565 18566 18567 18568 18569 18570 18571 18572 18573 18574 18575 18576 18577 18578 18579 18580 18581 18582 18583 18584 18585 18586 18587 18588 18589 18590 18591 18592 18593 18594 18595 18596 18597 18598 18599 18600 18601 18602 18603 18604 18605 18606 18607 18608 18609 18610 18611 18612 18613 18614 18615 18616 18617 18618 18619 18620 18621 18622 18623 18624 18625 18626 18627 18628 18629 18630 18631 18632 18633 18634 18635 18636 18637 18638 18639 18640 18641 18642 18643 18644 18645 18646 18647 18648 18649 18650 18651 18652 18653 18654 18655 18656 18657 18658 18659 18660 18661 18662 18663 18664 18665 18666 18667 18668 18669 18670 18671 18672 18673 18674 18675 18676 18677 18678 18679 18680 18681 18682 18683 18684 18685 18686 18687 18688 18689 18690 18691 18692 18693 18694 18695 18696 18697 18698 18699 18700 18701 18702 18703 18704 18705 18706 18707 18708 18709 18710 18711 18712 18713 18714 18715 18716 18717 18718 18719 18720 18721 18722 18723 18724 18725 18726 18727 18728 18729 18730 18731 18732 18733 18734 18735 18736 18737 18738 18739 18740 18741 18742 18743 18744 18745 18746 18747 18748 18749 18750 18751 18752 18753 18754 18755 18756 18757 18758 18759 18760 18761 18762 18763 18764 18765 18766 18767 18768 18769 18770 18771 18772 18773 18774 18775 18776 18777 18778 18779 18780 18781 18782 18783 18784 18785 18786 18787 18788 18789 18790 18791 18792 18793 18794 18795 18796 18797 18798 18799 18800 18801 18802 18803 18804 18805 18806 18807 18808 18809 18810 18811 18812 18813 18814 18815 18816 18817 18818 18819 18820 18821 18822 18823 18824 18825 18826 18827 18828 18829 18830 18831 18832 18833 18834 18835 18836 18837 18838 18839 18840 18841 18842 18843 18844 18845 18846 18847 18848 18849 18850 18851 18852 18853 18854 18855 18856 18857 18858 18859 18860 18861 18862 18863 18864 18865 18866 18867 18868 18869 18870 18871 18872 18873 18874 18875 18876 18877 18878 18879 18880 18881 18882 18883 18884 18885 18886 18887 18888 18889 18890 18891 18892 18893 18894 18895 18896 18897 18898 18899 18900 18901 18902 18903 18904 18905 18906 18907 18908 18909 18910 18911 18912 18913 18914 18915 18916 18917 18918 18919 18920 18921 18922 18923 18924 18925 18926 18927 18928 18929 18930 18931 18932 18933 18934 18935 18936 18937 18938 18939 18940 18941 18942 18943 18944 18945 18946 18947 18948 18949 18950 18951 18952 18953 18954 18955 18956 18957 18958 18959 18960 18961 18962 18963 18964 18965 18966 18967 18968 18969 18970 18971 18972 18973 18974 18975 18976 18977 18978 18979 18980 18981 18982 18983 18984 18985 18986 18987 18988 18989 18990 18991 18992 18993 18994 18995 18996 18997 18998 18999 19000 19001 19002 19003 19004 19005 19006 19007 19008 19009 19010 19011 19012 19013 19014 19015 19016 19017 19018 19019 19020 19021 19022 19023 19024 19025 19026 19027 19028 19029 19030 19031 19032 19033 19034 19035 19036 19037 19038 19039 19040 19041 19042 19043 19044 19045 19046 19047 19048 19049 19050 19051 19052 19053 19054 19055 19056 19057 19058 19059 19060 19061 19062 19063 19064 19065 19066 19067 19068 19069 19070 19071 19072 19073 19074 19075 19076 19077 19078 19079 19080 19081 19082 19083 19084 19085 19086 19087 19088 19089 19090 19091 19092 19093 19094 19095 19096 19097 19098 19099 19100 19101 19102 19103 19104 19105 19106 19107 19108 19109 19110 19111 19112 19113 19114 19115 19116 19117 19118 19119 19120 19121 19122 19123 19124 19125 19126 19127 19128 19129 19130 19131 19132 19133 19134 19135 19136 19137 19138 19139 19140 19141 19142 19143 19144 19145 19146 19147 19148 19149 19150 19151 19152 19153 19154 19155 19156 19157 19158 19159 19160 19161 19162 19163 19164 19165 19166 19167 19168 19169 19170 19171 19172 19173 19174 19175 19176 19177 19178 19179 19180 19181 19182 19183 19184 19185 19186 19187 19188 19189 19190 19191 19192 19193 19194 19195 19196 19197 19198 19199 19200 19201 19202 19203 19204 19205 19206 19207 19208 19209 19210 19211 19212 19213 19214 19215 19216 19217 19218 19219 19220 19221 19222 19223 19224 19225 19226 19227 19228 19229 19230 19231 19232 19233 19234 19235 19236 19237 19238 19239 19240 19241 19242 19243 19244 19245 19246 19247 19248 19249 19250 19251 19252 19253 19254 19255 19256 19257 19258 19259 19260 19261 19262 19263 19264 19265 19266 19267 19268 19269 19270 19271 19272 19273 19274 19275 19276 19277 19278 19279 19280 19281 19282 19283 19284 19285 19286 19287 19288 19289 19290 19291 19292 19293 19294 19295 19296 19297 19298 19299 19300 19301 19302 19303 19304 19305 19306 19307 19308 19309 19310 19311 19312 19313 19314 19315 19316 19317 19318 19319 19320 19321 19322 19323 19324 19325 19326 19327 19328 19329 19330 19331 19332 19333 19334 19335 19336 19337 19338 19339 19340 19341 19342 19343 19344 19345 19346 19347 19348 19349 19350 19351 19352 19353 19354 19355 19356 19357 19358 19359 19360 19361 19362 19363 19364 19365 19366 19367 19368 19369 19370 19371 19372 19373 19374 19375 19376 19377 19378 19379 19380 19381 19382 19383 19384 19385 19386 19387 19388 19389 19390 19391 19392 19393 19394 19395 19396 19397 19398 19399 19400 19401 19402 19403 19404 19405 19406 19407 19408 19409 19410 19411 19412 19413 19414 19415 19416 19417 19418 19419 19420 19421 19422 19423 19424 19425 19426 19427 19428 19429 19430 19431 19432 19433 19434 19435 19436 19437 19438 19439 19440 19441 19442 19443 19444 19445 19446 19447 19448 19449 19450 19451 19452 19453 19454 19455 19456 19457 19458 19459 19460 19461 19462 19463 19464 19465 19466 19467 19468 19469 19470 19471 19472 19473 19474 19475 19476 19477 19478 19479 19480 19481 19482 19483 19484 19485 19486 19487 19488 19489 19490 19491 19492 19493 19494 19495 19496 19497 19498 19499 19500 19501 19502 19503 19504 19505 19506 19507 19508 19509 19510 19511 19512 19513 19514 19515 19516 19517 19518 19519 19520 19521 19522 19523 19524 19525 19526 19527 19528 19529 19530 19531 19532 19533 19534 19535 19536 19537 19538 19539 19540 19541 19542 19543 19544 19545 19546 19547 19548 19549 19550 19551 19552 19553 19554 19555 19556 19557 19558 19559 19560 19561 19562 19563 19564 19565 19566 19567 19568 19569 19570 19571 19572 19573 19574 19575 19576 19577 19578 19579 19580 19581 19582 19583 19584 19585 19586 19587 19588 19589 19590 19591 19592 19593 19594 19595 19596 19597 19598 19599 19600 19601 19602 19603 19604 19605 19606 19607 19608 19609 19610 19611 19612 19613 19614 19615 19616 19617 19618 19619 19620 19621 19622 19623 19624 19625 19626 19627 19628 19629 19630 19631 19632 19633 19634 19635 19636 19637 19638 19639 19640 19641 19642 19643 19644 19645 19646 19647 19648 19649 19650 19651 19652 19653 19654 19655 19656 19657 19658 19659 19660 19661 19662 19663 19664 19665 19666 19667 19668 19669 19670 19671 19672 19673 19674 19675 19676 19677 19678 19679 19680 19681 19682 19683 19684 19685 19686 19687 19688 19689 19690 19691 19692 19693 19694 19695 19696 19697 19698 19699 19700 19701 19702 19703 19704 19705 19706 19707 19708 19709 19710 19711 19712 19713 19714 19715 19716 19717 19718 19719 19720 19721 19722 19723 19724 19725 19726 19727 19728 19729 19730 19731 19732 19733 19734 19735 19736 19737 19738 19739 19740 19741 19742 19743 19744 19745 19746 19747 19748 19749 19750 19751 19752 19753 19754 19755 19756 19757 19758 19759 19760 19761 19762 19763 19764 19765 19766 19767 19768 19769 19770 19771 19772 19773 19774 19775 19776 19777 19778 19779 19780 19781 19782 19783 19784 19785 19786 19787 19788 19789 19790 19791 19792 19793 19794 19795 19796 19797 19798 19799 19800 19801 19802 19803 19804 19805 19806 19807 19808 19809 19810 19811 19812 19813 19814 19815 19816 19817 19818 19819 19820 19821 19822 19823 19824 19825 19826 19827 19828 19829 19830 19831 19832 19833 19834 19835 19836 19837 19838 19839 19840 19841 19842 19843 19844 19845 19846 19847 19848 19849 19850 19851 19852 19853 19854 19855 19856 19857 19858 19859 19860 19861 19862 19863 19864 19865 19866 19867 19868 19869 19870 19871 19872 19873 19874 19875 19876 19877 19878 19879 19880 19881 19882 19883 19884 19885 19886 19887 19888 19889 19890 19891 19892 19893 19894 19895 19896 19897 19898 19899 19900 19901 19902 19903 19904 19905 19906 19907 19908 19909 19910 19911 19912 19913 19914 19915 19916 19917 19918 19919 19920 19921 19922 19923 19924 19925 19926 19927 19928 19929 19930 19931 19932 19933 19934 19935 19936 19937 19938 19939 19940 19941 19942 19943 19944 19945 19946 19947 19948 19949 19950 19951 19952 19953 19954 19955 19956 19957 19958 19959 19960 19961 19962 19963 19964 19965 19966 19967 19968 19969 19970 19971 19972 19973 19974 19975 19976 19977 19978 19979 19980 19981 19982 19983 19984 19985 19986 19987 19988 19989 19990 19991 19992 19993 19994 19995 19996 19997 19998 19999 20000 20001 20002 20003 20004 20005 20006 20007 20008 20009 20010 20011 20012 20013 20014 20015 20016 20017 20018 20019 20020 20021 20022 20023 20024 20025 20026 20027 20028 20029 20030 20031 20032 20033 20034 20035 20036 20037 20038 20039 20040 20041 20042 20043 20044 20045 20046 20047 20048 20049 20050 20051 20052 20053 20054 20055 20056 20057 20058 20059 20060 20061 20062 20063 20064 20065 20066 20067 20068 20069 20070 20071 20072 20073 20074 20075 20076 20077 20078 20079 20080 20081 20082 20083 20084 20085 20086 20087 20088 20089 20090 20091 20092 20093 20094 20095 20096 20097 20098 20099 20100 20101 20102 20103 20104 20105 20106 20107 20108 20109 20110 20111 20112 20113 20114 20115 20116 20117 20118 20119 20120 20121 20122 20123 20124 20125 20126 20127 20128 20129 20130 20131 20132 20133 20134 20135 20136 20137 20138 20139 20140 20141 20142 20143 20144 20145 20146 20147 20148 20149 20150 20151 20152 20153 20154 20155 20156 20157 20158 20159 20160 20161 20162 20163 20164 20165 20166 20167 20168 20169 20170 20171 20172 20173 20174 20175 20176 20177 20178 20179 20180 20181 20182 20183 20184 20185 20186 20187 20188 20189 20190 20191 20192 20193 20194 20195 20196 20197 20198 20199 20200 20201 20202 20203 20204 20205 20206 20207 20208 20209 20210 20211 20212 20213 20214 20215 20216 20217 20218 20219 20220 20221 20222 20223 20224 20225 20226 20227 20228 20229 20230 20231 20232 20233 20234 20235 20236 20237 20238 20239 20240 20241 20242 20243 20244 20245 20246 20247 20248 20249 20250 20251 20252 20253 20254 20255 20256 20257 20258 20259 20260 20261 20262 20263 20264 20265 20266 20267 20268 20269 20270 20271 20272 20273 20274 20275 20276 20277 20278 20279 20280 20281 20282 20283 20284 20285 20286 20287 20288 20289 20290 20291 20292 20293 20294 20295 20296 20297 20298 20299 20300 20301 20302 20303 20304 20305 20306 20307 20308 20309 20310 20311 20312 20313 20314 20315 20316 20317 20318 20319 20320 20321 20322 20323 20324 20325 20326 20327 20328 20329 20330 20331 20332 20333 20334 20335 20336 20337 20338 20339 20340 20341 20342 20343 20344 20345 20346 20347 20348 20349 20350 20351 20352 20353 20354 20355 20356 20357 20358 20359 20360 20361 20362 20363 20364 20365 20366 20367 20368 20369 20370 20371 20372 20373 20374 20375 20376 20377 20378 20379 20380 20381 20382 20383 20384 20385 20386 20387 20388 20389 20390 20391 20392 20393 20394 20395 20396 20397 20398 20399 20400 20401 20402 20403 20404 20405 20406 20407 20408 20409 20410 20411 20412 20413 20414 20415 20416 20417 20418 20419 20420 20421 20422 20423 20424 20425 20426 20427 20428 20429 20430 20431 20432 20433 20434 20435 20436 20437 20438 20439 20440 20441 20442 20443 20444 20445 20446 20447 20448 20449 20450 20451 20452 20453 20454 20455 20456 20457 20458 20459 20460 20461 20462 20463 20464 20465 20466 20467 20468 20469 20470 20471 20472 20473 20474 20475 20476 20477 20478 20479 20480 20481 20482 20483 20484 20485 20486 20487 20488 20489 20490 20491 20492 20493 20494 20495 20496 20497 20498 20499 20500 20501 20502 20503 20504 20505 20506 20507 20508 20509 20510 20511 20512 20513 20514 20515 20516 20517 20518 20519 20520 20521 20522 20523 20524 20525 20526 20527 20528 20529 20530 20531 20532 20533 20534 20535 20536 20537 20538 20539 20540 20541 20542 20543 20544 20545 20546 20547 20548 20549 20550 20551 20552 20553 20554 20555 20556 20557 20558 20559 20560 20561 20562 20563 20564 20565 20566 20567 20568 20569 20570 20571 20572 20573 20574 20575 20576 20577 20578 20579 20580 20581 20582 20583 20584 20585 20586 20587 20588 20589 20590 20591 20592 20593 20594 20595 20596 20597 20598 20599 20600 20601 20602 20603 20604 20605 20606 20607 20608 20609 20610 20611 20612 20613 20614 20615 20616 20617 20618 20619 20620 20621 20622 20623 20624 20625 20626 20627 20628 20629 20630 20631 20632 20633 20634 20635 20636 20637 20638 20639 20640 20641 20642 20643 20644 20645 20646 20647 20648 20649 20650 20651 20652 20653 20654 20655 20656 20657 20658 20659 20660 20661 20662 20663 20664 20665 20666 20667 20668 20669 20670 20671 20672 20673 20674 20675 20676 20677 20678 20679 20680 20681 20682 20683 20684 20685 20686 20687 20688 20689 20690 20691 20692 20693 20694 20695 20696 20697 20698 20699 20700 20701 20702 20703 20704 20705 20706 20707 20708 20709 20710 20711 20712 20713 20714 20715 20716 20717 20718 20719 20720 20721 20722 20723 20724 20725 20726 20727 20728 20729 20730 20731 20732 20733 20734 20735 20736 20737 20738 20739 20740 20741 20742 20743 20744 20745 20746 20747 20748 20749 20750 20751 20752 20753 20754 20755 20756 20757 20758 20759 20760 20761 20762 20763 20764 20765 20766 20767 20768 20769 20770 20771 20772 20773 20774 20775 20776 20777 20778 20779 20780 20781 20782 20783 20784 20785 20786 20787 20788 20789 20790 20791 20792 20793 20794 20795 20796 20797 20798 20799 20800 20801 20802 20803 20804 20805 20806 20807 20808 20809 20810 20811 20812 20813 20814 20815 20816 20817 20818 20819 20820 20821 20822 20823 20824 20825 20826 20827 20828 20829 20830 20831 20832 20833 20834 20835 20836 20837 20838 20839 20840 20841 20842 20843 20844 20845 20846 20847 20848 20849 20850 20851 20852 20853 20854 20855 20856 20857 20858 20859 20860 20861 20862 20863 20864 20865 20866 20867 20868 20869 20870 20871 20872 20873 20874 20875 20876 20877 20878 20879 20880 20881 20882 20883 20884 20885 20886 20887 20888 20889 20890 20891 20892 20893 20894 20895 20896 20897 20898 20899 20900 20901 20902 20903 20904 20905 20906 20907 20908 20909 20910 20911 20912 20913 20914 20915 20916 20917 20918 20919 20920 20921 20922 20923 20924 20925 20926 20927 20928 20929 20930 20931 20932 20933 20934 20935 20936 20937 20938 20939 20940 20941 20942 20943 20944 20945 20946 20947 20948 20949 20950 20951 20952 20953 20954 20955 20956 20957 20958 20959 20960 20961 20962 20963 20964 20965 20966 20967 20968 20969 20970 20971 20972 20973 20974 20975 20976 20977 20978 20979 20980 20981 20982 20983 20984 20985 20986 20987 20988 20989 20990 20991 20992 20993 20994 20995 20996 20997 20998 20999 21000 21001 21002 21003 21004 21005 21006 21007 21008 21009 21010 21011 21012 21013 21014 21015 21016 21017 21018 21019 21020 21021 21022 21023 21024 21025 21026 21027 21028 21029 21030 21031 21032 21033 21034 21035 21036 21037 21038 21039 21040 21041 21042 21043 21044 21045 21046 21047 21048 21049 21050 21051 21052 21053 21054 21055 21056 21057 21058 21059 21060 21061 21062 21063 21064 21065 21066 21067 21068 21069 21070 21071 21072 21073 21074 21075 21076 21077 21078 21079 21080 21081 21082 21083 21084 21085 21086 21087 21088 21089 21090 21091 21092 21093 21094 21095 21096 21097 21098 21099 21100 21101 21102 21103 21104 21105 21106 21107 21108 21109 21110 21111 21112 21113 21114 21115 21116 21117 21118 21119 21120 21121 21122 21123 21124 21125 21126 21127 21128 21129 21130 21131 21132 21133 21134 21135 21136 21137 21138 21139 21140 21141 21142 21143 21144 21145 21146 21147 21148 21149 21150 21151 21152 21153 21154 21155 21156 21157 21158 21159 21160 21161 21162 21163 21164 21165 21166 21167 21168 21169 21170 21171 21172 21173 21174 21175 21176 21177 21178 21179 21180 21181 21182 21183 21184 21185 21186 21187 21188 21189 21190 21191 21192 21193 21194 21195 21196 21197 21198 21199 21200 21201 21202 21203 21204 21205 21206 21207 21208 21209 21210 21211 21212 21213 21214 21215 21216 21217 21218 21219 21220 21221 21222 21223 21224 21225 21226 21227 21228 21229 21230 21231 21232 21233 21234 21235 21236 21237 21238 21239 21240 21241 21242 21243 21244 21245 21246 21247 21248 21249 21250 21251 21252 21253 21254 21255 21256 21257 21258 21259 21260 21261 21262 21263 21264 21265 21266 21267 21268 21269 21270 21271 21272 21273 21274 21275 21276 21277 21278 21279 21280 21281 21282 21283 21284 21285 21286 21287 21288 21289 21290 21291 21292 21293 21294 21295 21296 21297 21298 21299 21300 21301 21302 21303 21304 21305 21306 21307 21308 21309 21310 21311 21312 21313 21314 21315 21316 21317 21318 21319 21320 21321 21322 21323 21324 21325 21326 21327 21328 21329 21330 21331 21332 21333 21334 21335 21336 21337 21338 21339 21340 21341 21342 21343 21344 21345 21346 21347 21348 21349 21350 21351 21352 21353 21354 21355 21356 21357 21358 21359 21360 21361 21362 21363 21364 21365 21366 21367 21368 21369 21370 21371 21372 21373 21374 21375 21376 21377 21378 21379 21380 21381 21382 21383 21384 21385 21386 21387 21388 21389 21390 21391 21392 21393 21394 21395 21396 21397 21398 21399 21400 21401 21402 21403 21404 21405 21406 21407 21408 21409 21410 21411 21412 21413 21414 21415 21416 21417 21418 21419 21420 21421 21422 21423 21424 21425 21426 21427 21428 21429 21430 21431 21432 21433 21434 21435 21436 21437 21438 21439 21440 21441 21442 21443 21444 21445 21446 21447 21448 21449 21450 21451 21452 21453 21454 21455 21456 21457 21458 21459 21460 21461 21462 21463 21464 21465 21466 21467 21468 21469 21470 21471 21472 21473 21474 21475 21476 21477 21478 21479 21480 21481 21482 21483 21484 21485 21486 21487 21488 21489 21490 21491 21492 21493 21494 21495 21496 21497 21498 21499 21500 21501 21502 21503 21504 21505 21506 21507 21508 21509 21510 21511 21512 21513 21514 21515 21516 21517 21518 21519 21520 21521 21522 21523 21524 21525 21526 21527 21528 21529 21530 21531 21532 21533 21534 21535 21536 21537 21538 21539 21540 21541 21542 21543 21544 21545 21546 21547 21548 21549 21550 21551 21552 21553 21554 21555 21556 21557 21558 21559 21560 21561 21562 21563 21564 21565 21566 21567 21568 21569 21570 21571 21572 21573 21574 21575 21576 21577 21578 21579 21580 21581 21582 21583 21584 21585 21586 21587 21588 21589 21590 21591 21592 21593 21594 21595 21596 21597 21598 21599 21600 21601 21602 21603 21604 21605 21606 21607 21608 21609 21610 21611 21612 21613 21614 21615 21616 21617 21618 21619 21620 21621 21622 21623 21624 21625 21626 21627 21628 21629 21630 21631 21632 21633 21634 21635 21636 21637 21638 21639 21640 21641 21642 21643 21644 21645 21646 21647 21648 21649 21650 21651 21652 21653 21654 21655 21656 21657 21658 21659 21660 21661 21662 21663 21664 21665 21666 21667 21668 21669 21670 21671 21672 21673 21674 21675 21676 21677 21678 21679 21680 21681 21682 21683 21684 21685 21686 21687 21688 21689 21690 21691 21692 21693 21694 21695 21696 21697 21698 21699 21700 21701 21702 21703 21704 21705 21706 21707 21708 21709 21710 21711 21712 21713 21714 21715 21716 21717 21718 21719 21720 21721 21722 21723 21724 21725 21726 21727 21728 21729 21730 21731 21732 21733 21734 21735 21736 21737 21738 21739 21740 21741 21742 21743 21744 21745 21746 21747 21748 21749 21750 21751 21752 21753 21754 21755 21756 21757 21758 21759 21760 21761 21762 21763 21764 21765 21766 21767 21768 21769 21770 21771 21772 21773 21774 21775 21776 21777 21778 21779 21780 21781 21782 21783 21784 21785 21786 21787 21788 21789 21790 21791 21792 21793 21794 21795 21796 21797 21798 21799 21800 21801 21802 21803 21804 21805 21806 21807 21808 21809 21810 21811 21812 21813 21814 21815 21816 21817 21818 21819 21820 21821 21822 21823 21824 21825 21826 21827 21828 21829 21830 21831 21832 21833 21834 21835 21836 21837 21838 21839 21840 21841 21842 21843 21844 21845 21846 21847 21848 21849 21850 21851 21852 21853 21854 21855 21856 21857 21858 21859 21860 21861 21862 21863 21864 21865 21866 21867 21868 21869 21870 21871 21872 21873 21874 21875 21876 21877 21878 21879 21880 21881 21882 21883 21884 21885 21886 21887 21888 21889 21890 21891 21892 21893 21894 21895 21896 21897 21898 21899 21900 21901 21902 21903 21904 21905 21906 21907 21908 21909 21910 21911 21912 21913 21914 21915 21916 21917 21918 21919 21920 21921 21922 21923 21924 21925 21926 21927 21928 21929 21930 21931 21932 21933 21934 21935 21936 21937 21938 21939 21940 21941 21942 21943 21944 21945 21946 21947 21948 21949 21950 21951 21952 21953 21954 21955 21956 21957 21958 21959 21960 21961 21962 21963 21964 21965 21966 21967 21968 21969 21970 21971 21972 21973 21974 21975 21976 21977 21978 21979 21980 21981 21982 21983 21984 21985 21986 21987 21988 21989 21990 21991 21992 21993 21994 21995 21996 21997 21998 21999 22000 22001 22002 22003 22004 22005 22006 22007 22008 22009 22010 22011 22012 22013 22014 22015 22016 22017 22018 22019 22020 22021 22022 22023 22024 22025 22026 22027 22028 22029 22030 22031 22032 22033 22034 22035 22036 22037 22038 22039 22040 22041 22042 22043 22044 22045 22046 22047 22048 22049 22050 22051 22052 22053 22054 22055 22056 22057 22058 22059 22060 22061 22062 22063 22064 22065 22066 22067 22068 22069 22070 22071 22072 22073 22074 22075 22076 22077 22078 22079 22080 22081 22082 22083 22084 22085 22086 22087 22088 22089 22090 22091 22092 22093 22094 22095 22096 22097 22098 22099 22100 22101 22102 22103 22104 22105 22106 22107 22108 22109 22110 22111 22112 22113 22114 22115 22116 22117 22118 22119 22120 22121 22122 22123 22124 22125 22126 22127 22128 22129 22130 22131 22132 22133 22134 22135 22136 22137 22138 22139 22140 22141 22142 22143 22144 22145 22146 22147 22148 22149 22150 22151 22152 22153 22154 22155 22156 22157 22158 22159 22160 22161 22162 22163 22164 22165 22166 22167 22168 22169 22170 22171 22172 22173 22174 22175 22176 22177 22178 22179 22180 22181 22182 22183 22184 22185 22186 22187 22188 22189 22190 22191 22192 22193 22194 22195 22196 22197 22198 22199 22200 22201 22202 22203 22204 22205 22206 22207 22208 22209 22210 22211 22212 22213 22214 22215 22216 22217 22218 22219 22220 22221 22222 22223 22224 22225 22226 22227 22228 22229 22230 22231 22232 22233 22234 22235 22236 22237 22238 22239 22240 22241 22242 22243 22244 22245 22246 22247 22248 22249 22250 22251 22252 22253 22254 22255 22256 22257 22258 22259 22260 22261 22262 22263 22264 22265 22266 22267 22268 22269 22270 22271 22272 22273 22274 22275 22276 22277 22278 22279 22280 22281 22282 22283 22284 22285 22286 22287 22288 22289 22290 22291 22292 22293 22294 22295 22296 22297 22298 22299 22300 22301 22302 22303 22304 22305 22306 22307 22308 22309 22310 22311 22312 22313 22314 22315 22316 22317 22318 22319 22320 22321 22322 22323 22324 22325 22326 22327 22328 22329 22330 22331 22332 22333 22334 22335 22336 22337 22338 22339 22340 22341 22342 22343 22344 22345 22346 22347 22348 22349 22350 22351 22352 22353 22354 22355 22356 22357 22358 22359 22360 22361 22362 22363 22364 22365 22366 22367 22368 22369 22370 22371 22372 22373 22374 22375 22376 22377 22378 22379 22380 22381 22382 22383 22384 22385 22386 22387 22388 22389 22390 22391 22392 22393 22394 22395 22396 22397 22398 22399 22400 22401 22402 22403 22404 22405 22406 22407 22408 22409 22410 22411 22412 22413 22414 22415 22416 22417 22418 22419 22420 22421 22422 22423 22424 22425 22426 22427 22428 22429 22430 22431 22432 22433 22434 22435 22436 22437 22438 22439 22440 22441 22442 22443 22444 22445 22446 22447 22448 22449 22450 22451 22452 22453 22454 22455 22456 22457 22458 22459 22460 22461 22462 22463 22464 22465 22466 22467 22468 22469 22470 22471 22472 22473 22474 22475 22476 22477 22478 22479 22480 22481 22482 22483 22484 22485 22486 22487 22488 22489 22490 22491 22492 22493 22494 22495 22496 22497 22498 22499 22500 22501 22502 22503 22504 22505 22506 22507 22508 22509 22510 22511 22512 22513 22514 22515 22516 22517 22518 22519 22520 22521 22522 22523 22524 22525 22526 22527 22528 22529 22530 22531 22532 22533 22534 22535 22536 22537 22538 22539 22540 22541 22542 22543 22544 22545 22546 22547 22548 22549 22550 22551 22552 22553 22554 22555 22556 22557 22558 22559 22560 22561 22562 22563 22564 22565 22566 22567 22568 22569 22570 22571 22572 22573 22574 22575 22576 22577 22578 22579 22580 22581 22582 22583 22584 22585 22586 22587 22588 22589 22590 22591 22592 22593 22594 22595 22596 22597 22598 22599 22600 22601 22602 22603 22604 22605 22606 22607 22608 22609 22610 22611 22612 22613 22614 22615 22616 22617 22618 22619 22620 22621 22622 22623 22624 22625 22626 22627 22628 22629 22630 22631 22632 22633 22634 22635 22636 22637 22638 22639 22640 22641 22642 22643 22644 22645 22646 22647 22648 22649 22650 22651 22652 22653 22654 22655 22656 22657 22658 22659 22660 22661 22662 22663 22664 22665 22666 22667 22668 22669 22670 22671 22672 22673 22674 22675 22676 22677 22678 22679 22680 22681 22682 22683 22684 22685 22686 22687 22688 22689 22690 22691 22692 22693 22694 22695 22696 22697 22698 22699 22700 22701 22702 22703 22704 22705 22706 22707 22708 22709 22710 22711 22712 22713 22714 22715 22716 22717 22718 22719 22720 22721 22722 22723 22724 22725 22726 22727 22728 22729 22730 22731 22732 22733 22734 22735 22736 22737 22738 22739 22740 22741 22742 22743 22744 22745 22746 22747 22748 22749 22750 22751 22752 22753 22754 22755 22756 22757 22758 22759 22760 22761 22762 22763 22764 22765 22766 22767 22768 22769 22770 22771 22772 22773 22774 22775 22776 22777 22778 22779 22780 22781 22782 22783 22784 22785 22786 22787 22788 22789 22790 22791 22792 22793 22794 22795 22796 22797 22798 22799 22800 22801 22802 22803 22804 22805 22806 22807 22808 22809 22810 22811 22812 22813 22814 22815 22816 22817 22818 22819 22820 22821 22822 22823 22824 22825 22826 22827 22828 22829 22830 22831 22832 22833 22834 22835 22836 22837 22838 22839 22840 22841 22842 22843 22844 22845 22846 22847 22848 22849 22850 22851 22852 22853 22854 22855 22856 22857 22858 22859 22860 22861 22862 22863 22864 22865 22866 22867 22868 22869 22870 22871 22872 22873 22874 22875 22876 22877 22878 22879 22880 22881 22882 22883 22884 22885 22886 22887 22888 22889 22890 22891 22892 22893 22894 22895 22896 22897 22898 22899 22900 22901 22902 22903 22904 22905 22906 22907 22908 22909 22910 22911 22912 22913 22914 22915 22916 22917 22918 22919 22920 22921 22922 22923 22924 22925 22926 22927 22928 22929 22930 22931 22932 22933 22934 22935 22936 22937 22938 22939 22940 22941 22942 22943 22944 22945 22946 22947 22948 22949 22950 22951 22952 22953 22954 22955 22956 22957 22958 22959 22960 22961 22962 22963 22964 22965 22966 22967 22968 22969 22970 22971 22972 22973 22974 22975 22976 22977 22978 22979 22980 22981 22982 22983 22984 22985 22986 22987 22988 22989 22990 22991 22992 22993 22994 22995 22996 22997 22998 22999 23000 23001 23002 23003 23004 23005 23006 23007 23008 23009 23010 23011 23012 23013 23014 23015 23016 23017 23018 23019 23020 23021 23022 23023 23024 23025 23026 23027 23028 23029 23030 23031 23032 23033 23034 23035 23036 23037 23038 23039 23040 23041 23042 23043 23044 23045 23046 23047 23048 23049 23050 23051 23052 23053 23054 23055 23056 23057 23058 23059 23060 23061 23062 23063 23064 23065 23066 23067 23068 23069 23070 23071 23072 23073 23074 23075 23076 23077 23078 23079 23080 23081 23082 23083 23084 23085 23086 23087 23088 23089 23090 23091 23092 23093 23094 23095 23096 23097 23098 23099 23100 23101 23102 23103 23104 23105 23106 23107 23108 23109 23110 23111 23112 23113 23114 23115 23116 23117 23118 23119 23120 23121 23122 23123 23124 23125 23126 23127 23128 23129 23130 23131 23132 23133 23134 23135 23136 23137 23138 23139 23140 23141 23142 23143 23144 23145 23146 23147 23148 23149 23150 23151 23152 23153 23154 23155 23156 23157 23158 23159 23160 23161 23162 23163 23164 23165 23166 23167 23168 23169 23170 23171 23172 23173 23174 23175 23176 23177 23178 23179 23180 23181 23182 23183 23184 23185 23186 23187 23188 23189 23190 23191 23192 23193 23194 23195 23196 23197 23198 23199 23200 23201 23202 23203 23204 23205 23206 23207 23208 23209 23210 23211 23212 23213 23214 23215 23216 23217 23218 23219 23220 23221 23222 23223 23224 23225 23226 23227 23228 23229 23230 23231 23232 23233 23234 23235 23236 23237 23238 23239 23240 23241 23242 23243 23244 23245 23246 23247 23248 23249 23250 23251 23252 23253 23254 23255 23256 23257 23258 23259 23260 23261 23262 23263 23264 23265 23266 23267 23268 23269 23270 23271 23272 23273 23274 23275 23276 23277 23278 23279 23280 23281 23282 23283 23284 23285 23286 23287 23288 23289 23290 23291 23292 23293 23294 23295 23296 23297 23298 23299 23300 23301 23302 23303 23304 23305 23306 23307 23308 23309 23310 23311 23312 23313 23314 23315 23316 23317 23318 23319 23320 23321 23322 23323 23324 23325 23326 23327 23328 23329 23330 23331 23332 23333 23334 23335 23336 23337 23338 23339 23340 23341 23342 23343 23344 23345 23346 23347 23348 23349 23350 23351 23352 23353 23354 23355 23356 23357 23358 23359 23360 23361 23362 23363 23364 23365 23366 23367 23368 23369 23370 23371 23372 23373 23374 23375 23376 23377 23378 23379 23380 23381 23382 23383 23384 23385 23386 23387 23388 23389 23390 23391 23392 23393 23394 23395 23396 23397 23398 23399 23400 23401 23402 23403 23404 23405 23406 23407 23408 23409 23410 23411 23412 23413 23414 23415 23416 23417 23418 23419 23420 23421 23422 23423 23424 23425 23426 23427 23428 23429 23430 23431 23432 23433 23434 23435 23436 23437 23438 23439 23440 23441 23442 23443 23444 23445 23446 23447 23448 23449 23450 23451 23452 23453 23454 23455 23456 23457 23458 23459 23460 23461 23462 23463 23464 23465 23466 23467 23468 23469 23470 23471 23472 23473 23474 23475 23476 23477 23478 23479 23480 23481 23482 23483 23484 23485 23486 23487 23488 23489 23490 23491 23492 23493 23494 23495 23496 23497 23498 23499 23500 23501 23502 23503 23504 23505 23506 23507 23508 23509 23510 23511 23512 23513 23514 23515 23516 23517 23518 23519 23520 23521 23522 23523 23524 23525 23526 23527 23528 23529 23530 23531 23532 23533 23534 23535 23536 23537 23538 23539 23540 23541 23542 23543 23544 23545 23546 23547 23548 23549 23550 23551 23552 23553 23554 23555 23556 23557 23558 23559 23560 23561 23562 23563 23564 23565 23566 23567 23568 23569 23570 23571 23572 23573 23574 23575 23576 23577 23578 23579 23580 23581 23582 23583 23584 23585 23586 23587 23588 23589 23590 23591 23592 23593 23594 23595 23596 23597 23598 23599 23600 23601 23602 23603 23604 23605 23606 23607 23608 23609 23610 23611 23612 23613 23614 23615 23616 23617 23618 23619 23620 23621 23622 23623 23624 23625 23626 23627 23628 23629 23630 23631 23632 23633 23634 23635 23636 23637 23638 23639 23640 23641 23642 23643 23644 23645 23646 23647 23648 23649 23650 23651 23652 23653 23654 23655 23656 23657 23658 23659 23660 23661 23662 23663 23664 23665 23666 23667 23668 23669 23670 23671 23672 23673 23674 23675 23676 23677 23678 23679 23680 23681 23682 23683 23684 23685 23686 23687 23688 23689 23690 23691 23692 23693 23694 23695 23696 23697 23698 23699 23700 23701 23702 23703 23704 23705 23706 23707 23708 23709 23710 23711 23712 23713 23714 23715 23716 23717 23718 23719 23720 23721 23722 23723 23724 23725 23726 23727 23728 23729 23730 23731 23732 23733 23734 23735 23736 23737 23738 23739 23740 23741 23742 23743 23744 23745 23746 23747 23748 23749 23750 23751 23752 23753 23754 23755 23756 23757 23758 23759 23760 23761 23762 23763 23764 23765 23766 23767 23768 23769 23770 23771 23772 23773 23774 23775 23776 23777 23778 23779 23780 23781 23782 23783 23784 23785 23786 23787 23788 23789 23790 23791 23792 23793 23794 23795 23796 23797 23798 23799 23800 23801 23802 23803 23804 23805 23806 23807 23808 23809 23810 23811 23812 23813 23814 23815 23816 23817 23818 23819 23820 23821 23822 23823 23824 23825 23826 23827 23828 23829 23830 23831 23832 23833 23834 23835 23836 23837 23838 23839 23840 23841 23842 23843 23844 23845 23846 23847 23848 23849 23850 23851 23852 23853 23854 23855 23856 23857 23858 23859 23860 23861 23862 23863 23864 23865 23866 23867 23868 23869 23870 23871 23872 23873 23874 23875 23876 23877 23878 23879 23880 23881 23882 23883 23884 23885 23886 23887 23888 23889 23890 23891 23892 23893 23894 23895 23896 23897 23898 23899 23900 23901 23902 23903 23904 23905 23906 23907 23908 23909 23910 23911 23912 23913 23914 23915 23916 23917 23918 23919 23920 23921 23922 23923 23924 23925 23926 23927 23928 23929 23930 23931 23932 23933 23934 23935 23936 23937 23938 23939 23940 23941 23942 23943 23944 23945 23946 23947 23948 23949 23950 23951 23952 23953 23954 23955 23956 23957 23958 23959 23960 23961 23962 23963 23964 23965 23966 23967 23968 23969 23970 23971 23972 23973 23974 23975 23976 23977 23978 23979 23980 23981 23982 23983 23984 23985 23986 23987 23988 23989 23990 23991 23992 23993 23994 23995 23996 23997 23998 23999 24000 24001 24002 24003 24004 24005 24006 24007 24008 24009 24010 24011 24012 24013 24014 24015 24016 24017 24018 24019 24020 24021 24022 24023 24024 24025 24026 24027 24028 24029 24030 24031 24032 24033 24034 24035 24036 24037 24038 24039 24040 24041 24042 24043 24044 24045 24046 24047 24048 24049 24050 24051 24052 24053 24054 24055 24056 24057 24058 24059 24060 24061 24062 24063 24064 24065 24066 24067 24068 24069 24070 24071 24072 24073 24074 24075 24076 24077 24078 24079 24080 24081 24082 24083 24084 24085 24086 24087 24088 24089 24090 24091 24092 24093 24094 24095 24096 24097 24098 24099 24100 24101 24102 24103 24104 24105 24106 24107 24108 24109 24110 24111 24112 24113 24114 24115 24116 24117 24118 24119 24120 24121 24122 24123 24124 24125 24126 24127 24128 24129 24130 24131 24132 24133 24134 24135 24136 24137 24138 24139 24140 24141 24142 24143 24144 24145 24146 24147 24148 24149 24150 24151 24152 24153 24154 24155 24156 24157 24158 24159 24160 24161 24162 24163 24164 24165 24166 24167 24168 24169 24170 24171 24172 24173 24174 24175 24176 24177 24178 24179 24180 24181 24182 24183 24184 24185 24186 24187 24188 24189 24190 24191 24192 24193 24194 24195 24196 24197 24198 24199 24200 24201 24202 24203 24204 24205 24206 24207 24208 24209 24210 24211 24212 24213 24214 24215 24216 24217 24218 24219 24220 24221 24222 24223 24224 24225 24226 24227 24228 24229 24230 24231 24232 24233 24234 24235 24236 24237 24238 24239 24240 24241 24242 24243 24244 24245 24246 24247 24248 24249 24250 24251 24252 24253 24254 24255 24256 24257 24258 24259 24260 24261 24262 24263 24264 24265 24266 24267 24268 24269 24270 24271 24272 24273 24274 24275 24276 24277 24278 24279 24280 24281 24282 24283 24284 24285 24286 24287 24288 24289 24290 24291 24292 24293 24294 24295 24296 24297 24298 24299 24300 24301 24302 24303 24304 24305 24306 24307 24308 24309 24310 24311 24312 24313 24314 24315 24316 24317 24318 24319 24320 24321 24322 24323 24324 24325 24326 24327 24328 24329 24330 24331 24332 24333 24334 24335 24336 24337 24338 24339 24340 24341 24342 24343 24344 24345 24346 24347 24348 24349 24350 24351 24352 24353 24354 24355 24356 24357 24358 24359 24360 24361 24362 24363 24364 24365 24366 24367 24368 24369 24370 24371 24372 24373 24374 24375 24376 24377 24378 24379 24380 24381 24382 24383 24384 24385 24386 24387 24388 24389 24390 24391 24392 24393 24394 24395 24396 24397 24398 24399 24400 24401 24402 24403 24404 24405 24406 24407 24408 24409 24410 24411 24412 24413 24414 24415 24416 24417 24418 24419 24420 24421 24422 24423 24424 24425 24426 24427 24428 24429 24430 24431 24432 24433 24434 24435 24436 24437 24438 24439 24440 24441 24442 24443 24444 24445 24446 24447 24448 24449 24450 24451 24452 24453 24454 24455 24456 24457 24458 24459 24460 24461 24462 24463 24464 24465 24466 24467 24468 24469 24470 24471 24472 24473 24474 24475 24476 24477 24478 24479 24480 24481 24482 24483 24484 24485 24486 24487 24488 24489 24490 24491 24492 24493 24494 24495 24496 24497 24498 24499 24500 24501 24502 24503 24504 24505 24506 24507 24508 24509 24510 24511 24512 24513 24514 24515 24516 24517 24518 24519 24520 24521 24522 24523 24524 24525 24526 24527 24528 24529 24530 24531 24532 24533 24534 24535 24536 24537 24538 24539 24540 24541 24542 24543 24544 24545 24546 24547 24548 24549 24550 24551 24552 24553 24554 24555 24556 24557 24558 24559 24560 24561 24562 24563 24564 24565 24566 24567 24568 24569 24570 24571 24572 24573 24574 24575 24576 24577 24578 24579 24580 24581 24582 24583 24584 24585 24586 24587 24588 24589 24590 24591 24592 24593 24594 24595 24596 24597 24598 24599 24600 24601 24602 24603 24604 24605 24606 24607 24608 24609 24610 24611 24612 24613 24614 24615 24616 24617 24618 24619 24620 24621 24622 24623 24624 24625 24626 24627 24628 24629 24630 24631 24632 24633 24634 24635 24636 24637 24638 24639 24640 24641 24642 24643 24644 24645 24646 24647 24648 24649 24650 24651 24652 24653 24654 24655 24656 24657 24658 24659 24660 24661 24662 24663 24664 24665 24666 24667 24668 24669 24670 24671 24672 24673 24674 24675 24676 24677 24678 24679 24680 24681 24682 24683 24684 24685 24686 24687 24688 24689 24690 24691 24692 24693 24694 24695 24696 24697 24698 24699 24700 24701 24702 24703 24704 24705 24706 24707 24708 24709 24710 24711 24712 24713 24714 24715 24716 24717 24718 24719 24720 24721 24722 24723 24724 24725 24726 24727 24728 24729 24730 24731 24732 24733 24734 24735 24736 24737 24738 24739 24740 24741 24742 24743 24744 24745 24746 24747 24748 24749 24750 24751 24752 24753 24754 24755 24756 24757 24758 24759 24760 24761 24762 24763 24764 24765 24766 24767 24768 24769 24770 24771 24772 24773 24774 24775 24776 24777 24778 24779 24780 24781 24782 24783 24784 24785 24786 24787 24788 24789 24790 24791 24792 24793 24794 24795 24796 24797 24798 24799 24800 24801 24802 24803 24804 24805 24806 24807 24808 24809 24810 24811 24812 24813 24814 24815 24816 24817 24818 24819 24820 24821 24822 24823 24824 24825 24826 24827 24828 24829 24830 24831 24832 24833 24834 24835 24836 24837 24838 24839 24840 24841 24842 24843 24844 24845 24846 24847 24848 24849 24850 24851 24852 24853 24854 24855 24856 24857 24858 24859 24860 24861 24862 24863 24864 24865 24866 24867 24868 24869 24870 24871 24872 24873 24874 24875 24876 24877 24878 24879 24880 24881 24882 24883 24884 24885 24886 24887 24888 24889 24890 24891 24892 24893 24894 24895 24896 24897 24898 24899 24900 24901 24902 24903 24904 24905 24906 24907 24908 24909 24910 24911 24912 24913 24914 24915 24916 24917 24918 24919 24920 24921 24922 24923 24924 24925 24926 24927 24928 24929 24930 24931 24932 24933 24934 24935 24936 24937 24938 24939 24940 24941 24942 24943 24944 24945 24946 24947 24948 24949 24950 24951 24952 24953 24954 24955 24956 24957 24958 24959 24960 24961 24962 24963 24964 24965 24966 24967 24968 24969 24970 24971 24972 24973 24974 24975 24976 24977 24978 24979 24980 24981 24982 24983 24984 24985 24986 24987 24988 24989 24990 24991 24992 24993 24994 24995 24996 24997 24998 24999 25000 25001 25002 25003 25004 25005 25006 25007 25008 25009 25010 25011 25012 25013 25014 25015 25016 25017 25018 25019 25020 25021 25022 25023 25024 25025 25026 25027 25028 25029 25030 25031 25032 25033 25034 25035 25036 25037 25038 25039 25040 25041 25042 25043 25044 25045 25046 25047 25048 25049 25050 25051 25052 25053 25054 25055 25056 25057 25058 25059 25060 25061 25062 25063 25064 25065 25066 25067 25068 25069 25070 25071 25072 25073 25074 25075 25076 25077 25078 25079 25080 25081 25082 25083 25084 25085 25086 25087 25088 25089 25090 25091 25092 25093 25094 25095 25096 25097 25098 25099 25100 25101 25102 25103 25104 25105 25106 25107 25108 25109 25110 25111 25112 25113 25114 25115 25116 25117 25118 25119 25120 25121 25122 25123 25124 25125 25126 25127 25128 25129 25130 25131 25132 25133 25134 25135 25136 25137 25138 25139 25140 25141 25142 25143 25144 25145 25146 25147 25148 25149 25150 25151 25152 25153 25154 25155 25156 25157 25158 25159 25160 25161 25162 25163 25164 25165 25166 25167 25168 25169 25170 25171 25172 25173 25174 25175 25176 25177 25178 25179 25180 25181 25182 25183 25184 25185 25186 25187 25188 25189 25190 25191 25192 25193 25194 25195 25196 25197 25198 25199 25200 25201 25202 25203 25204 25205 25206 25207 25208 25209 25210 25211 25212 25213 25214 25215 25216 25217 25218 25219 25220 25221 25222 25223 25224 25225 25226 25227 25228 25229 25230 25231 25232 25233 25234 25235 25236 25237 25238 25239 25240 25241 25242 25243 25244 25245 25246 25247 25248 25249 25250 25251 25252 25253 25254 25255 25256 25257 25258 25259 25260 25261 25262 25263 25264 25265 25266 25267 25268 25269 25270 25271 25272 25273 25274 25275 25276 25277 25278 25279 25280 25281 25282 25283 25284 25285 25286 25287 25288 25289 25290 25291 25292 25293 25294 25295 25296 25297 25298 25299 25300 25301 25302 25303 25304 25305 25306 25307 25308 25309 25310 25311 25312 25313 25314 25315 25316 25317 25318 25319 25320 25321 25322 25323 25324 25325 25326 25327 25328 25329 25330 25331 25332 25333 25334 25335 25336 25337 25338 25339 25340 25341 25342 25343 25344 25345 25346 25347 25348 25349 25350 25351 25352 25353 25354 25355 25356 25357 25358 25359 25360 25361 25362 25363 25364 25365 25366 25367 25368 25369 25370 25371 25372 25373 25374 25375 25376 25377 25378 25379 25380 25381 25382 25383 25384 25385 25386 25387 25388 25389 25390 25391 25392 25393 25394 25395 25396 25397 25398 25399 25400 25401 25402 25403 25404 25405 25406 25407 25408 25409 25410 25411 25412 25413 25414 25415 25416 25417 25418 25419 25420 25421 25422 25423 25424 25425 25426 25427 25428 25429 25430 25431 25432 25433 25434 25435 25436 25437 25438 25439 25440 25441 25442 25443 25444 25445 25446 25447 25448 25449 25450 25451 25452 25453 25454 25455 25456 25457 25458 25459 25460 25461 25462 25463 25464 25465 25466 25467 25468 25469 25470 25471 25472 25473 25474 25475 25476 25477 25478 25479 25480 25481 25482 25483 25484 25485 25486 25487 25488 25489 25490 25491 25492 25493 25494 25495 25496 25497 25498 25499 25500 25501 25502 25503 25504 25505 25506 25507 25508 25509 25510 25511 25512 25513 25514 25515 25516 25517 25518 25519 25520 25521 25522 25523 25524 25525 25526 25527 25528 25529 25530 25531 25532 25533 25534 25535 25536 25537 25538 25539 25540 25541 25542 25543 25544 25545 25546 25547 25548 25549 25550 25551 25552 25553 25554 25555 25556 25557 25558 25559 25560 25561 25562 25563 25564 25565 25566 25567 25568 25569 25570 25571 25572 25573 25574 25575 25576 25577 25578 25579 25580 25581 25582 25583 25584 25585 25586 25587 25588 25589 25590 25591 25592 25593 25594 25595 25596 25597 25598 25599 25600 25601 25602 25603 25604 25605 25606 25607 25608 25609 25610 25611 25612 25613 25614 25615 25616 25617 25618 25619 25620 25621 25622 25623 25624 25625 25626 25627 25628 25629 25630 25631 25632 25633 25634 25635 25636 25637 25638 25639 25640 25641 25642 25643 25644 25645 25646 25647 25648 25649 25650 25651 25652 25653 25654 25655 25656 25657 25658 25659 25660 25661 25662 25663 25664 25665 25666 25667 25668 25669 25670 25671 25672 25673 25674 25675 25676 25677 25678 25679 25680 25681 25682 25683 25684 25685 25686 25687 25688 25689 25690 25691 25692 25693 25694 25695 25696 25697 25698 25699 25700 25701 25702 25703 25704 25705 25706 25707 25708 25709 25710 25711 25712 25713 25714 25715 25716 25717 25718 25719 25720 25721 25722 25723 25724 25725 25726 25727 25728 25729 25730 25731 25732 25733 25734 25735 25736 25737 25738 25739 25740 25741 25742 25743 25744 25745 25746 25747 25748 25749 25750 25751 25752 25753 25754 25755 25756 25757 25758 25759 25760 25761 25762 25763 25764 25765 25766 25767 25768 25769 25770 25771 25772 25773 25774 25775 25776 25777 25778 25779 25780 25781 25782 25783 25784 25785 25786 25787 25788 25789 25790 25791 25792 25793 25794 25795 25796 25797 25798 25799 25800 25801 25802 25803 25804 25805 25806 25807 25808 25809 25810 25811 25812 25813 25814 25815 25816 25817 25818 25819 25820 25821 25822 25823 25824 25825 25826 25827 25828 25829 25830 25831 25832 25833 25834 25835 25836 25837 25838 25839 25840 25841 25842 25843 25844 25845 25846 25847 25848 25849 25850 25851 25852 25853 25854 25855 25856 25857 25858 25859 25860 25861 25862 25863 25864 25865 25866 25867 25868 25869 25870 25871 25872 25873 25874 25875 25876 25877 25878 25879 25880 25881 25882 25883 25884 25885 25886 25887 25888 25889 25890 25891 25892 25893 25894 25895 25896 25897 25898 25899 25900 25901 25902 25903 25904 25905 25906 25907 25908 25909 25910 25911 25912 25913 25914 25915 25916 25917 25918 25919 25920 25921 25922 25923 25924 25925 25926 25927 25928 25929 25930 25931 25932 25933 25934 25935 25936 25937 25938 25939 25940 25941 25942 25943 25944 25945 25946 25947 25948 25949 25950 25951 25952 25953 25954 25955 25956 25957 25958 25959 25960 25961 25962 25963 25964 25965 25966 25967 25968 25969 25970 25971 25972 25973 25974 25975 25976 25977 25978 25979 25980 25981 25982 25983 25984 25985 25986 25987 25988 25989 25990 25991 25992 25993 25994 25995 25996 25997 25998 25999 26000 26001 26002 26003 26004 26005 26006 26007 26008 26009 26010 26011 26012 26013 26014 26015 26016 26017 26018 26019 26020 26021 26022 26023 26024 26025 26026 26027 26028 26029 26030 26031 26032 26033 26034 26035 26036 26037 26038 26039 26040 26041 26042 26043 26044 26045 26046 26047 26048 26049 26050 26051 26052 26053 26054 26055 26056 26057 26058 26059 26060 26061 26062 26063 26064 26065 26066 26067 26068 26069 26070 26071 26072 26073 26074 26075 26076 26077 26078 26079 26080 26081 26082 26083 26084 26085 26086 26087 26088 26089 26090 26091 26092 26093 26094 26095 26096 26097 26098 26099 26100 26101 26102 26103 26104 26105 26106 26107 26108 26109 26110 26111 26112 26113 26114 26115 26116 26117 26118 26119 26120 26121 26122 26123 26124 26125 26126 26127 26128 26129 26130 26131 26132 26133 26134 26135 26136 26137 26138 26139 26140 26141 26142 26143 26144 26145 26146 26147 26148 26149 26150 26151 26152 26153 26154 26155 26156 26157 26158 26159 26160 26161 26162 26163 26164 26165 26166 26167 26168 26169 26170 26171 26172 26173 26174 26175 26176 26177 26178 26179 26180 26181 26182 26183 26184 26185 26186 26187 26188 26189 26190 26191 26192 26193 26194 26195 26196 26197 26198 26199 26200 26201 26202 26203 26204 26205 26206 26207 26208 26209 26210 26211 26212 26213 26214 26215 26216 26217 26218 26219 26220 26221 26222 26223 26224 26225 26226 26227 26228 26229 26230 26231 26232 26233 26234 26235 26236 26237 26238 26239 26240 26241 26242 26243 26244 26245 26246 26247 26248 26249 26250 26251 26252 26253 26254 26255 26256 26257 26258 26259 26260 26261 26262 26263 26264 26265 26266 26267 26268 26269 26270 26271 26272 26273 26274 26275 26276 26277 26278 26279 26280 26281 26282 26283 26284 26285 26286 26287 26288 26289 26290 26291 26292 26293 26294 26295 26296 26297 26298 26299 26300 26301 26302 26303 26304 26305 26306 26307 26308 26309 26310 26311 26312 26313 26314 26315 26316 26317 26318 26319 26320 26321 26322 26323 26324 26325 26326 26327 26328 26329 26330 26331 26332 26333 26334 26335 26336 26337 26338 26339 26340 26341 26342 26343 26344 26345 26346 26347 26348 26349 26350 26351 26352 26353 26354 26355 26356 26357 26358 26359 26360 26361 26362 26363 26364 26365 26366 26367 26368 26369 26370 26371 26372 26373 26374 26375 26376 26377 26378 26379 26380 26381 26382 26383 26384 26385 26386 26387 26388 26389 26390 26391 26392 26393 26394 26395 26396 26397 26398 26399 26400 26401 26402 26403 26404 26405 26406 26407 26408 26409 26410 26411 26412 26413 26414 26415 26416 26417 26418 26419 26420 26421 26422 26423 26424 26425 26426 26427 26428 26429 26430 26431 26432 26433 26434 26435 26436 26437 26438 26439 26440 26441 26442 26443 26444 26445 26446 26447 26448 26449 26450 26451 26452 26453 26454 26455 26456 26457 26458 26459 26460 26461 26462 26463 26464 26465 26466 26467 26468 26469 26470 26471 26472 26473 26474 26475 26476 26477 26478 26479 26480 26481 26482 26483 26484 26485 26486 26487 26488 26489 26490 26491 26492 26493 26494 26495 26496 26497 26498 26499 26500 26501 26502 26503 26504 26505 26506 26507 26508 26509 26510 26511 26512 26513 26514 26515 26516 26517 26518 26519 26520 26521 26522 26523 26524 26525 26526 26527 26528 26529 26530 26531 26532 26533 26534 26535 26536 26537 26538 26539 26540 26541 26542 26543 26544 26545 26546 26547 26548 26549 26550 26551 26552 26553 26554 26555 26556 26557 26558 26559 26560 26561 26562 26563 26564 26565 26566 26567 26568 26569 26570 26571 26572 26573 26574 26575 26576 26577 26578 26579 26580 26581 26582 26583 26584 26585 26586 26587 26588 26589 26590 26591 26592 26593 26594 26595 26596 26597 26598 26599 26600 26601 26602 26603 26604 26605 26606 26607 26608 26609 26610 26611 26612 26613 26614 26615 26616 26617 26618 26619 26620 26621 26622 26623 26624 26625 26626 26627 26628 26629 26630 26631 26632 26633 26634 26635 26636 26637 26638 26639 26640 26641 26642 26643 26644 26645 26646 26647 26648 26649 26650 26651 26652 26653 26654 26655 26656 26657 26658 26659 26660 26661 26662 26663 26664 26665 26666 26667 26668 26669 26670 26671 26672 26673 26674 26675 26676 26677 26678 26679 26680 26681 26682 26683 26684 26685 26686 26687 26688 26689 26690 26691 26692 26693 26694 26695 26696 26697 26698 26699 26700 26701 26702 26703 26704 26705 26706 26707 26708 26709 26710 26711 26712 26713 26714 26715 26716 26717 26718 26719 26720 26721 26722 26723 26724 26725 26726 26727 26728 26729 26730 26731 26732 26733 26734 26735 26736 26737 26738 26739 26740 26741 26742 26743 26744 26745 26746 26747 26748 26749 26750 26751 26752 26753 26754 26755 26756 26757 26758 26759 26760 26761 26762 26763 26764 26765 26766 26767 26768 26769 26770 26771 26772 26773 26774 26775 26776 26777 26778 26779 26780 26781 26782 26783 26784 26785 26786 26787 26788 26789 26790 26791 26792 26793 26794 26795 26796 26797 26798 26799 26800 26801 26802 26803 26804 26805 26806 26807 26808 26809 26810 26811 26812 26813 26814 26815 26816 26817 26818 26819 26820 26821 26822 26823 26824 26825 26826 26827 26828 26829 26830 26831 26832 26833 26834 26835 26836 26837 26838 26839 26840 26841 26842 26843 26844 26845 26846 26847 26848 26849 26850 26851 26852 26853 26854 26855 26856 26857 26858 26859 26860 26861 26862 26863 26864 26865 26866 26867 26868 26869 26870 26871 26872 26873 26874 26875 26876 26877 26878 26879 26880 26881 26882 26883 26884 26885 26886 26887 26888 26889 26890 26891 26892 26893 26894 26895 26896 26897 26898 26899 26900 26901 26902 26903 26904 26905 26906 26907 26908 26909 26910 26911 26912 26913 26914 26915 26916 26917 26918 26919 26920 26921 26922 26923 26924 26925 26926 26927 26928 26929 26930 26931 26932 26933 26934 26935 26936 26937 26938 26939 26940 26941 26942 26943 26944 26945 26946 26947 26948 26949 26950 26951 26952 26953 26954 26955 26956 26957 26958 26959 26960 26961 26962 26963 26964 26965 26966 26967 26968 26969 26970 26971 26972 26973 26974 26975 26976 26977 26978 26979 26980 26981 26982 26983 26984 26985 26986 26987 26988 26989 26990 26991 26992 26993 26994 26995 26996 26997 26998 26999 27000 27001 27002 27003 27004 27005 27006 27007 27008 27009 27010 27011 27012 27013 27014 27015 27016 27017 27018 27019 27020 27021 27022 27023 27024 27025 27026 27027 27028 27029 27030 27031 27032 27033 27034 27035 27036 27037 27038 27039 27040 27041 27042 27043 27044 27045 27046 27047 27048 27049 27050 27051 27052 27053 27054 27055 27056 27057 27058 27059 27060 27061 27062 27063 27064 27065 27066 27067 27068 27069 27070 27071 27072 27073 27074 27075 27076 27077 27078 27079 27080 27081 27082 27083 27084 27085 27086 27087 27088 27089 27090 27091 27092 27093 27094 27095 27096 27097 27098 27099 27100 27101 27102 27103 27104 27105 27106 27107 27108 27109 27110 27111 27112 27113 27114 27115 27116 27117 27118 27119 27120 27121 27122 27123 27124 27125 27126 27127 27128 27129 27130 27131 27132 27133 27134 27135 27136 27137 27138 27139 27140 27141 27142 27143 27144 27145 27146 27147 27148 27149 27150 27151 27152 27153 27154 27155 27156 27157 27158 27159 27160 27161 27162 27163 27164 27165 27166 27167 27168 27169 27170 27171 27172 27173 27174 27175 27176 27177 27178 27179 27180 27181 27182 27183 27184 27185 27186 27187 27188 27189 27190 27191 27192 27193 27194 27195 27196 27197 27198 27199 27200 27201 27202 27203 27204 27205 27206 27207 27208 27209 27210 27211 27212 27213 27214 27215 27216 27217 27218 27219 27220 27221 27222 27223 27224 27225 27226 27227 27228 27229 27230 27231 27232 27233 27234 27235 27236 27237 27238 27239 27240 27241 27242 27243 27244 27245 27246 27247 27248 27249 27250 27251 27252 27253 27254 27255 27256 27257 27258 27259 27260 27261 27262 27263 27264 27265 27266 27267 27268 27269 27270 27271 27272 27273 27274 27275 27276 27277 27278 27279 27280 27281 27282 27283 27284 27285 27286 27287 27288 27289 27290 27291 27292 27293 27294 27295 27296 27297 27298 27299 27300 27301 27302 27303 27304 27305 27306 27307 27308 27309 27310 27311 27312 27313 27314 27315 27316 27317 27318 27319 27320 27321 27322 27323 27324 27325 27326 27327 27328 27329 27330 27331 27332 27333 27334 27335 27336 27337 27338 27339 27340 27341 27342 27343 27344 27345 27346 27347 27348 27349 27350 27351 27352 27353 27354 27355 27356 27357 27358 27359 27360 27361 27362 27363 27364 27365 27366 27367 27368 27369 27370 27371 27372 27373 27374 27375 27376 27377 27378 27379 27380 27381 27382 27383 27384 27385 27386 27387 27388 27389 27390 27391 27392 27393 27394 27395 27396 27397 27398 27399 27400 27401 27402 27403 27404 27405 27406 27407 27408 27409 27410 27411 27412 27413 27414 27415 27416 27417 27418 27419 27420 27421 27422 27423 27424 27425 27426 27427 27428 27429 27430 27431 27432 27433 27434 27435 27436 27437 27438 27439 27440 27441 27442 27443 27444 27445 27446 27447 27448 27449 27450 27451 27452 27453 27454 27455 27456 27457 27458 27459 27460 27461 27462 27463 27464 27465 27466 27467 27468 27469 27470 27471 27472 27473 27474 27475 27476 27477 27478 27479 27480 27481 27482 27483 27484 27485 27486 27487 27488 27489 27490 27491 27492 27493 27494 27495 27496 27497 27498 27499 27500 27501 27502 27503 27504 27505 27506 27507 27508 27509 27510 27511 27512 27513 27514 27515 27516 27517 27518 27519 27520 27521 27522 27523 27524 27525 27526 27527 27528 27529 27530 27531 27532 27533 27534 27535 27536 27537 27538 27539 27540 27541 27542 27543 27544 27545 27546 27547 27548 27549 27550 27551 27552 27553 27554 27555 27556 27557 27558 27559 27560 27561 27562 27563 27564 27565 27566 27567 27568 27569 27570 27571 27572 27573 27574 27575 27576 27577 27578 27579 27580 27581 27582 27583 27584 27585 27586 27587 27588 27589 27590 27591 27592 27593 27594 27595 27596 27597 27598 27599 27600 27601 27602 27603 27604 27605 27606 27607 27608 27609 27610 27611 27612 27613 27614 27615 27616 27617 27618 27619 27620 27621 27622 27623 27624 27625 27626 27627 27628 27629 27630 27631 27632 27633 27634 27635 27636 27637 27638 27639 27640 27641 27642 27643 27644 27645 27646 27647 27648 27649 27650 27651 27652 27653 27654 27655 27656 27657 27658 27659 27660 27661 27662 27663 27664 27665 27666 27667 27668 27669 27670 27671 27672 27673 27674 27675 27676 27677 27678 27679 27680 27681 27682 27683 27684 27685 27686 27687 27688 27689 27690 27691 27692 27693 27694 27695 27696 27697 27698 27699 27700 27701 27702 27703 27704 27705 27706 27707 27708 27709 27710 27711 27712 27713 27714 27715 27716 27717 27718 27719 27720 27721 27722 27723 27724 27725 27726 27727 27728 27729 27730 27731 27732 27733 27734 27735 27736 27737 27738 27739 27740 27741 27742 27743 27744 27745 27746 27747 27748 27749 27750 27751 27752 27753 27754 27755 27756 27757 27758 27759 27760 27761 27762 27763 27764 27765 27766 27767 27768 27769 27770 27771 27772 27773 27774 27775 27776 27777 27778 27779 27780 27781 27782 27783 27784 27785 27786 27787 27788 27789 27790 27791 27792 27793 27794 27795 27796 27797 27798 27799 27800 27801 27802 27803 27804 27805 27806 27807 27808 27809 27810 27811 27812 27813 27814 27815 27816 27817 27818 27819 27820 27821 27822 27823 27824 27825 27826 27827 27828 27829 27830 27831 27832 27833 27834 27835 27836 27837 27838 27839 27840 27841 27842 27843 27844 27845 27846 27847 27848 27849 27850 27851 27852 27853 27854 27855 27856 27857 27858 27859 27860 27861 27862 27863 27864 27865 27866 27867 27868 27869 27870 27871 27872 27873 27874 27875 27876 27877 27878 27879 27880 27881 27882 27883 27884 27885 27886 27887 27888 27889 27890 27891 27892 27893 27894 27895 27896 27897 27898 27899 27900 27901 27902 27903 27904 27905 27906 27907 27908 27909 27910 27911 27912 27913 27914 27915 27916 27917 27918 27919 27920 27921 27922 27923 27924 27925 27926 27927 27928 27929 27930 27931 27932 27933 27934 27935 27936 27937 27938 27939 27940 27941 27942 27943 27944 27945 27946 27947 27948 27949 27950 27951 27952 27953 27954 27955 27956 27957 27958 27959 27960 27961 27962 27963 27964 27965 27966 27967 27968 27969 27970 27971 27972 27973 27974 27975 27976 27977 27978 27979 27980 27981 27982 27983 27984 27985 27986 27987 27988 27989 27990 27991 27992 27993 27994 27995 27996 27997 27998 27999 28000 28001 28002 28003 28004 28005 28006 28007 28008 28009 28010 28011 28012 28013 28014 28015 28016 28017 28018 28019 28020 28021 28022 28023 28024 28025 28026 28027 28028 28029 28030 28031 28032 28033 28034 28035 28036 28037 28038 28039 28040 28041 28042 28043 28044 28045 28046 28047 28048 28049 28050 28051 28052 28053 28054 28055 28056 28057 28058 28059 28060 28061 28062 28063 28064 28065 28066 28067 28068 28069 28070 28071 28072 28073 28074 28075 28076 28077 28078 28079 28080 28081 28082 28083 28084 28085 28086 28087 28088 28089 28090 28091 28092 28093 28094 28095 28096 28097 28098 28099 28100 28101 28102 28103 28104 28105 28106 28107 28108 28109 28110 28111 28112 28113 28114 28115 28116 28117 28118 28119 28120 28121 28122 28123 28124 28125 28126 28127 28128 28129 28130 28131 28132 28133 28134 28135 28136 28137 28138 28139 28140 28141 28142 28143 28144 28145 28146 28147 28148 28149 28150 28151 28152 28153 28154 28155 28156 28157 28158 28159 28160 28161 28162 28163 28164 28165 28166 28167 28168 28169 28170 28171 28172 28173 28174 28175 28176 28177 28178 28179 28180 28181 28182 28183 28184 28185 28186 28187 28188 28189 28190 28191 28192 28193 28194 28195 28196 28197 28198 28199 28200 28201 28202 28203 28204 28205 28206 28207 28208 28209 28210 28211 28212 28213 28214 28215 28216 28217 28218 28219 28220 28221 28222 28223 28224 28225 28226 28227 28228 28229 28230 28231 28232 28233 28234 28235 28236 28237 28238 28239 28240 28241 28242 28243 28244 28245 28246 28247 28248 28249 28250 28251 28252 28253 28254 28255 28256 28257 28258 28259 28260 28261 28262 28263 28264 28265 28266 28267 28268 28269 28270 28271 28272 28273 28274 28275 28276 28277 28278 28279 28280 28281 28282 28283 28284 28285 28286 28287 28288 28289 28290 28291 28292 28293 28294 28295 28296 28297 28298 28299 28300 28301 28302 28303 28304 28305 28306 28307 28308 28309 28310 28311 28312 28313 28314 28315 28316 28317 28318 28319 28320 28321 28322 28323 28324 28325 28326 28327 28328 28329 28330 28331 28332 28333 28334 28335 28336 28337 28338 28339 28340 28341 28342 28343 28344 28345 28346 28347 28348 28349 28350 28351 28352 28353 28354 28355 28356 28357 28358 28359 28360 28361 28362 28363 28364 28365 28366 28367 28368 28369 28370 28371 28372 28373 28374 28375 28376 28377 28378 28379 28380 28381 28382 28383 28384 28385 28386 28387 28388 28389 28390 28391 28392 28393 28394 28395 28396 28397 28398 28399 28400 28401 28402 28403 28404 28405 28406 28407 28408 28409 28410 28411 28412 28413 28414 28415 28416 28417 28418 28419 28420 28421 28422 28423 28424 28425 28426 28427 28428 28429 28430 28431 28432 28433 28434 28435 28436 28437 28438 28439 28440 28441 28442 28443 28444 28445 28446 28447 28448 28449 28450 28451 28452 28453 28454 28455 28456 28457 28458 28459 28460 28461 28462 28463 28464 28465 28466 28467 28468 28469 28470 28471 28472 28473 28474 28475 28476 28477 28478 28479 28480 28481 28482 28483 28484 28485 28486 28487 28488 28489 28490 28491 28492 28493 28494 28495 28496 28497 28498 28499 28500 28501 28502 28503 28504 28505 28506 28507 28508 28509 28510 28511 28512 28513 28514 28515 28516 28517 28518 28519 28520 28521 28522 28523 28524 28525 28526 28527 28528 28529 28530 28531 28532 28533 28534 28535 28536 28537 28538 28539 28540 28541 28542 28543 28544 28545 28546 28547 28548 28549 28550 28551 28552 28553 28554 28555 28556 28557 28558 28559 28560 28561 28562 28563 28564 28565 28566 28567 28568 28569 28570 28571 28572 28573 28574 28575 28576 28577 28578 28579 28580 28581 28582 28583 28584 28585 28586 28587 28588 28589 28590 28591 28592 28593 28594 28595 28596 28597 28598 28599 28600 28601 28602 28603 28604 28605 28606 28607 28608 28609 28610 28611 28612 28613 28614 28615 28616 28617 28618 28619 28620 28621 28622 28623 28624 28625 28626 28627 28628 28629 28630 28631 28632 28633 28634 28635 28636 28637 28638 28639 28640 28641 28642 28643 28644 28645 28646 28647 28648 28649 28650 28651 28652 28653 28654 28655 28656 28657 28658 28659 28660 28661 28662 28663 28664 28665 28666 28667 28668 28669 28670 28671 28672 28673 28674 28675 28676 28677 28678 28679 28680 28681 28682 28683 28684 28685 28686 28687 28688 28689 28690 28691 28692 28693 28694 28695 28696 28697 28698 28699 28700 28701 28702 28703 28704 28705 28706 28707 28708 28709 28710 28711 28712 28713 28714 28715 28716 28717 28718 28719 28720 28721 28722 28723 28724 28725 28726 28727 28728 28729 28730 28731 28732 28733 28734 28735 28736 28737 28738 28739 28740 28741 28742 28743 28744 28745 28746 28747 28748 28749 28750 28751 28752 28753 28754 28755 28756 28757 28758 28759 28760 28761 28762 28763 28764 28765 28766 28767 28768 28769 28770 28771 28772 28773 28774 28775 28776 28777 28778 28779 28780 28781 28782 28783 28784 28785 28786 28787 28788 28789 28790 28791 28792 28793 28794 28795 28796 28797 28798 28799 28800 28801 28802 28803 28804 28805 28806 28807 28808 28809 28810 28811 28812 28813 28814 28815 28816 28817 28818 28819 28820 28821 28822 28823 28824 28825 28826 28827 28828 28829 28830 28831 28832 28833 28834 28835 28836 28837 28838 28839 28840 28841 28842 28843 28844 28845 28846 28847 28848 28849 28850 28851 28852 28853 28854 28855 28856 28857 28858 28859 28860 28861 28862 28863 28864 28865 28866 28867 28868 28869 28870 28871 28872 28873 28874 28875 28876 28877 28878 28879 28880 28881 28882 28883 28884 28885 28886 28887 28888 28889 28890 28891 28892 28893 28894 28895 28896 28897 28898 28899 28900 28901 28902 28903 28904 28905 28906 28907 28908 28909 28910 28911 28912 28913 28914 28915 28916 28917 28918 28919 28920 28921 28922 28923 28924 28925 28926 28927 28928 28929 28930 28931 28932 28933 28934 28935 28936 28937 28938 28939 28940 28941 28942 28943 28944 28945 28946 28947 28948 28949 28950 28951 28952 28953 28954 28955 28956 28957 28958 28959 28960 28961 28962 28963 28964 28965 28966 28967 28968 28969 28970 28971 28972 28973 28974 28975 28976 28977 28978 28979 28980 28981 28982 28983 28984 28985 28986 28987 28988 28989 28990 28991 28992 28993 28994 28995 28996 28997 28998 28999 29000 29001 29002 29003 29004 29005 29006 29007 29008 29009 29010 29011 29012 29013 29014 29015 29016 29017 29018 29019 29020 29021 29022 29023 29024 29025 29026 29027 29028 29029 29030 29031 29032 29033 29034 29035 29036 29037 29038 29039 29040 29041 29042 29043 29044 29045 29046 29047 29048 29049 29050 29051 29052 29053 29054 29055 29056 29057 29058 29059 29060 29061 29062 29063 29064 29065 29066 29067 29068 29069 29070 29071 29072 29073 29074 29075 29076 29077 29078 29079 29080 29081 29082 29083 29084 29085 29086 29087 29088 29089 29090 29091 29092 29093 29094 29095 29096 29097 29098 29099 29100 29101 29102 29103 29104 29105 29106 29107 29108 29109 29110 29111 29112 29113 29114 29115 29116 29117 29118 29119 29120 29121 29122 29123 29124 29125 29126 29127 29128 29129 29130 29131 29132 29133 29134 29135 29136 
</DataArray>
<DataArray type="UInt32" Name="offsets" format="ascii">
3 6 9 12 15 17 20 23 26 29 32 35 38 41 44 47 50 53 56 59 62 65 68 70 73 75 78 81 84 87 89 91 94 97 99 102 105 107 109 112 115 118 121 124 127 130 132 134 137 140 143 146 148 151 154 156 159 162 165 168 171 173 176 179 182 185 188 191 194 197 199 202 204 207 209 212 215 218 221 224 226 229 232 235 238 240 242 245 248 251 254 257 260 262 265 268 271 274 276 279 282 284 287 290 293 295 297 300 303 306 309 312 315 318 320 323 325 328 331 333 336 339 341 344 347 350 352 355 358 360 363 366 369 372 375 377 380 383 386 388 391 394 397 400 402 404 407 409 412 415 418 420 423 426 429 432 435 438 441 444 447 449 452 455 458 461 464 467 470 473 476 479 482 484 487 490 493 496 498 501 504 507 510 512 515 518 521 523 525 528 531 534 536 539 542 545 548 551 554 557 559 562 565 567 569 572 575 578 581 584 587 590 593 596 599 602 605 608 611 614 617 620 623 626 628 631 634 636 639 642 645 648 650 653 656 659 662 665 668 671 674 677 680 683 686 689 691 693 696 699 702 705 707 710 713 716 719 722 725 728 730 732 735 738 741 744 747 750 753 756 759 762 765 768 771 774 777 780 782 785 787 790 793 796 798 801 804 806 809 812 815 817 820 822 825 828 831 834 837 839 842 845 848 851 854 857 860 863 866 869 872 875 878 881 883 886 889 892 895 898 901 904 906 909 912 914 917 920 922 925 927 930 933 935 938 941 944 946 949 952 955 958 961 964 967 969 972 974 976 979 982 985 987 990 993 996 999 1001 1004 1007 1009 1012 1015 1018 1021 1024 1027 1030 1033 1035 1038 1041 1044 1047 1050 1053 1056 1059 1062 1065 1068 1071 1074 1077 1080 1083 1086 1089 1092 1095 1098 1101 1104 1107 1110 1112 1115 1118 1121 1124 1127 1130 1133 1135 1138 1141 1144 1147 1149 1152 1155 1158 1161 1164 1167 1170 1173 1176 1179 1182 1185 1188 1190 1193 1196 1199 1202 1204 1206 1209 1211 1213 1216 1219 1222 1225 1228 1230 1233 1235 1237 1240 1243 1246 1249 1252 1254 1257 1260 1262 1265 1268 1271 1274 1276 1278 1281 1283 1286 1289 1292 1295 1298 1301 1304 1307 1310 1313 1316 1319 1322 1325 1328 1331 1334 1336 1338 1341 1344 1347 1350 1353 1356 1358 1361 1364 1367 1370 1372 1375 1377 1380 1382 1385 1388 1391 1394 1396 1399 1402 1404 1406 1409 1412 1414 1416 1419 1421 1423 1426 1428 1431 1434 1436 1439 1441 1444 1447 1449 1452 1455 1458 1461 1464 1467 1470 1473 1476 1478 1480 1483 1485 1488 1491 1494 1496 1499 1502 1505 1508 1510 1513 1515 1518 1520 1523 1525 1528 1531 1534 1536 1539 1542 1544 1547 1549 1552 1555 1558 1561 1564 1567 1570 1573 1576 1579 1582 1585 1588 1591 1594 1596 1599 1601 1604 1607 1610 1613 1615 1618 1620 1622 1625 1628 1631 1634 1637 1640 1643 1646 1648 1650 1653 1656 1659 1662 1665 1668 1671 1674 1677 1680 1683 1686 1689 1692 1695 1698 1701 1704 1707 1709 1712 1715 1718 1721 1724 1727 1730 1733 1736 1739 1741 1744 1747 1750 1752 1755 1758 1761 1764 1767 1770 1773 1776 1778 1780 1783 1786 1789 1792 1795 1798 1800 1803 1806 1809 1811 1814 1816 1818 1820 1823 1826 1828 1831 1834 1837 1840 1842 1845 1848 1851 1854 1856 1859 1861 1863 1866 1869 1872 1875 1877 1880 1883 1886 1889 1892 1895 1898 1901 1904 1907 1910 1912 1915 1918 1921 1924 1927 1930 1933 1936 1939 1941 1944 1946 1949 1952 1955 1958 1961 1963 1966 1969 1972 1975 1978 1981 1984 1986 1989 1992 1995 1998 2001 2004 2006 2009 2012 2015 2018 2021 2023 2026 2029 2032 2035 2038 2041 2044 2046 2049 2051 2054 2057 2060 2062 2065 2068 2071 2074 2076 2079 2082 2085 2088 2091 2093 2096 2099 2102 2105 2107 2110 2112 2115 2117 2119 2122 2125 2128 2131 2134 2137 2140 2142 2145 2148 2151 2153 2156 2159 2162 2165 2167 2169 2172 2174 2177 2180 2183 2186 2189 2192 2195 2197 2200 2202 2204 2207 2210 2213 2216 2219 2222 2225 2228 2231 2234 2237 2240 2243 2245 2247 2250 2253 2256 2259 2262 2265 2268 2271 2274 2277 2280 2283 2285 2288 2291 2294 2297 2300 2302 2305 2308 2311 2313 2316 2319 2321 2323 2326 2329 2331 2334 2337 2340 2343 2346 2349 2352 2355 2357 2360 2363 2366 2369 2372 2375 2377 2380 2383 2386 2389 2391 2394 2397 2400 2402 2405 2408 2410 2413 2416 2419 2422 2425 2428 2431 2433 2435 2438 2441 2443 2446 2448 2451 2454 2456 2458 2461 2463 2466 2469 2472 2474 2477 2480 2482 2485 2488 2491 2494 2496 2499 2501 2504 2506 2509 2512 2514 2516 2519 2521 2524 2527 2530 2533 2535 2538 2540 2542 2545 2548 2551 2553 2555 2557 2559 2562 2565 2568 2571 2574 2576 2579 2582 2585 2588 2591 2594 2597 2600 2603 2606 2609 2612 2615 2617 2620 2622 2624 2627 2630 2633 2636 2639 2642 2645 2648 2651 2654 2657 2660 2663 2666 2669 2672 2675 2678 2681 2684 2687 2690 2693 2696 2699 2701 2704 2706 2709 2712 2715 2718 2721 2724 2727 2730 2732 2735 2738 2741 2744 2747 2750 2753 2756 2759 2762 2765 2768 2770 2773 2776 2779 2782 2785 2788 2790 2793 2796 2799 2802 2804 2807 2809 2811 2814 2817 2820 2823 2826 2829 2832 2835 2838 2841 2844 2847 2850 2853 2856 2859 2862 2865 2867 2870 2873 2876 2878 2881 2884 2887 2890 2893 2896 2898 2901 2904 2907 2910 2913 2916 2919 2922 2925 2928 2930 2933 2936 2939 2942 2945 2948 2951 2954 2957 2959 2962 2965 2968 2971 2974 2977 2979 2982 2985 2987 2990 2993 2996 2999 3002 3004 3007 3010 3013 3015 3018 3021 3023 3026 3029 3032 3035 3038 3041 3044 3047 3050 3053 3056 3059 3061 3064 3066 3069 3072 3074 3077 3080 3083 3086 3088 3091 3093 3096 3098 3101 3104 3107 3110 3113 3116 3119 3122 3125 3128 3130 3133 3136 3139 3142 3145 3148 3150 3152 3155 3158 3161 3164 3167 3170 3173 3175 3177 3180 3183 3185 3187 3190 3193 3196 3199 3202 3204 3207 3210 3212 3215 3218 3220 3223 3226 3229 3232 3235 3238 3240 3243 3245 3248 3251 3254 3257 3260 3263 3265 3268 3271 3273 3276 3279 3282 3285 3288 3291 3294 3297 3300 3302 3304 3307 3310 3313 3316 3318 3321 3324 3326 3329 3332 3335 3338 3341 3344 3347 3350 3353 3355 3358 3361 3364 3366 3369 3372 3375 3378 3381 3383 3386 3389 3392 3394 3396 3399 3402 3405 3408 3411 3414 3417 3419 3422 3425 3428 3431 3434 3436 3439 3442 3444 3446 3448 3451 3454 3457 3460 3462 3465 3468 3470 3472 3475 3478 3481 3484 3487 3490 3492 3494 3496 3499 3502 3505 3508 3511 3514 3516 3519 3521 3524 3527 3530 3533 3536 3539 3542 3545 3548 3550 3553 3556 3559 3562 3565 3568 3571 3574 3577 3580 3583 3586 3589 3592 3594 3597 3599 3601 3604 3606 3609 3612 3614 3617 3620 3623 3626 3629 3632 3635 3638 3641 3644 3647 3650 3653 3656 3659 3662 3664 3667 3670 3673 3676 3679 3682 3685 3688 3691 3694 3697 3700 3703 3706 3708 3711 3714 3717 3720 3722 3725 3728 3731 3733 3736 3739 3742 3745 3748 3751 3754 3757 3760 3763 3765 3768 3771 3774 3777 3780 3782 3785 3787 3790 3793 3796 3799 3801 3804 3807 3810 3813 3815 3818 3821 3824 3827 3830 3833 3836 3839 3841 3844 3847 3850 3853 3856 3859 3862 3865 3868 3871 3874 3876 3879 3882 3885 3888 3891 3893 3896 3898 3901 3904 3907 3910 3913 3916 3919 3922 3925 3927 3930 3933 3936 3939 3942 3945 3948 3951 3954 3957 3960 3963 3966 3969 3972 3975 3977 3980 3983 3986 3989 3991 3993 3996 3999 4002 4005 4007 4010 4013 4016 4018 4020 4023 4026 4029 4032 4035 4038 4041 4044 4046 4049 4052 4055 4058 4061 4064 4067 4070 4073 4076 4079 4082 4084 4086 4089 4092 4095 4098 4101 4104 4107 4110 4113 4116 4119 4122 4125 4128 4131 4134 4137 4140 4143 4146 4149 4152 4155 4158 4161 4164 4167 4170 4173 4176 4179 4182 4185 4188 4190 4193 4196 4199 4202 4205 4208 4211 4214 4217 4220 4222 4225 4228 4231 4234 4237 4239 4242 4245 4248 4251 4254 4257 4260 4263 4266 4269 4272 4275 4278 4281 4284 4287 4289 4292 4295 4298 4301 4304 4307 4310 4313 4316 4319 4322 4325 4327 4330 4333 4336 4339 4342 4345 4348 4350 4353 4356 4359 4362 4365 4368 4371 4374 4377 4380 4383 4386 4389 4392 4395 4398 4401 4403 4406 4409 4412 4415 4418 4421 4424 4427 4430 4433 4436 4439 4442 4445 4448 4451 4454 4457 4460 4463 4466 4469 4471 4474 4476 4479 4482 4485 4488 4490 4493 4496 4499 4502 4505 4507 4510 4513 4516 4519 4522 4525 4528 4531 4534 4537 4540 4543 4546 4549 4552 4554 4557 4560 4562 4565 4568 4571 4574 4577 4580 4583 4586 4589 4592 4595 4598 4601 4604 4607 4610 4612 4615 4618 4621 4624 4627 4630 4633 4636 4639 4642 4645 4648 4651 4654 4657 4660 4663 4666 4668 4670 4673 4676 4679 4682 4685 4688 4691 4693 4695 4698 4701 4704 4706 4709 4711 4714 4716 4719 4722 4724 4726 4728 4731 4733 4736 4738 4740 4743 4746 4749 4751 4754 4757 4760 4763 4766 4769 4771 4774 4777 4780 4783 4786 4789 4792 4795 4798 4801 4803 4806 4809 4812 4815 4818 4821 4824 4827 4830 4833 4836 4839 4841 4844 4847 4850 4853 4856 4859 4862 4865 4867 4869 4872 4874 4877 4880 4883 4885 4887 4890 4893 4896 4899 4902 4905 4908 4911 4914 4917 4919 4922 4925 4928 4931 4934 4936 4939 4942 4944 4947 4950 4953 4956 4959 4961 4964 4967 4970 4973 4976 4979 4982 4984 4987 4990 4993 4995 4998 5001 5004 5006 5009 5012 5014 5017 5019 5022 5025 5028 5031 5034 5037 5040 5042 5045 5048 5050 5053 5055 5058 5061 5064 5067 5070 5073 5076 5079 5081 5084 5087 5090 5092 5095 5098 5101 5104 5107 5109 5112 5115 5117 5120 5123 5126 5129 5131 5134 5136 5139 5141 5144 5147 5150 5153 5156 5159 5162 5165 5168 5171 5174 5177 5180 5182 5185 5188 5190 5193 5196 5198 5201 5204 5206 5208 5211 5214 5216 5219 5222 5225 5228 5231 5233 5236 5239 5242 5245 5248 5251 5254 5257 5260 5263 5266 5269 5272 5275 5278 5281 5284 5287 5290 5293 5296 5299 5302 5305 5308 5311 5314 5317 5320 5323 5326 5329 5332 5334 5337 5340 5343 5346 5349 5352 5354 5356 5359 5362 5365 5368 5371 5373 5376 5379 5382 5385 5388 5391 5394 5397 5400 5403 5406 5409 5412 5415 5418 5421 5424 5427 5430 5433 5436 5439 5442 5445 5448 5451 5453 5456 5459 5462 5464 5467 5469 5472 5475 5478 5481 5484 5487 5490 5493 5496 5499 5502 5505 5508 5511 5514 5517 5520 5523 5526 5529 5532 5535 5538 5541 5544 5547 5550 5553 5556 5559 5562 5565 5568 5570 5573 5576 5579 5582 5585 5588 5591 5594 5597 5600 5603 5606 5609 5612 5615 5618 5621 5624 5626 5628 5630 5633 5636 5639 5641 5644 5646 5649 5652 5655 5658 5660 5662 5665 5668 5671 5674 5677 5680 5682 5684 5687 5690 5693 5696 5699 5702 5705 5708 5711 5714 5717 5720 5723 5726 5728 5731 5734 5737 5740 5743 5746 5749 5752 5755 5758 5761 5764 5767 5770 5773 5776 5779 5782 5785 5788 5791 5794 5797 5800 5803 5806 5809 5812 5815 5818 5821 5824 5827 5830 5833 5836 5839 5842 5845 5848 5851 5854 5857 5860 5863 5866 5869 5872 5875 5878 5881 5884 5887 5889 5892 5895 5898 5901 5904 5907 5910 5913 5916 5918 5921 5924 5927 5930 5933 5935 5938 5941 5944 5947 5950 5952 5955 5958 5961 5964 5967 5970 5972 5975 5978 5981 5984 5987 5990 5993 5996 5999 6001 6004 6007 6009 6011 6014 6017 6019 6021 6024 6026 6029 6032 6035 6037 6039 6042 6044 6047 6050 6053 6055 6058 6060 6063 6065 6068 6071 6073 6075 6077 6080 6083 6086 6089 6092 6095 6098 6101 6104 6106 6109 6112 6115 6117 6120 6123 6125 6128 6130 6133 6136 6138 6141 6144 6147 6150 6153 6156 6159 6161 6164 6167 6169 6172 6175 6177 6180 6183 6186 6189 6192 6194 6197 6200 6202 6205 6208 6211 6213 6216 6219 6221 6224 6227 6230 6233 6236 6238 6241 6244 6247 6250 6252 6255 6258 6261 6264 6267 6270 6273 6276 6278 6280 6282 6284 6287 6289 6291 6294 6296 6299 6302 6305 6308 6311 6314 6317 6319 6321 6324 6327 6330 6332 6335 6338 6341 6344 6347 6350 6353 6356 6359 6362 6365 6368 6371 6374 6376 6378 6381 6384 6387 6390 6393 6396 6399 6401 6404 6406 6409 6411 6414 6417 6420 6423 6426 6429 6432 6435 6438 6441 6444 6447 6450 6453 6456 6459 6462 6465 6468 6471 6474 6477 6480 6483 6486 6489 6492 6495 6498 6501 6503 6506 6509 6512 6515 6518 6521 6524 6527 6530 6533 6536 6539 6542 6545 6548 6551 6554 6557 6560 6563 6566 6569 6572 6575 6578 6581 6584 6587 6590 6593 6596 6599 6601 6604 6607 6610 6613 6616 6619 6622 6625 6627 6630 6633 6636 6639 6642 6644 6646 6649 6652 6655 6657 6659 6662 6665 6667 6670 6673 6675 6678 6681 6684 6687 6690 6692 6695 6698 6701 6703 6706 6709 6712 6715 6717 6720 6722 6725 6728 6731 6734 6737 6739 6742 6745 6748 6751 6753 6756 6759 6762 6765 6768 6771 6773 6776 6779 6782 6784 6787 6790 6793 6796 6799 6802 6805 6808 6810 6813 6816 6819 6822 6825 6828 6831 6834 6837 6840 6843 6846 6849 6852 6855 6858 6861 6864 6867 6870 6873 6876 6879 6882 6885 6888 6891 6894 6897 6900 6903 6906 6909 6912 6915 6918 6921 6924 6927 6930 6933 6936 6938 6941 6944 6947 6949 6952 6955 6958 6961 6964 6967 6970 6973 6976 6979 6981 6984 6987 6990 6993 6996 6999 7002 7005 7008 7011 7014 7017 7020 7023 7026 7029 7032 7035 7038 7041 7044 7047 7050 7053 7056 7059 7062 7065 7068 7071 7073 7076 7079 7082 7085 7088 7090 7093 7096 7099 7102 7105 7108 7110 7113 7116 7119 7121 7124 7127 7130 7133 7136 7138 7141 7144 7147 7150 7153 7156 7158 7161 7164 7166 7169 7171 7174 7176 7179 7182 7184 7187 7189 7192 7195 7198 7201 7204 7207 7210 7213 7215 7218 7220 7223 7226 7229 7231 7234 7237 7240 7242 7245 7248 7251 7254 7257 7260 7263 7266 7269 7272 7275 7278 7281 7284 7287 7290 7293 7296 7299 7302 7305 7308 7311 7314 7317 7320 7322 7325 7328 7331 7333 7336 7339 7342 7345 7348 7351 7354 7356 7359 7362 7365 7368 7371 7373 7376 7379 7382 7385 7388 7391 7394 7397 7400 7403 7406 7409 7412 7415 7418 7421 7424 7427 7430 7433 7436 7439 7442 7445 7448 7451 7454 7457 7459 7462 7465 7468 7471 7474 7476 7478 7480 7483 7485 7488 7491 7494 7497 7500 7503 7506 7508 7511 7514 7516 7519 7522 7525 7527 7530 7532 7535 7538 7541 7544 7547 7550 7553 7556 7559 7562 7565 7568 7570 7573 7576 7578 7581 7584 7586 7589 7592 7595 7598 7601 7604 7607 7609 7612 7615 7618 7621 7624 7627 7630 7633 7636 7639 7642 7645 7648 7651 7654 7657 7660 7663 7666 7669 7672 7675 7678 7681 7684 7687 7690 7693 7696 7698 7701 7704 7707 7709 7712 7715 7718 7721 7724 7727 7729 7732 7735 7738 7741 7744 7746 7749 7752 7754 7757 7760 7763 7766 7769 7772 7775 7778 7781 7784 7787 7789 7792 7795 7798 7801 7804 7807 7810 7813 7816 7819 7822 7825 7828 7831 7834 7837 7840 7843 7846 7849 7852 7855 7858 7861 7864 7866 7868 7871 7874 7877 7880 7883 7886 7889 7891 7894 7897 7900 7903 7906 7909 7912 7915 7918 7921 7923 7926 7929 7932 7935 7937 7940 7943 7946 7949 7952 7955 7958 7961 7964 7967 7969 7972 7975 7977 7980 7983 7986 7988 7991 7994 7997 8000 8003 8006 8009 8011 8014 8017 8020 8022 8025 8028 8031 8034 8037 8039 8042 8045 8048 8051 8054 8057 8059 8062 8065 8068 8070 8073 8076 8079 8082 8085 8088 8091 8093 8096 8098 8101 8104 8106 8109 8111 8114 8116 8119 8122 8124 8127 8130 8133 8136 8138 8141 8144 8146 8149 8152 8155 8158 8160 8163 8166 8169 8172 8175 8177 8180 8183 8186 8189 8192 8195 8198 8201 8203 8206 8209 8212 8215 8218 8221 8224 8227 8229 8232 8234 8237 8240 8243 8246 8249 8252 8254 8257 8260 8262 8265 8267 8270 8272 8275 8277 8280 8283 8286 8289 8292 8295 8297 8300 8303 8306 8309 8312 8315 8317 8320 8323 8325 8328 8331 8334 8337 8339 8342 8345 8348 8351 8353 8356 8359 8362 8365 8368 8370 8373 8375 8377 8380 8383 8385 8387 8390 8393 8396 8399 8402 8405 8408 8411 8414 8417 8420 8423 8426 8429 8432 8435 8438 8441 8444 8447 8450 8453 8456 8459 8462 8465 8468 8471 8474 8477 8480 8483 8486 8489 8492 8495 8498 8501 8504 8507 8510 8513 8516 8519 8522 8525 8528 8531 8534 8536 8539 8542 8544 8546 8549 8552 8555 8558 8561 8564 8567 8570 8572 8575 8578 8580 8583 8586 8589 8592 8595 8597 8600 8603 8606 8609 8612 8615 8618 8621 8624 8627 8630 8633 8636 8638 8641 8644 8647 8650 8653 8656 8659 8662 8665 8668 8671 8674 8676 8679 8682 8684 8687 8689 8692 8695 8698 8701 8704 8707 8710 8713 8715 8717 8720 8722 8725 8728 8730 8733 8735 8737 8740 8743 8746 8749 8752 8755 8757 8760 8763 8766 8769 8772 8774 8777 8779 8782 8785 8788 8790 8793 8796 8798 8801 8803 8806 8809 8812 8815 8817 8820 8823 8826 8828 8831 8834 8837 8840 8843 8846 8849 8852 8855 8858 8860 8863 8866 8869 8871 8874 8877 8880 8883 8886 8889 8892 8894 8897 8900 8903 8906 8909 8912 8915 8918 8921 8924 8926 8928 8931 8934 8937 8940 8943 8945 8948 8951 8954 8956 8959 8962 8965 8968 8970 8973 8976 8979 8982 8984 8987 8990 8993 8996 8999 9001 9004 9006 9009 9011 9014 9016 9019 9022 9025 9027 9030 9033 9036 9038 9041 9044 9047 9050 9053 9056 9059 9062 9065 9068 9071 9073 9076 9079 9082 9084 9087 9089 9092 9094 9097 9100 9103 9105 9108 9111 9114 9117 9120 9122 9125 9128 9131 9134 9137 9140 9143 9146 9149 9152 9155 9158 9161 9164 9167 9170 9172 9175 9178 9181 9184 9187 9190 9193 9196 9199 9202 9205 9208 9211 9214 9217 9220 9223 9226 9229 9232 9235 9238 9241 9244 9247 9250 9253 9256 9259 9262 9264 9267 9270 9273 9276 9278 9281 9284 9287 9290 9293 9296 9299 9302 9305 9308 9311 9314 9317 9320 9323 9326 9329 9332 9335 9338 9341 9344 9347 9350 9353 9356 9359 9362 9365 9368 9371 9373 9375 9378 9381 9384 9387 9390 9393 9396 9399 9402 9405 9408 9411 9414 9417 9420 9423 9426 9428 9431 9434 9437 9440 9443 9446 9449 9452 9455 9458 9461 9464 9467 9470 9473 9476 9479 9481 9484 9487 9490 9493 9495 9498 9501 9503 9506 9508 9511 9514 9517 9520 9522 9525 9528 9530 9533 9535 9538 9541 9544 9546 9548 9551 9554 9557 9560 9562 9564 9567 9570 9573 9576 9579 9582 9584 9587 9590 9593 9596 9598 9601 9604 9606 9609 9612 9614 9616 9619 9622 9625 9628 9630 9633 9636 9638 9641 9644 9647 9650 9653 9656 9659 9662 9665 9668 9671 9674 9677 9680 9683 9686 9688 9691 9694 9697 9700 9702 9705 9708 9710 9713 9715 9718 9721 9724 9727 9730 9733 9736 9739 9742 9745 9748 9751 9754 9757 9760 9763 9766 9769 9772 9775 9777 9780 9782 9785 9788 9790 9793 9796 9799 9801 9803 9806 9809 9811 9814 9816 9819 9821 9823 9825 9828 9831 9834 9836 9839 9842 9845 9848 9850 9853 9856 9859 9862 9865 9868 9870 9873 9876 9879 9882 9885 9888 9891 9894 9896 9899 9902 9905 9908 9911 9914 9917 9920 9923 9926 9929 9932 9935 9938 9941 9944 9947 9950 9953 9956 9959 9962 9965 9968 9971 9974 9977 9979 9982 9985 9988 9991 9994 9997 10000 10003 10006 10009 10012 10015 10018 10021 10024 10027 10030 10033 10036 10038 10041 10044 10047 10050 10053 10056 10059 10061 10064 10067 10070 10073 10076 10079 10082 10085 10087 10090 10092 10095 10098 10101 10104 10107 10110 10113 10116 10119 10122 10125 10128 10131 10134 10137 10140 10143 10146 10149 10152 10155 10158 10161 10164 10167 10169 10172 10175 10178 10181 10184 10187 10190 10193 10196 10199 10202 10205 10208 10211 10214 10217 10220 10222 10225 10228 10231 10234 10236 10238 10241 10244 10247 10250 10252 10255 10258 10261 10264 10267 10270 10273 10276 10279 10282 10285 10288 10291 10294 10297 10300 10303 10306 10309 10312 10315 10318 10321 10324 10327 10330 10333 10336 10339 10342 10345 10348 10351 10354 10357 10360 10363 10366 10369 10372 10375 10378 10381 10383 10386 10389 10392 10395 10398 10401 10404 10407 10410 10412 10415 10418 10421 10424 10427 10429 10432 10435 10437 10440 10442 10445 10448 10451 10454 10457 10460 10463 10465 10468 10471 10474 10477 10480 10483 10486 10489 10492 10495 10497 10500 10503 10506 10509 10512 10514 10517 10520 10523 10526 10529 10532 10535 10538 10541 10544 10547 10550 10553 10556 10559 10562 10565 10568 10571 10574 10577 10580 10583 10586 10589 10592 10595 10598 10601 10604 10607 10610 10613 10616 10619 10622 10625 10628 10631 10634 10637 10640 10643 10646 10649 10652 10654 10657 10660 10663 10665 10668 10671 10674 10676 10679 10682 10685 10688 10690 10693 10696 10699 10702 10705 10708 10711 10713 10716 10719 10722 10725 10728 10730 10732 10735 10738 10741 10743 10746 10749 10752 10755 10757 10760 10763 10766 10769 10771 10773 10776 10779 10782 10784 10787 10790 10792 10795 10797 10800 10803 10806 10809 10811 10814 10817 10819 10822 10825 10827 10829 10832 10835 10837 10840 10843 10845 10848 10850 10853 10855 10857 10860 10863 10865 10868 10871 10874 10877 10880 10882 10885 10887 10890 10893 10896 10899 10902 10905 10908 10911 10914 10917 10920 10923 10926 10929 10932 10935 10938 10941 10944 10947 10950 10953 10956 10959 10962 10965 10968 10970 10972 10975 10978 10980 10983 10986 10989 10991 10994 10997 11000 11002 11004 11007 11010 11013 11015 11018 11020 11023 11026 11029 11032 11034 11037 11040 11043 11045 11048 11051 11054 11057 11060 11062 11064 11067 11070 11073 11076 11079 11082 11085 11088 11091 11094 11097 11099 11102 11105 11107 11109 11112 11115 11118 11121 11124 11127 11130 11133 11136 11139 11142 11145 11148 11151 11153 11156 11158 11161 11164 11167 11170 11173 11176 11179 11181 11184 11187 11190 11193 11196 11199 11202 11205 11208 11211 11214 11216 11219 11222 11224 11227 11230 11232 11235 11238 11241 11244 11247 11250 11253 11256 11259 11261 11263 11266 11269 11272 11275 11278 11281 11284 11287 11290 11293 11296 11298 11301 11304 11307 11310 11313 11316 11319 11322 11325 11328 11331 11334 11337 11340 11343 11345 11348 11351 11354 11357 11360 11363 11366 11369 11372 11375 11377 11380 11383 11386 11389 11392 11395 11398 11400 11403 11406 11409 11412 11415 11418 11420 11423 11426 11429 11432 11435 11438 11441 11444 11447 11450 11453 11455 11458 11461 11464 11467 11470 11472 11475 11478 11481 11483 11486 11489 11492 11495 11498 11501 11504 11507 11510 11513 11516 11519 11522 11525 11528 11530 11533 11536 11538 11541 11543 11546 11549 11552 11555 11558 11561 11564 11566 11568 11571 11574 11577 11579 11582 11585 11588 11591 11594 11597 11600 11603 11606 11609 11612 11615 11617 11620 11622 11625 11627 11630 11633 11636 11639 11642 11645 11647 11650 11653 11656 11658 11661 11664 11667 11670 11673 11676 11678 11681 11684 11687 11690 11693 11696 11699 11702 11705 11708 11711 11714 11717 11720 11723 11726 11729 11732 11735 11738 11741 11744 11747 11750 11753 11756 11759 11762 11764 11767 11770 11773 11776 11779 11782 11785 11788 11790 11793 11795 11798 11800 11803 11806 11809 11812 11815 11818 11821 11824 11827 11830 11833 11836 11839 11842 11845 11848 11851 11854 11857 11860 11863 11866 11869 11872 11875 11878 11881 11884 11887 11890 11893 11895 11897 11900 11903 11905 11907 11910 11912 11915 11918 11921 11924 11927 11930 11932 11935 11937 11940 11943 11946 11949 11952 11955 11958 11961 11964 11967 11970 11973 11976 11979 11982 11985 11988 11991 11994 11997 12000 12003 12006 12009 12012 12015 12018 12021 12024 12027 12030 12033 12036 12039 12042 12045 12048 12051 12054 12057 12060 12063 12066 12069 12072 12075 12077 12080 12083 12086 12089 12092 12095 12098 12101 12104 12107 12109 12112 12115 12118 12121 12124 12127 12130 12133 12136 12139 12142 12145 12148 12151 12154 12157 12160 12163 12166 12169 12172 12175 12178 12181 12184 12187 12190 12193 12196 12199 12202 12205 12208 12211 12214 12217 12220 12223 12226 12229 12232 12235 12238 12241 12244 12247 12250 12253 12256 12259 12262 12265 12268 12271 12274 12277 12280 12283 12286 12289 12292 12295 12298 12301 12304 12307 12310 12313 12316 12319 12322 12325 12328 12331 12334 12337 12340 12342 12345 12348 12351 12354 12357 12360 12362 12365 12368 12371 12374 12376 12379 12382 12384 12387 12390 12393 12396 12399 12402 12405 12408 12411 12414 12417 12420 12423 12426 12429 12432 12435 12438 12441 12444 12447 12450 12453 12456 12459 12462 12465 12468 12471 12474 12477 12480 12483 12486 12489 12492 12495 12498 12501 12503 12506 12509 12512 12515 12518 12521 12524 12527 12530 12532 12535 12538 12541 12544 12547 12550 12553 12556 12559 12562 12565 12568 12571 12574 12577 12580 12583 12586 12588 12591 12594 12597 12600 12603 12606 12609 12612 12614 12617 12620 12623 12626 12629 12632 12635 12638 12641 12644 12647 12650 12653 12656 12659 12662 12665 12668 12671 12674 12677 12680 12683 12686 12689 12692 12695 12698 12701 12704 12706 12708 12710 12713 12716 12719 12722 12725 12728 12730 12733 12736 12739 12742 12745 12748 12751 12754 12757 12760 12763 12766 12769 12772 12775 12778 12781 12784 12787 12790 12793 12796 12798 12801 12804 12807 12809 12811 12814 12817 12819 12822 12825 12828 12831 12834 12837 12840 12843 12846 12848 12850 12853 12856 12858 12861 12863 12866 12868 12871 12874 12876 12879 12882 12885 12888 12891 12894 12897 12900 12903 12906 12909 12912 12915 12918 12921 12924 12927 12930 12933 12935 12938 12941 12944 12947 12950 12953 12956 12959 12962 12965 12968 12971 12974 12977 12980 12982 12985 12987 12990 12993 12995 12997 13000 13003 13006 13009 13012 13015 13018 13021 13024 13027 13029 13032 13034 13037 13040 13042 13044 13047 13050 13053 13056 13058 13061 13063 13066 13069 13072 13075 13078 13080 13083 13086 13089 13092 13095 13098 13101 13104 13107 13110 13113 13116 13119 13122 13124 13127 13130 13133 13136 13139 13142 13145 13148 13151 13154 13157 13159 13162 13165 13168 13170 13173 13175 13178 13181 13184 13187 13189 13192 13195 13197 13199 13202 13204 13207 13210 13212 13215 13218 13221 13223 13226 13229 13232 13234 13237 13239 13242 13244 13247 13250 13253 13256 13259 13262 13265 13268 13270 13273 13276 13278 13281 13284 13287 13290 13293 13295 13298 13301 13304 13307 13310 13313 13316 13319 13321 13324 13327 13330 13333 13336 13339 13342 13345 13347 13350 13353 13356 13359 13361 13364 13367 13369 13372 13375 13378 13381 13383 13386 13389 13392 13395 13398 13401 13404 13407 13409 13412 13415 13418 13421 13423 13426 13429 13432 13434 13436 13439 13441 13444 13447 13450 13452 13455 13458 13461 13463 13466 13469 13471 13474 13477 13480 13482 13485 13488 13491 13494 13497 13500 13503 13506 13508 13510 13513 13515 13518 13521 13524 13526 13529 13532 13535 13537 13540 13542 13545 13548 13551 13553 13555 13558 13561 13563 13566 13568 13571 13574 13577 13580 13583 13586 13589 13592 13595 13598 13601 13604 13607 13610 13613 13616 13619 13621 13624 13626 13629 13632 13635 13638 13641 13644 13647 13649 13652 13655 13658 13661 13664 13667 13669 13672 13675 13678 13681 13684 13686 13689 13692 13695 13698 13701 13704 13707 13710 13713 13716 13719 13722 13725 13728 13731 13734 13737 13740 13742 13745 13748 13751 13753 13756 13759 13762 13765 13768 13771 13774 13776 13779 13782 13785 13788 13790 13792 13795 13798 13801 13804 13807 13809 13812 13815 13818 13821 13824 13827 13830 13833 13836 13839 13842 13845 13848 13851 13853 13856 13859 13861 13864 13867 13870 13873 13876 13879 13881 13883 13886 13889 13892 13895 13898 13901 13904 13907 13910 13913 13916 13919 13921 13924 13927 13930 13933 13936 13939 13942 13945 13948 13951 13954 13956 13959 13962 13964 13967 13970 13973 13976 13979 13982 13985 13988 13990 13993 13996 13999 14001 14003 14006 14009 14012 14015 14018 14021 14024 14027 14030 14033 14036 14039 14042 14045 14048 14051 14054 14057 14060 14063 14066 14069 14072 14075 14078 14081 14084 14087 14090 14093 14096 14099 14102 14105 14108 14111 14114 14117 14120 14123 14126 14129 14132 14135 14138 14141 14144 14147 14150 14153 14156 14159 14161 14164 14167 14170 14172 14175 14178 14180 14183 14186 14189 14192 14195 14198 14201 14203 14206 14209 14212 14215 14218 14221 14224 14226 14229 14232 14235 14238 14241 14244 14247 14249 14252 14255 14258 14261 14264 14267 14270 14273 14276 14279 14282 14285 14288 14291 14294 14297 14300 14302 14305 14308 14311 14314 14317 14320 14323 14326 14329 14331 14334 14337 14340 14343 14346 14349 14352 14355 14358 14361 14364 14367 14370 14373 14376 14379 14382 14385 14388 14391 14394 14397 14400 14403 14406 14409 14412 14415 14418 14421 14424 14427 14430 14433 14436 14439 14442 14445 14448 14451 14454 14457 14460 14463 14466 14469 14472 14475 14477 14480 14483 14486 14489 14492 14495 14498 14501 14504 14507 14510 14512 14515 14517 14519 14522 14525 14527 14530 14533 14536 14538 14540 14542 14545 14547 14550 14552 14555 14557 14560 14563 14565 14568 14571 14574 14576 14578 14581 14584 14587 14590 14593 14596 14599 14602 14605 14608 14611 14614 14617 14620 14623 14626 14629 14632 14635 14638 14641 14644 14647 14650 14653 14656 14659 14662 14665 14667 14670 14673 14676 14678 14680 14683 14686 14689 14692 14694 14697 14699 14702 14705 14707 14710 14713 14716 14718 14721 14723 14726 14729 14732 14735 14738 14741 14744 14747 14750 14753 14756 14759 14762 14765 14768 14771 14773 14776 14779 14782 14785 14787 14789 14792 14795 14797 14800 14803 14806 14809 14812 14815 14818 14821 14824 14826 14829 14832 14835 14838 14841 14844 14847 14850 14853 14856 14859 14861 14864 14867 14870 14873 14876 14879 14881 14883 14886 14889 14892 14895 14897 14900 14903 14906 14909 14912 14915 14918 14921 14924 14927 14930 14933 14936 14939 14942 14945 14948 14950 14953 14956 14958 14961 14964 14967 14970 14973 14976 14979 14982 14985 14988 14991 14994 14996 14999 15002 15005 15008 15011 15014 15017 15020 15022 15025 15028 15031 15034 15036 15039 15042 15045 15047 15050 15053 15056 15059 15062 15065 15068 15071 15074 15077 15080 15083 15086 15088 15091 15094 15097 15100 15103 15106 15109 15112 15115 15118 15121 15124 15127 15130 15133 15136 15139 15142 15145 15148 15151 15154 15157 15160 15163 15166 15169 15172 15175 15178 15180 15182 15185 15188 15191 15194 15197 15200 15203 15206 15209 15212 15215 15218 15220 15223 15226 15229 15232 15235 15238 15240 15243 15246 15249 15251 15254 15257 15259 15262 15264 15267 15270 15272 15274 15277 15280 15283 15286 15289 15292 15295 15298 15301 15304 15307 15310 15313 15316 15319 15322 15325 15328 15330 15333 15336 15339 15342 15345 15348 15351 15354 15357 15360 15363 15366 15369 15371 15374 15377 15380 15383 15386 15388 15391 15394 15397 15400 15403 15406 15409 15412 15415 15418 15421 15424 15427 15430 15433 15436 15439 15442 15445 15448 15451 15454 15457 15460 15463 15466 15469 15472 15475 15478 15480 15483 15485 15488 15491 15494 15497 15499 15502 15505 15508 15511 15514 15516 15519 15522 15525 15528 15531 15534 15537 15540 15543 15546 15549 15552 15555 15558 15561 15564 15567 15569 15572 15575 15578 15581 15583 15586 15589 15592 15595 15598 15601 15604 15607 15610 15613 15616 15619 15622 15625 15628 15631 15634 15637 15640 15642 15645 15648 15651 15654 15657 15660 15663 15666 15669 15672 15675 15678 15681 15684 15687 15690 15693 15696 15699 15701 15704 15707 15710 15713 15716 15719 15722 15725 15728 15730 15733 15736 15739 15742 15745 15748 15751 15754 15757 15760 15763 15766 15769 15772 15775 15778 15781 15784 15787 15790 15793 15796 15799 15802 15805 15808 15811 15814 15817 15820 15823 15826 15829 15832 15835 15838 15841 15844 15847 15850 15853 15856 15859 15862 15865 15868 15871 15874 15877 15880 15883 15886 15889 15892 15895 15898 15901 15904 15906 15909 15912 15915 15918 15921 15923 15926 15929 15932 15935 15938 15941 15944 15947 15950 15953 15956 15959 15962 15965 15968 15971 15974 15976 15979 15981 15983 15986 15989 15992 15995 15997 15999 16002 16005 16008 16011 16014 16017 16020 16023 16026 16029 16032 16035 16038 16041 16044 16047 16050 16052 16055 16058 16061 16064 16067 16069 16072 16075 16078 16081 16083 16086 16089 16092 16094 16097 16100 16102 16105 16108 16111 16114 16117 16120 16123 16126 16129 16132 16135 16137 16140 16143 16146 16149 16152 16155 16158 16161 16164 16167 16170 16173 16176 16179 16182 16185 16188 16191 16194 16197 16200 16203 16206 16209 16212 16215 16218 16221 16224 16227 16230 16233 16236 16239 16242 16245 16248 16251 16254 16257 16260 16263 16266 16269 16272 16275 16277 16280 16283 16286 16289 16292 16295 16297 16300 16303 16306 16309 16312 16315 16318 16321 16324 16326 16329 16332 16334 16337 16340 16343 16346 16349 16351 16354 16357 16359 16362 16365 16368 16371 16374 16377 16380 16382 16385 16388 16391 16394 16397 16400 16403 16406 16409 16412 16415 16417 16420 16423 16426 16429 16432 16435 16438 16441 16444 16447 16450 16452 16455 16458 16460 16463 16466 16469 16472 16475 16477 16480 16483 16486 16489 16492 16495 16498 16501 16503 16506 16509 16512 16515 16518 16521 16524 16527 16530 16533 16536 16539 16542 16545 16548 16551 16554 16557 16560 16563 16566 16569 16572 16575 16578 16581 16584 16587 16590 16593 16596 16599 16602 16605 16608 16611 16614 16616 16619 16621 16624 16627 16630 16633 16636 16639 16642 16645 16648 16651 16654 16657 16660 16663 16666 16668 16670 16673 16676 16679 16682 16685 16688 16691 16693 16696 16698 16701 16704 16706 16709 16711 16714 16717 16720 16723 16726 16729 16732 16735 16738 16741 16744 16747 16750 16753 16756 16759 16762 16764 16767 16770 16773 16775 16778 16781 16784 16787 16790 16793 16796 16798 16801 16804 16807 16810 16813 16816 16819 16822 16825 16828 16830 16833 16836 16838 16841 16844 16846 16849 16852 16855 16858 16861 16864 16867 16870 16873 16876 16879 16881 16884 16887 16890 16893 16896 16898 16901 16904 16907 16910 16913 16916 16919 16922 16925 16927 16930 16932 16935 16938 16941 16944 16947 16950 16953 16956 16959 16962 16964 16967 16970 16973 16976 16979 16981 16984 16987 16990 16992 16995 16998 17001 17003 17005 17008 17010 17013 17016 17018 17021 17023 17026 17029 17032 17034 17037 17040 17042 17044 17047 17050 17053 17055 17058 17061 17064 17066 17069 17072 17075 17078 17081 17084 17087 17090 17093 17096 17099 17102 17105 17108 17111 17114 17117 17120 17123 17126 17129 17131 17134 17137 17140 17143 17145 17147 17149 17152 17155 17158 17161 17163 17165 17167 17170 17172 17175 17178 17180 17183 17186 17188 17191 17194 17197 17199 17202 17205 17208 17211 17214 17217 17220 17223 17226 17229 17232 17235 17238 17241 17244 17247 17249 17252 17255 17257 17260 17263 17266 17269 17272 17275 17277 17280 17283 17286 17289 17292 17294 17297 17299 17302 17305 17308 17311 17313 17316 17319 17322 17324 17327 17330 17333 17336 17339 17342 17345 17348 17351 17354 17357 17360 17362 17365 17368 17371 17374 17376 17379 17382 17385 17388 17391 17394 17396 17399 17402 17405 17408 17411 17414 17417 17420 17423 17425 17428 17431 17433 17436 17439 17442 17445 17448 17451 17454 17457 17460 17463 17466 17469 17472 17475 17478 17481 17484 17486 17489 17492 17495 17498 17500 17503 17506 17509 17512 17515 17517 17520 17523 17526 17529 17531 17534 17537 17539 17542 17544 17547 17550 17552 17555 17558 17561 17564 17567 17569 17572 17574 17577 17580 17583 17586 17589 17592 17595 17598 17601 17604 17607 17610 17613 17615 17618 17621 17624 17626 17629 17631 17634 17637 17639 17642 17645 17647 17650 17653 17656 17658 17661 17664 17667 17669 17672 17675 17678 17681 17684 17687 17689 17691 17694 17697 17700 17703 17705 17708 17711 17714 17716 17719 17722 17725 17728 17730 17732 17735 17738 17741 17744 17747 17750 17753 17756 17758 17761 17764 17766 17769 17772 17775 17778 17780 17783 17786 17789 17792 17795 17798 17800 17803 17806 17808 17811 17814 17817 17820 17822 17825 17828 17831 17834 17837 17840 17842 17845 17848 17851 17854 17857 17859 17862 17865 17868 17871 17874 17877 17879 17882 17885 17887 17890 17893 17896 17899 17902 17905 17908 17911 17913 17916 17919 17922 17924 17927 17930 17933 17936 17939 17942 17945 17948 17951 17953 17956 17959 17962 17965 17968 17971 17974 17977 17980 17983 17986 17989 17992 17995 17998 18001 18004 18007 18010 18013 18015 18018 18020 18023 18025 18028 18031 18034 18037 18040 18043 18046 18049 18051 18054 18057 18060 18063 18066 18069 18072 18075 18078 18081 18084 18087 18089 18092 18095 18098 18101 18104 18107 18110 18112 18115 18118 18121 18124 18127 18130 18133 18136 18138 18141 18144 18147 18150 18153 18155 18158 18161 18164 18167 18169 18172 18175 18178 18181 18184 18187 18190 18193 18196 18199 18202 18205 18208 18211 18214 18217 18220 18223 18226 18229 18232 18235 18238 18241 18244 18247 18250 18253 18256 18259 18262 18265 18268 18271 18273 18276 18279 18282 18285 18288 18290 18293 18296 18299 18302 18305 18308 18311 18314 18316 18319 18322 18325 18328 18331 18334 18337 18340 18343 18346 18349 18352 18355 18358 18361 18364 18366 18369 18371 18374 18377 18380 18383 18386 18389 18392 18395 18398 18401 18404 18407 18410 18413 18416 18419 18422 18424 18427 18429 18432 18435 18437 18440 18443 18445 18448 18451 18454 18456 18459 18462 18465 18468 18471 18474 18477 18480 18483 18486 18489 18492 18495 18497 18500 18503 18505 18508 18511 18514 18516 18518 18521 18524 18527 18529 18531 18534 18536 18539 18541 18544 18547 18550 18553 18556 18559 18562 18564 18567 18570 18573 18576 18579 18582 18585 18588 18591 18593 18596 18599 18601 18604 18607 18610 18613 18616 18619 18622 18625 18627 18630 18633 18636 18639 18641 18644 18647 18650 18652 18655 18657 18659 18662 18665 18668 18671 18674 18677 18680 18683 18686 18689 18692 18695 18698 18701 18704 18707 18710 18713 18716 18719 18722 18725 18728 18731 18733 18736 18739 18742 18745 18747 18749 18752 18755 18758 18761 18764 18767 18769 18772 18775 18777 18780 18782 18785 18788 18791 18794 18797 18800 18803 18806 18809 18812 18814 18817 18820 18823 18826 18829 18832 18835 18838 18841 18844 18846 18848 18851 18854 18856 18859 18862 18865 18868 18871 18874 18877 18880 18883 18886 18889 18891 18894 18897 18900 18903 18906 18909 18912 18915 18918 18921 18924 18927 18930 18933 18936 18939 18942 18945 18948 18951 18954 18957 18960 18963 18966 18969 18972 18975 18978 18981 18983 18986 18988 18991 18994 18997 19000 19003 19006 19009 19012 19015 19018 19021 19024 19027 19030 19032 19035 19038 19041 19044 19047 19050 19053 19056 19059 19062 19065 19068 19071 19074 19077 19080 19083 19086 19089 19092 19095 19098 19101 19104 19107 19110 19112 19115 19118 19121 19124 19127 19130 19133 19136 19139 19142 19145 19148 19151 19154 19156 19159 19162 19165 19168 19171 19174 19177 19180 19183 19186 19189 19192 19195 19198 19201 19203 19206 19209 19211 19214 19217 19220 19222 19225 19228 19231 19234 19237 19239 19242 19245 19248 19251 19254 19257 19260 19263 19266 19269 19272 19275 19278 19281 19284 19287 19289 19292 19295 19298 19301 19304 19307 19310 19313 19316 19319 19322 19325 19328 19331 19334 19337 19340 19342 19345 19348 19351 19354 19357 19360 19363 19366 19369 19372 19375 19378 19381 19384 19387 19390 19393 19396 19399 19402 19405 19408 19411 19414 19417 19420 19423 19426 19429 19431 19434 19437 19440 19443 19445 19448 19451 19454 19457 19460 19463 19466 19468 19471 19474 19477 19480 19483 19486 19489 19492 19495 19497 19500 19503 19506 19509 19512 19515 19518 19521 19524 19527 19530 19533 19535 19538 19541 19544 19547 19550 19553 19556 19558 19561 19564 19567 19569 19572 19575 19578 19581 19584 19587 19590 19593 19596 19599 19602 19605 19608 19611 19614 19617 19620 19623 19626 19629 19632 19635 19638 19640 19643 19646 19649 19652 19655 19658 19661 19664 19667 19670 19673 19676 19679 19681 19684 19686 19689 19692 19695 19698 19701 19704 19707 19710 19713 19716 19719 19722 19725 19728 19731 19733 19735 19738 19741 19744 19747 19750 19753 19755 19757 19760 19763 19766 19769 19772 19775 19778 19781 19784 19787 19790 19793 19796 19799 19802 19805 19808 19811 19814 19817 19819 19822 19825 19828 19830 19833 19836 19839 19842 19845 19847 19850 19852 19855 19858 19861 19864 19867 19870 19873 19876 19879 19882 19885 19887 19890 19893 19896 19899 19901 19904 19907 19910 19913 19916 19919 19922 19925 19928 19931 19934 19937 19940 19943 19945 19948 19951 19953 19956 19959 19962 19965 19967 19970 19973 19976 19978 19981 19984 19987 19990 19993 19996 19999 20002 20005 20008 20010 20013 20016 20019 20022 20025 20028 20031 20034 20037 20040 20043 20045 20048 20051 20054 20057 20060 20063 20066 20069 20072 20074 20077 20080 20083 20086 20088 20090 20093 20095 20098 20101 20104 20106 20109 20112 20115 20118 20121 20124 20126 20129 20132 20135 20138 20141 20144 20147 20150 20153 20156 20159 20162 20164 20167 20170 20173 20176 20179 20182 20184 20187 20190 20193 20196 20199 20202 20205 20208 20211 20213 20216 20219 20222 20225 20227 20229 20232 20235 20238 20241 20244 20247 20250 20253 20256 20259 20262 20265 20268 20271 20274 20277 20280 20283 20286 20289 20292 20295 20298 20301 20304 20307 20310 20313 20316 20319 20322 20325 20328 20331 20334 20337 20340 20343 20346 20349 20352 20355 20358 20361 20364 20367 20370 20373 20376 20379 20382 20385 20388 20391 20394 20397 20400 20402 20404 20407 20410 20413 20416 20419 20422 20425 20428 20430 20433 20435 20438 20441 20444 20447 20450 20452 20455 20458 20461 20464 20467 20469 20472 20475 20478 20481 20484 20487 20490 20493 20495 20497 20500 20503 20506 20509 20512 20515 20517 20520 20522 20525 20528 20531 20534 20537 20540 20543 20546 20549 20552 20555 20558 20561 20564 20567 20570 20573 20576 20579 20582 20585 20588 20591 20594 20597 20600 20603 20606 20609 20612 20615 20618 20621 20624 20627 20630 20633 20636 20639 20642 20645 20648 20651 20654 20656 20659 20662 20665 20668 20671 20674 20677 20680 20683 20686 20689 20692 20695 20697 20700 20703 20706 20708 20711 20714 20716 20719 20722 20725 20728 20731 20734 20737 20740 20743 20746 20749 20752 20755 20758 20761 20764 20767 20770 20773 20776 20779 20781 20784 20787 20790 20793 20795 20798 20801 20803 20806 20809 20812 20815 20817 20820 20823 20826 20829 20832 20834 20837 20840 20843 20846 20849 20852 20855 20857 20860 20863 20866 20869 20872 20875 20878 20881 20884 20886 20888 20891 20894 20897 20899 20902 20905 20907 20910 20912 20915 20918 20921 20924 20927 20930 20933 20936 20939 20942 20945 20948 20951 20954 20957 20960 20963 20966 20969 20972 20975 20977 20980 20983 20986 20989 20992 20995 20998 21001 21003 21006 21008 21010 21013 21015 21017 21020 21023 21025 21027 21030 21033 21036 21038 21040 21043 21046 21049 21052 21055 21057 21060 21063 21066 21068 21070 21072 21075 21078 21080 21083 21086 21089 21092 21094 21097 21099 21102 21105 21108 21111 21114 21117 21120 21123 21125 21128 21131 21134 21136 21138 21141 21144 21146 21148 21151 21154 21157 21159 21162 21165 21168 21171 21174 21176 21179 21182 21185 21187 21190 21193 21196 21199 21202 21205 21208 21211 21214 21217 21220 21223 21226 21228 21231 21233 21236 21238 21241 21243 21246 21248 21251 21254 21257 21260 21263 21265 21267 21270 21273 21276 21279 21282 21285 21288 21290 21292 21295 21298 21300 21303 21305 21307 21310 21312 21315 21318 21320 21323 21326 21329 21332 21335 21337 21340 21343 21346 21348 21351 21353 21356 21359 21362 21365 21368 21371 21374 21377 21380 21383 21386 21389 21392 21395 21397 21399 21402 21405 21408 21411 21414 21417 21420 21423 21426 21429 21432 21435 21438 21441 21444 21447 21450 21453 21456 21458 21461 21464 21466 21469 21472 21475 21478 21480 21483 21486 21489 21492 21494 21497 21500 21502 21505 21507 21510 21513 21516 21519 21522 21525 21528 21531 21534 21537 21540 21543 21546 21549 21552 21555 21558 21561 21563 21566 21569 21572 21575 21577 21580 21582 21585 21588 21591 21594 21597 21600 21603 21606 21609 21612 21615 21618 21621 21624 21627 21630 21633 21636 21639 21642 21645 21648 21651 21654 21657 21660 21663 21666 21669 21672 21675 21678 21681 21684 21687 21689 21691 21694 21696 21699 21702 21705 21707 21710 21713 21716 21719 21721 21724 21727 21730 21733 21735 21738 21741 21744 21747 21750 21753 21756 21759 21762 21765 21768 21770 21773 21775 21778 21781 21783 21786 21789 21791 21794 21797 21800 21803 21806 21809 21812 21815 21818 21821 21824 21827 21830 21833 21836 21839 21841 21844 21847 21850 21853 21856 21859 21862 21865 21867 21870 21873 21876 21879 21882 21885 21888 21891 21894 21896 21899 21902 21905 21908 21911 21914 21917 21920 21923 21926 21928 21931 21934 21937 21940 21943 21946 21949 21952 21955 21958 21961 21964 21966 21969 21972 21974 21977 21980 21983 21986 21989 21991 21994 21996 21999 22002 22005 22008 22011 22014 22017 22020 22023 22026 22028 22031 22034 22036 22039 22042 22045 22047 22050 22053 22056 22058 22061 22064 22067 22070 22073 22076 22078 22081 22084 22087 22090 22093 22096 22099 22102 22104 22107 22110 22113 22116 22119 22122 22125 22128 22131 22133 22135 22138 22141 22144 22147 22150 22153 22156 22159 22162 22165 22168 22171 22174 22177 22180 22183 22186 22189 22192 22195 22198 22201 22204 22207 22210 22213 22216 22219 22222 22225 22228 22231 22234 22236 22239 22242 22245 22248 22251 22254 22257 22260 22263 22266 22269 22272 22275 22278 22281 22284 22286 22289 22292 22295 22298 22301 22304 22307 22310 22313 22316 22319 22322 22325 22328 22331 22334 22337 22340 22343 22346 22349 22352 22355 22358 22361 22364 22367 22370 22373 22376 22379 22381 22384 22387 22390 22393 22396 22398 22400 22403 22406 22409 22412 22414 22417 22420 22423 22425 22428 22430 22433 22436 22439 22442 22445 22448 22451 22454 22457 22460 22463 22466 22469 22471 22474 22477 22480 22483 22486 22489 22492 22495 22498 22501 22504 22506 22509 22512 22515 22517 22520 22523 22526 22528 22531 22534 22537 22540 22543 22546 22549 22552 22555 22558 22561 22564 22567 22570 22573 22575 22578 22581 22584 22587 22590 22593 22595 22598 22601 22604 22607 22610 22613 22616 22619 22622 22625 22628 22631 22634 22637 22640 22643 22646 22649 22652 22654 22657 22660 22663 22666 22669 22672 22675 22678 22681 22684 22687 22689 22692 22695 22697 22700 22702 22705 22707 22709 22712 22715 22718 22721 22724 22726 22729 22732 22735 22738 22741 22744 22747 22750 22753 22756 22759 22762 22765 22768 22771 22774 22777 22780 22783 22786 22788 22791 22794 22797 22800 22803 22806 22809 22812 22815 22818 22821 22824 22827 22830 22833 22835 22838 22841 22844 22847 22850 22853 22856 22859 22862 22865 22868 22871 22874 22877 22880 22883 22886 22888 22891 22894 22897 22900 22903 22905 22908 22911 22914 22917 22920 22923 22926 22929 22931 22934 22937 22940 22943 22945 22948 22951 22953 22956 22959 22962 22965 22967 22970 22973 22976 22979 22982 22985 22987 22990 22992 22995 22998 23001 23004 23007 23010 23013 23016 23019 23022 23025 23028 23031 23034 23037 23040 23043 23046 23049 23052 23055 23058 23061 23064 23067 23070 23073 23076 23079 23082 23085 23088 23091 23094 23097 23100 23103 23106 23109 23112 23115 23118 23120 23123 23126 23129 23132 23134 23137 23140 23142 23145 23148 23151 23154 23157 23160 23163 23166 23169 23172 23175 23178 23181 23184 23187 23189 23192 23195 23198 23201 23204 23207 23210 23213 23216 23219 23222 23225 23228 23231 23234 23237 23240 23243 23246 23249 23252 23255 23258 23261 23264 23267 23270 23272 23275 23277 23280 23283 23286 23289 23292 23295 23298 23301 23304 23307 23310 23313 23315 23318 23321 23324 23327 23330 23332 23335 23338 23341 23343 23346 23349 23352 23355 23358 23361 23364 23366 23369 23372 23375 23378 23380 23383 23386 23389 23392 23395 23398 23401 23404 23407 23409 23412 23415 23418 23421 23424 23427 23430 23433 23436 23439 23442 23445 23448 23451 23454 23457 23460 23463 23466 23469 23472 23475 23477 23480 23482 23485 23488 23491 23494 23497 23500 23503 23506 23509 23511 23514 23517 23520 23523 23526 23529 23532 23535 23538 23541 23544 23547 23550 23553 23556 23559 23562 23565 23568 23571 23574 23577 23580 23583 23586 23589 23592 23595 23598 23601 23604 23607 23610 23613 23616 23619 23622 23625 23628 23631 23634 23637 23640 23643 23646 23649 23651 23654 23657 23660 23663 23666 23668 23671 23674 23677 23680 23683 23686 23689 23692 23695 23698 23701 23704 23707 23710 23713 23716 23719 23722 23725 23728 23731 23734 23737 23739 23742 23745 23748 23750 23753 23756 23759 23762 23765 23768 23770 23773 23776 23779 23782 23784 23787 23790 23793 23796 23799 23802 23805 23808 23811 23814 23817 23820 23822 23825 23828 23831 23834 23837 23840 23843 23846 23849 23852 23855 23858 23861 23863 23866 23869 23871 23874 23877 23880 23883 23886 23889 23891 23894 23897 23900 23903 23906 23909 23911 23913 23916 23919 23921 23924 23927 23930 23933 23936 23939 23941 23944 23947 23950 23953 23956 23959 23962 23965 23968 23971 23974 23977 23980 23983 23986 23989 23992 23995 23998 24001 24004 24007 24010 24012 24015 24018 24021 24023 24026 24029 24032 24035 24038 24041 24044 24046 24049 24052 24055 24058 24061 24064 24067 24070 24073 24076 24078 24081 24084 24087 24090 24093 24096 24099 24102 24105 24108 24111 24114 24117 24120 24123 24126 24128 24131 24133 24136 24139 24142 24144 24147 24149 24152 24155 24158 24161 24163 24166 24169 24171 24173 24176 24178 24181 24184 24187 24190 24192 24194 24197 24200 24203 24205 24208 24211 24214 24217 24220 24223 24226 24229 24232 24235 24238 24241 24244 24246 24249 24252 24255 24258 24260 24263 24265 24268 24270 24273 24275 24278 24281 24284 24287 24290 24292 24295 24298 24301 24304 24307 24310 24313 24316 24319 24322 24324 24327 24329 24332 24335 24338 24341 24344 24347 24350 24353 24356 24359 24362 24365 24368 24371 24374 24377 24380 24383 24386 24389 24392 24395 24398 24401 24404 24407 24409 24411 24414 24417 24420 24423 24425 24428 24430 24433 24436 24439 24442 24445 24448 24450 24453 24456 24459 24462 24465 24468 24471 24474 24477 24480 24483 24485 24488 24491 24494 24497 24500 24503 24505 24508 24510 24513 24516 24519 24522 24525 24527 24530 24533 24536 24538 24541 24544 24547 24550 24552 24555 24558 24561 24564 24566 24569 24572 24575 24578 24581 24584 24587 24590 24593 24596 24599 24602 24605 24608 24611 24614 24617 24620 24623 24626 24629 24632 24634 24637 24640 24643 24646 24649 24652 24655 24658 24661 24664 24667 24670 24673 24676 24678 24681 24684 24687 24689 24692 24695 24698 24701 24704 24707 24710 24713 24715 24718 24721 24723 24726 24729 24732 24735 24738 24741 24744 24747 24750 24753 24756 24759 24762 24765 24767 24769 24772 24774 24776 24779 24782 24785 24788 24791 24793 24796 24798 24800 24802 24805 24808 24811 24814 24817 24819 24822 24825 24828 24831 24833 24836 24839 24842 24844 24847 24850 24852 24854 24857 24859 24862 24865 24868 24871 24873 24876 24879 24881 24884 24887 24890 24893 24896 24899 24902 24905 24908 24911 24914 24917 24920 24923 24926 24929 24932 24935 24938 24941 24943 24946 24948 24950 24953 24956 24959 24962 24964 24967 24970 24973 24976 24979 24982 24984 24987 24990 24992 24995 24998 25001 25004 25007 25010 25013 25015 25018 25021 25024 25027 25030 25033 25035 25038 25041 25043 25046 25049 25052 25055 25057 25060 25063 25066 25069 25071 25074 25077 25080 25083 25086 25089 25092 25095 25098 25101 25103 25106 25109 25111 25114 25117 25120 25123 25126 25129 25132 25134 25137 25140 25143 25146 25149 25152 25155 25157 25160 25163 25166 25169 25172 25175 25177 25180 25182 25185 25187 25190 25193 25196 25199 25202 25205 25207 25209 25212 25214 25216 25219 25222 25224 25227 25230 25232 25235 25237 25240 25243 25246 25249 25251 25254 25257 25259 25262 25265 25268 25271 25274 25277 25280 25282 25285 25288 25291 25293 25296 25299 25302 25305 25308 25311 25314 25317 25320 25323 25326 25329 25332 25335 25337 25340 25343 25345 25348 25351 25354 25356 25359 25362 25365 25368 25371 25374 25376 25379 25382 25385 25388 25390 25393 25396 25399 25401 25404 25407 25410 25413 25416 25419 25422 25425 25428 25430 25433 25436 25439 25441 25444 25447 25450 25453 25456 25459 25461 25464 25467 25469 25471 25474 25477 25479 25482 25485 25488 25491 25494 25497 25500 25502 25505 25508 25511 25513 25516 25519 25522 25524 25526 25529 25531 25534 25537 25540 25543 25545 25548 25551 25553 25556 25559 25562 25564 25567 25570 25573 25576 25579 25582 25585 25588 25591 25594 25597 25600 25603 25605 25608 25611 25613 25616 25619 25621 25624 25627 25630 25633 25636 25638 25641 25644 25647 25649 25652 25654 25657 25660 25662 25665 25668 25671 25673 25675 25678 25681 25684 25687 25690 25693 25696 25699 25702 25705 25708 25710 25713 25716 25719 25722 25725 25727 25729 25732 25735 25738 25741 25744 25747 25750 25752 25755 25758 25760 25763 25766 25769 25772 25775 25778 25781 25784 25786 25789 25792 25795 25798 25801 25804 25807 25810 25813 25816 25819 25821 25824 25827 25830 25833 25836 25839 25842 25844 25847 25850 25853 25856 25859 25862 25865 25868 25871 25874 25877 25880 25883 25886 25889 25892 25895 25898 25901 25904 25907 25910 25913 25916 25919 25922 25925 25927 25930 25932 25935 25938 25941 25944 25946 25949 25952 25955 25958 25961 25964 25966 25969 25972 25974 25977 25980 25982 25985 25988 25991 25994 25997 26000 26003 26006 26009 26012 26015 26018 26021 26023 26026 26029 26032 26035 26037 26040 26043 26046 26049 26052 26055 26057 26059 26062 26065 26068 26071 26074 26077 26080 26083 26086 26089 26092 26095 26097 26100 26103 26106 26108 26110 26113 26116 26119 26122 26125 26127 26130 26133 26136 26139 26142 26145 26148 26151 26153 26156 26159 26162 26164 26167 26170 26173 26176 26179 26181 26184 26187 26190 26193 26196 26199 26202 26205 26208 26211 26214 26216 26219 26222 26225 26228 26231 26234 26237 26240 26243 26245 26248 26251 26253 26256 26258 26261 26264 26266 26269 26271 26274 26277 26280 26283 26285 26288 26291 26294 26296 26298 26301 26304 26307 26310 26313 26316 26319 26322 26325 26328 26331 26334 26337 26340 26343 26346 26349 26352 26355 26358 26361 26364 26367 26369 26372 26375 26377 26380 26383 26386 26389 26392 26395 26398 26401 26404 26407 26410 26413 26416 26419 26422 26425 26428 26431 26433 26436 26439 26442 26445 26448 26451 26454 26457 26460 26463 26466 26469 26472 26475 26478 26481 26484 26487 26490 26492 26495 26498 26501 26504 26507 26510 26513 26516 26519 26522 26525 26528 26531 26534 26537 26540 26542 26545 26548 26551 26553 26556 26559 26562 26565 26568 26571 26573 26576 26579 26581 26584 26587 26589 26592 26595 26598 26601 26604 26607 26610 26612 26615 26618 26621 26624 26626 26629 26632 26635 26638 26641 26644 26647 26650 26653 26656 26659 26662 26665 26668 26670 26673 26676 26679 26682 26685 26688 26691 26694 26697 26700 26703 26706 26709 26712 26715 26718 26721 26724 26727 26730 26733 26736 26739 26742 26744 26747 26750 26753 26756 26758 26761 26764 26767 26770 26773 26776 26779 26782 26785 26788 26791 26794 26797 26799 26802 26805 26807 26810 26813 26816 26818 26821 26824 26826 26829 26832 26835 26837 26840 26843 26846 26849 26852 26855 26858 26861 26864 26867 26870 26873 26876 26879 26882 26885 26887 26890 26893 26896 26899 26902 26905 26907 26909 26912 26915 26918 26920 26923 26926 26928 26931 26934 26937 26940 26943 26945 26948 26951 26954 26957 26960 26963 26966 26968 26971 26974 26977 26979 26982 26985 26988 26991 26994 26996 26998 27001 27004 27007 27010 27013 27016 27019 27022 27025 27028 27031 27034 27036 27039 27042 27045 27048 27051 27054 27057 27060 27062 27065 27068 27071 27074 27077 27080 27083 27086 27089 27091 27094 27097 27100 27103 27105 27108 27111 27114 27117 27120 27123 27126 27129 27132 27134 27137 27140 27142 27145 27148 27150 27153 27156 27159 27162 27164 27167 27170 27173 27176 27179 27181 27184 27187 27190 27193 27196 27199 27202 27205 27208 27211 27214 27217 27220 27223 27226 27229 27232 27235 27238 27241 27244 27247 27250 27253 27256 27259 27262 27265 27268 27271 27274 27277 27279 27281 27284 27287 27290 27293 27295 27298 27301 27304 27307 27309 27312 27315 27318 27321 27324 27327 27330 27332 27335 27338 27341 27344 27347 27349 27352 27355 27357 27360 27363 27366 27369 27372 27375 27377 27379 27382 27385 27388 27391 27394 27397 27400 27403 27406 27409 27412 27415 27417 27420 27423 27426 27428 27430 27432 27435 27438 27441 27444 27447 27450 27453 27456 27458 27461 27464 27466 27469 27472 27475 27478 27481 27484 27487 27489 27492 27494 27496 27498 27500 27503 27506 27509 27512 27515 27518 27521 27524 27526 27529 27532 27535 27537 27540 27543 27545 27548 27551 27554 27556 27559 27562 27565 27568 27571 27574 27577 27580 27583 27586 27589 27591 27594 27597 27600 27603 27606 27609 27612 27615 27618 27621 27624 27627 27630 27633 27636 27639 27642 27645 27647 27650 27653 27656 27659 27662 27665 27668 27671 27674 27676 27679 27682 27684 27687 27690 27693 27696 27699 27702 27705 27707 27710 27713 27716 27719 27722 27725 27728 27731 27734 27737 27740 27743 27745 27748 27751 27754 27757 27760 27762 27764 27767 27770 27773 27775 27777 27780 27783 27786 27789 27792 27795 27798 27801 27804 27807 27810 27812 27815 27818 27821 27823 27826 27829 27831 27834 27837 27840 27843 27846 27849 27852 27855 27857 27860 27862 27865 27868 27871 27873 27876 27879 27882 27885 27888 27891 27894 27896 27898 27900 27903 27906 27909 27912 27915 27918 27921 27924 27927 27930 27933 27936 27939 27942 27945 27948 27951 27954 27957 27960 27963 27966 27968 27971 27974 27977 27979 27982 27985 27988 27991 27994 27996 27999 28001 28004 28007 28010 28013 28016 28019 28022 28025 28028 28031 28034 28037 28040 28043 28046 28049 28052 28055 28058 28061 28064 28067 28070 28073 28076 28078 28080 28083 28086 28089 28092 28095 28098 28101 28103 28106 28108 28111 28114 28117 28120 28123 28126 28129 28131 28134 28137 28139 28142 28145 28148 28151 28154 28157 28159 28162 28164 28167 28170 28173 28175 28178 28181 28184 28187 28190 28193 28196 28199 28202 28205 28208 28211 28214 28217 28219 28221 28224 28227 28230 28233 28236 28238 28241 28244 28247 28249 28252 28255 28257 28260 28263 28266 28269 28271 28273 28276 28279 28282 28284 28287 28290 28292 28294 28297 28300 28302 28304 28307 28310 28313 28316 28318 28321 28324 28327 28330 28332 28335 28337 28340 28343 28346 28349 28351 28354 28357 28360 28363 28366 28369 28372 28375 28377 28379 28382 28385 28388 28391 28394 28397 28400 28403 28406 28409 28412 28414 28417 28420 28423 28425 28428 28431 28434 28437 28439 28442 28444 28447 28450 28452 28455 28457 28460 28463 28466 28469 28471 28474 28477 28479 28482 28485 28488 28491 28494 28497 28500 28503 28506 28509 28512 28515 28518 28521 28523 28526 28529 28532 28535 28538 28541 28544 28547 28550 28553 28556 28559 28562 28565 28568 28570 28573 28576 28579 28582 28585 28588 28591 28594 28597 28600 28603 28606 28609 28612 28615 28618 28621 28624 28627 28630 28632 28635 28638 28641 28644 28647 28650 28653 28655 28658 28661 28664 28667 28670 28673 28676 28678 28681 28684 28686 28689 28692 28695 28698 28701 28704 28706 28709 28712 28715 28718 28721 28724 28727 28730 28733 28736 28739 28742 28745 28748 28751 28754 28757 28760 28763 28766 28769 28772 28775 28778 28781 28784 28787 28790 28793 28795 28798 28801 28804 28807 28810 28813 28816 28819 28822 28825 28828 28831 28834 28836 28839 28842 28844 28847 28850 28853 28856 28859 28861 28863 28866 28869 28872 28875 28878 28881 28884 28887 28890 28893 28896 28898 28901 28904 28907 28909 28912 28915 28918 28921 28924 28927 28930 28933 28936 28939 28942 28945 28948 28951 28954 28957 28960 28963 28966 28969 28972 28975 28978 28981 28984 28987 28990 28993 28995 28998 29001 29004 29007 29010 29013 29015 29018 29021 29023 29026 29029 29032 29035 29038 29041 29044 29047 29050 29053 29056 29059 29062 29065 29068 29071 29074 29077 29080 29083 29086 29089 29092 29095 29098 29101 29104 29107 29110 29113 29116 29119 29122 29125 29128 29131 29134 29137 
</DataArray>
<DataArray type="UInt32" Name="types" format="ascii">
5 5 5 5 5 3 5 5 5 5 5 5 5 5 5 5 5 5 5 5 5 5 5 3 5 3 5 5 5 5 3 3 5 5 3 5 5 3 3 5 5 5 5 5 5 5 3 3 5 5 5 5 3 5 5 3 5 5 5 5 5 3 5 5 5 5 5 5 5 5 3 5 3 5 3 5 5 5 5 5 3 5 5 5 5 3 3 5 5 5 5 5 5 3 5 5 5 5 3 5 5 3 5 5 5 3 3 5 5 5 5 5 5 5 3 5 3 5 5 3 5 5 3 5 5 5 3 5 5 3 5 5 5 5 5 3 5 5 5 3 5 5 5 5 3 3 5 3 5 5 5 3 5 5 5 5 5 5 5 5 5 3 5 5 5 5 5 5 5 5 5 5 5 3 5 5 5 5 3 5 5 5 5 3 5 5 5 3 3 5 5 5 3 5 5 5 5 5 5 5 3 5 5 3 3 5 5 5 5 5 5 5 5 5 5 5 5 5 5 5 5 5 5 5 3 5 5 3 5 5 5 5 3 5 5 5 5 5 5 5 5 5 5 5 5 5 3 3 5 5 5 5 3 5 5 5 5 5 5 5 3 3 5 5 5 5 5 5 5 5 5 5 5 5 5 5 5 5 3 5 3 5 5 5 3 5 5 3 5 5 5 3 5 3 5 5 5 5 5 3 5 5 5 5 5 5 5 5 5 5 5 5 5 5 3 5 5 5 5 5 5 5 3 5 5 3 5 5 3 5 3 5 5 3 5 5 5 3 5 5 5 5 5 5 5 3 5 3 3 5 5 5 3 5 5 5 5 3 5 5 3 5 5 5 5 5 5 5 5 3 5 5 5 5 5 5 5 5 5 5 5 5 5 5 5 5 5 5 5 5 5 5 5 5 5 3 5 5 5 5 5 5 5 3 5 5 5 5 3 5 5 5 5 5 5 5 5 5 5 5 5 5 3 5 5 5 5 3 3 5 3 3 5 5 5 5 5 3 5 3 3 5 5 5 5 5 3 5 5 3 5 5 5 5 3 3 5 3 5 5 5 5 5 5 5 5 5 5 5 5 5 5 5 5 5 3 3 5 5 5 5 5 5 3 5 5 5 5 3 5 3 5 3 5 5 5 5 3 5 5 3 3 5 5 3 3 5 3 3 5 3 5 5 3 5 3 5 5 3 5 5 5 5 5 5 5 5 5 3 3 5 3 5 5 5 3 5 5 5 5 3 5 3 5 3 5 3 5 5 5 3 5 5 3 5 3 5 5 5 5 5 5 5 5 5 5 5 5 5 5 5 3 5 3 5 5 5 5 3 5 3 3 5 5 5 5 5 5 5 5 3 3 5 5 5 5 5 5 5 5 5 5 5 5 5 5 5 5 5 5 5 3 5 5 5 5 5 5 5 5 5 5 3 5 5 5 3 5 5 5 5 5 5 5 5 3 3 5 5 5 5 5 5 3 5 5 5 3 5 3 3 3 5 5 3 5 5 5 5 3 5 5 5 5 3 5 3 3 5 5 5 5 3 5 5 5 5 5 5 5 5 5 5 5 3 5 5 5 5 5 5 5 5 5 3 5 3 5 5 5 5 5 3 5 5 5 5 5 5 5 3 5 5 5 5 5 5 3 5 5 5 5 5 3 5 5 5 5 5 5 5 3 5 3 5 5 5 3 5 5 5 5 3 5 5 5 5 5 3 5 5 5 5 3 5 3 5 3 3 5 5 5 5 5 5 5 3 5 5 5 3 5 5 5 5 3 3 5 3 5 5 5 5 5 5 5 3 5 3 3 5 5 5 5 5 5 5 5 5 5 5 5 5 3 3 5 5 5 5 5 5 5 5 5 5 5 5 3 5 5 5 5 5 3 5 5 5 3 5 5 3 3 5 5 3 5 5 5 5 5 5 5 5 3 5 5 5 5 5 5 3 5 5 5 5 3 5 5 5 3 5 5 3 5 5 5 5 5 5 5 3 3 5 5 3 5 3 5 5 3 3 5 3 5 5 5 3 5 5 3 5 5 5 5 3 5 3 5 3 5 5 3 3 5 3 5 5 5 5 3 5 3 3 5 5 5 3 3 3 3 5 5 5 5 5 3 5 5 5 5 5 5 5 5 5 5 5 5 5 3 5 3 3 5 5 5 5 5 5 5 5 5 5 5 5 5 5 5 5 5 5 5 5 5 5 5 5 5 3 5 3 5 5 5 5 5 5 5 5 3 5 5 5 5 5 5 5 5 5 5 5 5 3 5 5 5 5 5 5 3 5 5 5 5 3 5 3 3 5 5 5 5 5 5 5 5 5 5 5 5 5 5 5 5 5 5 3 5 5 5 3 5 5 5 5 5 5 3 5 5 5 5 5 5 5 5 5 5 3 5 5 5 5 5 5 5 5 5 3 5 5 5 5 5 5 3 5 5 3 5 5 5 5 5 3 5 5 5 3 5 5 3 5 5 5 5 5 5 5 5 5 5 5 5 3 5 3 5 5 3 5 5 5 5 3 5 3 5 3 5 5 5 5 5 5 5 5 5 5 3 5 5 5 5 5 5 3 3 5 5 5 5 5 5 5 3 3 5 5 3 3 5 5 5 5 5 3 5 5 3 5 5 3 5 5 5 5 5 5 3 5 3 5 5 5 5 5 5 3 5 5 3 5 5 5 5 5 5 5 5 5 3 3 5 5 5 5 3 5 5 3 5 5 5 5 5 5 5 5 5 3 5 5 5 3 5 5 5 5 5 3 5 5 5 3 3 5 5 5 5 5 5 5 3 5 5 5 5 5 3 5 5 3 3 3 5 5 5 5 3 5 5 3 3 5 5 5 5 5 5 3 3 3 5 5 5 5 5 5 3 5 3 5 5 5 5 5 5 5 5 5 3 5 5 5 5 5 5 5 5 5 5 5 5 5 5 3 5 3 3 5 3 5 5 3 5 5 5 5 5 5 5 5 5 5 5 5 5 5 5 5 3 5 5 5 5 5 5 5 5 5 5 5 5 5 5 3 5 5 5 5 3 5 5 5 3 5 5 5 5 5 5 5 5 5 5 3 5 5 5 5 5 3 5 3 5 5 5 5 3 5 5 5 5 3 5 5 5 5 5 5 5 5 3 5 5 5 5 5 5 5 5 5 5 5 3 5 5 5 5 5 3 5 3 5 5 5 5 5 5 5 5 5 3 5 5 5 5 5 5 5 5 5 5 5 5 5 5 5 5 3 5 5 5 5 3 3 5 5 5 5 3 5 5 5 3 3 5 5 5 5 5 5 5 5 3 5 5 5 5 5 5 5 5 5 5 5 5 3 3 5 5 5 5 5 5 5 5 5 5 5 5 5 5 5 5 5 5 5 5 5 5 5 5 5 5 5 5 5 5 5 5 5 5 3 5 5 5 5 5 5 5 5 5 5 3 5 5 5 5 5 3 5 5 5 5 5 5 5 5 5 5 5 5 5 5 5 5 3 5 5 5 5 5 5 5 5 5 5 5 5 3 5 5 5 5 5 5 5 3 5 5 5 5 5 5 5 5 5 5 5 5 5 5 5 5 5 3 5 5 5 5 5 5 5 5 5 5 5 5 5 5 5 5 5 5 5 5 5 5 3 5 3 5 5 5 5 3 5 5 5 5 5 3 5 5 5 5 5 5 5 5 5 5 5 5 5 5 5 3 5 5 3 5 5 5 5 5 5 5 5 5 5 5 5 5 5 5 5 3 5 5 5 5 5 5 5 5 5 5 5 5 5 5 5 5 5 5 3 3 5 5 5 5 5 5 5 3 3 5 5 5 3 5 3 5 3 5 5 3 3 3 5 3 5 3 3 5 5 5 3 5 5 5 5 5 5 3 5 5 5 5 5 5 5 5 5 5 3 5 5 5 5 5 5 5 5 5 5 5 5 3 5 5 5 5 5 5 5 5 3 3 5 3 5 5 5 3 3 5 5 5 5 5 5 5 5 5 5 3 5 5 5 5 5 3 5 5 3 5 5 5 5 5 3 5 5 5 5 5 5 5 3 5 5 5 3 5 5 5 3 5 5 3 5 3 5 5 5 5 5 5 5 3 5 5 3 5 3 5 5 5 5 5 5 5 5 3 5 5 5 3 5 5 5 5 5 3 5 5 3 5 5 5 5 3 5 3 5 3 5 5 5 5 5 5 5 5 5 5 5 5 5 3 5 5 3 5 5 3 5 5 3 3 5 5 3 5 5 5 5 5 3 5 5 5 5 5 5 5 5 5 5 5 5 5 5 5 5 5 5 5 5 5 5 5 5 5 5 5 5 5 5 5 5 5 3 5 5 5 5 5 5 3 3 5 5 5 5 5 3 5 5 5 5 5 5 5 5 5 5 5 5 5 5 5 5 5 5 5 5 5 5 5 5 5 5 3 5 5 5 3 5 3 5 5 5 5 5 5 5 5 5 5 5 5 5 5 5 5 5 5 5 5 5 5 5 5 5 5 5 5 5 5 5 5 5 3 5 5 5 5 5 5 5 5 5 5 5 5 5 5 5 5 5 5 3 3 3 5 5 5 3 5 3 5 5 5 5 3 3 5 5 5 5 5 5 3 3 5 5 5 5 5 5 5 5 5 5 5 5 5 5 3 5 5 5 5 5 5 5 5 5 5 5 5 5 5 5 5 5 5 5 5 5 5 5 5 5 5 5 5 5 5 5 5 5 5 5 5 5 5 5 5 5 5 5 5 5 5 5 5 5 5 5 5 5 3 5 5 5 5 5 5 5 5 5 3 5 5 5 5 5 3 5 5 5 5 5 3 5 5 5 5 5 5 3 5 5 5 5 5 5 5 5 5 3 5 5 3 3 5 5 3 3 5 3 5 5 5 3 3 5 3 5 5 5 3 5 3 5 3 5 5 3 3 3 5 5 5 5 5 5 5 5 5 3 5 5 5 3 5 5 3 5 3 5 5 3 5 5 5 5 5 5 5 3 5 5 3 5 5 3 5 5 5 5 5 3 5 5 3 5 5 5 3 5 5 3 5 5 5 5 5 3 5 5 5 5 3 5 5 5 5 5 5 5 5 3 3 3 3 5 3 3 5 3 5 5 5 5 5 5 5 3 3 5 5 5 3 5 5 5 5 5 5 5 5 5 5 5 5 5 5 3 3 5 5 5 5 5 5 5 3 5 3 5 3 5 5 5 5 5 5 5 5 5 5 5 5 5 5 5 5 5 5 5 5 5 5 5 5 5 5 5 5 5 5 3 5 5 5 5 5 5 5 5 5 5 5 5 5 5 5 5 5 5 5 5 5 5 5 5 5 5 5 5 5 5 5 5 3 5 5 5 5 5 5 5 5 3 5 5 5 5 5 3 3 5 5 5 3 3 5 5 3 5 5 3 5 5 5 5 5 3 5 5 5 3 5 5 5 5 3 5 3 5 5 5 5 5 3 5 5 5 5 3 5 5 5 5 5 5 3 5 5 5 3 5 5 5 5 5 5 5 5 3 5 5 5 5 5 5 5 5 5 5 5 5 5 5 5 5 5 5 5 5 5 5 5 5 5 5 5 5 5 5 5 5 5 5 5 5 5 5 5 5 5 5 3 5 5 5 3 5 5 5 5 5 5 5 5 5 5 3 5 5 5 5 5 5 5 5 5 5 5 5 5 5 5 5 5 5 5 5 5 5 5 5 5 5 5 5 5 5 3 5 5 5 5 5 3 5 5 5 5 5 5 3 5 5 5 3 5 5 5 5 5 3 5 5 5 5 5 5 3 5 5 3 5 3 5 3 5 5 3 5 3 5 5 5 5 5 5 5 5 3 5 3 5 5 5 3 5 5 5 3 5 5 5 5 5 5 5 5 5 5 5 5 5 5 5 5 5 5 5 5 5 5 5 5 5 5 3 5 5 5 3 5 5 5 5 5 5 5 3 5 5 5 5 5 3 5 5 5 5 5 5 5 5 5 5 5 5 5 5 5 5 5 5 5 5 5 5 5 5 5 5 5 5 3 5 5 5 5 5 3 3 3 5 3 5 5 5 5 5 5 5 3 5 5 3 5 5 5 3 5 3 5 5 5 5 5 5 5 5 5 5 5 5 3 5 5 3 5 5 3 5 5 5 5 5 5 5 3 5 5 5 5 5 5 5 5 5 5 5 5 5 5 5 5 5 5 5 5 5 5 5 5 5 5 5 5 5 3 5 5 5 3 5 5 5 5 5 5 3 5 5 5 5 5 3 5 5 3 5 5 5 5 5 5 5 5 5 5 5 3 5 5 5 5 5 5 5 5 5 5 5 5 5 5 5 5 5 5 5 5 5 5 5 5 5 3 3 5 5 5 5 5 5 5 3 5 5 5 5 5 5 5 5 5 5 3 5 5 5 5 3 5 5 5 5 5 5 5 5 5 5 3 5 5 3 5 5 5 3 5 5 5 5 5 5 5 3 5 5 5 3 5 5 5 5 5 3 5 5 5 5 5 5 3 5 5 5 3 5 5 5 5 5 5 5 3 5 3 5 5 3 5 3 5 3 5 5 3 5 5 5 5 3 5 5 3 5 5 5 5 3 5 5 5 5 5 3 5 5 5 5 5 5 5 5 3 5 5 5 5 5 5 5 5 3 5 3 5 5 5 5 5 5 3 5 5 3 5 3 5 3 5 3 5 5 5 5 5 5 3 5 5 5 5 5 5 3 5 5 3 5 5 5 5 3 5 5 5 5 3 5 5 5 5 5 3 5 3 3 5 5 3 3 5 5 5 5 5 5 5 5 5 5 5 5 5 5 5 5 5 5 5 5 5 5 5 5 5 5 5 5 5 5 5 5 5 5 5 5 5 5 5 5 5 5 5 5 5 5 5 5 5 3 5 5 3 3 5 5 5 5 5 5 5 5 3 5 5 3 5 5 5 5 5 3 5 5 5 5 5 5 5 5 5 5 5 5 5 3 5 5 5 5 5 5 5 5 5 5 5 5 3 5 5 3 5 3 5 5 5 5 5 5 5 5 3 3 5 3 5 5 3 5 3 3 5 5 5 5 5 5 3 5 5 5 5 5 3 5 3 5 5 5 3 5 5 3 5 3 5 5 5 5 3 5 5 5 3 5 5 5 5 5 5 5 5 5 5 3 5 5 5 3 5 5 5 5 5 5 5 3 5 5 5 5 5 5 5 5 5 5 3 3 5 5 5 5 5 3 5 5 5 3 5 5 5 5 3 5 5 5 5 3 5 5 5 5 5 3 5 3 5 3 5 3 5 5 5 3 5 5 5 3 5 5 5 5 5 5 5 5 5 5 5 3 5 5 5 3 5 3 5 3 5 5 5 3 5 5 5 5 5 3 5 5 5 5 5 5 5 5 5 5 5 5 5 5 5 5 3 5 5 5 5 5 5 5 5 5 5 5 5 5 5 5 5 5 5 5 5 5 5 5 5 5 5 5 5 5 5 3 5 5 5 5 3 5 5 5 5 5 5 5 5 5 5 5 5 5 5 5 5 5 5 5 5 5 5 5 5 5 5 5 5 5 5 5 3 3 5 5 5 5 5 5 5 5 5 5 5 5 5 5 5 5 5 3 5 5 5 5 5 5 5 5 5 5 5 5 5 5 5 5 5 3 5 5 5 5 3 5 5 3 5 3 5 5 5 5 3 5 5 3 5 3 5 5 5 3 3 5 5 5 5 3 3 5 5 5 5 5 5 3 5 5 5 5 3 5 5 3 5 5 3 3 5 5 5 5 3 5 5 3 5 5 5 5 5 5 5 5 5 5 5 5 5 5 5 5 3 5 5 5 5 3 5 5 3 5 3 5 5 5 5 5 5 5 5 5 5 5 5 5 5 5 5 5 5 5 5 3 5 3 5 5 3 5 5 5 3 3 5 5 3 5 3 5 3 3 3 5 5 5 3 5 5 5 5 3 5 5 5 5 5 5 3 5 5 5 5 5 5 5 5 3 5 5 5 5 5 5 5 5 5 5 5 5 5 5 5 5 5 5 5 5 5 5 5 5 5 5 5 3 5 5 5 5 5 5 5 5 5 5 5 5 5 5 5 5 5 5 5 3 5 5 5 5 5 5 5 3 5 5 5 5 5 5 5 5 3 5 3 5 5 5 5 5 5 5 5 5 5 5 5 5 5 5 5 5 5 5 5 5 5 5 5 5 3 5 5 5 5 5 5 5 5 5 5 5 5 5 5 5 5 5 3 5 5 5 5 3 3 5 5 5 5 3 5 5 5 5 5 5 5 5 5 5 5 5 5 5 5 5 5 5 5 5 5 5 5 5 5 5 5 5 5 5 5 5 5 5 5 5 5 5 5 5 5 5 5 3 5 5 5 5 5 5 5 5 5 3 5 5 5 5 5 3 5 5 3 5 3 5 5 5 5 5 5 5 3 5 5 5 5 5 5 5 5 5 5 3 5 5 5 5 5 3 5 5 5 5 5 5 5 5 5 5 5 5 5 5 5 5 5 5 5 5 5 5 5 5 5 5 5 5 5 5 5 5 5 5 5 5 5 5 5 5 5 5 5 5 5 5 3 5 5 5 3 5 5 5 3 5 5 5 5 3 5 5 5 5 5 5 5 3 5 5 5 5 5 3 3 5 5 5 3 5 5 5 5 3 5 5 5 5 3 3 5 5 5 3 5 5 3 5 3 5 5 5 5 3 5 5 3 5 5 3 3 5 5 3 5 5 3 5 3 5 3 3 5 5 3 5 5 5 5 5 3 5 3 5 5 5 5 5 5 5 5 5 5 5 5 5 5 5 5 5 5 5 5 5 5 5 5 5 5 5 3 3 5 5 3 5 5 5 3 5 5 5 3 3 5 5 5 3 5 3 5 5 5 5 3 5 5 5 3 5 5 5 5 5 3 3 5 5 5 5 5 5 5 5 5 5 5 3 5 5 3 3 5 5 5 5 5 5 5 5 5 5 5 5 5 5 3 5 3 5 5 5 5 5 5 5 3 5 5 5 5 5 5 5 5 5 5 5 3 5 5 3 5 5 3 5 5 5 5 5 5 5 5 5 3 3 5 5 5 5 5 5 5 5 5 5 5 3 5 5 5 5 5 5 5 5 5 5 5 5 5 5 5 3 5 5 5 5 5 5 5 5 5 5 3 5 5 5 5 5 5 5 3 5 5 5 5 5 5 3 5 5 5 5 5 5 5 5 5 5 5 3 5 5 5 5 5 3 5 5 5 3 5 5 5 5 5 5 5 5 5 5 5 5 5 5 5 3 5 5 3 5 3 5 5 5 5 5 5 5 3 3 5 5 5 3 5 5 5 5 5 5 5 5 5 5 5 5 3 5 3 5 3 5 5 5 5 5 5 3 5 5 5 3 5 5 5 5 5 5 3 5 5 5 5 5 5 5 5 5 5 5 5 5 5 5 5 5 5 5 5 5 5 5 5 5 5 5 5 3 5 5 5 5 5 5 5 5 3 5 3 5 3 5 5 5 5 5 5 5 5 5 5 5 5 5 5 5 5 5 5 5 5 5 5 5 5 5 5 5 5 5 5 5 3 3 5 5 3 3 5 3 5 5 5 5 5 5 3 5 3 5 5 5 5 5 5 5 5 5 5 5 5 5 5 5 5 5 5 5 5 5 5 5 5 5 5 5 5 5 5 5 5 5 5 5 5 5 5 5 5 5 5 5 5 5 5 3 5 5 5 5 5 5 5 5 5 5 3 5 5 5 5 5 5 5 5 5 5 5 5 5 5 5 5 5 5 5 5 5 5 5 5 5 5 5 5 5 5 5 5 5 5 5 5 5 5 5 5 5 5 5 5 5 5 5 5 5 5 5 5 5 5 5 5 5 5 5 5 5 5 5 5 5 5 5 5 5 5 5 5 5 5 5 5 5 3 5 5 5 5 5 5 3 5 5 5 5 3 5 5 3 5 5 5 5 5 5 5 5 5 5 5 5 5 5 5 5 5 5 5 5 5 5 5 5 5 5 5 5 5 5 5 5 5 5 5 5 5 5 5 3 5 5 5 5 5 5 5 5 5 3 5 5 5 5 5 5 5 5 5 5 5 5 5 5 5 5 5 5 3 5 5 5 5 5 5 5 5 3 5 5 5 5 5 5 5 5 5 5 5 5 5 5 5 5 5 5 5 5 5 5 5 5 5 5 5 5 5 5 3 3 3 5 5 5 5 5 5 3 5 5 5 5 5 5 5 5 5 5 5 5 5 5 5 5 5 5 5 5 5 5 3 5 5 5 3 3 5 5 3 5 5 5 5 5 5 5 5 5 3 3 5 5 3 5 3 5 3 5 5 3 5 5 5 5 5 5 5 5 5 5 5 5 5 5 5 5 5 5 5 3 5 5 5 5 5 5 5 5 5 5 5 5 5 5 5 3 5 3 5 5 3 3 5 5 5 5 5 5 5 5 5 5 3 5 3 5 5 3 3 5 5 5 5 3 5 3 5 5 5 5 5 3 5 5 5 5 5 5 5 5 5 5 5 5 5 5 3 5 5 5 5 5 5 5 5 5 5 5 3 5 5 5 3 5 3 5 5 5 5 3 5 5 3 3 5 3 5 5 3 5 5 5 3 5 5 5 3 5 3 5 3 5 5 5 5 5 5 5 5 3 5 5 3 5 5 5 5 5 3 5 5 5 5 5 5 5 5 3 5 5 5 5 5 5 5 5 3 5 5 5 5 3 5 5 3 5 5 5 5 3 5 5 5 5 5 5 5 5 3 5 5 5 5 3 5 5 5 3 3 5 3 5 5 5 3 5 5 5 3 5 5 3 5 5 5 3 5 5 5 5 5 5 5 5 3 3 5 3 5 5 5 3 5 5 5 3 5 3 5 5 5 3 3 5 5 3 5 3 5 5 5 5 5 5 5 5 5 5 5 5 5 5 5 5 5 3 5 3 5 5 5 5 5 5 5 3 5 5 5 5 5 5 3 5 5 5 5 5 3 5 5 5 5 5 5 5 5 5 5 5 5 5 5 5 5 5 5 3 5 5 5 3 5 5 5 5 5 5 5 3 5 5 5 5 3 3 5 5 5 5 5 3 5 5 5 5 5 5 5 5 5 5 5 5 5 5 3 5 5 3 5 5 5 5 5 5 3 3 5 5 5 5 5 5 5 5 5 5 5 5 3 5 5 5 5 5 5 5 5 5 5 5 3 5 5 3 5 5 5 5 5 5 5 5 3 5 5 5 3 3 5 5 5 5 5 5 5 5 5 5 5 5 5 5 5 5 5 5 5 5 5 5 5 5 5 5 5 5 5 5 5 5 5 5 5 5 5 5 5 5 5 5 5 5 5 5 5 5 5 5 5 5 3 5 5 5 3 5 5 3 5 5 5 5 5 5 5 3 5 5 5 5 5 5 5 3 5 5 5 5 5 5 5 3 5 5 5 5 5 5 5 5 5 5 5 5 5 5 5 5 5 3 5 5 5 5 5 5 5 5 5 3 5 5 5 5 5 5 5 5 5 5 5 5 5 5 5 5 5 5 5 5 5 5 5 5 5 5 5 5 5 5 5 5 5 5 5 5 5 5 5 5 5 5 5 5 5 5 5 5 3 5 5 5 5 5 5 5 5 5 5 5 3 5 3 3 5 5 3 5 5 5 3 3 3 5 3 5 3 5 3 5 5 3 5 5 5 3 3 5 5 5 5 5 5 5 5 5 5 5 5 5 5 5 5 5 5 5 5 5 5 5 5 5 5 5 5 5 3 5 5 5 3 3 5 5 5 5 3 5 3 5 5 3 5 5 5 3 5 3 5 5 5 5 5 5 5 5 5 5 5 5 5 5 5 5 3 5 5 5 5 3 3 5 5 3 5 5 5 5 5 5 5 5 5 3 5 5 5 5 5 5 5 5 5 5 5 3 5 5 5 5 5 5 3 3 5 5 5 5 3 5 5 5 5 5 5 5 5 5 5 5 5 5 5 5 5 5 3 5 5 3 5 5 5 5 5 5 5 5 5 5 5 5 3 5 5 5 5 5 5 5 5 3 5 5 5 5 3 5 5 5 3 5 5 5 5 5 5 5 5 5 5 5 5 5 3 5 5 5 5 5 5 5 5 5 5 5 5 5 5 5 5 5 5 5 5 5 5 5 5 5 5 5 5 5 5 3 3 5 5 5 5 5 5 5 5 5 5 5 5 3 5 5 5 5 5 5 3 5 5 5 3 5 5 3 5 3 5 5 3 3 5 5 5 5 5 5 5 5 5 5 5 5 5 5 5 5 5 5 3 5 5 5 5 5 5 5 5 5 5 5 5 5 3 5 5 5 5 5 3 5 5 5 5 5 5 5 5 5 5 5 5 5 5 5 5 5 5 5 5 5 5 5 5 5 5 5 5 5 5 3 5 3 5 5 5 5 3 5 5 5 5 5 3 5 5 5 5 5 5 5 5 5 5 5 5 5 5 5 5 5 3 5 5 5 5 3 5 5 5 5 5 5 5 5 5 5 5 5 5 5 5 5 5 5 5 3 5 5 5 5 5 5 5 5 5 5 5 5 5 5 5 5 5 5 5 3 5 5 5 5 5 5 5 5 5 3 5 5 5 5 5 5 5 5 5 5 5 5 5 5 5 5 5 5 5 5 5 5 5 5 5 5 5 5 5 5 5 5 5 5 5 5 5 5 5 5 5 5 5 5 5 5 5 5 5 5 5 5 5 5 5 5 5 5 3 5 5 5 5 5 3 5 5 5 5 5 5 5 5 5 5 5 5 5 5 5 5 5 3 5 3 3 5 5 5 5 3 3 5 5 5 5 5 5 5 5 5 5 5 5 5 5 5 5 5 3 5 5 5 5 5 3 5 5 5 5 3 5 5 5 3 5 5 3 5 5 5 5 5 5 5 5 5 5 5 3 5 5 5 5 5 5 5 5 5 5 5 5 5 5 5 5 5 5 5 5 5 5 5 5 5 5 5 5 5 5 5 5 5 5 5 5 5 5 5 5 5 5 5 5 5 5 3 5 5 5 5 5 5 3 5 5 5 5 5 5 5 5 5 3 5 5 3 5 5 5 5 5 3 5 5 3 5 5 5 5 5 5 5 3 5 5 5 5 5 5 5 5 5 5 5 3 5 5 5 5 5 5 5 5 5 5 5 3 5 5 3 5 5 5 5 5 3 5 5 5 5 5 5 5 5 3 5 5 5 5 5 5 5 5 5 5 5 5 5 5 5 5 5 5 5 5 5 5 5 5 5 5 5 5 5 5 5 5 5 5 5 5 5 3 5 3 5 5 5 5 5 5 5 5 5 5 5 5 5 5 5 3 3 5 5 5 5 5 5 5 3 5 3 5 5 3 5 3 5 5 5 5 5 5 5 5 5 5 5 5 5 5 5 5 5 3 5 5 5 3 5 5 5 5 5 5 5 3 5 5 5 5 5 5 5 5 5 5 3 5 5 3 5 5 3 5 5 5 5 5 5 5 5 5 5 5 3 5 5 5 5 5 3 5 5 5 5 5 5 5 5 5 3 5 3 5 5 5 5 5 5 5 5 5 5 3 5 5 5 5 5 3 5 5 5 3 5 5 5 3 3 5 3 5 5 3 5 3 5 5 5 3 5 5 3 3 5 5 5 3 5 5 5 3 5 5 5 5 5 5 5 5 5 5 5 5 5 5 5 5 5 5 5 5 5 3 5 5 5 5 3 3 3 5 5 5 5 3 3 3 5 3 5 5 3 5 5 3 5 5 5 3 5 5 5 5 5 5 5 5 5 5 5 5 5 5 5 5 3 5 5 3 5 5 5 5 5 5 3 5 5 5 5 5 3 5 3 5 5 5 5 3 5 5 5 3 5 5 5 5 5 5 5 5 5 5 5 5 3 5 5 5 5 3 5 5 5 5 5 5 3 5 5 5 5 5 5 5 5 5 3 5 5 3 5 5 5 5 5 5 5 5 5 5 5 5 5 5 5 5 5 3 5 5 5 5 3 5 5 5 5 5 3 5 5 5 5 3 5 5 3 5 3 5 5 3 5 5 5 5 5 3 5 3 5 5 5 5 5 5 5 5 5 5 5 5 5 3 5 5 5 3 5 3 5 5 3 5 5 3 5 5 5 3 5 5 5 3 5 5 5 5 5 5 3 3 5 5 5 5 3 5 5 5 3 5 5 5 5 3 3 5 5 5 5 5 5 5 5 3 5 5 3 5 5 5 5 3 5 5 5 5 5 5 3 5 5 3 5 5 5 5 3 5 5 5 5 5 5 3 5 5 5 5 5 3 5 5 5 5 5 5 3 5 5 3 5 5 5 5 5 5 5 5 3 5 5 5 3 5 5 5 5 5 5 5 5 5 3 5 5 5 5 5 5 5 5 5 5 5 5 5 5 5 5 5 5 5 5 3 5 3 5 3 5 5 5 5 5 5 5 5 3 5 5 5 5 5 5 5 5 5 5 5 5 3 5 5 5 5 5 5 5 3 5 5 5 5 5 5 5 5 3 5 5 5 5 5 3 5 5 5 5 3 5 5 5 5 5 5 5 5 5 5 5 5 5 5 5 5 5 5 5 5 5 5 5 5 5 5 5 5 5 5 5 5 5 5 3 5 5 5 5 5 3 5 5 5 5 5 5 5 5 3 5 5 5 5 5 5 5 5 5 5 5 5 5 5 5 5 3 5 3 5 5 5 5 5 5 5 5 5 5 5 5 5 5 5 5 5 3 5 3 5 5 3 5 5 3 5 5 5 3 5 5 5 5 5 5 5 5 5 5 5 5 5 3 5 5 3 5 5 5 3 3 5 5 5 3 3 5 3 5 3 5 5 5 5 5 5 5 3 5 5 5 5 5 5 5 5 5 3 5 5 3 5 5 5 5 5 5 5 5 3 5 5 5 5 3 5 5 5 3 5 3 3 5 5 5 5 5 5 5 5 5 5 5 5 5 5 5 5 5 5 5 5 5 5 5 5 3 5 5 5 5 3 3 5 5 5 5 5 5 3 5 5 3 5 3 5 5 5 5 5 5 5 5 5 5 3 5 5 5 5 5 5 5 5 5 5 3 3 5 5 3 5 5 5 5 5 5 5 5 5 5 5 3 5 5 5 5 5 5 5 5 5 5 5 5 5 5 5 5 5 5 5 5 5 5 5 5 5 5 5 5 5 5 3 5 3 5 5 5 5 5 5 5 5 5 5 5 5 5 5 3 5 5 5 5 5 5 5 5 5 5 5 5 5 5 5 5 5 5 5 5 5 5 5 5 5 5 3 5 5 5 5 5 5 5 5 5 5 5 5 5 5 3 5 5 5 5 5 5 5 5 5 5 5 5 5 5 5 3 5 5 3 5 5 5 3 5 5 5 5 5 3 5 5 5 5 5 5 5 5 5 5 5 5 5 5 5 5 3 5 5 5 5 5 5 5 5 5 5 5 5 5 5 5 5 5 3 5 5 5 5 5 5 5 5 5 5 5 5 5 5 5 5 5 5 5 5 5 5 5 5 5 5 5 5 5 3 5 5 5 5 3 5 5 5 5 5 5 5 3 5 5 5 5 5 5 5 5 5 3 5 5 5 5 5 5 5 5 5 5 5 5 3 5 5 5 5 5 5 5 3 5 5 5 3 5 5 5 5 5 5 5 5 5 5 5 5 5 5 5 5 5 5 5 5 5 5 5 3 5 5 5 5 5 5 5 5 5 5 5 5 5 3 5 3 5 5 5 5 5 5 5 5 5 5 5 5 5 5 5 3 3 5 5 5 5 5 5 3 3 5 5 5 5 5 5 5 5 5 5 5 5 5 5 5 5 5 5 5 5 3 5 5 5 3 5 5 5 5 5 3 5 3 5 5 5 5 5 5 5 5 5 5 5 3 5 5 5 5 3 5 5 5 5 5 5 5 5 5 5 5 5 5 5 3 5 5 3 5 5 5 5 3 5 5 5 3 5 5 5 5 5 5 5 5 5 5 3 5 5 5 5 5 5 5 5 5 5 5 3 5 5 5 5 5 5 5 5 5 3 5 5 5 5 3 3 5 3 5 5 5 3 5 5 5 5 5 5 3 5 5 5 5 5 5 5 5 5 5 5 5 3 5 5 5 5 5 5 3 5 5 5 5 5 5 5 5 5 3 5 5 5 5 3 3 5 5 5 5 5 5 5 5 5 5 5 5 5 5 5 5 5 5 5 5 5 5 5 5 5 5 5 5 5 5 5 5 5 5 5 5 5 5 5 5 5 5 5 5 5 5 5 5 5 5 5 5 5 5 5 5 5 3 3 5 5 5 5 5 5 5 5 3 5 3 5 5 5 5 5 3 5 5 5 5 5 3 5 5 5 5 5 5 5 5 3 3 5 5 5 5 5 5 3 5 3 5 5 5 5 5 5 5 5 5 5 5 5 5 5 5 5 5 5 5 5 5 5 5 5 5 5 5 5 5 5 5 5 5 5 5 5 5 5 5 5 5 5 5 5 3 5 5 5 5 5 5 5 5 5 5 5 5 5 3 5 5 5 3 5 5 3 5 5 5 5 5 5 5 5 5 5 5 5 5 5 5 5 5 5 5 5 5 3 5 5 5 5 3 5 5 3 5 5 5 5 3 5 5 5 5 5 3 5 5 5 5 5 5 5 3 5 5 5 5 5 5 5 5 5 3 3 5 5 5 3 5 5 3 5 3 5 5 5 5 5 5 5 5 5 5 5 5 5 5 5 5 5 5 5 5 5 3 5 5 5 5 5 5 5 5 3 5 3 3 5 3 3 5 5 3 3 5 5 5 3 3 5 5 5 5 5 3 5 5 5 3 3 3 5 5 3 5 5 5 5 3 5 3 5 5 5 5 5 5 5 5 3 5 5 5 3 3 5 5 3 3 5 5 5 3 5 5 5 5 5 3 5 5 5 3 5 5 5 5 5 5 5 5 5 5 5 5 5 3 5 3 5 3 5 3 5 3 5 5 5 5 5 3 3 5 5 5 5 5 5 5 3 3 5 5 3 5 3 3 5 3 5 5 3 5 5 5 5 5 3 5 5 5 3 5 3 5 5 5 5 5 5 5 5 5 5 5 5 5 5 3 3 5 5 5 5 5 5 5 5 5 5 5 5 5 5 5 5 5 5 5 3 5 5 3 5 5 5 5 3 5 5 5 5 3 5 5 3 5 3 5 5 5 5 5 5 5 5 5 5 5 5 5 5 5 5 5 5 3 5 5 5 5 3 5 3 5 5 5 5 5 5 5 5 5 5 5 5 5 5 5 5 5 5 5 5 5 5 5 5 5 5 5 5 5 5 5 5 5 5 5 3 3 5 3 5 5 5 3 5 5 5 5 3 5 5 5 5 3 5 5 5 5 5 5 5 5 5 5 5 3 5 3 5 5 3 5 5 3 5 5 5 5 5 5 5 5 5 5 5 5 5 5 5 5 3 5 5 5 5 5 5 5 5 3 5 5 5 5 5 5 5 5 5 3 5 5 5 5 5 5 5 5 5 5 3 5 5 5 5 5 5 5 5 5 5 5 5 3 5 5 3 5 5 5 5 5 3 5 3 5 5 5 5 5 5 5 5 5 5 3 5 5 3 5 5 5 3 5 5 5 3 5 5 5 5 5 5 3 5 5 5 5 5 5 5 5 3 5 5 5 5 5 5 5 5 5 3 3 5 5 5 5 5 5 5 5 5 5 5 5 5 5 5 5 5 5 5 5 5 5 5 5 5 5 5 5 5 5 5 5 5 3 5 5 5 5 5 5 5 5 5 5 5 5 5 5 5 5 3 5 5 5 5 5 5 5 5 5 5 5 5 5 5 5 5 5 5 5 5 5 5 5 5 5 5 5 5 5 5 5 3 5 5 5 5 5 3 3 5 5 5 5 3 5 5 5 3 5 3 5 5 5 5 5 5 5 5 5 5 5 5 5 3 5 5 5 5 5 5 5 5 5 5 5 3 5 5 5 3 5 5 5 3 5 5 5 5 5 5 5 5 5 5 5 5 5 5 5 3 5 5 5 5 5 5 3 5 5 5 5 5 5 5 5 5 5 5 5 5 5 5 5 5 5 5 3 5 5 5 5 5 5 5 5 5 5 5 3 5 5 3 5 3 5 3 3 5 5 5 5 5 3 5 5 5 5 5 5 5 5 5 5 5 5 5 5 5 5 5 5 5 5 3 5 5 5 5 5 5 5 5 5 5 5 5 5 5 5 3 5 5 5 5 5 5 5 5 5 5 5 5 5 5 5 5 5 3 5 5 5 5 5 3 5 5 5 5 5 5 5 5 3 5 5 5 5 3 5 5 3 5 5 5 5 3 5 5 5 5 5 5 3 5 3 5 5 5 5 5 5 5 5 5 5 5 5 5 5 5 5 5 5 5 5 5 5 5 5 5 5 5 5 5 5 5 5 5 5 5 5 5 5 5 5 5 5 3 5 5 5 5 3 5 5 3 5 5 5 5 5 5 5 5 5 5 5 5 5 5 5 3 5 5 5 5 5 5 5 5 5 5 5 5 5 5 5 5 5 5 5 5 5 5 5 5 5 5 5 3 5 3 5 5 5 5 5 5 5 5 5 5 5 5 3 5 5 5 5 5 3 5 5 5 3 5 5 5 5 5 5 5 3 5 5 5 5 3 5 5 5 5 5 5 5 5 5 3 5 5 5 5 5 5 5 5 5 5 5 5 5 5 5 5 5 5 5 5 5 5 3 5 3 5 5 5 5 5 5 5 5 5 3 5 5 5 5 5 5 5 5 5 5 5 5 5 5 5 5 5 5 5 5 5 5 5 5 5 5 5 5 5 5 5 5 5 5 5 5 5 5 5 5 5 5 5 5 5 5 3 5 5 5 5 5 3 5 5 5 5 5 5 5 5 5 5 5 5 5 5 5 5 5 5 5 5 5 5 5 3 5 5 5 3 5 5 5 5 5 5 3 5 5 5 5 3 5 5 5 5 5 5 5 5 5 5 5 5 3 5 5 5 5 5 5 5 5 5 5 5 5 5 3 5 5 3 5 5 5 5 5 5 3 5 5 5 5 5 5 3 3 5 5 3 5 5 5 5 5 5 3 5 5 5 5 5 5 5 5 5 5 5 5 5 5 5 5 5 5 5 5 5 5 5 3 5 5 5 3 5 5 5 5 5 5 5 3 5 5 5 5 5 5 5 5 5 5 3 5 5 5 5 5 5 5 5 5 5 5 5 5 5 5 5 3 5 3 5 5 5 3 5 3 5 5 5 5 3 5 5 3 3 5 3 5 5 5 5 3 3 5 5 5 3 5 5 5 5 5 5 5 5 5 5 5 5 5 3 5 5 5 5 3 5 3 5 3 5 3 5 5 5 5 5 3 5 5 5 5 5 5 5 5 5 5 3 5 3 5 5 5 5 5 5 5 5 5 5 5 5 5 5 5 5 5 5 5 5 5 5 5 5 5 5 3 3 5 5 5 5 3 5 3 5 5 5 5 5 5 3 5 5 5 5 5 5 5 5 5 5 5 3 5 5 5 5 5 5 3 5 3 5 5 5 5 5 3 5 5 5 3 5 5 5 5 3 5 5 5 5 3 5 5 5 5 5 5 5 5 5 5 5 5 5 5 5 5 5 5 5 5 5 5 3 5 5 5 5 5 5 5 5 5 5 5 5 5 5 3 5 5 5 3 5 5 5 5 5 5 5 5 3 5 5 3 5 5 5 5 5 5 5 5 5 5 5 5 5 5 3 3 5 3 3 5 5 5 5 5 3 5 3 3 3 5 5 5 5 5 3 5 5 5 5 3 5 5 5 3 5 5 3 3 5 3 5 5 5 5 3 5 5 3 5 5 5 5 5 5 5 5 5 5 5 5 5 5 5 5 5 5 5 5 3 5 3 3 5 5 5 5 3 5 5 5 5 5 5 3 5 5 3 5 5 5 5 5 5 5 3 5 5 5 5 5 5 3 5 5 3 5 5 5 5 3 5 5 5 5 3 5 5 5 5 5 5 5 5 5 5 3 5 5 3 5 5 5 5 5 5 5 3 5 5 5 5 5 5 5 3 5 5 5 5 5 5 3 5 3 5 3 5 5 5 5 5 5 3 3 5 3 3 5 5 3 5 5 3 5 3 5 5 5 5 3 5 5 3 5 5 5 5 5 5 5 3 5 5 5 3 5 5 5 5 5 5 5 5 5 5 5 5 5 5 3 5 5 3 5 5 5 3 5 5 5 5 5 5 3 5 5 5 5 3 5 5 5 3 5 5 5 5 5 5 5 5 5 3 5 5 5 3 5 5 5 5 5 5 3 5 5 3 3 5 5 3 5 5 5 5 5 5 5 3 5 5 5 3 5 5 5 3 3 5 3 5 5 5 5 3 5 5 3 5 5 5 3 5 5 5 5 5 5 5 5 5 5 5 5 5 3 5 5 3 5 5 3 5 5 5 5 5 3 5 5 5 3 5 3 5 5 3 5 5 5 3 3 5 5 5 5 5 5 5 5 5 5 5 3 5 5 5 5 5 3 3 5 5 5 5 5 5 5 3 5 5 3 5 5 5 5 5 5 5 5 3 5 5 5 5 5 5 5 5 5 5 5 3 5 5 5 5 5 5 5 3 5 5 5 5 5 5 5 5 5 5 5 5 5 5 5 5 5 5 5 5 5 5 5 5 5 5 5 3 5 3 5 5 5 5 3 5 5 5 5 5 5 3 5 5 3 5 5 3 5 5 5 5 5 5 5 5 5 5 5 5 5 3 5 5 5 5 3 5 5 5 5 5 5 3 3 5 5 5 5 5 5 5 5 5 5 5 5 3 5 5 5 3 3 5 5 5 5 5 3 5 5 5 5 5 5 5 5 3 5 5 5 3 5 5 5 5 5 3 5 5 5 5 5 5 5 5 5 5 5 3 5 5 5 5 5 5 5 5 5 3 5 5 3 5 3 5 5 3 5 3 5 5 5 5 3 5 5 5 3 3 5 5 5 5 5 5 5 5 5 5 5 5 5 5 5 5 5 5 5 5 5 5 5 3 5 5 3 5 5 5 5 5 5 5 5 5 5 5 5 5 5 5 5 5 5 3 5 5 5 5 5 5 5 5 5 5 5 5 5 5 5 5 5 5 5 3 5 5 5 5 5 5 5 5 5 5 5 5 5 5 5 5 3 5 5 5 3 5 5 5 5 5 5 3 5 5 3 5 5 3 5 5 5 5 5 5 5 3 5 5 5 5 3 5 5 5 5 5 5 5 5 5 5 5 5 5 5 3 5 5 5 5 5 5 5 5 5 5 5 5 5 5 5 5 5 5 5 5 5 5 5 5 3 5 5 5 5 3 5 5 5 5 5 5 5 5 5 5 5 5 5 3 5 5 3 5 5 5 3 5 5 3 5 5 5 3 5 5 5 5 5 5 5 5 5 5 5 5 5 5 5 5 3 5 5 5 5 5 5 3 3 5 5 5 3 5 5 3 5 5 5 5 5 3 5 5 5 5 5 5 5 3 5 5 5 3 5 5 5 5 5 3 3 5 5 5 5 5 5 5 5 5 5 5 5 3 5 5 5 5 5 5 5 5 3 5 5 5 5 5 5 5 5 5 3 5 5 5 5 3 5 5 5 5 5 5 5 5 5 3 5 5 3 5 5 3 5 5 5 5 3 5 5 5 5 5 3 5 5 5 5 5 5 5 5 5 5 5 5 5 5 5 5 5 5 5 5 5 5 5 5 5 5 5 5 5 5 5 5 3 3 5 5 5 5 3 5 5 5 5 3 5 5 5 5 5 5 5 3 5 5 5 5 5 3 5 5 3 5 5 5 5 5 5 3 3 5 5 5 5 5 5 5 5 5 5 5 5 3 5 5 5 3 3 3 5 5 5 5 5 5 5 5 3 5 5 3 5 5 5 5 5 5 5 3 5 3 3 3 3 5 5 5 5 5 5 5 5 3 5 5 5 3 5 5 3 5 5 5 3 5 5 5 5 5 5 5 5 5 5 5 3 5 5 5 5 5 5 5 5 5 5 5 5 5 5 5 5 5 5 3 5 5 5 5 5 5 5 5 5 3 5 5 3 5 5 5 5 5 5 5 3 5 5 5 5 5 5 5 5 5 5 5 5 3 5 5 5 5 5 3 3 5 5 5 3 3 5 5 5 5 5 5 5 5 5 5 5 3 5 5 5 3 5 5 3 5 5 5 5 5 5 5 5 3 5 3 5 5 5 3 5 5 5 5 5 5 5 3 3 3 5 5 5 5 5 5 5 5 5 5 5 5 5 5 5 5 5 5 5 5 5 5 3 5 5 5 3 5 5 5 5 5 3 5 3 5 5 5 5 5 5 5 5 5 5 5 5 5 5 5 5 5 5 5 5 5 5 5 5 5 3 3 5 5 5 5 5 5 5 3 5 3 5 5 5 5 5 5 5 3 5 5 3 5 5 5 5 5 5 3 5 3 5 5 5 3 5 5 5 5 5 5 5 5 5 5 5 5 5 5 3 3 5 5 5 5 5 3 5 5 5 3 5 5 3 5 5 5 5 3 3 5 5 5 3 5 5 3 3 5 5 3 3 5 5 5 5 3 5 5 5 5 3 5 3 5 5 5 5 3 5 5 5 5 5 5 5 5 3 3 5 5 5 5 5 5 5 5 5 5 5 3 5 5 5 3 5 5 5 5 3 5 3 5 5 3 5 3 5 5 5 5 3 5 5 3 5 5 5 5 5 5 5 5 5 5 5 5 5 5 3 5 5 5 5 5 5 5 5 5 5 5 5 5 5 5 3 5 5 5 5 5 5 5 5 5 5 5 5 5 5 5 5 5 5 5 5 3 5 5 5 5 5 5 5 3 5 5 5 5 5 5 5 3 5 5 3 5 5 5 5 5 5 3 5 5 5 5 5 5 5 5 5 5 5 5 5 5 5 5 5 5 5 5 5 5 5 5 5 5 5 5 5 3 5 5 5 5 5 5 5 5 5 5 5 5 5 3 5 5 3 5 5 5 5 5 3 3 5 5 5 5 5 5 5 5 5 5 5 3 5 5 5 3 5 5 5 5 5 5 5 5 5 5 5 5 5 5 5 5 5 5 5 5 5 5 5 5 5 5 5 5 3 5 5 5 5 5 5 3 5 5 3 5 5 5 5 5 5 5 5 5 5 5 5 5 5 5 5 5 5 5 5 5 5 5 5 5 5 5 5 5 5 5 5 5 5 5 5 5 5 
</DataArray>
</Cells>
<PointData Scalars="" Vectors="displacement," Tensors="">
<DataArray type="Float64" Name="displacement" NumberOfComponents="3" format="ascii">
0.054997830599750483 0.054995073301684932 0 0.053484659327362398 0.052429600683993528 0 0.052056366938076595 0.054615421597917102 0 0.054997830599750483 0.054995073301684932 0 0.052056366938076595 0.054615421597917102 0 0.047996142061238936 0.054996196684270672 0 0.054997830599750483 0.054995073301684932 0 0.053484659327362398 0.052429600683993528 0 0.054993487676154626 0.048704439448851354 0 0.053484659327362398 0.052429600683993528 0 0.053228787610628991 0.05255554415916712 0 0.052900607323700714 0.051071746728312127 0 0.053484659327362398 0.052429600683993528 0 0.054993487676154626 0.048704439448851354 0 0.052900607323700714 0.051071746728312127 0 0.054999295499030459 0.048690197859830898 0 0.054535576166605704 0.048949282975241037 0 0.053463586308747209 0.052477318979425619 0 0.053228787610628991 0.05255554415916712 0 0.052281764997336937 0.053899570495587364 0 0.053463586308747209 0.052477318979425619 0 0.054070404294570849 0.05309116076615223 0 0.054029644257131235 0.052078351113944911 0 0.053463586308747209 0.052477318979425619 0 0.054029644257131235 0.052078351113944911 0 0.053888619667780302 0.051778597943393699 0 0.053463586308747209 0.052477318979425619 0 0.054451674287741898 0.051270597335359692 0 0.053888619667780302 0.051778597943393699 0 0.053228787610628991 0.05255554415916712 0 0.052900607323700714 0.051071746728312127 0 0.054451674287741898 0.051270597335359692 0 0.053463586308747209 0.052477318979425619 0 0.053228787610628991 0.05255554415916712 0 0.054451674287741898 0.051270597335359692 0 0.053484659327362398 0.052429600683993528 0 0.052281764997336937 0.053899570495587364 0 0.052056366938076595 0.054615421597917102 0 0.053484659327362398 0.052429600683993528 0 0.053228787610628991 0.05255554415916712 0 0.052281764997336937 0.053899570495587364 0 0.053463586308747209 0.052477318979425619 0 0.052281764997336937 0.053899570495587364 0 0.054070404294570849 0.05309116076615223 0 0.052281764997336937 0.053899570495587364 0 0.051224583471785268 0.055602490872316786 0 0.054070404294570849 0.05309116076615223 0 0.051224583471785268 0.055602490872316786 0 0.052056366938076595 0.054615421597917102 0 0.047996142061238936 0.054996196684270672 0 0.052281764997336937 0.053899570495587364 0 0.051224583471785268 0.055602490872316786 0 0.052056366938076595 0.054615421597917102 0 0.047996142061238936 0.054996196684270672 0 0.043864449605538987 0.056764303945293831 0 0.039232142807946915 0.055000605778194274 0 0.047996142061238936 0.054996196684270672 0 0.046358787680171099 0.056953197383605436 0 0.043864449605538987 0.056764303945293831 0 0.051224583471785268 0.055602490872316786 0 0.047996142061238936 0.054996196684270672 0 0.048396745197877983 0.056716837874299673 0 0.047996142061238936 0.054996196684270672 0 0.046358787680171099 0.056953197383605436 0 0.048396745197877983 0.056716837874299673 0 0.046358787680171099 0.056953197383605436 0 0.043864449605538987 0.056764303945293831 0 0.044606828613785551 0.057730867588443022 0 0.043632409022931855 0.057149106376175859 0 0.042363515167409715 0.057088380677973137 0 0.043864449605538987 0.056764303945293831 0 0.043320051248732526 0.058466244743029298 0 0.041334857751068835 0.056595734356426737 0 0.042363515167409715 0.057088380677973137 0 0.041047413809694372 0.05684116502036405 0 0.041866700191961849 0.058108969722720359 0 0.040624494369902966 0.05671323549964865 0 0.040494576925184558 0.057289469620643435 0 0.041866700191961849 0.058108969722720359 0 0.04182495842815654 0.058238303440967393 0 0.040494576925184558 0.057289469620643435 0 0.035978765054900858 0.055961542703168367 0 0.03493701058347045 0.055126132565240446 0 0.036915052895275337 0.056230280037698442 0 0.035978765054900858 0.055961542703168367 0 0.034876117672068697 0.055264982478783517 0 0.036480386472548067 0.056757134255797197 0 0.041495259660189729 0.055670886682873386 0 0.038057291136181816 0.056890269851279318 0 0.034769264228121481 0.055158409054579902 0 0.03602294110242979 0.055335389200386505 0 0.03493701058347045 0.055126132565240446 0 0.034882594588146763 0.054797164157525717 0 0.034794138247082315 0.054533860251577741 0 0.035978765054900858 0.055961542703168367 0 0.034876117672068697 0.055264982478783517 0 0.03493701058347045 0.055126132565240446 0 0.042363515167409715 0.057088380677973137 0 0.041495259660189729 0.055670886682873386 0 0.043907760400386894 0.054138952418459292 0 0.04355894128437289 0.053871274928598188 0 0.043621726576349357 0.05329396809044578 0 0.042459001887222923 0.055424128808420167 0 0.042368115674651548 0.055712836899868091 0 0.04341176204637396 0.05646503637138521 0 0.042363515167409715 0.057088380677973137 0 0.043841289817917753 0.056093063985063266 0 0.041495259660189729 0.055670886682873386 0 0.043841289817917753 0.056093063985063266 0 0.043524435540463619 0.058026747821480831 0 0.044076745271296944 0.058722030634481087 0 0.044606828613785551 0.057730867588443022 0 0.043864449605538987 0.056764303945293831 0 0.043524435540463619 0.058026747821480831 0 0.044606828613785551 0.057730867588443022 0 0.044076745271296944 0.058722030634481087 0 0.045433896422912338 0.05858644975974317 0 0.045584799324781593 0.05997026681610363 0 0.044076745271296944 0.058722030634481087 0 0.044606828613785551 0.057730867588443022 0 0.045433896422912338 0.05858644975974317 0 0.043621726576349357 0.05329396809044578 0 0.044322452577366937 0.052818072062959839 0 0.043360292120626052 0.052477504282133075 0 0.045228675079745949 0.054724093354037856 0 0.045737806184302836 0.055015225324929556 0 0.0456734394851743 0.055113257496178562 0 0.04355894128437289 0.053871274928598188 0 0.043621726576349357 0.05329396809044578 0 0.042962106806401834 0.053166272005680179 0 0.043841289817917753 0.056093063985063266 0 0.044171550748298045 0.053931940844353668 0 0.043841289817917753 0.056093063985063266 0 0.045922197763394949 0.057554040618274634 0 0.043621726576349357 0.05329396809044578 0 0.042962106806401834 0.053166272005680179 0 0.043360292120626052 0.052477504282133075 0 0.034876117672068697 0.055264982478783517 0 0.03493701058347045 0.055126132565240446 0 0.034784441144041146 0.054396915174310743 0 0.043907760400386894 0.054138952418459292 0 0.043621726576349357 0.05329396809044578 0 0.044322452577366937 0.052818072062959839 0 0.03493701058347045 0.055126132565240446 0 0.034784441144041146 0.054396915174310743 0 0.034882594588146763 0.054797164157525717 0 0.041495259660189729 0.055670886682873386 0 0.038934223078788854 0.053355712211486259 0 0.034843030731811726 0.054538919771172728 0 0.034784441144041146 0.054396915174310743 0 0.034882594588146763 0.054797164157525717 0 0.034843030731811726 0.054538919771172728 0 0.034864451937471175 0.054714220231253975 0 0.034774660737526247 0.05459855761164259 0 0.038297514275921048 0.053410199959367223 0 0.038934223078788854 0.053355712211486259 0 0.034864451937471175 0.054714220231253975 0 0.034774660737526247 0.05459855761164259 0 0.034751979763828995 0.054664222320821472 0 0.034843030731811726 0.054538919771172728 0 0.034774660737526247 0.05459855761164259 0 0.034830009950269927 0.054620588580960736 0 0.034774660737526247 0.05459855761164259 0 0.034830009950269927 0.054620588580960736 0 0.034671889115391846 0.054567208675268652 0 0.034882594588146763 0.054797164157525717 0 0.034830009950269927 0.054620588580960736 0 0.034794138247082315 0.054533860251577741 0 0.034843030731811726 0.054538919771172728 0 0.034882594588146763 0.054797164157525717 0 0.034830009950269927 0.054620588580960736 0 0.051393427696030829 0.055639892494783426 0 0.051544103640315551 0.056076315553437395 0 0.051224583471785268 0.055602490872316786 0 0.049039183791626327 0.059115914538902435 0 0.048396745197877983 0.056716837874299673 0 0.049039183791626327 0.059115914538902435 0 0.048396745197877983 0.056716837874299673 0 0.046955364843487092 0.058800882416101333 0 0.046358787680171099 0.056953197383605436 0 0.048396745197877983 0.056716837874299673 0 0.046955364843487092 0.058800882416101333 0 0.046358787680171099 0.056953197383605436 0 0.044606828613785551 0.057730867588443022 0 0.045433896422912338 0.05858644975974317 0 0.046358787680171099 0.056953197383605436 0 0.045433896422912338 0.05858644975974317 0 0.046955364843487092 0.058800882416101333 0 0.045433896422912338 0.05858644975974317 0 0.046955364843487092 0.058800882416101333 0 0.045584799324781593 0.05997026681610363 0 0.046955364843487092 0.058800882416101333 0 0.045584799324781593 0.05997026681610363 0 0.047426113439590488 0.061384881799069084 0 0.045737806184302836 0.055015225324929556 0 0.0456734394851743 0.055113257496178562 0 0.046221233740109342 0.055325351928920331 0 0.044171550748298045 0.053931940844353668 0 0.047150555853960031 0.052182276310290154 0 0.0456734394851743 0.055113257496178562 0 0.046221233740109342 0.055325351928920331 0 0.046088952853372119 0.055515854947429541 0 0.045922197763394949 0.057554040618274634 0 0.048596229636119426 0.05520866788141264 0 0.054070404294570849 0.05309116076615223 0 0.054576602705981497 0.052008409297404475 0 0.054029644257131235 0.052078351113944911 0 0.051544103640315551 0.056076315553437395 0 0.048596229636119426 0.05520866788141264 0 0.049039183791626327 0.059115914538902435 0 0.046955364843487092 0.058800882416101333 0 0.047426113439590488 0.061384881799069084 0 0.054029644257131235 0.052078351113944911 0 0.054283551954433719 0.051747606016994671 0 0.053999446227205525 0.051741297649988582 0 0.054283551954433719 0.051747606016994671 0 0.053999446227205525 0.051741297649988582 0 0.054049917565813815 0.051627747880795008 0 0.054283551954433719 0.051747606016994671 0 0.054216950101036214 0.051519877841393079 0 0.054049917565813815 0.051627747880795008 0 0.054283551954433719 0.051747606016994671 0 0.054623095863993401 0.051813011002123301 0 0.054216950101036214 0.051519877841393079 0 0.047150555853960031 0.052182276310290154 0 0.050202920386465143 0.049625301076195776 0 0.054576602705981497 0.052008409297404475 0 0.054283551954433719 0.051747606016994671 0 0.054623095863993401 0.051813011002123301 0 0.054576602705981497 0.052008409297404475 0 0.054029644257131235 0.052078351113944911 0 0.054283551954433719 0.051747606016994671 0 0.042363836980957602 0.052466742609120605 0 0.042925510879687226 0.051544810062245761 0 0.043360292120626052 0.052477504282133075 0 0.042962106806401834 0.053166272005680179 0 0.042363836980957602 0.052466742609120605 0 0.043360292120626052 0.052477504282133075 0 0.047150555853960031 0.052182276310290154 0 0.045159844197612146 0.049280104452596341 0 0.048596229636119426 0.05520866788141264 0 0.047150555853960031 0.052182276310290154 0 0.046743475059690648 0.048315504309399369 0 0.047135832143097113 0.047595355094454062 0 0.046683677792225743 0.047483195694448345 0 0.047135832143097113 0.047595355094454062 0 0.046683677792225743 0.047483195694448345 0 0.04677473389408613 0.046954325230156392 0 0.046683677792225743 0.047483195694448345 0 0.046334471505018869 0.047276494308237313 0 0.04677473389408613 0.046954325230156392 0 0.046743475059690648 0.048315504309399369 0 0.046683677792225743 0.047483195694448345 0 0.046220862908303136 0.047719993775067235 0 0.054216950101036214 0.051519877841393079 0 0.054019588348224588 0.051348575516096846 0 0.054049917565813815 0.051627747880795008 0 0.046683677792225743 0.047483195694448345 0 0.046334471505018869 0.047276494308237313 0 0.046220862908303136 0.047719993775067235 0 0.050202920386465143 0.049625301076195776 0 0.054261862064245638 0.046413750270715134 0 0.046334471505018869 0.047276494308237313 0 0.046220862908303136 0.047719993775067235 0 0.045860222339875127 0.04727974683497236 0 0.046220862908303136 0.047719993775067235 0 0.04563763622924092 0.047069748329083443 0 0.045860222339875127 0.04727974683497236 0 0.046334471505018869 0.047276494308237313 0 0.046026010427826648 0.04702827820696278 0 0.045860222339875127 0.04727974683497236 0 0.034864451937471175 0.054714220231253975 0 0.034607716215967116 0.054871998640909248 0 0.034457222097933289 0.055005064799825004 0 0.038934223078788854 0.053355712211486259 0 0.037251380889256273 0.053784381994634659 0 0.040508243277794148 0.052391366201620451 0 0.040270991540408356 0.051720589560535671 0 0.040801211096794805 0.051429734397183666 0 0.044322452577366937 0.052818072062959839 0 0.043360292120626052 0.052477504282133075 0 0.04392065243200214 0.051721393701398763 0 0.038934223078788854 0.053355712211486259 0 0.042270138771847716 0.051936014956260115 0 0.034864451937471175 0.054714220231253975 0 0.034607716215967116 0.054871998640909248 0 0.034751979763828995 0.054664222320821472 0 0.042925510879687226 0.051544810062245761 0 0.043360292120626052 0.052477504282133075 0 0.04392065243200214 0.051721393701398763 0 0.040270991540408356 0.051720589560535671 0 0.040330437280297456 0.051230482153024247 0 0.040069474050115954 0.051063627523061511 0 0.045159844197612146 0.049280104452596341 0 0.043279990294815447 0.049372218382141224 0 0.042270138771847716 0.051936014956260115 0 0.043279990294815447 0.049372218382141224 0 0.042925510879687226 0.051544810062245761 0 0.04392065243200214 0.051721393701398763 0 0.043502585796144515 0.050613727184070686 0 0.040270991540408356 0.051720589560535671 0 0.040330437280297456 0.051230482153024247 0 0.040801211096794805 0.051429734397183666 0 0.040396466849440066 0.050964679474769896 0 0.040018647474276962 0.05087603882639731 0 0.04052858510873656 0.050712555326093901 0 0.040396466849440066 0.050964679474769896 0 0.04052858510873656 0.050712555326093901 0 0.040801211096794805 0.051429734397183666 0 0.040330437280297456 0.051230482153024247 0 0.040396466849440066 0.050964679474769896 0 0.040127309440111072 0.050979574536935288 0 0.040330437280297456 0.051230482153024247 0 0.040396466849440066 0.050964679474769896 0 0.040801211096794805 0.051429734397183666 0 0.047467980456228451 0.046992194419806975 0 0.047381963960177201 0.046785209924995783 0 0.04677473389408613 0.046954325230156392 0 0.043755159958662658 0.046722147434224065 0 0.041508737923134281 0.046803920107877921 0 0.040396466849440066 0.050964679474769896 0 0.040127309440111072 0.050979574536935288 0 0.040018647474276962 0.05087603882639731 0 0.043279990294815447 0.049372218382141224 0 0.043755159958662658 0.046722147434224065 0 0.040127309440111072 0.050979574536935288 0 0.040088793518426404 0.051045547647093389 0 0.040018647474276962 0.05087603882639731 0 0.040330437280297456 0.051230482153024247 0 0.040127309440111072 0.050979574536935288 0 0.040069474050115954 0.051063627523061511 0 0.042672731906161603 0.050041271403643638 0 0.043279990294815447 0.049372218382141224 0 0.040735261466178618 0.043604959692601683 0 0.04134562289156065 0.042344785688933094 0 0.039991397708046328 0.041707624069220232 0 0.040735261466178618 0.043604959692601683 0 0.04134562289156065 0.042344785688933094 0 0.042117705207224909 0.043125668862302458 0 0.043755159958662658 0.046722147434224065 0 0.043965734829646663 0.042519334428161366 0 0.04134562289156065 0.042344785688933094 0 0.042531799490631871 0.042026092712333575 0 0.042117705207224909 0.043125668862302458 0 0.046334471505018869 0.047276494308237313 0 0.046026010427826648 0.04702827820696278 0 0.04677473389408613 0.046954325230156392 0 0.046771214252164649 0.045751261216039452 0 0.046026010427826648 0.04702827820696278 0 0.047598538144997697 0.04644986165532234 0 0.045860590187391505 0.047097634859070314 0 0.047944819256150614 0.046469982773992925 0 0.046771214252164649 0.045751261216039452 0 0.046026010427826648 0.04702827820696278 0 0.045614582894926523 0.0462256912708238 0 0.046026010427826648 0.04702827820696278 0 0.045614582894926523 0.0462256912708238 0 0.045860222339875127 0.04727974683497236 0 0.043755159958662658 0.046722147434224065 0 0.047944819256150614 0.046469982773992925 0 0.047135832143097113 0.047595355094454062 0 0.047467980456228451 0.046992194419806975 0 0.04677473389408613 0.046954325230156392 0 0.049193878624671235 0.04591609069786657 0 0.047598538144997697 0.04644986165532234 0 0.047809429588433525 0.045151815790098193 0 0.046771214252164649 0.045751261216039452 0 0.047598538144997697 0.04644986165532234 0 0.047809429588433525 0.045151815790098193 0 0.047809429588433525 0.045151815790098193 0 0.046541592437190568 0.043879149474622271 0 0.048395255981919509 0.043744448934047227 0 0.049193878624671235 0.04591609069786657 0 0.047809429588433525 0.045151815790098193 0 0.048395255981919509 0.043744448934047227 0 0.04982683381405089 0.044803521780900461 0 0.048728678728386605 0.04254652325107143 0 0.046771214252164649 0.045751261216039452 0 0.047809429588433525 0.045151815790098193 0 0.046541592437190568 0.043879149474622271 0 0.049464175436311292 0.043846551559933 0 0.049172016664595551 0.041210763330662155 0 0.050675030908785654 0.041019540047536357 0 0.046771214252164649 0.045751261216039452 0 0.045614582894926523 0.0462256912708238 0 0.046541592437190568 0.043879149474622271 0 0.04982683381405089 0.044803521780900461 0 0.053953341446720378 0.040691680983844694 0 0.057658855299701849 0.041887612432562303 0 0.056483197363833219 0.04140452324435643 0 0.05811139300947446 0.040706929245676919 0 0.057658855299701849 0.041887612432562303 0 0.058260815522532095 0.042551877507696373 0 0.05811139300947446 0.040706929245676919 0 0.057658855299701849 0.041887612432562303 0 0.057971523993222751 0.0431901810234534 0 0.056483197363833219 0.04140452324435643 0 0.057658855299701849 0.041887612432562303 0 0.058260815522532095 0.042551877507696373 0 0.057971523993222751 0.0431901810234534 0 0.054261862064245638 0.046413750270715134 0 0.056889055191468363 0.042776638296972987 0 0.04982683381405089 0.044803521780900461 0 0.054261862064245638 0.046413750270715134 0 0.045843104250630047 0.046659020214038081 0 0.04563763622924092 0.047069748329083443 0 0.045860222339875127 0.04727974683497236 0 0.04982683381405089 0.044803521780900461 0 0.046902420703095839 0.047213819469894946 0 0.057492318022381875 0.045720788586389359 0 0.056299993662847443 0.045607086143970264 0 0.056365325516120827 0.0441839658976848 0 0.056299993662847443 0.045607086143970264 0 0.056365325516120827 0.0441839658976848 0 0.055701123570124023 0.044891079245582284 0 0.056365325516120827 0.0441839658976848 0 0.055204430971539729 0.043858715251906939 0 0.055701123570124023 0.044891079245582284 0 0.055559123425204936 0.042972024054159765 0 0.055000227214102373 0.043736247848460259 0 0.056014223131792891 0.04175082348823745 0 0.054999997882434884 0.043736574823834175 0 0.054999987058196163 0.040616356045735359 0 0.054999576086137425 0.043740689424017445 0 0.055701123570124023 0.044891079245582284 0 0.055658762922812272 0.045853455290324731 0 0.055204430971539729 0.043858715251906939 0 0.054999576086137425 0.043740689424017445 0 0.055701123570124023 0.044891079245582284 0 0.055658762922812272 0.045853455290324731 0 0.056144858962562855 0.047035960090491435 0 0.055987766416715753 0.046710644782057963 0 0.056299993662847443 0.045607086143970264 0 0.055701123570124023 0.044891079245582284 0 0.055987766416715753 0.046710644782057963 0 0.055701123570124023 0.044891079245582284 0 0.055658762922812272 0.045853455290324731 0 0.055987766416715753 0.046710644782057963 0 0.054999576086137425 0.043740689424017445 0 0.054999381619880487 0.046212699964415363 0 0.055658762922812272 0.045853455290324731 0 0.054999381619880487 0.046212699964415363 0 0.055658762922812272 0.045853455290324731 0 0.056144858962562855 0.047035960090491435 0 0.05499973680017161 0.048688531839022324 0 0.054999381619880487 0.046212699964415363 0 0.056144858962562855 0.047035960090491435 0 0.054535576166605704 0.048949282975241037 0 0.055996191553171225 0.047837414478237167 0 0.052900607323700714 0.051071746728312127 0 0.054451674287741898 0.051270597335359692 0 0.055895218501725762 0.047723497181880736 0 0.056144858962562855 0.047035960090491435 0 0.055895218501725762 0.047723497181880736 0 0.055987766416715753 0.046710644782057963 0 0.054451674287741898 0.051270597335359692 0 0.054022246731188946 0.051595254229795794 0 0.053888619667780302 0.051778597943393699 0 0.054022246731188946 0.051595254229795794 0 0.053888619667780302 0.051778597943393699 0 0.053999446227205525 0.051741297649988582 0 0.054029644257131235 0.052078351113944911 0 0.053888619667780302 0.051778597943393699 0 0.053999446227205525 0.051741297649988582 0 0.053999446227205525 0.051741297649988582 0 0.053993940193479903 0.05165384020305426 0 0.054049917565813815 0.051627747880795008 0 0.054022246731188946 0.051595254229795794 0 0.053999446227205525 0.051741297649988582 0 0.053993940193479903 0.05165384020305426 0 0.053993940193479903 0.05165384020305426 0 0.054049917565813815 0.051627747880795008 0 0.053966426445271852 0.051692421701591773 0 0.054451674287741898 0.051270597335359692 0 0.054022246731188946 0.051595254229795794 0 0.053966426445271852 0.051692421701591773 0 0.054451674287741898 0.051270597335359692 0 0.055895218501725762 0.047723497181880736 0 0.056917731450235376 0.047252825331147254 0 0.054022246731188946 0.051595254229795794 0 0.053993940193479903 0.05165384020305426 0 0.053966426445271852 0.051692421701591773 0 0.054680084386551094 0.050903744044451957 0 0.055254391929696736 0.049721003374485276 0 0.054019588348224588 0.051348575516096846 0 0.054049917565813815 0.051627747880795008 0 0.053966426445271852 0.051692421701591773 0 0.055895218501725762 0.047723497181880736 0 0.056917731450235376 0.047252825331147254 0 0.056370085311663112 0.046574535153953496 0 0.057492318022381875 0.045720788586389359 0 0.056299993662847443 0.045607086143970264 0 0.056370085311663112 0.046574535153953496 0 0.057492318022381875 0.045720788586389359 0 0.056917731450235376 0.047252825331147254 0 0.056370085311663112 0.046574535153953496 0 0.054261862064245638 0.046413750270715134 0 0.055254391929696736 0.049721003374485276 0 0.056299993662847443 0.045607086143970264 0 0.056370085311663112 0.046574535153953496 0 0.055987766416715753 0.046710644782057963 0 0.055895218501725762 0.047723497181880736 0 0.056370085311663112 0.046574535153953496 0 0.055987766416715753 0.046710644782057963 0 0.011260501623610085 0.051232651858634966 0 0.011145436764016104 0.051561062009862574 0 0.0099897030341583662 0.051199564761533818 0 0.021194074484199528 0.053374648111365226 0 0.021194114928858195 0.053571596068931776 0 0.02114155245967933 0.054357908083105165 0 0.017229321173343141 0.053029684687535696 0 0.01067980170827733 0.051096932066747078 0 0.021194114928858195 0.053571596068931776 0 0.021843659890321616 0.053559230345289865 0 0.02114155245967933 0.054357908083105165 0 0.021542124358733421 0.053358719372941649 0 0.021194114928858195 0.053571596068931776 0 0.021843659890321616 0.053559230345289865 0 0.021542124358733421 0.053358719372941649 0 0.021194114928858195 0.053571596068931776 0 0.021445920335748304 0.053288923884197467 0 0.024963905993775036 0.054481142332111369 0 0.02535508364017619 0.056299361533093527 0 0.020481949982725827 0.052460415934506462 0 0.02535508364017619 0.056299361533093527 0 0.021570717753253327 0.053348450480372456 0 0.021445920335748304 0.053288923884197467 0 0.021469995669155056 0.053134100312053942 0 0.021194114928858195 0.053571596068931776 0 0.021445920335748304 0.053288923884197467 0 0.021469995669155056 0.053134100312053942 0 0.021542124358733421 0.053358719372941649 0 0.021609224043530099 0.053014594883266659 0 0.021445920335748304 0.053288923884197467 0 0.024963905993775036 0.054481142332111369 0 0.021979201927880762 0.054033745493057145 0 0.03031077951979325 0.058198116180772051 0 0.030564609233989449 0.0576410522431769 0 0.031090110521031226 0.058326920709389073 0 0.030797088553324897 0.05886792768451804 0 0.03031077951979325 0.058198116180772051 0 0.031090110521031226 0.058326920709389073 0 0.030797088553324897 0.05886792768451804 0 0.03031077951979325 0.058198116180772051 0 0.029246332249664737 0.058347186046419135 0 0.03031077951979325 0.058198116180772051 0 0.029246332249664737 0.058347186046419135 0 0.02973581310861572 0.057556853845946339 0 0.021194074484199528 0.053374648111365226 0 0.021194114928858195 0.053571596068931776 0 0.020869410815689746 0.054487784999789873 0 0.020869410815689746 0.054487784999789873 0 0.022070560515555313 0.054747135780255307 0 0.02262231570903887 0.05583299830325425 0 0.021194074484199528 0.053374648111365226 0 0.020869410815689746 0.054487784999789873 0 0.022070560515555313 0.054747135780255307 0 0.02535508364017619 0.056299361533093527 0 0.024658070426465943 0.056741293314798262 0 0.029246332249664737 0.058347186046419135 0 0.02837909028625905 0.056747149742076793 0 0.02973581310861572 0.057556853845946339 0 0.02886603975525099 0.058688079959095495 0 0.028038276187163955 0.056818319613334993 0 0.026840076757549687 0.057746369286296874 0 0.02535508364017619 0.056299361533093527 0 0.028575938534714993 0.057316821304031387 0 0.028575938534714993 0.057316821304031387 0 0.027334377317346805 0.054999749124722441 0 0.02837909028625905 0.056747149742076793 0 0.03055780120947876 0.054999861609317191 0 0.027334973234476485 0.054999862546621578 0 0.03055780120947876 0.054999861609317191 0 0.030164107913153593 0.056834732709608676 0 0.031462943759033628 0.05703462605441257 0 0.02837909028625905 0.056747149742076793 0 0.03055780120947876 0.054999861609317191 0 0.030164107913153593 0.056834732709608676 0 0.02837909028625905 0.056747149742076793 0 0.030164107913153593 0.056834732709608676 0 0.02973581310861572 0.057556853845946339 0 0.030164107913153593 0.056834732709608676 0 0.02973581310861572 0.057556853845946339 0 0.030564609233989449 0.0576410522431769 0 0.03031077951979325 0.058198116180772051 0 0.02973581310861572 0.057556853845946339 0 0.030564609233989449 0.0576410522431769 0 0.030164107913153593 0.056834732709608676 0 0.030564609233989449 0.0576410522431769 0 0.031462943759033628 0.05703462605441257 0 0.030564609233989449 0.0576410522431769 0 0.031462943759033628 0.05703462605441257 0 0.031090110521031226 0.058326920709389073 0 0.032412071582841963 0.057688846216125439 0 0.031462943759033628 0.05703462605441257 0 0.031090110521031226 0.058326920709389073 0 0.032412071582841963 0.057688846216125439 0 0.031462943759033628 0.05703462605441257 0 0.03303183955308478 0.056485636141425391 0 0.03055780120947876 0.054999861609317191 0 0.033782026279213083 0.054999297310207064 0 0.03303183955308478 0.056485636141425391 0 0.03055780120947876 0.054999861609317191 0 0.031462943759033628 0.05703462605441257 0 0.03303183955308478 0.056485636141425391 0 0.033782026279213083 0.054999297310207064 0 0.03303183955308478 0.056485636141425391 0 0.03483719725529616 0.056053358409829168 0 0.03303183955308478 0.056485636141425391 0 0.034518801276593916 0.057077732336380409 0 0.03483719725529616 0.056053358409829168 0 0.032412071582841963 0.057688846216125439 0 0.03303183955308478 0.056485636141425391 0 0.033491014060407227 0.057646658878250129 0 0.03303183955308478 0.056485636141425391 0 0.033491014060407227 0.057646658878250129 0 0.034518801276593916 0.057077732336380409 0 0.033491014060407227 0.057646658878250129 0 0.03422251209236743 0.057718087689200101 0 0.034518801276593916 0.057077732336380409 0 0.032412071582841963 0.057688846216125439 0 0.034369468679757167 0.058368219702881537 0 0.031090110521031226 0.058326920709389073 0 0.032439018097006209 0.058620727995595132 0 0.032524785561045051 0.058407021636017208 0 0.031090110521031226 0.058326920709389073 0 0.033669203784442929 0.058624467176750378 0 0.03108878137771293 0.058232966303277664 0 0.033491014060407227 0.057646658878250129 0 0.03422251209236743 0.057718087689200101 0 0.034369468679757167 0.058368219702881537 0 0.032412071582841963 0.057688846216125439 0 0.033491014060407227 0.057646658878250129 0 0.034369468679757167 0.058368219702881537 0 0.024963905993775036 0.054481142332111369 0 0.029634571466826055 0.05575433837968722 0 0.030797088553324897 0.05886792768451804 0 0.032439018097006209 0.058620727995595132 0 0.031090110521031226 0.058326920709389073 0 0.022400994435102066 0.052547890911311672 0 0.026770967194934835 0.052615458843003872 0 0.023854946705367423 0.052832498160057917 0 0.021609224043530099 0.053014594883266659 0 0.022370891929681488 0.05340151838738786 0 0.023087874101266365 0.052957900047477476 0 0.022400994435102066 0.052547890911311672 0 0.023854946705367423 0.052832498160057917 0 0.024481010031981217 0.053349175497244987 0 0.024963905993775036 0.054481142332111369 0 0.023314106510282005 0.052949059735754478 0 0.021609224043530099 0.053014594883266659 0 0.022370891929681488 0.05340151838738786 0 0.021843659890321616 0.053559230345289865 0 0.021542124358733421 0.053358719372941649 0 0.021609224043530099 0.053014594883266659 0 0.021843659890321616 0.053559230345289865 0 0.022370891929681488 0.05340151838738786 0 0.021843659890321616 0.053559230345289865 0 0.022437697152567687 0.054166992994283444 0 0.021843659890321616 0.053559230345289865 0 0.022437697152567687 0.054166992994283444 0 0.02114155245967933 0.054357908083105165 0 0.023135322231905422 0.053784446292662748 0 0.023644249801320415 0.054414281011838074 0 0.022437697152567687 0.054166992994283444 0 0.022370891929681488 0.05340151838738786 0 0.023135322231905422 0.053784446292662748 0 0.022437697152567687 0.054166992994283444 0 0.022370891929681488 0.05340151838738786 0 0.023087874101266365 0.052957900047477476 0 0.023135322231905422 0.053784446292662748 0 0.024481010031981217 0.053349175497244987 0 0.026637250913758816 0.052925204269624673 0 0.025843796767200455 0.05385093886863776 0 0.026770967194934835 0.052615458843003872 0 0.023854946705367423 0.052832498160057917 0 0.028285173014348609 0.054118293457569994 0 0.023087874101266365 0.052957900047477476 0 0.023135322231905422 0.053784446292662748 0 0.024160554329503276 0.053996697369880213 0 0.023135322231905422 0.053784446292662748 0 0.024160554329503276 0.053996697369880213 0 0.023644249801320415 0.054414281011838074 0 0.023087874101266365 0.052957900047477476 0 0.024160554329503276 0.053996697369880213 0 0.025843796767200455 0.05385093886863776 0 0.023854946705367423 0.052832498160057917 0 0.024481010031981217 0.053349175497244987 0 0.026637250913758816 0.052925204269624673 0 0.024059572401917525 0.052866668520043798 0 0.027476471481948959 0.053519250753798125 0 0.023314106510282005 0.052949059735754478 0 0.025771684302983128 0.053920177121081353 0 0.024160554329503276 0.053996697369880213 0 0.025843796767200455 0.05385093886863776 0 0.025093062725878603 0.05503493502485049 0 0.026637250913758816 0.052925204269624673 0 0.025843796767200455 0.05385093886863776 0 0.026645558480817563 0.054180991881563341 0 0.025843796767200455 0.05385093886863776 0 0.026645558480817563 0.054180991881563341 0 0.026017803545738481 0.05475143888068109 0 0.026637250913758816 0.052925204269624673 0 0.026645558480817563 0.054180991881563341 0 0.028109818146575798 0.054497363071717549 0 0.027476471481948959 0.053519250753798125 0 0.031930859315522822 0.054282284350354412 0 0.026637250913758816 0.052925204269624673 0 0.031127575503828303 0.053575503276963442 0 0.028109818146575798 0.054497363071717549 0 0.028285173014348609 0.054118293457569994 0 0.031496207110080991 0.05287246585270354 0 0.032787733558690045 0.055015945517831372 0 0.036575449879159047 0.057473056000652126 0 0.036394662864835496 0.056979716896220223 0 0.036959089965238986 0.056641463438274003 0 0.036575449879159047 0.057473056000652126 0 0.035412130764753448 0.057444706592118276 0 0.036394662864835496 0.056979716896220223 0 0.032439018097006209 0.058620727995595132 0 0.032524785561045051 0.058407021636017208 0 0.033796994619693738 0.058394475447777955 0 0.026770967194934835 0.052615458843003872 0 0.028285173014348609 0.054118293457569994 0 0.031496207110080991 0.05287246585270354 0 0.034369468679757167 0.058368219702881537 0 0.036575449879159047 0.057473056000652126 0 0.035412130764753448 0.057444706592118276 0 0.033669203784442929 0.058624467176750378 0 0.034010229985292392 0.055912624124270116 0 0.029634571466826055 0.05575433837968722 0 0.034010229985292392 0.055912624124270116 0 0.034369468679757167 0.058368219702881537 0 0.035412130764753448 0.057444706592118276 0 0.034685429283034155 0.057648665595650038 0 0.03422251209236743 0.057718087689200101 0 0.034369468679757167 0.058368219702881537 0 0.034685429283034155 0.057648665595650038 0 0.03422251209236743 0.057718087689200101 0 0.034685429283034155 0.057648665595650038 0 0.034518801276593916 0.057077732336380409 0 0.035412130764753448 0.057444706592118276 0 0.034685429283034155 0.057648665595650038 0 0.034518801276593916 0.057077732336380409 0 0.035412130764753448 0.057444706592118276 0 0.034518801276593916 0.057077732336380409 0 0.035821634346515356 0.056610181489635383 0 0.034518801276593916 0.057077732336380409 0 0.035821634346515356 0.056610181489635383 0 0.03483719725529616 0.056053358409829168 0 0.035821634346515356 0.056610181489635383 0 0.03483719725529616 0.056053358409829168 0 0.037002868393771239 0.055000834106001033 0 0.033782026279213083 0.054999297310207064 0 0.03483719725529616 0.056053358409829168 0 0.037002868393771239 0.055000834106001033 0 0.035821634346515356 0.056610181489635383 0 0.037002868393771239 0.055000834106001033 0 0.03677394909441329 0.056420122631637204 0 0.03677394909441329 0.056420122631637204 0 0.036394662864835496 0.056979716896220223 0 0.036959089965238986 0.056641463438274003 0 0.035821634346515356 0.056610181489635383 0 0.03677394909441329 0.056420122631637204 0 0.036394662864835496 0.056979716896220223 0 0.035412130764753448 0.057444706592118276 0 0.035821634346515356 0.056610181489635383 0 0.036394662864835496 0.056979716896220223 0 0.043864449605538987 0.056764303945293831 0 0.039232142807946915 0.055000605778194274 0 0.041334857751068835 0.056595734356426737 0 0.03677394909441329 0.056420122631637204 0 0.036959089965238986 0.056641463438274003 0 0.037100794429143748 0.056378040993851436 0 0.037002868393771239 0.055000834106001033 0 0.03677394909441329 0.056420122631637204 0 0.037100794429143748 0.056378040993851436 0 0.037005300651514222 0.054999982762542247 0 0.038959709517027888 0.056249120090381882 0 0.03923339934260401 0.054999976721793686 0 0.037004931892532074 0.055000227331613243 0 0.038028559803043274 0.056277109153012719 0 0.038959709517027888 0.056249120090381882 0 0.03923339934260401 0.054999976721793686 0 0.040624494369902966 0.05671323549964865 0 0.039233879203483375 0.054999970579370235 0 0.041047413809694372 0.05684116502036405 0 0.038959709517027888 0.056249120090381882 0 0.040624494369902966 0.05671323549964865 0 0.040494576925184558 0.057289469620643435 0 0.036959089965238986 0.056641463438274003 0 0.037100794429143748 0.056378040993851436 0 0.036480386472548067 0.056757134255797197 0 0.036959089965238986 0.056641463438274003 0 0.036480386472548067 0.056757134255797197 0 0.036685729928822665 0.056438462228105488 0 0.038028559803043274 0.056277109153012719 0 0.038057291136181816 0.056890269851279318 0 0.034729264670686551 0.054360287721911878 0 0.034661653763010065 0.054378423565547243 0 0.034794138247082315 0.054533860251577741 0 0.03493701058347045 0.055126132565240446 0 0.034729264670686551 0.054360287721911878 0 0.034794138247082315 0.054533860251577741 0 0.033849347882099805 0.053993457182364764 0 0.034775980906553053 0.054386488414772775 0 0.035978765054900858 0.055961542703168367 0 0.036915052895275337 0.056230280037698442 0 0.036685729928822665 0.056438462228105488 0 0.035978765054900858 0.055961542703168367 0 0.036480386472548067 0.056757134255797197 0 0.036685729928822665 0.056438462228105488 0 0.036959089965238986 0.056641463438274003 0 0.036915052895275337 0.056230280037698442 0 0.036685729928822665 0.056438462228105488 0 0.034010229985292392 0.055912624124270116 0 0.033849347882099805 0.053993457182364764 0 0.036575449879159047 0.057473056000652126 0 0.036959089965238986 0.056641463438274003 0 0.036915052895275337 0.056230280037698442 0 0.034010229985292392 0.055912624124270116 0 0.03602294110242979 0.055335389200386505 0 0.034497590187585532 0.054366222617955921 0 0.034729264670686551 0.054360287721911878 0 0.034661653763010065 0.054378423565547243 0 0.031496207110080991 0.05287246585270354 0 0.03362054673814472 0.053633848525792734 0 0.033359925741834572 0.054381319233159899 0 0.033359925741834572 0.054381319233159899 0 0.032787733558690045 0.055015945517831372 0 0.034034831672055885 0.054549450234608533 0 0.03362054673814472 0.053633848525792734 0 0.033359925741834572 0.054381319233159899 0 0.034075444784042605 0.054275212512941082 0 0.031496207110080991 0.05287246585270354 0 0.033359925741834572 0.054381319233159899 0 0.032787733558690045 0.055015945517831372 0 0.031930859315522822 0.054282284350354412 0 0.034570425462961095 0.054661928274520037 0 0.032787733558690045 0.055015945517831372 0 0.034034831672055885 0.054549450234608533 0 0.034751979763828995 0.054664222320821472 0 0.03362054673814472 0.053633848525792734 0 0.034794138247082315 0.054533860251577741 0 0.034075444784042605 0.054275212512941082 0 0.031127575503828303 0.053575503276963442 0 0.034751979763828995 0.054664222320821472 0 0.032874303555222348 0.054644997025439672 0 0.034034831672055885 0.054549450234608533 0 0.034671889115391846 0.054567208675268652 0 0.034751979763828995 0.054664222320821472 0 0.034774660737526247 0.05459855761164259 0 0.034671889115391846 0.054567208675268652 0 0.034751979763828995 0.054664222320821472 0 0.034671889115391846 0.054567208675268652 0 0.034389220225930293 0.05446083833005199 0 0.034794138247082315 0.054533860251577741 0 0.034034831672055885 0.054549450234608533 0 0.034671889115391846 0.054567208675268652 0 0.034389220225930293 0.05446083833005199 0 0.034389220225930293 0.05446083833005199 0 0.034794138247082315 0.054533860251577741 0 0.034075444784042605 0.054275212512941082 0 0.034830009950269927 0.054620588580960736 0 0.034671889115391846 0.054567208675268652 0 0.034794138247082315 0.054533860251577741 0 0.033359925741834572 0.054381319233159899 0 0.034034831672055885 0.054549450234608533 0 0.034075444784042605 0.054275212512941082 0 0.034034831672055885 0.054549450234608533 0 0.034389220225930293 0.05446083833005199 0 0.034075444784042605 0.054275212512941082 0 0.034607716215967116 0.054871998640909248 0 0.032874303555222348 0.054644997025439672 0 0.030857536535426302 0.055502650549282349 0 0.034607716215967116 0.054871998640909248 0 0.034751979763828995 0.054664222320821472 0 0.032874303555222348 0.054644997025439672 0 0.034607716215967116 0.054871998640909248 0 0.033917475323100819 0.054430504091912343 0 0.034236187995429435 0.054810619896072284 0 0.034249154570592057 0.05480121314428793 0 0.032846842569645013 0.055279139080579943 0 0.031127575503828303 0.053575503276963442 0 0.032874303555222348 0.054644997025439672 0 0.030857536535426302 0.055502650549282349 0 0.033917475323100819 0.054430504091912343 0 0.034236187995429435 0.054810619896072284 0 0.033847913139384518 0.054667670478900081 0 0.034236187995429435 0.054810619896072284 0 0.034133807925710684 0.05495651759355337 0 0.033847913139384518 0.054667670478900081 0 0.034133807925710684 0.05495651759355337 0 0.033809185610331638 0.054860513725414915 0 0.033847913139384518 0.054667670478900081 0 0.034607716215967116 0.054871998640909248 0 0.034236187995429435 0.054810619896072284 0 0.034457222097933289 0.055005064799825004 0 0.034236187995429435 0.054810619896072284 0 0.034133807925710684 0.05495651759355337 0 0.034457222097933289 0.055005064799825004 0 0.04052858510873656 0.050712555326093901 0 0.040801211096794805 0.051429734397183666 0 0.041047895140459964 0.050540711853169766 0 0.037251380889256273 0.053784381994634659 0 0.038701683099518061 0.050550939828630286 0 0.034133807925710684 0.05495651759355337 0 0.034457222097933289 0.055005064799825004 0 0.034202410274979944 0.055101270076050014 0 0.034457222097933289 0.055005064799825004 0 0.034266071089294962 0.055152776686355896 0 0.034202410274979944 0.055101270076050014 0 0.041508737923134281 0.046803920107877921 0 0.038701683099518061 0.050550939828630286 0 0.042531799490631871 0.042026092712333575 0 0.042117705207224909 0.043125668862302458 0 0.043471991590978878 0.042677927448183113 0 0.034266071089294962 0.055152776686355896 0 0.034244611146967696 0.055145510373558582 0 0.034202410274979944 0.055101270076050014 0 0.038701683099518061 0.050550939828630286 0 0.036617633867129878 0.044990279808200376 0 0.034326526385029275 0.055101064640904508 0 0.034244611146967696 0.055145510373558582 0 0.034308265801331658 0.055156274680173749 0 0.038701683099518061 0.050550939828630286 0 0.035387701410093619 0.052406858344093761 0 0.042531799490631871 0.042026092712333575 0 0.043471991590978878 0.042677927448183113 0 0.043655444685735102 0.042094874803397596 0 0.030785303961271774 0.045798563421902895 0 0.030339424133977003 0.045711219964863666 0 0.030167441037576907 0.04535896817708767 0 0.036617633867129878 0.044990279808200376 0 0.031860195600550804 0.050972059020555668 0 0.034244611146967696 0.055145510373558582 0 0.034308265801331658 0.055156274680173749 0 0.033966311197558934 0.055132799255223609 0 0.029080133578306331 0.034103358102295291 0 0.029245790237026243 0.034227650925473259 0 0.02912290292618543 0.033852748681703376 0 0.030785303961271774 0.045798563421902895 0 0.030339424133977003 0.045711219964863666 0 0.030755844478079972 0.045902083548559694 0 0.029548834085962317 0.039494424517158351 0 0.03633274354479453 0.036443094814089333 0 0.034244611146967696 0.055145510373558582 0 0.033966311197558934 0.055132799255223609 0 0.034202410274979944 0.055101270076050014 0 0.034133807925710684 0.05495651759355337 0 0.033966311197558934 0.055132799255223609 0 0.034202410274979944 0.055101270076050014 0 0.034133807925710684 0.05495651759355337 0 0.033966311197558934 0.055132799255223609 0 0.033809185610331638 0.054860513725414915 0 0.029497287853150866 0.045109687098235422 0 0.030026591427629493 0.045335825404799329 0 0.029395659722934585 0.044635913043764228 0 0.030167441037576907 0.04535896817708767 0 0.030026591427629493 0.045335825404799329 0 0.029395659722934585 0.044635913043764228 0 0.029497287853150866 0.045109687098235422 0 0.030026591427629493 0.045335825404799329 0 0.029800439013627035 0.045612026298154654 0 0.030167441037576907 0.04535896817708767 0 0.030026591427629493 0.045335825404799329 0 0.029930931872389422 0.045505629529236528 0 0.028226964130062464 0.044153143966082678 0 0.028539449910079145 0.040096786878861167 0 0.030339424133977003 0.045711219964863666 0 0.030167441037576907 0.04535896817708767 0 0.029930931872389422 0.045505629529236528 0 0.028539449910079145 0.040096786878861167 0 0.025493995874209276 0.037080723665448408 0 0.029548834085962317 0.039494424517158351 0 0.028539449910079145 0.040096786878861167 0 0.023437456350062981 0.038530070620886717 0 0.021398744170119669 0.039097124344755603 0 0.021842216697289373 0.04075298648608703 0 0.029497287853150866 0.045109687098235422 0 0.029800439013627035 0.045612026298154654 0 0.028911748357422495 0.045036351738830679 0 0.023437456350062981 0.038530070620886717 0 0.021398744170119669 0.039097124344755603 0 0.021480850349614646 0.03713590866878639 0 0.028539449910079145 0.040096786878861167 0 0.022255537614964876 0.044875653509954115 0 0.022962115787885883 0.052991666615871166 0 0.023530757339993054 0.05030302293071761 0 0.025735071184334726 0.050084993069366306 0 0.023530757339993054 0.05030302293071761 0 0.023462716882592237 0.048796286466969575 0 0.02212359831118892 0.048982518208822233 0 0.023530757339993054 0.05030302293071761 0 0.025735071184334726 0.050084993069366306 0 0.023462716882592237 0.048796286466969575 0 0.0332621871045038 0.054748496630259942 0 0.033187972419144486 0.054473041579412539 0 0.033279086432068387 0.054550752959221703 0 0.022255537614964876 0.044875653509954115 0 0.029797807728656298 0.050292160322228351 0 0.029497287853150866 0.045109687098235422 0 0.028911748357422495 0.045036351738830679 0 0.029395659722934585 0.044635913043764228 0 0.033966311197558934 0.055132799255223609 0 0.0332621871045038 0.054748496630259942 0 0.033809185610331638 0.054860513725414915 0 0.031860195600550804 0.050972059020555668 0 0.029797807728656298 0.050292160322228351 0 0.033847913139384518 0.054667670478900081 0 0.033568916319406568 0.054710544957918356 0 0.033634892407735741 0.054578503820505025 0 0.033809185610331638 0.054860513725414915 0 0.033847913139384518 0.054667670478900081 0 0.033568916319406568 0.054710544957918356 0 0.0332621871045038 0.054748496630259942 0 0.033809185610331638 0.054860513725414915 0 0.033568916319406568 0.054710544957918356 0 0.0332621871045038 0.054748496630259942 0 0.033568916319406568 0.054710544957918356 0 0.033399588655610664 0.054644209812086543 0 0.033568916319406568 0.054710544957918356 0 0.033446667234601109 0.054591831343928303 0 0.033634892407735741 0.054578503820505025 0 0.033568916319406568 0.054710544957918356 0 0.033446667234601109 0.054591831343928303 0 0.033399588655610664 0.054644209812086543 0 0.033446667234601109 0.054591831343928303 0 0.033399588655610664 0.054644209812086543 0 0.033279086432068387 0.054550752959221703 0 0.0332621871045038 0.054748496630259942 0 0.033399588655610664 0.054644209812086543 0 0.033279086432068387 0.054550752959221703 0 0.032846842569645013 0.055279139080579943 0 0.027537986277038622 0.052641232890287049 0 0.033917475323100819 0.054430504091912343 0 0.033333568115628723 0.054463291630475849 0 0.033634892407735741 0.054578503820505025 0 0.033446667234601109 0.054591831343928303 0 0.033333568115628723 0.054463291630475849 0 0.033279086432068387 0.054550752959221703 0 0.033917475323100819 0.054430504091912343 0 0.033333568115628723 0.054463291630475849 0 0.032832279473616915 0.054262889205782469 0 0.031127575503828303 0.053575503276963442 0 0.030857536535426302 0.055502650549282349 0 0.028109818146575798 0.054497363071717549 0 0.030857536535426302 0.055502650549282349 0 0.028109818146575798 0.054497363071717549 0 0.026294768175949834 0.055762939116639522 0 0.033446667234601109 0.054591831343928303 0 0.033333568115628723 0.054463291630475849 0 0.033634892407735741 0.054578503820505025 0 0.033917475323100819 0.054430504091912343 0 0.033847913139384518 0.054667670478900081 0 0.033634892407735741 0.054578503820505025 0 0.028109818146575798 0.054497363071717549 0 0.026662289485792939 0.054852996506981791 0 0.026294768175949834 0.055762939116639522 0 0.026645558480817563 0.054180991881563341 0 0.028109818146575798 0.054497363071717549 0 0.026662289485792939 0.054852996506981791 0 0.025910619100054228 0.055147137686181624 0 0.026294768175949834 0.055762939116639522 0 0.025093062725878603 0.05503493502485049 0 0.026645558480817563 0.054180991881563341 0 0.026662289485792939 0.054852996506981791 0 0.026017803545738481 0.05475143888068109 0 0.026662289485792939 0.054852996506981791 0 0.026017803545738481 0.05475143888068109 0 0.026189250330266402 0.055139609791436672 0 0.026017803545738481 0.05475143888068109 0 0.025910619100054228 0.055147137686181624 0 0.026189250330266402 0.055139609791436672 0 0.025910619100054228 0.055147137686181624 0 0.026189250330266402 0.055139609791436672 0 0.026294768175949834 0.055762939116639522 0 0.026662289485792939 0.054852996506981791 0 0.026189250330266402 0.055139609791436672 0 0.026294768175949834 0.055762939116639522 0 0.025735071184334726 0.050084993069366306 0 0.023223990697458435 0.047357542823521732 0 0.023462716882592237 0.048796286466969575 0 0.023223990697458435 0.047357542823521732 0 0.02252004692221353 0.04760192483466865 0 0.021553639220825985 0.047766743863898446 0 0.023223990697458435 0.047357542823521732 0 0.02252004692221353 0.04760192483466865 0 0.022881183670469794 0.048012234751523476 0 0.02252004692221353 0.04760192483466865 0 0.022456788080054097 0.048017663367070251 0 0.022881183670469794 0.048012234751523476 0 0.022632806203845352 0.048352517219149752 0 0.023462716882592237 0.048796286466969575 0 0.02212359831118892 0.048982518208822233 0 0.023223990697458435 0.047357542823521732 0 0.022881183670469794 0.048012234751523476 0 0.023462716882592237 0.048796286466969575 0 0.022456788080054097 0.048017663367070251 0 0.022632806203845352 0.048352517219149752 0 0.02208308209243896 0.048260709202263365 0 0.022456788080054097 0.048017663367070251 0 0.022632806203845352 0.048352517219149752 0 0.022881183670469794 0.048012234751523476 0 0.022632806203845352 0.048352517219149752 0 0.022881183670469794 0.048012234751523476 0 0.023462716882592237 0.048796286466969575 0 0.022632806203845352 0.048352517219149752 0 0.02208308209243896 0.048260709202263365 0 0.02212359831118892 0.048982518208822233 0 0.029797807728656298 0.050292160322228351 0 0.027537986277038622 0.052641232890287049 0 0.033333568115628723 0.054463291630475849 0 0.03301884343404176 0.054363003337897481 0 0.033187972419144486 0.054473041579412539 0 0.0332621871045038 0.054748496630259942 0 0.03301884343404176 0.054363003337897481 0 0.033187972419144486 0.054473041579412539 0 0.033333568115628723 0.054463291630475849 0 0.032832279473616915 0.054262889205782469 0 0.03301884343404176 0.054363003337897481 0 0.0332621871045038 0.054748496630259942 0 0.032832279473616915 0.054262889205782469 0 0.03301884343404176 0.054363003337897481 0 0.033333568115628723 0.054463291630475849 0 0.033187972419144486 0.054473041579412539 0 0.033279086432068387 0.054550752959221703 0 0.020294266362407231 0.048305105832414631 0 0.021553639220825985 0.047766743863898446 0 0.016523129761306529 0.047459290342695068 0 0.026294768175949834 0.055762939116639522 0 0.023631587451916364 0.054903489401251004 0 0.022077100851764973 0.055234272673199053 0 0.027537986277038622 0.052641232890287049 0 0.01513555458816469 0.049696297031823954 0 0.020294266362407231 0.048305105832414631 0 0.020057335510656256 0.048898824510910717 0 0.016523129761306529 0.047459290342695068 0 0.026294768175949834 0.055762939116639522 0 0.025093062725878603 0.05503493502485049 0 0.023631587451916364 0.054903489401251004 0 0.023223990697458435 0.047357542823521732 0 0.021553639220825985 0.047766743863898446 0 0.016523129761306529 0.047459290342695068 0 0.012034801837959913 0.047717468053407514 0 0.010226679279831829 0.046995474249473305 0 0.011750896028867813 0.048408125829731662 0 0.01701031961876558 0.047583817266158214 0 0.016745281570229167 0.047590272575151797 0 0.020068455945936176 0.048885565047480088 0 0.021103038398438984 0.048644918167506317 0 0.02212359831118892 0.048982518208822233 0 0.020294266362407231 0.048305105832414631 0 0.020068455945936176 0.048885565047480088 0 0.021103038398438984 0.048644918167506317 0 0.020294266362407231 0.048305105832414631 0 0.02155590797467484 0.048288198503982825 0 0.021553639220825985 0.047766743863898446 0 0.020294266362407231 0.048305105832414631 0 0.021103038398438984 0.048644918167506317 0 0.02155590797467484 0.048288198503982825 0 0.021103038398438984 0.048644918167506317 0 0.02155590797467484 0.048288198503982825 0 0.02212359831118892 0.048982518208822233 0 0.02155590797467484 0.048288198503982825 0 0.02208308209243896 0.048260709202263365 0 0.02212359831118892 0.048982518208822233 0 0.02155590797467484 0.048288198503982825 0 0.02208308209243896 0.048260709202263365 0 0.021553639220825985 0.047766743863898446 0 0.022456788080054097 0.048017663367070251 0 0.02208308209243896 0.048260709202263365 0 0.021553639220825985 0.047766743863898446 0 0.02252004692221353 0.04760192483466865 0 0.022456788080054097 0.048017663367070251 0 0.021553639220825985 0.047766743863898446 0 0.025843796767200455 0.05385093886863776 0 0.026017803545738481 0.05475143888068109 0 0.025093062725878603 0.05503493502485049 0 0.026017803545738481 0.05475143888068109 0 0.025910619100054228 0.055147137686181624 0 0.025093062725878603 0.05503493502485049 0 0.024160554329503276 0.053996697369880213 0 0.025093062725878603 0.05503493502485049 0 0.023644249801320415 0.054414281011838074 0 0.025093062725878603 0.05503493502485049 0 0.023631587451916364 0.054903489401251004 0 0.023644249801320415 0.054414281011838074 0 0.0052838842280245888 0.048624001613989866 0 0.011011428005599698 0.047350584702243716 0 0.023631587451916364 0.054903489401251004 0 0.023644249801320415 0.054414281011838074 0 0.022437697152567687 0.054166992994283444 0 0.023631587451916364 0.054903489401251004 0 0.022437697152567687 0.054166992994283444 0 0.022077100851764973 0.055234272673199053 0 0.0097936028946898502 0.047011887195158107 0 0.010226679279831829 0.046995474249473305 0 0.011750896028867813 0.048408125829731662 0 0.022437697152567687 0.054166992994283444 0 0.022077100851764973 0.055234272673199053 0 0.02114155245967933 0.054357908083105165 0 0.01513555458816469 0.049696297031823954 0 0.01067980170827733 0.051096932066747078 0 0.0052838842280245888 0.048624001613989866 0 0.01067980170827733 0.051096932066747078 0 0.013337353164279519 0.05055614579222114 0 0.015251298251152337 0.050491553511851688 0 0.01067438693617769 0.048621911421341563 0 0.0052838842280245888 0.048624001613989866 0 0.01513555458816469 0.049696297031823954 0 0.016745281570229167 0.047590272575151797 0 0.01513555458816469 0.049696297031823954 0 -0.0017255246948105927 0.047513087437199272 0 -0.0027763122318113158 0.047791362571701662 0 -0.0021430671504382099 0.045986211634787846 0 -0.0014791858984609077 0.04887328214879625 0 -0.0017255246948105927 0.047513087437199272 0 -0.0027763122318113158 0.047791362571701662 0 -0.0014791858984609077 0.04887328214879625 0 -0.0017255246948105927 0.047513087437199272 0 -0.00078058878343063918 0.047734537884741107 0 0.022962115787885883 0.052991666615871166 0 0.023530757339993054 0.05030302293071761 0 0.01901332727531907 0.050151070352374524 0 0.023530757339993054 0.05030302293071761 0 0.019613916266376766 0.048618216105604871 0 0.01901332727531907 0.050151070352374524 0 0.016745281570229167 0.047590272575151797 0 0.011011428005599698 0.047350584702243716 0 0.023530757339993054 0.05030302293071761 0 0.020068455945936176 0.048885565047480088 0 0.02212359831118892 0.048982518208822233 0 0.023978042653556894 0.050497245538623649 0 0.016745281570229167 0.047590272575151797 0 0.022255537614964876 0.044875653509954115 0 0.011011428005599698 0.047350584702243716 0 0.01409647079292688 0.044386543869956566 0 0.013771653211316678 0.04419744980608907 0 0.013818133764468185 0.044425021920399627 0 0.021398744170119669 0.039097124344755603 0 0.021480850349614646 0.03713590866878639 0 0.020062369993593041 0.038459426589042098 0 0.013771653211316678 0.04419744980608907 0 0.013818133764468185 0.044425021920399627 0 0.013605497567691272 0.044552175752258845 0 0.01409647079292688 0.044386543869956566 0 0.013818133764468185 0.044425021920399627 0 0.013764579296040925 0.044629708886042452 0 0.013818133764468185 0.044425021920399627 0 0.013764579296040925 0.044629708886042452 0 0.013605497567691272 0.044552175752258845 0 0.022255537614964876 0.044875653509954115 0 0.016789478600882899 0.041317761964386489 0 0.021398744170119669 0.039097124344755603 0 0.020062369993593041 0.038459426589042098 0 0.020032406534929399 0.039498917543580904 0 0.021398744170119669 0.039097124344755603 0 0.020032406534929399 0.039498917543580904 0 0.020571190717197575 0.040271281507648152 0 0.0049732052962191096 0.045614445490724319 0 0.0084887574585265167 0.043120955974470139 0 0.013764579296040925 0.044629708886042452 0 0.013476334659879545 0.044805106924247204 0 0.013605497567691272 0.044552175752258845 0 0.013476334659879545 0.044805106924247204 0 0.013605497567691272 0.044552175752258845 0 0.013436350426828832 0.044810531090235077 0 -0.0021430671504382099 0.045986211634787846 0 -0.00055484819595150994 0.045274817172531664 0 -0.0014900176087132089 0.04431089651749362 0 0.020062369993593041 0.038459426589042098 0 0.020032406534929399 0.039498917543580904 0 0.018599938359039093 0.039862801735833946 0 0.021068485376508187 0.039263029645895446 0 0.014314340382409392 0.041423550282466783 0 0.016789478600882899 0.041317761964386489 0 0.014314340382409392 0.041423550282466783 0 -0.0017255246948105927 0.047513087437199272 0 -0.0021430671504382099 0.045986211634787846 0 -0.0010722905126114659 0.046629394518680936 0 0.011011428005599698 0.047350584702243716 0 0.0049732052962191096 0.045614445490724319 0 -0.0021430671504382099 0.045986211634787846 0 -0.0010722905126114659 0.046629394518680936 0 -0.00055484819595150994 0.045274817172531664 0 -0.00016446305704686623 0.046667689674436588 0 -0.00055484819595150994 0.045274817172531664 0 0.00017028267889274273 0.045708542137708759 0 -0.0010722905126114659 0.046629394518680936 0 -0.00016446305704686623 0.046667689674436588 0 -0.00055484819595150994 0.045274817172531664 0 -0.00055484819595150994 0.045274817172531664 0 0.00022173797642850013 0.043805268010167896 0 -0.0014900176087132089 0.04431089651749362 0 -0.00055484819595150994 0.045274817172531664 0 0.00053619941968450016 0.044626997330244056 0 0.00022173797642850013 0.043805268010167896 0 -0.00055484819595150994 0.045274817172531664 0 0.00053619941968450016 0.044626997330244056 0 0.00017028267889274273 0.045708542137708759 0 -0.00016446305704686623 0.046667689674436588 0 0.00090028018810496351 0.046256793964097223 0 0.00017028267889274273 0.045708542137708759 0 0.00053619941968450016 0.044626997330244056 0 0.00090028018810496351 0.046256793964097223 0 0.00017028267889274273 0.045708542137708759 0 -0.00016446305704686623 0.046667689674436588 0 0.00090028018810496351 0.046256793964097223 0 0.00074285866484867795 0.047513523493130892 0 0.00074285866484867795 0.047513523493130892 0 0.00019639158536031027 0.047923281088177158 0 0.0010184975712388862 0.04859719883695305 0 -0.00016446305704686623 0.046667689674436588 0 0.00074285866484867795 0.047513523493130892 0 0.00019639158536031027 0.047923281088177158 0 -0.00016446305704686623 0.046667689674436588 0 0.00019639158536031027 0.047923281088177158 0 -0.00078058878343063918 0.047734537884741107 0 -0.0010722905126114659 0.046629394518680936 0 -0.00016446305704686623 0.046667689674436588 0 -0.00078058878343063918 0.047734537884741107 0 -0.0017255246948105927 0.047513087437199272 0 -0.0010722905126114659 0.046629394518680936 0 -0.00078058878343063918 0.047734537884741107 0 0.00019639158536031027 0.047923281088177158 0 -0.00078058878343063918 0.047734537884741107 0 0.00022710055662999396 0.048918245257614089 0 -0.0014791858984609077 0.04887328214879625 0 -0.00078058878343063918 0.047734537884741107 0 0.00022710055662999396 0.048918245257614089 0 -0.00011769923936230858 0.049083386871606322 0 0.00022710055662999396 0.048918245257614089 0 -3.5547266214239194e-05 0.049129450075518666 0 0.0052838842280245888 0.048624001613989866 0 -0.001947830248502739 0.048993920199278097 0 0.0049120174835189656 0.050275420916211448 0 0.01067980170827733 0.051096932066747078 0 0.0010120680491075399 0.04993110247191531 0 0.00022710055662999396 0.048918245257614089 0 -3.5547266214239194e-05 0.049129450075518666 0 0.0010120680491075399 0.04993110247191531 0 0.00022710055662999396 0.048918245257614089 0 0.0010184975712388862 0.04859719883695305 0 0.00019639158536031027 0.047923281088177158 0 0.00022710055662999396 0.048918245257614089 0 0.0010184975712388862 0.04859719883695305 0 0.010092424078399746 0.026015324425660361 0 0.011826585653959186 0.025010450200980042 0 0.012724769523197507 0.027660069667242923 0 0.011826585653959186 0.025010450200980042 0 0.010347742448255117 0.02367993027070146 0 0.0124549422601556 0.023559818159579554 0 0.010092424078399746 0.026015324425660361 0 0.011826585653959186 0.025010450200980042 0 0.010347742448255117 0.02367993027070146 0 0.01544900790067774 0.027684105484221722 0 0.011447924896655222 0.022753586503296428 0 0.010092424078399746 0.026015324425660361 0 0.0070507643835267687 0.025260494908170811 0 0.010347742448255117 0.02367993027070146 0 0.013912758507614476 0.021965963214673347 0 0.014173835933502224 0.021907905758379444 0 0.01373251470450873 0.021969938157470292 0 0.010092424078399746 0.026015324425660361 0 0.0070507643835267687 0.025260494908170811 0 0.0082808057809404378 0.028147391221216359 0 0.013912758507614476 0.021965963214673347 0 0.014122758756157181 0.022055116342630417 0 0.014173835933502224 0.021907905758379444 0 0.018811749398843062 0.021850079430879448 0 0.019132272847063758 0.021591834939852648 0 0.013912758507614476 0.021965963214673347 0 0.014122758756157181 0.022055116342630417 0 0.014098528690107756 0.022091975578288865 0 0.015076745097357139 0.020947253787481517 0 0.019132272847063758 0.021591834939852648 0 0.017125095643330941 0.034460619355329514 0 0.016308040132214381 0.032750110292587238 0 0.017744592976568621 0.033010718411487977 0 0.01544900790067774 0.027684105484221722 0 0.012136201951877101 0.029863536722104605 0 0.0082808057809404378 0.028147391221216359 0 0.0093660231301172393 0.031312833673386622 0 0.012724769523197507 0.027660069667242923 0 0.010092424078399746 0.026015324425660361 0 0.0082808057809404378 0.028147391221216359 0 0.012724769523197507 0.027660069667242923 0 -0.0024455647807382413 0.037660941760994354 0 -0.0050598252224545613 0.038714852788993545 0 -0.0054021627093101231 0.038578415440800116 0 -0.0024455647807382413 0.037660941760994354 0 -0.0050598252224545613 0.038714852788993545 0 -0.001248886584114569 0.040378962806972035 0 0.0083484019651657859 0.037136039665048415 0 0.004359293630994689 0.031013617546810375 0 -0.0024455647807382413 0.037660941760994354 0 -0.0054021627093101231 0.038578415440800116 0 -0.0020136874924149301 0.034652458377626767 0 0.00053619941968450016 0.044626997330244056 0 -0.00012168015320321452 0.043289170897042935 0 0.0012535616194293952 0.04285959478250656 0 0.0030060319777860229 0.03774023962990599 0 -0.00054048444229984436 0.040851290106698385 0 0.00080668790270115563 0.041469245474946195 0 -0.00054048444229984436 0.040851290106698385 0 0.0015751998134845278 0.040182669919820384 0 0.0012646784970766615 0.039519739463250048 0 0.00043513049769087228 0.03973803932061918 0 0.0046591628762984259 0.04055383667106232 0 0.0039506652532687566 0.039008367764465909 0 0.0053249835204577552 0.039346797087778419 0 0.0030060319777860229 0.03774023962990599 0 0.00080668790270115563 0.041469245474946195 0 0.00081391728755875203 0.044761933071956646 0 0.00080668790270115563 0.041469245474946195 0 0.017397355927093131 0.041847780324951948 0 0.016454201908987831 0.041662659643945783 0 0.018062095832150769 0.039936745497467986 0 0.00080668790270115563 0.041469245474946195 0 0.0084887574585265167 0.043120955974470139 0 0.0083484019651657859 0.037136039665048415 0 0.013132210722821412 0.040763502944562872 0 0.0039506652532687566 0.039008367764465909 0 0.0053249835204577552 0.039346797087778419 0 0.0070962969757644807 0.038240683718156407 0 0.018125505810321737 0.040969747655508378 0 0.013132210722821412 0.040763502944562872 0 0.0053249835204577552 0.039346797087778419 0 0.0048989763522519526 0.040650163913525827 0 0.0069424839102718641 0.038621275391529646 0 0.0053249835204577552 0.039346797087778419 0 0.0070962969757644807 0.038240683718156407 0 0.0069424839102718641 0.038621275391529646 0 0.012136201951877101 0.029863536722104605 0 0.0083484019651657859 0.037136039665048415 0 0.017397355927093131 0.041847780324951948 0 0.016454201908987831 0.041662659643945783 0 0.018426175868376398 0.042443250161994496 0 0.0083484019651657859 0.037136039665048415 0 0.018756476371164711 0.037345332829897049 0 0.016308040132214381 0.032750110292587238 0 0.015575009846415662 0.030925237169994034 0 0.017590332375040645 0.031684536531008708 0 0.0046591628762984259 0.04055383667106232 0 0.0053249835204577552 0.039346797087778419 0 0.0048989763522519526 0.040650163913525827 0 0.0030060319777860229 0.03774023962990599 0 0.0083484019651657859 0.037136039665048415 0 0.018426175868376398 0.042443250161994496 0 0.019322419246791754 0.042028065154687794 0 0.020252418958877163 0.04309931715578641 0 0.019322419246791754 0.042028065154687794 0 0.018588100024568524 0.041271188187170633 0 0.020003912847415699 0.041283197929345129 0 0.018426175868376398 0.042443250161994496 0 0.019322419246791754 0.042028065154687794 0 0.018588100024568524 0.041271188187170633 0 0.017397355927093131 0.041847780324951948 0 0.018426175868376398 0.042443250161994496 0 0.018588100024568524 0.041271188187170633 0 0.017397355927093131 0.041847780324951948 0 0.018588100024568524 0.041271188187170633 0 0.018235609424392538 0.0401045663248525 0 0.018588100024568524 0.041271188187170633 0 0.019359649887720844 0.04039182179859855 0 0.018235609424392538 0.0401045663248525 0 0.018588100024568524 0.041271188187170633 0 0.019359649887720844 0.04039182179859855 0 0.020003912847415699 0.041283197929345129 0 0.020032406534929399 0.039498917543580904 0 0.018587027268993483 0.039770087961392614 0 0.019359649887720844 0.04039182179859855 0 0.018587027268993483 0.039770087961392614 0 0.019359649887720844 0.04039182179859855 0 0.018235609424392538 0.0401045663248525 0 0.014314340382409392 0.041423550282466783 0 0.0084887574585265167 0.043120955974470139 0 0.014314340382409392 0.041423550282466783 0 0.013132210722821412 0.040763502944562872 0 0.011157533647073723 0.04346342708350414 0 0.012136586832526771 0.043204266522881583 0 0.012648580541011008 0.041875776504447917 0 0.0084887574585265167 0.043120955974470139 0 0.013132210722821412 0.040763502944562872 0 0.020571190717197575 0.040271281507648152 0 0.020003912847415699 0.041283197929345129 0 0.021842216697289373 0.04075298648608703 0 0.020032406534929399 0.039498917543580904 0 0.019359649887720844 0.04039182179859855 0 0.020571190717197575 0.040271281507648152 0 0.019359649887720844 0.04039182179859855 0 0.020571190717197575 0.040271281507648152 0 0.020003912847415699 0.041283197929345129 0 0.023283752089792248 0.035841224573081615 0 0.025493995874209276 0.037080723665448408 0 0.029158235792742619 0.033761747911182763 0 0.029126220431288714 0.033762809489931364 0 0.029338769756810101 0.033769996473769742 0 0.019322419246791754 0.042028065154687794 0 0.020003912847415699 0.041283197929345129 0 0.020252418958877163 0.04309931715578641 0 0.020003912847415699 0.041283197929345129 0 0.020252418958877163 0.04309931715578641 0 0.021842216697289373 0.04075298648608703 0 0.031584429189286375 0.032219569813528567 0 0.030816827263637381 0.031854551616081674 0 0.030524036528619472 0.03284411370761818 0 0.026061478481707742 0.032079310675720986 0 0.030721676839175583 0.033249428270828385 0 0.029158235792742619 0.033761747911182763 0 0.02895742638785154 0.033880818891359257 0 0.029266816535960808 0.033743015995280963 0 0.027381902242144391 0.035938284918764829 0 0.023283752089792248 0.035841224573081615 0 0.029158235792742619 0.033761747911182763 0 0.029059921656677527 0.033726530372804334 0 0.02895742638785154 0.033880818891359257 0 0.023283752089792248 0.035841224573081615 0 0.026061478481707742 0.032079310675720986 0 0.019594929362234201 0.032479930936712101 0 0.017744592976568621 0.033010718411487977 0 0.0186820211067825 0.033799432580829278 0 0.018756476371164711 0.037345332829897049 0 0.023283752089792248 0.035841224573081615 0 0.017590332375040645 0.031684536531008708 0 0.019594929362234201 0.032479930936712101 0 0.017744592976568621 0.033010718411487977 0 0.016308040132214381 0.032750110292587238 0 0.017590332375040645 0.031684536531008708 0 0.017744592976568621 0.033010718411487977 0 0.017125095643330941 0.034460619355329514 0 0.017744592976568621 0.033010718411487977 0 0.0186820211067825 0.033799432580829278 0 0.01544900790067774 0.027684105484221722 0 0.026061478481707742 0.032079310675720986 0 0.014122758756157181 0.022055116342630417 0 0.014173835933502224 0.021907905758379444 0 0.014360701667139233 0.022129795234288326 0 0.023015826502968101 0.029125863298468984 0 0.02286195133698633 0.029233926437209189 0 0.022974737173938279 0.029004063692733884 0 0.01544900790067774 0.027684105484221722 0 0.02493986733971143 0.026420727651241146 0 0.031584429189286375 0.032219569813528567 0 0.0315100586272581 0.031644200480224489 0 0.032016185871531738 0.031472878250727324 0 0.026061478481707742 0.032079310675720986 0 0.02493986733971143 0.026420727651241146 0 0.031584429189286375 0.032219569813528567 0 0.0315100586272581 0.031644200480224489 0 0.030816827263637381 0.031854551616081674 0 0.030816827263637381 0.031854551616081674 0 0.030079390092513779 0.032103233131374267 0 0.030524036528619472 0.03284411370761818 0 0.030816827263637381 0.031854551616081674 0 0.030079390092513779 0.032103233131374267 0 0.030177251832240373 0.031405236009431084 0 0.030079390092513779 0.032103233131374267 0 0.029290716478725103 0.031775766185594106 0 0.030177251832240373 0.031405236009431084 0 0.030079390092513779 0.032103233131374267 0 0.029630098564721055 0.032745066710588154 0 0.029290716478725103 0.031775766185594106 0 0.029630098564721055 0.032745066710588154 0 0.030524036528619472 0.03284411370761818 0 0.029251286137293584 0.033526544932448291 0 0.030079390092513779 0.032103233131374267 0 0.029630098564721055 0.032745066710588154 0 0.030524036528619472 0.03284411370761818 0 0.029266816535960808 0.033743015995280963 0 0.029292460558322884 0.033693896794273717 0 0.029338769756810101 0.033769996473769742 0 0.029158235792742619 0.033761747911182763 0 0.029266816535960808 0.033743015995280963 0 0.029338769756810101 0.033769996473769742 0 0.021398744170119669 0.039097124344755603 0 0.020571190717197575 0.040271281507648152 0 0.021842216697289373 0.04075298648608703 0 0.029292460558322884 0.033693896794273717 0 0.029338769756810101 0.033769996473769742 0 0.029259491976092837 0.033802973426360232 0 0.029259491976092837 0.033802973426360232 0 0.029251286137293584 0.033526544932448291 0 0.02912290292618543 0.033852748681703376 0 0.029245790237026243 0.034227650925473259 0 0.029338769756810101 0.033769996473769742 0 0.029259491976092837 0.033802973426360232 0 0.029245790237026243 0.034227650925473259 0 0.029259491976092837 0.033802973426360232 0 0.02912290292618543 0.033852748681703376 0 0.029266816535960808 0.033743015995280963 0 0.029292460558322884 0.033693896794273717 0 0.029251286137293584 0.033526544932448291 0 0.030721676839175583 0.033249428270828385 0 0.028943701472698775 0.033600475440986162 0 0.029292460558322884 0.033693896794273717 0 0.029259491976092837 0.033802973426360232 0 0.029251286137293584 0.033526544932448291 0 0.036372559797122922 0.030864137697828455 0 0.03633274354479453 0.036443094814089333 0 0.029251286137293584 0.033526544932448291 0 0.028917836280741217 0.033317619408544219 0 0.02912290292618543 0.033852748681703376 0 0.028917836280741217 0.033317619408544219 0 0.02912290292618543 0.033852748681703376 0 0.028864222286518307 0.033975448860488172 0 0.029080133578306331 0.034103358102295291 0 0.02912290292618543 0.033852748681703376 0 0.028864222286518307 0.033975448860488172 0 0.042531799490631871 0.042026092712333575 0 0.043655444685735102 0.042094874803397596 0 0.042640952260567987 0.040814981960490229 0 0.036617633867129878 0.044990279808200376 0 0.041969714273640456 0.035521041719485662 0 0.038459051631337469 0.037937441677972049 0 0.038406284358932327 0.038113127329001392 0 0.03911036233834185 0.038526070928237496 0 0.036617633867129878 0.044990279808200376 0 0.03633274354479453 0.036443094814089333 0 0.03633274354479453 0.036443094814089333 0 0.041969714273640456 0.035521041719485662 0 0.043777810873697948 0.030085282965225908 0 0.043170374851181074 0.032014822986432261 0 0.042222414118123767 0.031244483841288678 0 0.043777810873697948 0.030085282965225908 0 0.042524129935908775 0.029939843861560039 0 0.042222414118123767 0.031244483841288678 0 0.043777810873697948 0.030085282965225908 0 0.042524129935908775 0.029939843861560039 0 0.043106442609955511 0.029278963055733 0 0.042472511968377834 0.029312088733804208 0 0.043106442609955511 0.029278963055733 0 0.042835856153871157 0.028732309984568993 0 0.042524129935908775 0.029939843861560039 0 0.042472511968377834 0.029312088733804208 0 0.043106442609955511 0.029278963055733 0 0.029630098564721055 0.032745066710588154 0 0.029251286137293584 0.033526544932448291 0 0.028917836280741217 0.033317619408544219 0 0.029630098564721055 0.032745066710588154 0 0.028917836280741217 0.033317619408544219 0 0.029290716478725103 0.031775766185594106 0 0.043777810873697948 0.030085282965225908 0 0.043106442609955511 0.029278963055733 0 0.043690078661829154 0.028491422568930138 0 0.036372559797122922 0.030864137697828455 0 0.036919309036719201 0.030615979629557435 0 0.043717731629290331 0.028429234901137662 0 0.04415909443746259 0.027441859670132577 0 0.043777810873697948 0.030085282965225908 0 0.043690078661829154 0.028491422568930138 0 0.044159460290194359 0.028328545796359066 0 0.043690078661829154 0.028491422568930138 0 0.044159460290194359 0.028328545796359066 0 0.043992594601176792 0.027823887983250438 0 0.043690078661829154 0.028491422568930138 0 0.042893084716984303 0.028093160312319482 0 0.043384719486832389 0.027575508127209845 0 0.042472511968377834 0.029312088733804208 0 0.042835856153871157 0.028732309984568993 0 0.042297930969019099 0.028745210808197731 0 0.042893084716984303 0.028093160312319482 0 0.042835856153871157 0.028732309984568993 0 0.042297930969019099 0.028745210808197731 0 0.043690078661829154 0.028491422568930138 0 0.042893084716984303 0.028093160312319482 0 0.042835856153871157 0.028732309984568993 0 0.043106442609955511 0.029278963055733 0 0.043690078661829154 0.028491422568930138 0 0.042835856153871157 0.028732309984568993 0 0.042893084716984303 0.028093160312319482 0 0.042734175049224325 0.02723937869962173 0 0.041888663769979573 0.028021886032821065 0 0.042734175049224325 0.02723937869962173 0 0.043384719486832389 0.027575508127209845 0 0.043421457732602892 0.026759417879531646 0 0.042734175049224325 0.02723937869962173 0 0.043421457732602892 0.026759417879531646 0 0.042665934106347128 0.026328257984321864 0 0.042734175049224325 0.02723937869962173 0 0.042665934106347128 0.026328257984321864 0 0.041977897635003564 0.026963221912431938 0 0.042893084716984303 0.028093160312319482 0 0.042734175049224325 0.02723937869962173 0 0.043384719486832389 0.027575508127209845 0 0.043690078661829154 0.028491422568930138 0 0.043384719486832389 0.027575508127209845 0 0.044231213708213105 0.02730951770899178 0 0.044231213708213105 0.02730951770899178 0 0.043421457732602892 0.026759417879531646 0 0.043995888906766062 0.026539909190269498 0 0.043384719486832389 0.027575508127209845 0 0.044231213708213105 0.02730951770899178 0 0.043421457732602892 0.026759417879531646 0 0.044231213708213105 0.02730951770899178 0 0.043995888906766062 0.026539909190269498 0 0.04468974912211171 0.026228929660387618 0 0.043421457732602892 0.026759417879531646 0 0.043995888906766062 0.026539909190269498 0 0.04365600807385276 0.025864414029116475 0 0.043995888906766062 0.026539909190269498 0 0.04365600807385276 0.025864414029116475 0 0.04468974912211171 0.026228929660387618 0 0.04365600807385276 0.025864414029116475 0 0.044123225493071794 0.025383414914587649 0 0.04442717290023606 0.026147616543107918 0 0.044317381298394909 0.026195311272433231 0 0.042229158582509453 0.026697707162166507 0 0.04365600807385276 0.025864414029116475 0 0.042665934106347128 0.026328257984321864 0 0.042593653466081349 0.025432397995340805 0 0.043421457732602892 0.026759417879531646 0 0.04365600807385276 0.025864414029116475 0 0.042665934106347128 0.026328257984321864 0 0.04365600807385276 0.025864414029116475 0 0.042593653466081349 0.025432397995340805 0 0.043475754625356126 0.024774490153759595 0 0.042593653466081349 0.025432397995340805 0 0.042640792050094765 0.024705191369958385 0 0.043475754625356126 0.024774490153759595 0 0.042640792050094765 0.024705191369958385 0 0.042435321741351908 0.023947080271848418 0 0.043375134165781329 0.023923802728989921 0 0.042640792050094765 0.024705191369958385 0 0.043475754625356126 0.024774490153759595 0 0.043375134165781329 0.023923802728989921 0 0.043475754625356126 0.024774490153759595 0 0.044371769920617934 0.023925750170301532 0 0.043375134165781329 0.023923802728989921 0 0.043475754625356126 0.024774490153759595 0 0.044225890931126659 0.024781052693292682 0 0.044371769920617934 0.023925750170301532 0 0.043475754625356126 0.024774490153759595 0 0.044123225493071794 0.025383414914587649 0 0.044225890931126659 0.024781052693292682 0 0.04365600807385276 0.025864414029116475 0 0.043475754625356126 0.024774490153759595 0 0.044123225493071794 0.025383414914587649 0 0.035777973576776055 0.025300518382912987 0 0.038598990483068335 0.025085927595624065 0 0.038496348172786819 0.025688106125482012 0 0.038626225873443928 0.025737526001976273 0 0.038280690783606616 0.026866747008580938 0 0.038496348172786819 0.025688106125482012 0 0.038626225873443928 0.025737526001976273 0 0.038932110322516061 0.0246906847152891 0 0.044123225493071794 0.025383414914587649 0 0.044814502973864932 0.025307582380107298 0 0.04442717290023606 0.026147616543107918 0 0.041744245964557843 0.025233907223687325 0 0.038598990483068335 0.025085927595624065 0 0.044123225493071794 0.025383414914587649 0 0.044814502973864932 0.025307582380107298 0 0.044225890931126659 0.024781052693292682 0 0.044814502973864932 0.025307582380107298 0 0.044225890931126659 0.024781052693292682 0 0.044660910784624842 0.024472259195726535 0 0.044225890931126659 0.024781052693292682 0 0.044660910784624842 0.024472259195726535 0 0.044371769920617934 0.023925750170301532 0 0.044814502973864932 0.025307582380107298 0 0.044660910784624842 0.024472259195726535 0 0.045203712759827513 0.024413425021303194 0 0.044660910784624842 0.024472259195726535 0 0.045006707002708729 0.024017215722056045 0 0.045203712759827513 0.024413425021303194 0 0.044660910784624842 0.024472259195726535 0 0.045006707002708729 0.024017215722056045 0 0.044371769920617934 0.023925750170301532 0 0.032820411259607954 0.024972346830985672 0 0.032435957023762105 0.026205443690890302 0 0.031834362861285027 0.025861732175142545 0 0.031834362861285027 0.025861732175142545 0 0.031101274931928592 0.026601600545981166 0 0.032178283430391072 0.027047730445635906 0 0.031698285042766748 0.023003205894996791 0 0.037073738469311827 0.023561266085370503 0 0.038598990483068335 0.025085927595624065 0 0.037073738469311827 0.023561266085370503 0 0.045006707002708729 0.024017215722056045 0 0.045203712759827513 0.024413425021303194 0 0.04539132330031604 0.023739862490709588 0 0.032435957023762105 0.026205443690890302 0 0.031834362861285027 0.025861732175142545 0 0.032178283430391072 0.027047730445635906 0 0.031834362861285027 0.025861732175142545 0 0.031647931443977741 0.025055757221859844 0 0.031158824894696565 0.025589323998063667 0 0.032820411259607954 0.024972346830985672 0 0.031834362861285027 0.025861732175142545 0 0.031647931443977741 0.025055757221859844 0 0.032820411259607954 0.024972346830985672 0 0.031647931443977741 0.025055757221859844 0 0.031803057554746973 0.024178929172445081 0 0.031647931443977741 0.025055757221859844 0 0.031803057554746973 0.024178929172445081 0 0.031101504029972488 0.02455163596069419 0 0.035101378527265512 0.026856074243779591 0 0.030872945545347839 0.02711058303445342 0 0.031803057554746973 0.024178929172445081 0 0.033211730618140978 0.023733146385961804 0 0.03122480248420606 0.023024437806602956 0 0.038496348172786819 0.025688106125482012 0 0.038013077238042821 0.026764912255434849 0 0.038280690783606616 0.026866747008580938 0 0.032820411259607954 0.024972346830985672 0 0.031803057554746973 0.024178929172445081 0 0.033211730618140978 0.023733146385961804 0 0.035777973576776055 0.025300518382912987 0 0.035101378527265512 0.026856074243779591 0 0.043992594601176792 0.027823887983250438 0 0.044149556870088182 0.027229083164302819 0 0.044277257227233226 0.027276526088253414 0 0.041744245964557843 0.025233907223687325 0 0.042229158582509453 0.026697707162166507 0 0.042229158582509453 0.026697707162166507 0 0.035101378527265512 0.026856074243779591 0 0.04415909443746259 0.027441859670132577 0 0.042229158582509453 0.026697707162166507 0 0.029290716478725103 0.031775766185594106 0 0.029762726231936983 0.030410251466191085 0 0.030177251832240373 0.031405236009431084 0 0.044159460290194359 0.028328545796359066 0 0.043992594601176792 0.027823887983250438 0 0.044277257227233226 0.027276526088253414 0 0.036919309036719201 0.030615979629557435 0 0.035101378527265512 0.026856074243779591 0 0.030816827263637381 0.031854551616081674 0 0.030177251832240373 0.031405236009431084 0 0.030889812072014723 0.030898741612644321 0 0.029762726231936983 0.030410251466191085 0 0.030177251832240373 0.031405236009431084 0 0.030889812072014723 0.030898741612644321 0 0.0315100586272581 0.031644200480224489 0 0.030816827263637381 0.031854551616081674 0 0.030889812072014723 0.030898741612644321 0 0.0315100586272581 0.031644200480224489 0 0.030889812072014723 0.030898741612644321 0 0.031951266809777022 0.031323916376020319 0 0.030872945545347839 0.02711058303445342 0 0.028206121846464139 0.025619372237457524 0 0.03122480248420606 0.023024437806602956 0 0.029374752806648374 0.022395868024134725 0 0.029899949162267517 0.023517859225906518 0 0.0315100586272581 0.031644200480224489 0 0.032016185871531738 0.031472878250727324 0 0.031951266809777022 0.031323916376020319 0 0.028363000658288499 0.021406050201497329 0 0.02863864214882083 0.021506228052135229 0 0.028266649567150196 0.02221996433477411 0 0.014122758756157181 0.022055116342630417 0 0.014360701667139233 0.022129795234288326 0 0.014322765199368755 0.022200136378088438 0 0.02493986733971143 0.026420727651241146 0 0.025127787342219942 0.024505695704747484 0 0.026024655278637919 0.024526113825811702 0 0.026016916272954559 0.024537424812488624 0 0.026038928297834257 0.024545029635632175 0 0.025127787342219942 0.024505695704747484 0 0.028206121846464139 0.025619372237457524 0 0.02493986733971143 0.026420727651241146 0 0.028206121846464139 0.025619372237457524 0 0.02863864214882083 0.021506228052135229 0 0.028266649567150196 0.02221996433477411 0 0.028705821864944976 0.022612306398333296 0 0.02863864214882083 0.021506228052135229 0 0.029364474028457471 0.022916385689370954 0 0.028705821864944976 0.022612306398333296 0 0.028266649567150196 0.02221996433477411 0 0.028394019863207429 0.022726778477127438 0 0.02798508086978992 0.022841733841064818 0 0.028266649567150196 0.02221996433477411 0 0.028394019863207429 0.022726778477127438 0 0.028705821864944976 0.022612306398333296 0 0.028206121846464139 0.025619372237457524 0 0.029433603777069994 0.022790290330365042 0 0.029364474028457471 0.022916385689370954 0 0.028705821864944976 0.022612306398333296 0 0.028970067045521627 0.023405151674526628 0 0.028705821864944976 0.022612306398333296 0 0.028417476158012378 0.023149008384144749 0 0.028970067045521627 0.023405151674526628 0 0.028394019863207429 0.022726778477127438 0 0.028417476158012378 0.023149008384144749 0 0.02798508086978992 0.022841733841064818 0 0.028394019863207429 0.022726778477127438 0 0.028705821864944976 0.022612306398333296 0 0.028417476158012378 0.023149008384144749 0 0.028501912984918193 0.023842695862792768 0 0.028970067045521627 0.023405151674526628 0 0.028801115741478842 0.024398654614441205 0 0.028501912984918193 0.023842695862792768 0 0.028037993500011425 0.024142231195315167 0 0.027971043568694291 0.023421526272479964 0 0.028417476158012378 0.023149008384144749 0 0.028501912984918193 0.023842695862792768 0 0.027971043568694291 0.023421526272479964 0 0.028417476158012378 0.023149008384144749 0 0.028501912984918193 0.023842695862792768 0 0.028970067045521627 0.023405151674526628 0 0.029364474028457471 0.022916385689370954 0 0.028970067045521627 0.023405151674526628 0 0.03035564329638462 0.024645865802938045 0 0.03122480248420606 0.023024437806602956 0 0.029899949162267517 0.023517859225906518 0 0.030752277588539708 0.023821227772681568 0 0.029899949162267517 0.023517859225906518 0 0.030752277588539708 0.023821227772681568 0 0.03035564329638462 0.024645865802938045 0 0.029433603777069994 0.022790290330365042 0 0.030330658612251961 0.024653088470466024 0 0.031803057554746973 0.024178929172445081 0 0.03122480248420606 0.023024437806602956 0 0.030752277588539708 0.023821227772681568 0 0.030752277588539708 0.023821227772681568 0 0.031101504029972488 0.02455163596069419 0 0.03035564329638462 0.024645865802938045 0 0.031803057554746973 0.024178929172445081 0 0.030752277588539708 0.023821227772681568 0 0.031101504029972488 0.02455163596069419 0 0.031101504029972488 0.02455163596069419 0 0.03035564329638462 0.024645865802938045 0 0.030925885361527468 0.025095814679981756 0 0.031647931443977741 0.025055757221859844 0 0.031101504029972488 0.02455163596069419 0 0.030925885361527468 0.025095814679981756 0 0.03035564329638462 0.024645865802938045 0 0.030264003143440996 0.025306749592376283 0 0.030925885361527468 0.025095814679981756 0 0.030264003143440996 0.025306749592376283 0 0.031158824894696565 0.025589323998063667 0 0.030925885361527468 0.025095814679981756 0 0.031647931443977741 0.025055757221859844 0 0.031158824894696565 0.025589323998063667 0 0.030925885361527468 0.025095814679981756 0 0.031834362861285027 0.025861732175142545 0 0.031158824894696565 0.025589323998063667 0 0.031101274931928592 0.026601600545981166 0 0.03013819647597929 0.025572986237045233 0 0.031698285042766748 0.023003205894996791 0 0.030264003143440996 0.025306749592376283 0 0.031158824894696565 0.025589323998063667 0 0.031101274931928592 0.026601600545981166 0 0.031698285042766748 0.023003205894996791 0 0.032457902918732011 0.021721031275549665 0 0.033334425590145884 0.0179080763042315 0 0.033863182815022666 0.017897347143996132 0 0.033986404198304718 0.017745976886758143 0 0.029756314822692774 0.024913452528903177 0 0.030612611256568001 0.026407401413506684 0 0.028217500830362709 0.025425076802771285 0 0.028970067045521627 0.023405151674526628 0 0.03035564329638462 0.024645865802938045 0 0.030264003143440996 0.025306749592376283 0 0.028970067045521627 0.023405151674526628 0 0.029756314822692774 0.024913452528903177 0 0.028801115741478842 0.024398654614441205 0 0.029756314822692774 0.024913452528903177 0 0.028217500830362709 0.025425076802771285 0 0.028801115741478842 0.024398654614441205 0 0.02899195223016925 0.023368452270803228 0 0.03013819647597929 0.025572986237045233 0 0.028217500830362709 0.025425076802771285 0 0.028801115741478842 0.024398654614441205 0 0.028037993500011425 0.024142231195315167 0 0.028501912984918193 0.023842695862792768 0 0.028801115741478842 0.024398654614441205 0 0.028037993500011425 0.024142231195315167 0 0.028217500830362709 0.025425076802771285 0 0.026424773917272566 0.024273678291790193 0 0.025806862644710458 0.024338002692362221 0 0.028217500830362709 0.025425076802771285 0 0.027520083928510429 0.024379530541034786 0 0.026424773917272566 0.024273678291790193 0 0.033863182815022666 0.017897347143996132 0 0.033786955841279387 0.01785264034021607 0 0.03351697844298851 0.01767051940547449 0 0.028217500830362709 0.025425076802771285 0 0.028037993500011425 0.024142231195315167 0 0.027520083928510429 0.024379530541034786 0 0.028037993500011425 0.024142231195315167 0 0.027520083928510429 0.024379530541034786 0 0.027397792049668274 0.023667341273587335 0 0.032457902918732011 0.021721031275549665 0 0.022798159308628368 0.021127835452412966 0 0.027520083928510429 0.024379530541034786 0 0.026424773917272566 0.024273678291790193 0 0.027397792049668274 0.023667341273587335 0 0.033863182815022666 0.017897347143996132 0 0.033786955841279387 0.01785264034021607 0 0.033986404198304718 0.017745976886758143 0 0.033545923465261057 0.017857338242547243 0 0.03351697844298851 0.01767051940547449 0 0.033381416166609786 0.017843466973521942 0 0.033786955841279387 0.01785264034021607 0 0.033545923465261057 0.017857338242547243 0 0.03351697844298851 0.01767051940547449 0 0.033786955841279387 0.01785264034021607 0 0.033545923465261057 0.017857338242547243 0 0.033713516538597194 0.018004018523511328 0 0.013779148258717585 0.021328610843006756 0 0.013802365401119728 0.021749865615044755 0 0.013987752757385811 0.021615765254942167 0 0.022798159308628368 0.021127835452412966 0 0.019775674270012145 0.023110342992847734 0 0.013779148258717585 0.021328610843006756 0 0.013802365401119728 0.021749865615044755 0 0.013684920130338602 0.021871145215555655 0 0.026424773917272566 0.024273678291790193 0 0.025806862644710458 0.024338002692362221 0 0.02650137291027202 0.023368536310242834 0 0.013802365401119728 0.021749865615044755 0 0.013987752757385811 0.021615765254942167 0 0.013885997943996255 0.021872677548617835 0 0.013802365401119728 0.021749865615044755 0 0.013776570540808577 0.021961530950148727 0 0.013885997943996255 0.021872677548617835 0 0.013802365401119728 0.021749865615044755 0 0.013684920130338602 0.021871145215555655 0 0.013776570540808577 0.021961530950148727 0 0.0263438250598278 0.024340446645640317 0 0.027418432342744579 0.022654139359345897 0 0.026424773917272566 0.024273678291790193 0 0.027397792049668274 0.023667341273587335 0 0.027407982396705027 0.022840277267435562 0 0.026424773917272566 0.024273678291790193 0 0.02650137291027202 0.023368536310242834 0 0.026740224278550807 0.023393558946932784 0 0.028037993500011425 0.024142231195315167 0 0.027397792049668274 0.023667341273587335 0 0.027971043568694291 0.023421526272479964 0 0.027397792049668274 0.023667341273587335 0 0.027971043568694291 0.023421526272479964 0 0.027407982396705027 0.022840277267435562 0 0.028266649567150196 0.02221996433477411 0 0.02798508086978992 0.022841733841064818 0 0.027407982396705027 0.022840277267435562 0 0.028417476158012378 0.023149008384144749 0 0.027971043568694291 0.023421526272479964 0 0.02798508086978992 0.022841733841064818 0 0.027971043568694291 0.023421526272479964 0 0.02798508086978992 0.022841733841064818 0 0.027407982396705027 0.022840277267435562 0 0.019775674270012145 0.023110342992847734 0 0.019132272847063758 0.021591834939852648 0 0.026898395661444315 0.023022687389520253 0 0.026740224278550807 0.023393558946932784 0 0.026751393382659319 0.022960573804242462 0 0.025127787342219942 0.024505695704747484 0 0.027418432342744579 0.022654139359345897 0 0.013684920130338602 0.021871145215555655 0 0.01390072738886871 0.021989562840634719 0 0.013784906706053809 0.021967968649056622 0 0.028363000658288499 0.021406050201497329 0 0.028266649567150196 0.02221996433477411 0 0.027407982396705027 0.022840277267435562 0 0.02650137291027202 0.023368536310242834 0 0.026740224278550807 0.023393558946932784 0 0.026751393382659319 0.022960573804242462 0 0.025127787342219942 0.024505695704747484 0 0.019132272847063758 0.021591834939852648 0 0.014122758756157181 0.022055116342630417 0 0.014322765199368755 0.022200136378088438 0 0.014096746813110596 0.022106889003376845 0 0.013912758507614476 0.021965963214673347 0 0.01390072738886871 0.021989562840634719 0 0.013784906706053809 0.021967968649056622 0 0.013912758507614476 0.021965963214673347 0 0.013784906706053809 0.021967968649056622 0 0.01373251470450873 0.021969938157470292 0 0.010347742448255117 0.02367993027070146 0 0.0124549422601556 0.023559818159579554 0 0.013867857804310114 0.022156236098536564 0 0.011447924896655222 0.022753586503296428 0 0.013916673009701378 0.022131945112719563 0 0.013784906706053809 0.021967968649056622 0 0.01373251470450873 0.021969938157470292 0 0.013776570540808577 0.021961530950148727 0 0.01373251470450873 0.021969938157470292 0 0.013776570540808577 0.021961530950148727 0 0.013867857804310114 0.022156236098536564 0 0.013684920130338602 0.021871145215555655 0 0.013784906706053809 0.021967968649056622 0 0.013776570540808577 0.021961530950148727 0 0.05696591165809442 0.037475668221308496 0 0.057030970638998084 0.0363609252118096 0 0.055959331960783648 0.037807724602017707 0 0.05696591165809442 0.037475668221308496 0 0.055959331960783648 0.037807724602017707 0 0.056681634265617689 0.038348355163366779 0 0.053303156304936594 0.036797693705194368 0 0.053390292268347038 0.038727417437947373 0 0.05696591165809442 0.037475668221308496 0 0.05778258440077249 0.037071817692834713 0 0.057951901127568185 0.038878543059453027 0 0.048636328861610678 0.035986719940141382 0 0.048894457758650381 0.03858834638763451 0 0.050018142929580241 0.03698247991677537 0 0.05696591165809442 0.037475668221308496 0 0.05778258440077249 0.037071817692834713 0 0.057509925582124762 0.035171673844358715 0 0.048636328861610678 0.035986719940141382 0 0.050677298074010668 0.03515298007824863 0 0.048392377032961481 0.033434981819267767 0 0.046227763342889701 0.030849791303749752 0 0.051979912550981715 0.03303127751287039 0 0.05696591165809442 0.037475668221308496 0 0.057287629233647337 0.035009424274343469 0 0.057509925582124762 0.035171673844358715 0 0.053303156304936594 0.036797693705194368 0 0.051979912550981715 0.03303127751287039 0 0.057030970638998084 0.0363609252118096 0 0.056527959516738231 0.036501205925968234 0 0.056806510749609261 0.037267466157226536 0 0.056954870215807488 0.036521887206591289 0 0.056404252779406257 0.037363173494561384 0 0.057651129910313896 0.037825167862318432 0 0.054968753298421331 0.034167765833179674 0 0.05696591165809442 0.037475668221308496 0 0.057030970638998084 0.0363609252118096 0 0.057479189554568086 0.035728081834510719 0 0.057030970638998084 0.0363609252118096 0 0.056527959516738231 0.036501205925968234 0 0.056589241911194577 0.035969139922029672 0 0.056312434823390843 0.036752046814416212 0 0.056527959516738231 0.036501205925968234 0 0.055896373998256574 0.035993821535631083 0 0.056527959516738231 0.036501205925968234 0 0.055896373998256574 0.035993821535631083 0 0.056589241911194577 0.035969139922029672 0 0.056044361438781796 0.037256816789883261 0 0.055769534905393679 0.034351377325554912 0 0.056265260136381896 0.033995942382372205 0 0.054999870907829422 0.035079614390336161 0 0.056044361438781796 0.037256816789883261 0 0.055769534905393679 0.034351377325554912 0 0.056312434823390843 0.036752046814416212 0 0.056044361438781796 0.037256816789883261 0 0.055896373998256574 0.035993821535631083 0 0.056195212269020661 0.037328798861818648 0 0.055609102112137529 0.034565728780714566 0 0.054999870907829422 0.035079614390336161 0 0.054999969943690948 0.037495500312062953 0 0.056044361438781796 0.037256816789883261 0 0.056312434823390843 0.036752046814416212 0 0.056044361438781796 0.037256816789883261 0 0.056806510749609261 0.037267466157226536 0 0.056312434823390843 0.036752046814416212 0 0.056527959516738231 0.036501205925968234 0 0.056806510749609261 0.037267466157226536 0 0.056404252779406257 0.037363173494561384 0 0.055891372895094667 0.04015711120340433 0 0.055959331960783648 0.037807724602017707 0 0.05496737172787329 0.039642441756960932 0 0.056476102981765031 0.039270822112659892 0 0.056044361438781796 0.037256816789883261 0 0.056806510749609261 0.037267466157226536 0 0.056356197131587508 0.038644996067014395 0 0.054999969943690948 0.037495500312062953 0 0.056044361438781796 0.037256816789883261 0 0.056356197131587508 0.038644996067014395 0 0.05499999503903695 0.037496138888295651 0 0.054999987058196163 0.040616356045735359 0 0.057026508585970644 0.03976708793389748 0 0.055000600083023654 0.037495696353283217 0 0.055891372895094667 0.04015711120340433 0 0.055559123425204936 0.042972024054159765 0 0.055891372895094667 0.04015711120340433 0 0.056014223131792891 0.04175082348823745 0 0.054999987058196163 0.040616356045735359 0 0.057026508585970644 0.03976708793389748 0 0.056889055191468363 0.042776638296972987 0 0.055891372895094667 0.04015711120340433 0 0.056365325516120827 0.0441839658976848 0 0.055204430971539729 0.043858715251906939 0 0.055583930694012469 0.043113458971313592 0 0.056483197363833219 0.04140452324435643 0 0.056476102981765031 0.039270822112659892 0 0.05811139300947446 0.040706929245676919 0 0.056483197363833219 0.04140452324435643 0 0.05496737172787329 0.039642441756960932 0 0.056476102981765031 0.039270822112659892 0 0.055959331960783648 0.037807724602017707 0 0.056476102981765031 0.039270822112659892 0 0.056681634265617689 0.038348355163366779 0 0.056476102981765031 0.039270822112659892 0 0.056681634265617689 0.038348355163366779 0 0.057951901127568185 0.038878543059453027 0 0.05696591165809442 0.037475668221308496 0 0.056681634265617689 0.038348355163366779 0 0.057951901127568185 0.038878543059453027 0 0.048894457758650381 0.03858834638763451 0 0.049172016664595551 0.041210763330662155 0 0.050675030908785654 0.041019540047536357 0 0.053390292268347038 0.038727417437947373 0 0.053953341446720378 0.040691680983844694 0 0.056476102981765031 0.039270822112659892 0 0.057951901127568185 0.038878543059453027 0 0.05811139300947446 0.040706929245676919 0 0.048728678728386605 0.04254652325107143 0 0.046345993856321079 0.039398892740203681 0 0.043965734829646663 0.042519334428161366 0 0.046345993856321079 0.039398892740203681 0 0.046541592437190568 0.043879149474622271 0 0.048395255981919509 0.043744448934047227 0 0.047531981108983101 0.041510365290411549 0 0.039991397708046328 0.041707624069220232 0 0.039245997749501688 0.039743661882600929 0 0.040270418077878394 0.040466541375179306 0 0.039245997749501688 0.039743661882600929 0 0.040270418077878394 0.040466541375179306 0 0.039773927109810474 0.038513932864231895 0 0.048894457758650381 0.03858834638763451 0 0.050675030908785654 0.041019540047536357 0 0.051870696165834909 0.038211221314988018 0 0.048894457758650381 0.03858834638763451 0 0.051870696165834909 0.038211221314988018 0 0.050018142929580241 0.03698247991677537 0 0.042531799490631871 0.042026092712333575 0 0.042640952260567987 0.040814981960490229 0 0.041324882943526327 0.041250774859759802 0 0.04134562289156065 0.042344785688933094 0 0.042531799490631871 0.042026092712333575 0 0.041324882943526327 0.041250774859759802 0 0.04134562289156065 0.042344785688933094 0 0.039991397708046328 0.041707624069220232 0 0.041324882943526327 0.041250774859759802 0 0.039991397708046328 0.041707624069220232 0 0.041324882943526327 0.041250774859759802 0 0.040270418077878394 0.040466541375179306 0 0.041232404346448807 0.039673019112687946 0 0.040270418077878394 0.040466541375179306 0 0.039773927109810474 0.038513932864231895 0 0.041324882943526327 0.041250774859759802 0 0.041232404346448807 0.039673019112687946 0 0.040270418077878394 0.040466541375179306 0 0.042640952260567987 0.040814981960490229 0 0.041324882943526327 0.041250774859759802 0 0.041232404346448807 0.039673019112687946 0 0.042524129935908775 0.029939843861560039 0 0.042222414118123767 0.031244483841288678 0 0.041873137636525788 0.030110885814197463 0 0.041969714273640456 0.035521041719485662 0 0.041010196255572264 0.028938973872597629 0 0.041969714273640456 0.035521041719485662 0 0.041236103908456272 0.035407927187489391 0 0.042222414118123767 0.031244483841288678 0 0.041873137636525788 0.030110885814197463 0 0.04121110756816742 0.030041281964003307 0 0.042754930269747402 0.031889199669688256 0 0.041063691498722535 0.030513424875444287 0 0.04121110756816742 0.030041281964003307 0 0.041852249034938782 0.029489404133741258 0 0.0416782359757914 0.028891667240076767 0 0.042297930969019099 0.028745210808197731 0 0.042472511968377834 0.029312088733804208 0 0.041852249034938782 0.029489404133741258 0 0.042297930969019099 0.028745210808197731 0 0.042524129935908775 0.029939843861560039 0 0.041873137636525788 0.030110885814197463 0 0.041852249034938782 0.029489404133741258 0 0.042524129935908775 0.029939843861560039 0 0.042472511968377834 0.029312088733804208 0 0.041852249034938782 0.029489404133741258 0 0.041873137636525788 0.030110885814197463 0 0.041852249034938782 0.029489404133741258 0 0.04153931590750936 0.029762142682917787 0 0.04153931590750936 0.029762142682917787 0 0.041209437649608563 0.029392691377288418 0 0.04121110756816742 0.030041281964003307 0 0.041852249034938782 0.029489404133741258 0 0.04153931590750936 0.029762142682917787 0 0.041209437649608563 0.029392691377288418 0 0.041873137636525788 0.030110885814197463 0 0.04153931590750936 0.029762142682917787 0 0.04121110756816742 0.030041281964003307 0 0.041209437649608563 0.029392691377288418 0 0.041096793366738785 0.028651049843197728 0 0.0416782359757914 0.028891667240076767 0 0.041852249034938782 0.029489404133741258 0 0.041209437649608563 0.029392691377288418 0 0.0416782359757914 0.028891667240076767 0 0.041236103908456272 0.035407927187489391 0 0.041101734274157135 0.031872158958761485 0 0.041209437649608563 0.029392691377288418 0 0.041096793366738785 0.028651049843197728 0 0.039766978240935467 0.029458001145224798 0 0.041063691498722535 0.030513424875444287 0 0.04121110756816742 0.030041281964003307 0 0.039766978240935467 0.029458001145224798 0 0.041209437649608563 0.029392691377288418 0 0.04121110756816742 0.030041281964003307 0 0.039766978240935467 0.029458001145224798 0 0.041096793366738785 0.028651049843197728 0 0.041888663769979573 0.028021886032821065 0 0.04062477003499225 0.027633389427730991 0 0.041096793366738785 0.028651049843197728 0 0.039766978240935467 0.029458001145224798 0 0.04062477003499225 0.027633389427730991 0 0.041101734274157135 0.031872158958761485 0 0.041206892170053057 0.026358157134205466 0 0.042893084716984303 0.028093160312319482 0 0.041888663769979573 0.028021886032821065 0 0.042297930969019099 0.028745210808197731 0 0.041096793366738785 0.028651049843197728 0 0.0416782359757914 0.028891667240076767 0 0.041888663769979573 0.028021886032821065 0 0.0416782359757914 0.028891667240076767 0 0.041888663769979573 0.028021886032821065 0 0.042297930969019099 0.028745210808197731 0 0.046345993856321079 0.039398892740203681 0 0.046227763342889701 0.030849791303749752 0 0.048636328861610678 0.035986719940141382 0 0.050018142929580241 0.03698247991677537 0 0.050677298074010668 0.03515298007824863 0 0.051870696165834909 0.038211221314988018 0 0.050018142929580241 0.03698247991677537 0 0.050677298074010668 0.03515298007824863 0 0.046345993856321079 0.039398892740203681 0 0.041101734274157135 0.031872158958761485 0 0.041101734274157135 0.031872158958761485 0 0.046227763342889701 0.030849791303749752 0 0.045220747320084201 0.036303113691738761 0 0.04623128648864562 0.033989393894577599 0 0.043552835179511237 0.031972973326674821 0 0.041341599644447766 0.027469804536968786 0 0.040775696593512926 0.027020460589933765 0 0.041667848791774577 0.026507974013982277 0 0.046227763342889701 0.030849791303749752 0 0.043537777044369834 0.026910646955972662 0 0.040775696593512926 0.027020460589933765 0 0.040442013714019079 0.026206943752014822 0 0.041079823621565641 0.026230033466140223 0 0.041079823621565641 0.026230033466140223 0 0.041424688912693401 0.025693571872721831 0 0.041667848791774577 0.026507974013982277 0 0.040775696593512926 0.027020460589933765 0 0.041079823621565641 0.026230033466140223 0 0.041667848791774577 0.026507974013982277 0 0.041079823621565641 0.026230033466140223 0 0.041424688912693401 0.025693571872721831 0 0.040790675859523277 0.025527893513566401 0 0.040442013714019079 0.026206943752014822 0 0.040790675859523277 0.025527893513566401 0 0.040083472123048594 0.025302007492221935 0 0.040442013714019079 0.026206943752014822 0 0.041079823621565641 0.026230033466140223 0 0.040790675859523277 0.025527893513566401 0 0.041888663769979573 0.028021886032821065 0 0.041977897635003564 0.026963221912431938 0 0.04062477003499225 0.027633389427730991 0 0.042734175049224325 0.02723937869962173 0 0.041888663769979573 0.028021886032821065 0 0.041977897635003564 0.026963221912431938 0 0.041206892170053057 0.026358157134205466 0 0.041608718222516376 0.026207894133476919 0 0.041977897635003564 0.026963221912431938 0 0.04062477003499225 0.027633389427730991 0 0.041716731279990767 0.025831416358558453 0 0.041424688912693401 0.025693571872721831 0 0.041667848791774577 0.026507974013982277 0 0.041716731279990767 0.025831416358558453 0 0.042665934106347128 0.026328257984321864 0 0.042593653466081349 0.025432397995340805 0 0.041716731279990767 0.025831416358558453 0 0.042665934106347128 0.026328257984321864 0 0.041977897635003564 0.026963221912431938 0 0.041716731279990767 0.025831416358558453 0 0.042593653466081349 0.025432397995340805 0 0.041716731279990767 0.025831416358558453 0 0.041615845940614321 0.025069221092733074 0 0.042593653466081349 0.025432397995340805 0 0.042640792050094765 0.024705191369958385 0 0.041615845940614321 0.025069221092733074 0 0.041474980914859967 0.02561835862296135 0 0.042114117758587886 0.024858808531543715 0 0.041424688912693401 0.025693571872721831 0 0.041716731279990767 0.025831416358558453 0 0.041615845940614321 0.025069221092733074 0 0.041424688912693401 0.025693571872721831 0 0.042604547693159835 0.024676083028860912 0 0.041568067196328252 0.024725540752579416 0 0.042604547693159835 0.024676083028860912 0 0.041568067196328252 0.024725540752579416 0 0.041651555178858525 0.023668277956006407 0 0.042604547693159835 0.024676083028860912 0 0.042682667795228162 0.023672980614795391 0 0.041651555178858525 0.023668277956006407 0 0.042114117758587886 0.024858808531543715 0 0.042990013844173204 0.023727500919734183 0 0.042640792050094765 0.024705191369958385 0 0.041615845940614321 0.025069221092733074 0 0.042435321741351908 0.023947080271848418 0 0.042604547693159835 0.024676083028860912 0 0.042682667795228162 0.023672980614795391 0 0.043563048135983773 0.023496169601192166 0 0.040790675859523277 0.025527893513566401 0 0.040761631831564268 0.024609293651473386 0 0.040083472123048594 0.025302007492221935 0 0.048705744511296931 0.024372297044463573 0 0.052416082543419423 0.026968875634838737 0 0.040790675859523277 0.025527893513566401 0 0.041568067196328252 0.024725540752579416 0 0.040761631831564268 0.024609293651473386 0 0.041424688912693401 0.025693571872721831 0 0.040790675859523277 0.025527893513566401 0 0.041568067196328252 0.024725540752579416 0 0.048705744511296931 0.024372297044463573 0 0.050187792992067624 0.023534853597539374 0 0.041568067196328252 0.024725540752579416 0 0.040761631831564268 0.024609293651473386 0 0.041651555178858525 0.023668277956006407 0 0.0577439949148617 0.024235291624975893 0 0.056957547762552393 0.024024144933535566 0 0.057625264532682803 0.023295207977137355 0 0.0577439949148617 0.024235291624975893 0 0.058639823932747678 0.023420899958388305 0 0.057625264532682803 0.023295207977137355 0 0.056957547762552393 0.024024144933535566 0 0.056233914226908557 0.023468215032823272 0 0.057625264532682803 0.023295207977137355 0 0.056481874240391014 0.024222746032906365 0 0.056957547762552393 0.024024144933535566 0 0.056233914226908557 0.023468215032823272 0 0.056670388579917408 0.025195191869160739 0 0.056503517761637506 0.024209411964581692 0 0.057367483700700661 0.024418722804748702 0 0.056346078182971895 0.026670864891788472 0 0.055023794233576478 0.02679224824527026 0 0.055973988677451875 0.025692443346549836 0 0.05584964525781165 0.0259215322201444 0 0.056710963877169888 0.024281437020550148 0 0.056323880709333196 0.025649771882187557 0 0.056710963877169888 0.024281437020550148 0 0.056346078182971895 0.026670864891788472 0 0.055738989485635208 0.027485258984556348 0 0.055023794233576478 0.02679224824527026 0 0.0577439949148617 0.024235291624975893 0 0.056957547762552393 0.024024144933535566 0 0.056716638395597957 0.02500941036368497 0 0.057195580987803418 0.023228679045825214 0 0.052416082543419423 0.026968875634838737 0 0.056481874240391014 0.024222746032906365 0 0.056957547762552393 0.024024144933535566 0 0.05674799445814719 0.025021143293885811 0 0.056323880709333196 0.025649771882187557 0 0.052416082543419423 0.026968875634838737 0 0.056346078182971895 0.026670864891788472 0 0.055738989485635208 0.027485258984556348 0 0.056704823405089776 0.02763848685251517 0 0.054770645112585815 0.029375981780219485 0 0.054443965558682243 0.030638594749499318 0 0.054486307682134874 0.031014734215510681 0 0.052416082543419423 0.026968875634838737 0 0.052781733926363698 0.030988006694004547 0 0.043537777044369834 0.026910646955972662 0 0.052416082543419423 0.026968875634838737 0 0.048978364777604817 0.029223880021319298 0 0.048877963451340815 0.028758396941166175 0 0.048771083951690414 0.029173191768863085 0 0.053103430245959177 0.030929503756950773 0 0.052781733926363698 0.030988006694004547 0 0.054443965558682243 0.030638594749499318 0 0.053100863834791345 0.030721090811027734 0 0.054486722577048223 0.031017281915213385 0 0.054770645112585815 0.029375981780219485 0 0.054443965558682243 0.030638594749499318 0 0.053100863834791345 0.030721090811027734 0 0.055738989485635208 0.027485258984556348 0 0.056704823405089776 0.02763848685251517 0 0.055280754092495762 0.02877598090564825 0 0.052416082543419423 0.026968875634838737 0 0.055831814613893589 0.031550676744907538 0 0.053100863834791345 0.030721090811027734 0 0.054370395061499474 0.031674514565951557 0 0.054486722577048223 0.031017281915213385 0 0.056708774380769614 0.03528505072459541 0 0.056924942853056673 0.035840278846388303 0 0.057479189554568086 0.035728081834510719 0 0.055831814613893589 0.031550676744907538 0 0.054968753298421331 0.034167765833179674 0 0.056708774380769614 0.03528505072459541 0 0.056924942853056673 0.035840278846388303 0 0.056589241911194577 0.035969139922029672 0 0.057030970638998084 0.0363609252118096 0 0.056924942853056673 0.035840278846388303 0 0.056589241911194577 0.035969139922029672 0 0.057030970638998084 0.0363609252118096 0 0.056924942853056673 0.035840278846388303 0 0.057479189554568086 0.035728081834510719 0 0.049072890934683547 0.029620559311480141 0 0.048978364777604817 0.029223880021319298 0 0.048790587780189201 0.029359880229048473 0 0.054968753298421331 0.034167765833179674 0 0.051979912550981715 0.03303127751287039 0 0.048978364777604817 0.029223880021319298 0 0.048790587780189201 0.029359880229048473 0 0.048771083951690414 0.029173191768863085 0 0.051979912550981715 0.03303127751287039 0 0.052781733926363698 0.030988006694004547 0 0.052452843858431346 0.033647492502635303 0 0.053202379737824886 0.034204609636123463 0 0.052896323814138141 0.031282223910654293 0 0.054968753298421331 0.034167765833179674 0 0.052781733926363698 0.030988006694004547 0 0.054999870907829422 0.035079614390336161 0 0.054999989978337556 0.032662306439116613 0 0.055769534905393679 0.034351377325554912 0 0.054999989978337556 0.032662306439116613 0 0.055769534905393679 0.034351377325554912 0 0.05626213295871809 0.033982170647496583 0 0.05584313332391113 0.034367950424127804 0 0.055609102112137529 0.034565728780714566 0 0.055831814613893589 0.031550676744907538 0 0.055609102112137529 0.034565728780714566 0 0.056708774380769614 0.03528505072459541 0 0.055896373998256574 0.035993821535631083 0 0.056589241911194577 0.035969139922029672 0 0.055831814613893589 0.031550676744907538 0 0.055377039727668845 0.028476383200321129 0 0.056828284898518489 0.031759693573710106 0 0.054770198661051227 0.03097871720997717 0 0.05516805752357045 0.030522932271585489 0 0.055738989485635208 0.027485258984556348 0 0.055280754092495762 0.02877598090564825 0 0.054088163608240772 0.027881327890494644 0 0.056828284898518489 0.031759693573710106 0 0.054868569135405533 0.033239924177261175 0 0.054770198661051227 0.03097871720997717 0 0.054999989978337556 0.032662306439116613 0 0.05626213295871809 0.033982170647496583 0 0.056158677301093259 0.031336040176412547 0 0.055609102112137529 0.034565728780714566 0 0.055465550289822377 0.030649143774910813 0 0.054999993714282686 0.032662388326253691 0 0.056166220006326754 0.031326481504094804 0 0.054999991477767178 0.029583832200421441 0 0.055465550289822377 0.030649143774910813 0 0.055377039727668845 0.028476383200321129 0 0.055000271754355907 0.032661969006916529 0 0.055465550289822377 0.030649143774910813 0 0.055960275175743639 0.026048773443116121 0 0.055708379161231884 0.02586802110090549 0 0.056041766070915454 0.025186255957963311 0 0.056166220006326754 0.031326481504094804 0 0.056127003602750712 0.030418975094823834 0 0.054999991477767178 0.029583832200421441 0 0.055485908926327009 0.029590802663199064 0 0.055848708705414231 0.029176063692721552 0 0.055457169643551227 0.028885287958688357 0 0.055465550289822377 0.030649143774910813 0 0.055636135880471664 0.02879986054643812 0 0.055377039727668845 0.028476383200321129 0 0.055636135880471664 0.02879986054643812 0 0.055636135880471664 0.02879986054643812 0 0.055001151059866644 0.029584242200510182 0 0.055377039727668845 0.028476383200321129 0 0.05584964525781165 0.0259215322201444 0 0.055738989485635208 0.027485258984556348 0 0.054088163608240772 0.027881327890494644 0 0.055023794233576478 0.02679224824527026 0 0.055960275175743639 0.026048773443116121 0 0.056670388579917408 0.025195191869160739 0 0.056041766070915454 0.025186255957963311 0 0.056670388579917408 0.025195191869160739 0 0.056170312196482775 0.024584517647959395 0 0.056503517761637506 0.024209411964581692 0 0.056670388579917408 0.025195191869160739 0 0.056041766070915454 0.025186255957963311 0 0.056170312196482775 0.024584517647959395 0 0.055708379161231884 0.02586802110090549 0 0.056041766070915454 0.025186255957963311 0 0.055761377661886276 0.024268087620545217 0 0.055636135880471664 0.02879986054643812 0 0.055906911099362605 0.025533778923264677 0 0.056120638943294401 0.030406624709284426 0 0.054999943744669717 0.029583572124958685 0 0.05599270602818826 0.027137096370588278 0 0.054999943744669717 0.029583572124958685 0 0.055000091230798118 0.026908258016263505 0 0.05599270602818826 0.027137096370588278 0 0.056041766070915454 0.025186255957963311 0 0.056170312196482775 0.024584517647959395 0 0.055761377661886276 0.024268087620545217 0 0.055000091230798118 0.026908258016263505 0 0.05599270602818826 0.027137096370588278 0 0.054999689085425081 0.024230472835810271 0 0.055761377661886276 0.024268087620545217 0 0.05612427418898247 0.024187788874138003 0 0.056078727441734061 0.023747066195359327 0 0.056170312196482775 0.024584517647959395 0 0.055761377661886276 0.024268087620545217 0 0.05612427418898247 0.024187788874138003 0 0.056170312196482775 0.024584517647959395 0 0.05612427418898247 0.024187788874138003 0 0.056503517761637506 0.024209411964581692 0 0.05612427418898247 0.024187788874138003 0 0.056503517761637506 0.024209411964581692 0 0.056078727441734061 0.023747066195359327 0 0.056078727441734061 0.023747066195359327 0 0.055749614025309827 0.023552100282733759 0 0.056414251509784526 0.022811351270254927 0 0.056503517761637506 0.024209411964581692 0 0.056078727441734061 0.023747066195359327 0 0.056879967905497396 0.023163198404342902 0 0.056078727441734061 0.023747066195359327 0 0.056879967905497396 0.023163198404342902 0 0.056414251509784526 0.022811351270254927 0 0.05599270602818826 0.027137096370588278 0 0.054999689085425081 0.024230472835810271 0 0.055749614025309827 0.023552100282733759 0 0.055761377661886276 0.024268087620545217 0 0.056078727441734061 0.023747066195359327 0 0.055749614025309827 0.023552100282733759 0 0.055906911099362605 0.025533778923264677 0 0.055751241526311897 0.023718908433484377 0 0.056233914226908557 0.023468215032823272 0 0.05727300555421827 0.022443233351492953 0 0.057625264532682803 0.023295207977137355 0 0.056710963877169888 0.024281437020550148 0 0.057637284883137449 0.022584571069533339 0 0.056710963877169888 0.024281437020550148 0 0.057029703585638969 0.023224301753513289 0 0.056503517761637506 0.024209411964581692 0 0.057367483700700661 0.024418722804748702 0 0.056879967905497396 0.023163198404342902 0 0.057234770842242891 0.023936810520980217 0 0.056879967905497396 0.023163198404342902 0 0.057963124138615527 0.022944363797392068 0 0.056879967905497396 0.023163198404342902 0 0.057963124138615527 0.022944363797392068 0 0.057196588297267086 0.022101026751574149 0 0.057963124138615527 0.022944363797392068 0 0.057196588297267086 0.022101026751574149 0 0.057829813530213214 0.021462208300675401 0 0.056879967905497396 0.023163198404342902 0 0.057196588297267086 0.022101026751574149 0 0.056414251509784526 0.022811351270254927 0 0.057196588297267086 0.022101026751574149 0 0.057174531930063166 0.020876910042191062 0 0.056584255158564301 0.021666016069061454 0 0.057174531930063166 0.020876910042191062 0 0.057829813530213214 0.021462208300675401 0 0.058111630514272324 0.020394486911746362 0 0.057196588297267086 0.022101026751574149 0 0.057174531930063166 0.020876910042191062 0 0.057829813530213214 0.021462208300675401 0 0.055937086386504679 0.022226000950477713 0 0.055749614025309827 0.023552100282733759 0 0.054999711727803324 0.021555439949482631 0 0.054999689085425081 0.024230472835810271 0 0.055749614025309827 0.023552100282733759 0 0.054999711727803324 0.021555439949482631 0 0.055937086386504679 0.022226000950477713 0 0.055749614025309827 0.023552100282733759 0 0.056414251509784526 0.022811351270254927 0 0.057196588297267086 0.022101026751574149 0 0.056414251509784526 0.022811351270254927 0 0.056584255158564301 0.021666016069061454 0 0.055937086386504679 0.022226000950477713 0 0.056414251509784526 0.022811351270254927 0 0.056584255158564301 0.021666016069061454 0 0.057174531930063166 0.020876910042191062 0 0.056584255158564301 0.021666016069061454 0 0.056463619444649692 0.020624552647774012 0 0.055937086386504679 0.022226000950477713 0 0.056584255158564301 0.021666016069061454 0 0.056123942947661619 0.021358888996651594 0 0.056584255158564301 0.021666016069061454 0 0.056123942947661619 0.021358888996651594 0 0.056463619444649692 0.020624552647774012 0 0.056123942947661619 0.021358888996651594 0 0.055979819010744801 0.020456052362858659 0 0.056463619444649692 0.020624552647774012 0 0.056123942947661619 0.021358888996651594 0 0.054999711727803324 0.021555439949482631 0 0.055979819010744801 0.020456052362858659 0 0.055937086386504679 0.022226000950477713 0 0.056123942947661619 0.021358888996651594 0 0.054999711727803324 0.021555439949482631 0 0.054999711727803324 0.021555439949482631 0 0.055680685239475461 0.019648268220844815 0 0.054999783587871817 0.018882026211764821 0 0.054999711727803324 0.021555439949482631 0 0.055979819010744801 0.020456052362858659 0 0.055680685239475461 0.019648268220844815 0 0.055979819010744801 0.020456052362858659 0 0.055680685239475461 0.019648268220844815 0 0.056135203427593303 0.019838690285580364 0 0.055680685239475461 0.019648268220844815 0 0.055875505952920443 0.019194105083254913 0 0.056135203427593303 0.019838690285580364 0 0.055680685239475461 0.019648268220844815 0 0.054999783587871817 0.018882026211764821 0 0.055875505952920443 0.019194105083254913 0 0.054999984327655252 0.018879814723706079 0 0.056387766369097231 0.018068392426794439 0 0.054999982864126419 0.015766570443934574 0 0.054999570847635924 0.018879414358381405 0 0.054536937579254603 0.01464447230623466 0 0.055875505952920443 0.019194105083254913 0 0.056582869696911571 0.019715637985650028 0 0.056758744687584718 0.018997244763883502 0 0.054536937579254603 0.01464447230623466 0 0.05634578671763283 0.012825537561128841 0 0.055875505952920443 0.019194105083254913 0 0.056582869696911571 0.019715637985650028 0 0.056135203427593303 0.019838690285580364 0 0.057174531930063166 0.020876910042191062 0 0.056582869696911571 0.019715637985650028 0 0.056463619444649692 0.020624552647774012 0 0.056582869696911571 0.019715637985650028 0 0.056135203427593303 0.019838690285580364 0 0.056463619444649692 0.020624552647774012 0 0.055979819010744801 0.020456052362858659 0 0.056135203427593303 0.019838690285580364 0 0.056463619444649692 0.020624552647774012 0 0.057174531930063166 0.020876910042191062 0 0.056582869696911571 0.019715637985650028 0 0.057424536128483014 0.019588636381527535 0 0.057174531930063166 0.020876910042191062 0 0.057424536128483014 0.019588636381527535 0 0.058111630514272324 0.020394486911746362 0 0.056582869696911571 0.019715637985650028 0 0.057424536128483014 0.019588636381527535 0 0.056758744687584718 0.018997244763883502 0 0.055765981563218013 0.0069176858923322114 0 0.057446441071479837 0.005781326455670496 0 0.056463993077051383 0.0050091046524429013 0 0.05634578671763283 0.012825537561128841 0 0.057444506449039208 0.012167813938575769 0 0.057424536128483014 0.019588636381527535 0 0.056758744687584718 0.018997244763883502 0 0.05751315334631877 0.018573103861388704 0 0.057424536128483014 0.019588636381527535 0 0.05751315334631877 0.018573103861388704 0 0.058337797965535065 0.01916442705372073 0 0.057446441071479837 0.005781326455670496 0 0.059042445014030352 0.0047762486432465284 0 0.057552384719834371 0.0040341763228110032 0 0.057446441071479837 0.005781326455670496 0 0.056463993077051383 0.0050091046524429013 0 0.057552384719834371 0.0040341763228110032 0 0.056463993077051383 0.0050091046524429013 0 0.055390666347874644 0.0049853896329458735 0 0.056104440080720512 0.0034281146847298777 0 0.055765981563218013 0.0069176858923322114 0 0.056463993077051383 0.0050091046524429013 0 0.055390666347874644 0.0049853896329458735 0 0.055390666347874644 0.0049853896329458735 0 0.054539767128320808 0.0047004001986864375 0 0.054912969144972693 0.0036844824140204379 0 0.055390666347874644 0.0049853896329458735 0 0.054539767128320808 0.0047004001986864375 0 0.054632725330139069 0.0059800066085894301 0 0.054539767128320808 0.0047004001986864375 0 0.053604165858136495 0.0052368349876116419 0 0.054632725330139069 0.0059800066085894301 0 0.056046073408633663 0.014856201461760888 0 0.054999982864126419 0.015766570443934574 0 0.054999988142184646 0.012653346117978165 0 0.054539767128320808 0.0047004001986864375 0 0.053604165858136495 0.0052368349876116419 0 0.054194617857364215 0.0037081217896043637 0 0.053875515295583931 0.0081064919497526259 0 0.053604165858136495 0.0052368349876116419 0 0.054632725330139069 0.0059800066085894301 0 0.054536937579254603 0.01464447230623466 0 0.054902050287958151 0.009696302609289326 0 0.056387766369097231 0.018068392426794439 0 0.056046073408633663 0.014856201461760888 0 0.054999982864126419 0.015766570443934574 0 0.053875515295583931 0.0081064919497526259 0 0.055765981563218013 0.0069176858923322114 0 0.054632725330139069 0.0059800066085894301 0 0.055765981563218013 0.0069176858923322114 0 0.055390666347874644 0.0049853896329458735 0 0.054632725330139069 0.0059800066085894301 0 0.059560426928370026 0.018272832793535934 0 0.058985227993854535 0.019144268184844018 0 0.05956016406905313 0.019389547068659058 0 0.059560426928370026 0.018272832793535934 0 0.058830753836693422 0.018400390328668182 0 0.058985227993854535 0.019144268184844018 0 0.059560426928370026 0.018272832793535934 0 0.05956016406905313 0.019389547068659058 0 0.060134881239708844 0.018954071563173646 0 0.058196998010747646 0.013501761048185004 0 0.059610038719628659 0.013723088675894281 0 0.056688076895407905 0.0073187551897917931 0 0.057452119501406017 0.0074815351372832534 0 0.057277348235801918 0.0079982545020169816 0 0.056688076895407905 0.0073187551897917931 0 0.056581900477720298 0.0065437630561311494 0 0.056993479189403215 0.0066636126453255779 0 0.056688076895407905 0.0073187551897917931 0 0.057452119501406017 0.0074815351372832534 0 0.056993479189403215 0.0066636126453255779 0 0.059560426928370026 0.018272832793535934 0 0.058830753836693422 0.018400390328668182 0 0.058974700125102524 0.017558452836441474 0 0.058196998010747646 0.013501761048185004 0 0.057983461977917684 0.0068253160342235083 0 0.058830753836693422 0.018400390328668182 0 0.058238998074737716 0.018073951116286034 0 0.058974700125102524 0.017558452836441474 0 0.058776274204452077 0.011776120275751272 0 0.057983461977917684 0.0068253160342235083 0 0.057444506449039208 0.012167813938575769 0 0.058776274204452077 0.011776120275751272 0 0.05751315334631877 0.018573103861388704 0 0.058238998074737716 0.018073951116286034 0 0.058337797965535065 0.01916442705372073 0 0.058830753836693422 0.018400390328668182 0 0.058337797965535065 0.01916442705372073 0 0.058985227993854535 0.019144268184844018 0 0.058830753836693422 0.018400390328668182 0 0.058238998074737716 0.018073951116286034 0 0.058337797965535065 0.01916442705372073 0 0.058337797965535065 0.01916442705372073 0 0.058985227993854535 0.019144268184844018 0 0.058603210444583519 0.019879694429423049 0 0.058985227993854535 0.019144268184844018 0 0.058603210444583519 0.019879694429423049 0 0.059079250305165719 0.01991473585428951 0 0.058337797965535065 0.01916442705372073 0 0.058603210444583519 0.019879694429423049 0 0.058111630514272324 0.020394486911746362 0 0.057424536128483014 0.019588636381527535 0 0.058337797965535065 0.01916442705372073 0 0.058111630514272324 0.020394486911746362 0 0.059123313461586814 0.020523074682121282 0 0.059079250305165719 0.01991473585428951 0 0.05865982186475302 0.020769738865511658 0 0.058603210444583519 0.019879694429423049 0 0.058111630514272324 0.020394486911746362 0 0.05865982186475302 0.020769738865511658 0 0.058603210444583519 0.019879694429423049 0 0.059079250305165719 0.01991473585428951 0 0.05865982186475302 0.020769738865511658 0 0.059564323785295248 0.020392563437600941 0 0.059079250305165719 0.01991473585428951 0 0.05956016406905313 0.019389547068659058 0 0.059123313461586814 0.020523074682121282 0 0.059564323785295248 0.020392563437600941 0 0.059079250305165719 0.01991473585428951 0 0.058985227993854535 0.019144268184844018 0 0.059079250305165719 0.01991473585428951 0 0.05956016406905313 0.019389547068659058 0 0.05956016406905313 0.019389547068659058 0 0.060011635900054199 0.019761191484421268 0 0.060134881239708844 0.018954071563173646 0 0.059564323785295248 0.020392563437600941 0 0.05956016406905313 0.019389547068659058 0 0.060011635900054199 0.019761191484421268 0 0.060011635900054199 0.019761191484421268 0 0.059997903979137242 0.020290176718792307 0 0.06036293602925917 0.020004982764644429 0 0.059564323785295248 0.020392563437600941 0 0.060011635900054199 0.019761191484421268 0 0.059997903979137242 0.020290176718792307 0 0.059564323785295248 0.020392563437600941 0 0.059997903979137242 0.020290176718792307 0 0.059832532487735041 0.020709751593552088 0 0.059171030810481105 0.020162045614301037 0 0.053822048860172687 0.018853953448752424 0 0.059997903979137242 0.020290176718792307 0 0.059832532487735041 0.020709751593552088 0 0.060291425983699756 0.020541638925086921 0 0.059832532487735041 0.020709751593552088 0 0.059765948809757233 0.021347853041037 0 0.060291425983699756 0.020541638925086921 0 0.05682764517033851 0.018522072908722105 0 0.05687075930379288 0.018515783369496091 0 0.056639721987572965 0.018697316009323454 0 0.05881812628000007 0.020329857665883824 0 0.058678357269037106 0.019724777210674314 0 0.059832532487735041 0.020709751593552088 0 0.059601153709760865 0.020953096429277177 0 0.059765948809757233 0.021347853041037 0 0.059564323785295248 0.020392563437600941 0 0.059832532487735041 0.020709751593552088 0 0.059601153709760865 0.020953096429277177 0 0.059123313461586814 0.020523074682121282 0 0.059254833679982542 0.021035989093816543 0 0.05865982186475302 0.020769738865511658 0 0.059564323785295248 0.020392563437600941 0 0.059254833679982542 0.021035989093816543 0 0.059601153709760865 0.020953096429277177 0 0.059123313461586814 0.020523074682121282 0 0.059564323785295248 0.020392563437600941 0 0.059254833679982542 0.021035989093816543 0 0.059254833679982542 0.021035989093816543 0 0.059601153709760865 0.020953096429277177 0 0.059765948809757233 0.021347853041037 0 0.059125544104728429 0.021669172747106818 0 0.05881812628000007 0.020329857665883824 0 0.058962592862191646 0.021704001845162385 0 0.059267582646361415 0.021882884838633956 0 0.059325672184214244 0.021761191617185181 0 0.059254833679982542 0.021035989093816543 0 0.058962592862191646 0.021704001845162385 0 0.059765948809757233 0.021347853041037 0 0.058962592862191646 0.021704001845162385 0 0.059254216710745884 0.022109598398426102 0 0.058890096933312146 0.022210346458663884 0 0.058962592862191646 0.021704001845162385 0 0.059267582646361415 0.021882884838633956 0 0.059254216710745884 0.022109598398426102 0 0.059542825738745753 0.021867331437696966 0 0.059373532776626409 0.021752005546695052 0 0.059706943037529409 0.021629746861702246 0 0.059444723523747661 0.021945556273873068 0 0.059254216710745884 0.022109598398426102 0 0.059653027028637937 0.022150076654204862 0 0.059267582646361415 0.021882884838633956 0 0.059444723523747661 0.021945556273873068 0 0.059254216710745884 0.022109598398426102 0 0.059444723523747661 0.021945556273873068 0 0.059542825738745753 0.021867331437696966 0 0.059653027028637937 0.022150076654204862 0 0.059444723523747661 0.021945556273873068 0 0.059542825738745753 0.021867331437696966 0 0.059373532776626409 0.021752005546695052 0 0.059267582646361415 0.021882884838633956 0 0.059444723523747661 0.021945556273873068 0 0.059373532776626409 0.021752005546695052 0 0.059171030810481105 0.020162045614301037 0 0.05881812628000007 0.020329857665883824 0 0.059267582646361415 0.021882884838633956 0 0.059373532776626409 0.021752005546695052 0 0.059325672184214244 0.021761191617185181 0 0.057829813530213214 0.021462208300675401 0 0.058111630514272324 0.020394486911746362 0 0.0582528870769543 0.02107647705861479 0 0.057829813530213214 0.021462208300675401 0 0.0582528870769543 0.02107647705861479 0 0.058404632592333174 0.02163418911120615 0 0.058111630514272324 0.020394486911746362 0 0.0582528870769543 0.02107647705861479 0 0.05865982186475302 0.020769738865511658 0 0.0582528870769543 0.02107647705861479 0 0.05865982186475302 0.020769738865511658 0 0.058404632592333174 0.02163418911120615 0 0.058962592862191646 0.021704001845162385 0 0.05865982186475302 0.020769738865511658 0 0.058404632592333174 0.02163418911120615 0 0.059254833679982542 0.021035989093816543 0 0.058962592862191646 0.021704001845162385 0 0.05865982186475302 0.020769738865511658 0 0.058962592862191646 0.021704001845162385 0 0.058404632592333174 0.02163418911120615 0 0.058890096933312146 0.022210346458663884 0 0.057963124138615527 0.022944363797392068 0 0.057829813530213214 0.021462208300675401 0 0.058404632592333174 0.02163418911120615 0 0.057637284883137449 0.022584571069533339 0 0.058323207234701885 0.021776380647691156 0 0.05727300555421827 0.022443233351492953 0 0.058404632592333174 0.02163418911120615 0 0.058418461232072692 0.022592729103277077 0 0.058404632592333174 0.02163418911120615 0 0.058418461232072692 0.022592729103277077 0 0.058890096933312146 0.022210346458663884 0 0.058418461232072692 0.022592729103277077 0 0.058639823932747678 0.023420899958388305 0 0.057625264532682803 0.023295207977137355 0 0.05727300555421827 0.022443233351492953 0 0.058418461232072692 0.022592729103277077 0 0.057625264532682803 0.023295207977137355 0 0.059254216710745884 0.022109598398426102 0 0.059303079362067225 0.0226758406277415 0 0.059653027028637937 0.022150076654204862 0 0.042756124562960234 0.022769554239639205 0 0.043598740421922556 0.022290302444930056 0 0.043675053411445855 0.022029934534423631 0 0.051316061647209581 0.022775676185992379 0 0.049240926679521041 0.020742160904702243 0 0.058418461232072692 0.022592729103277077 0 0.058890096933312146 0.022210346458663884 0 0.059303079362067225 0.0226758406277415 0 0.059254216710745884 0.022109598398426102 0 0.058890096933312146 0.022210346458663884 0 0.059303079362067225 0.0226758406277415 0 0.050187792992067624 0.023534853597539374 0 0.051316061647209581 0.022775676185992379 0 0.058418461232072692 0.022592729103277077 0 0.058639823932747678 0.023420899958388305 0 0.059303079362067225 0.0226758406277415 0 0.042682667795228162 0.023672980614795391 0 0.041651555178858525 0.023668277956006407 0 0.042756124562960234 0.022769554239639205 0 0.042682667795228162 0.023672980614795391 0 0.042756124562960234 0.022769554239639205 0 0.043563048135983773 0.023496169601192166 0 0.042756124562960234 0.022769554239639205 0 0.043563048135983773 0.023496169601192166 0 0.043598740421922556 0.022290302444930056 0 0.042435321741351908 0.023947080271848418 0 0.043379142583538075 0.02283478599178938 0 0.043375134165781329 0.023923802728989921 0 0.042990013844173204 0.023727500919734183 0 0.043771922574584031 0.022663660687099151 0 0.043563048135983773 0.023496169601192166 0 0.043598740421922556 0.022290302444930056 0 0.0441595706534752 0.022478435180169728 0 0.043598740421922556 0.022290302444930056 0 0.044022082307741774 0.022062714486719967 0 0.0441595706534752 0.022478435180169728 0 0.043598740421922556 0.022290302444930056 0 0.044022082307741774 0.022062714486719967 0 0.043649532596709652 0.022107322390513304 0 0.047669467218967761 0.022184282768079606 0 0.049240926679521041 0.020742160904702243 0 0.044022082307741774 0.022062714486719967 0 0.0441595706534752 0.022478435180169728 0 0.044466320953310608 0.021788601501539918 0 0.043379142583538075 0.02283478599178938 0 0.044175126573222451 0.022628774674512107 0 0.044466320953310608 0.021788601501539918 0 0.043771922574584031 0.022663660687099151 0 0.04442139734457691 0.021865649641139982 0 0.043379142583538075 0.02283478599178938 0 0.044175126573222451 0.022628774674512107 0 0.043948205409812154 0.023316700086001917 0 0.044371769920617934 0.023925750170301532 0 0.043948205409812154 0.023316700086001917 0 0.043375134165781329 0.023923802728989921 0 0.043379142583538075 0.02283478599178938 0 0.043948205409812154 0.023316700086001917 0 0.043375134165781329 0.023923802728989921 0 0.044371769920617934 0.023925750170301532 0 0.044747227954295192 0.023589920795941941 0 0.044433704526649534 0.023385229610611655 0 0.044371769920617934 0.023925750170301532 0 0.043948205409812154 0.023316700086001917 0 0.044433704526649534 0.023385229610611655 0 0.045006707002708729 0.024017215722056045 0 0.044371769920617934 0.023925750170301532 0 0.044747227954295192 0.023589920795941941 0 0.045006707002708729 0.024017215722056045 0 0.044747227954295192 0.023589920795941941 0 0.045069255795800733 0.023472863464153226 0 0.044747227954295192 0.023589920795941941 0 0.04489161425109172 0.023141889356804148 0 0.045069255795800733 0.023472863464153226 0 0.044747227954295192 0.023589920795941941 0 0.04489161425109172 0.023141889356804148 0 0.044433704526649534 0.023385229610611655 0 0.044175126573222451 0.022628774674512107 0 0.043948205409812154 0.023316700086001917 0 0.044511314926221512 0.022889902177921015 0 0.043948205409812154 0.023316700086001917 0 0.044433704526649534 0.023385229610611655 0 0.044511314926221512 0.022889902177921015 0 0.04489161425109172 0.023141889356804148 0 0.044433704526649534 0.023385229610611655 0 0.044511314926221512 0.022889902177921015 0 0.031698285042766748 0.023003205894996791 0 0.035108361846868094 0.019399926649949103 0 0.034113672808469254 0.021898045830679586 0 0.034646132470049169 0.022120050291834233 0 0.034433685348716749 0.022440385527630599 0 0.037073738469311827 0.023561266085370503 0 0.035108361846868094 0.019399926649949103 0 0.045006707002708729 0.024017215722056045 0 0.045296192929298255 0.023693647871436678 0 0.045069255795800733 0.023472863464153226 0 0.045390103907831957 0.023737003424783579 0 0.045296192929298255 0.023693647871436678 0 0.0455939906658877 0.022983920170792232 0 0.037073738469311827 0.023561266085370503 0 0.037950876601871859 0.023836841760437991 0 0.045006707002708729 0.024017215722056045 0 0.04539132330031604 0.023739862490709588 0 0.045296192929298255 0.023693647871436678 0 0.045296192929298255 0.023693647871436678 0 0.045069255795800733 0.023472863464153226 0 0.0455939906658877 0.022983920170792232 0 0.04489161425109172 0.023141889356804148 0 0.045069255795800733 0.023472863464153226 0 0.0455939906658877 0.022983920170792232 0 0.04489161425109172 0.023141889356804148 0 0.0455939906658877 0.022983920170792232 0 0.044892125723152772 0.022630462036628052 0 0.037073738469311827 0.023561266085370503 0 0.03772152679644597 0.020878016381916258 0 0.036457866513013325 0.023014293701430124 0 0.037841032487548075 0.020856326662894116 0 0.037406527199569703 0.020017785197417755 0 0.035108361846868094 0.019399926649949103 0 0.03772152679644597 0.020878016381916258 0 0.033803777533869032 0.018208682835269788 0 0.033701283822717629 0.018022381598925528 0 0.034257695570436758 0.016915218097530865 0 0.03772152679644597 0.020878016381916258 0 0.03897542197332618 0.019427208988814709 0 0.0455939906658877 0.022983920170792232 0 0.044892125723152772 0.022630462036628052 0 0.044960550896285187 0.021848258781857127 0 0.033701283822717629 0.018022381598925528 0 0.033157495182405114 0.016986701611729625 0 0.034257695570436758 0.016915218097530865 0 0.044175126573222451 0.022628774674512107 0 0.044511314926221512 0.022889902177921015 0 0.04456188625641519 0.022342098280389546 0 0.04489161425109172 0.023141889356804148 0 0.044511314926221512 0.022889902177921015 0 0.044892125723152772 0.022630462036628052 0 0.044511314926221512 0.022889902177921015 0 0.044892125723152772 0.022630462036628052 0 0.04456188625641519 0.022342098280389546 0 0.044892125723152772 0.022630462036628052 0 0.04456188625641519 0.022342098280389546 0 0.044960550896285187 0.021848258781857127 0 0.04456188625641519 0.022342098280389546 0 0.044466320953310608 0.021788601501539918 0 0.044960550896285187 0.021848258781857127 0 0.044175126573222451 0.022628774674512107 0 0.04456188625641519 0.022342098280389546 0 0.044466320953310608 0.021788601501539918 0 0.044466320953310608 0.021788601501539918 0 0.044960550896285187 0.021848258781857127 0 0.044480525946376442 0.021106014388356947 0 0.033157495182405114 0.016986701611729625 0 0.03332472948901443 0.016022499933405501 0 0.032703403214535465 0.016023970367066518 0 0.03897542197332618 0.019427208988814709 0 0.041652722704457662 0.017840555987400097 0 0.033157495182405114 0.016986701611729625 0 0.033874790828879786 0.01606478406344904 0 0.034257695570436758 0.016915218097530865 0 0.033157495182405114 0.016986701611729625 0 0.033874790828879786 0.01606478406344904 0 0.03332472948901443 0.016022499933405501 0 0.033874790828879786 0.01606478406344904 0 0.03332472948901443 0.016022499933405501 0 0.033550895062395392 0.015819140471741339 0 0.033353510673185954 0.015453407259454214 0 0.033428454602361414 0.015653390648835183 0 0.033738761112804556 0.015398993818509147 0 0.03332472948901443 0.016022499933405501 0 0.033245882264646753 0.015608214004195431 0 0.033428454602361414 0.015653390648835183 0 0.033245882264646753 0.015608214004195431 0 0.033349374105150542 0.01557810461886615 0 0.033428454602361414 0.015653390648835183 0 0.036418721243959812 0.014688291959806712 0 0.036567861330185254 0.014512614656260747 0 0.036567861330185254 0.014512614656260747 0 0.035796330106652681 0.014727632616997357 0 0.033245882264646753 0.015608214004195431 0 0.033349374105150542 0.01557810461886615 0 0.033353510673185954 0.015453407259454214 0 0.033245882264646753 0.015608214004195431 0 0.033241324748092264 0.0154962883957775 0 0.033353510673185954 0.015453407259454214 0 0.033349374105150542 0.01557810461886615 0 0.033353510673185954 0.015453407259454214 0 0.033428454602361414 0.015653390648835183 0 0.03332472948901443 0.016022499933405501 0 0.033428454602361414 0.015653390648835183 0 0.033550895062395392 0.015819140471741339 0 0.033874790828879786 0.01606478406344904 0 0.033550895062395392 0.015819140471741339 0 0.033738761112804556 0.015398993818509147 0 0.033428454602361414 0.015653390648835183 0 0.033550895062395392 0.015819140471741339 0 0.033738761112804556 0.015398993818509147 0 0.03332472948901443 0.016022499933405501 0 0.033245882264646753 0.015608214004195431 0 0.032703403214535465 0.016023970367066518 0 0.036567861330185254 0.014512614656260747 0 0.043843268846104066 0.015386748058954234 0 0.036567861330185254 0.014512614656260747 0 0.041652722704457662 0.017840555987400097 0 0.033245882264646753 0.015608214004195431 0 0.03324693428225016 0.015501983426420139 0 0.032703403214535465 0.016023970367066518 0 0.038199024633513323 0.016452483446933584 0 0.041278140743050452 0.014191394092950746 0 0.04196560666283302 0.015449139260051896 0 0.041652722704457662 0.017840555987400097 0 0.043843268846104066 0.015386748058954234 0 0.043843268846104066 0.015386748058954234 0 0.053822048860172687 0.018853953448752424 0 0.049645416384273014 0.01511327343887771 0 0.049840743930180856 0.015096515882913074 0 0.049732756876494304 0.015181698670951609 0 0.046185397708552796 0.019461911882283266 0 0.046394893813716392 0.019833385234081406 0 0.047385504041541883 0.01863141485406929 0 0.046394893813716392 0.019833385234081406 0 0.048105435661316254 0.019401350600134148 0 0.047385504041541883 0.01863141485406929 0 0.05682764517033851 0.018522072908722105 0 0.05652638595471781 0.018581137013075351 0 0.056639721987572965 0.018697316009323454 0 0.05652638595471781 0.018581137013075351 0 0.056639721987572965 0.018697316009323454 0 0.056432335907457609 0.018850116782348356 0 0.049240926679521041 0.020742160904702243 0 0.053822048860172687 0.018853953448752424 0 0.044022082307741774 0.022062714486719967 0 0.043649532596709652 0.022107322390513304 0 0.044086908232436946 0.021658475022035596 0 0.059542825738745753 0.021867331437696966 0 0.059653027028637937 0.022150076654204862 0 0.059706943037529409 0.021629746861702246 0 0.049240926679521041 0.020742160904702243 0 0.045701908876851181 0.020261908935335443 0 0.048542577431227127 0.017820378837298621 0 0.048105435661316254 0.019401350600134148 0 0.047385504041541883 0.01863141485406929 0 0.044466320953310608 0.021788601501539918 0 0.044480525946376442 0.021106014388356947 0 0.044086908232436946 0.021658475022035596 0 0.041652722704457662 0.017840555987400097 0 0.045701908876851181 0.020261908935335443 0 0.044022082307741774 0.022062714486719967 0 0.044466320953310608 0.021788601501539918 0 0.044086908232436946 0.021658475022035596 0 0.035196830537099245 0.017118617390546535 0 0.035476800847778031 0.016563322010972784 0 0.035617447966891633 0.017450035768753341 0 0.035196830537099245 0.017118617390546535 0 0.03479757635788782 0.016870550873164847 0 0.035476800847778031 0.016563322010972784 0 0.035196830537099245 0.017118617390546535 0 0.034888663452821052 0.017609560263410203 0 0.03479757635788782 0.016870550873164847 0 0.033492596326152715 0.017946795883567679 0 0.033713516538597194 0.018004018523511328 0 0.033430120703164999 0.018078888929569055 0 0.035196830537099245 0.017118617390546535 0 0.034888663452821052 0.017609560263410203 0 0.035617447966891633 0.017450035768753341 0 0.034864825981026019 0.017699463013481732 0 0.03114459418456654 0.017294209091521923 0 0.033545923465261057 0.017857338242547243 0 0.033492596326152715 0.017946795883567679 0 0.033713516538597194 0.018004018523511328 0 0.034864825981026019 0.017699463013481732 0 0.033812707516320421 0.017814183779586962 0 0.033786955841279387 0.01785264034021607 0 0.033713516538597194 0.018004018523511328 0 0.033986404198304718 0.017745976886758143 0 0.034888663452821052 0.017609560263410203 0 0.03479757635788782 0.016870550873164847 0 0.033986404198304718 0.017745976886758143 0 0.03479757635788782 0.016870550873164847 0 0.034056887010846471 0.016864600928489196 0 0.033986404198304718 0.017745976886758143 0 0.034056887010846471 0.016864600928489196 0 0.033986404198304718 0.017745976886758143 0 0.033521438480561994 0.01738414123605992 0 0.033334425590145884 0.0179080763042315 0 0.033986404198304718 0.017745976886758143 0 0.033521438480561994 0.01738414123605992 0 0.033334425590145884 0.0179080763042315 0 0.033009520909875203 0.017509633541137534 0 0.033521438480561994 0.01738414123605992 0 0.035108361846868094 0.019399926649949103 0 0.033607197236853355 0.016542117195269216 0 0.034056887010846471 0.016864600928489196 0 0.033521438480561994 0.01738414123605992 0 0.03326108588390473 0.016636115744699333 0 0.033009520909875203 0.017509633541137534 0 0.033521438480561994 0.01738414123605992 0 0.03326108588390473 0.016636115744699333 0 0.033607197236853355 0.016542117195269216 0 0.034162767719053744 0.015641013878091629 0 0.033874790828879786 0.01606478406344904 0 0.034257695570436758 0.016915218097530865 0 0.03456225981226739 0.015634971221408927 0 0.03326108588390473 0.016636115744699333 0 0.033750817760967257 0.015533591829755633 0 0.033915319477123514 0.016277123747317705 0 0.033874790828879786 0.01606478406344904 0 0.03456225981226739 0.015634971221408927 0 0.033738761112804556 0.015398993818509147 0 0.033750817760967257 0.015533591829755633 0 0.033915319477123514 0.016277123747317705 0 0.034600381423754767 0.01603962141317939 0 0.033750817760967257 0.015533591829755633 0 0.034600381423754767 0.01603962141317939 0 0.034828128336130949 0.015104200312410075 0 0.034056887010846471 0.016864600928489196 0 0.03326108588390473 0.016636115744699333 0 0.033915319477123514 0.016277123747317705 0 0.034056887010846471 0.016864600928489196 0 0.033915319477123514 0.016277123747317705 0 0.034600381423754767 0.01603962141317939 0 0.03479757635788782 0.016870550873164847 0 0.034056887010846471 0.016864600928489196 0 0.034600381423754767 0.01603962141317939 0 0.034600381423754767 0.01603962141317939 0 0.035672182341226523 0.015579738224239423 0 0.034828128336130949 0.015104200312410075 0 0.035215747989805611 0.015911049534661988 0 0.033998488450573669 0.015627093897650692 0 0.033998488450573669 0.015627093897650692 0 0.032235373512499076 0.016012775377652166 0 0.03479757635788782 0.016870550873164847 0 0.034600381423754767 0.01603962141317939 0 0.035476800847778031 0.016563322010972784 0 0.034600381423754767 0.01603962141317939 0 0.035353741431640079 0.01577590292405753 0 0.035476800847778031 0.016563322010972784 0 0.035194654122930935 0.014075631197385214 0 0.03549782859465974 0.014769903523508246 0 0.034954697862214668 0.01447009518994726 0 0.035194654122930935 0.014075631197385214 0 0.035170022207710913 0.014065232685119684 0 0.035190586263438697 0.014041066827609677 0 0.03523518017158947 0.014159139276169552 0 0.035317718534353081 0.014327540670785137 0 0.035194654122930935 0.014075631197385214 0 0.035197342458720034 0.013905720563820683 0 0.035190586263438697 0.014041066827609677 0 0.035672182341226523 0.015579738224239423 0 0.03549782859465974 0.014769903523508246 0 0.034828128336130949 0.015104200312410075 0 0.033998488450573669 0.015627093897650692 0 0.035317718534353081 0.014327540670785137 0 0.035155419224631682 0.014093775945567736 0 0.035170022207710913 0.014065232685119684 0 0.035169781944875793 0.014074113428107908 0 0.03549782859465974 0.014769903523508246 0 0.034828128336130949 0.015104200312410075 0 0.034954697862214668 0.01447009518994726 0 0.034828128336130949 0.015104200312410075 0 0.034954697862214668 0.01447009518994726 0 0.034564383265129936 0.014502322676594459 0 0.035194654122930935 0.014075631197385214 0 0.034954697862214668 0.01447009518994726 0 0.034809852732258652 0.013810471720104455 0 0.034954697862214668 0.01447009518994726 0 0.034564383265129936 0.014502322676594459 0 0.034809852732258652 0.013810471720104455 0 0.034424217881597052 0.01409881282155827 0 0.034564383265129936 0.014502322676594459 0 0.034809852732258652 0.013810471720104455 0 0.034424217881597052 0.01409881282155827 0 0.034564383265129936 0.014502322676594459 0 0.034215868849829592 0.014449112744048233 0 0.033750817760967257 0.015533591829755633 0 0.034828128336130949 0.015104200312410075 0 0.034564383265129936 0.014502322676594459 0 0.03456225981226739 0.015634971221408927 0 0.034564383265129936 0.014502322676594459 0 0.034213418277000036 0.01497246333865089 0 0.034162767719053744 0.015641013878091629 0 0.034531434492543325 0.014596350215112162 0 0.034564383265129936 0.014502322676594459 0 0.034213418277000036 0.01497246333865089 0 0.034215868849829592 0.014449112744048233 0 0.03456225981226739 0.015634971221408927 0 0.034213418277000036 0.01497246333865089 0 0.033738761112804556 0.015398993818509147 0 0.034213418277000036 0.01497246333865089 0 0.033738761112804556 0.015398993818509147 0 0.033785483354328689 0.01495055449368321 0 0.034313100733662227 0.014392196739047866 0 0.033458003611779544 0.015061742791639424 0 0.034213418277000036 0.01497246333865089 0 0.034215868849829592 0.014449112744048233 0 0.033785483354328689 0.01495055449368321 0 0.034215868849829592 0.014449112744048233 0 0.034153114050229583 0.013994628289374625 0 0.033804755254155862 0.014277325377806075 0 0.034215868849829592 0.014449112744048233 0 0.033912852816466513 0.014577105075665687 0 0.033804755254155862 0.014277325377806075 0 0.034424217881597052 0.01409881282155827 0 0.034215868849829592 0.014449112744048233 0 0.034153114050229583 0.013994628289374625 0 0.034153114050229583 0.013994628289374625 0 0.033951646579939522 0.013408086853214832 0 0.033804755254155862 0.014277325377806075 0 0.039812640229277663 0.0091053984676886298 0 0.039443266930084903 0.01078300666143533 0 0.034424217881597052 0.01409881282155827 0 0.034153114050229583 0.013994628289374625 0 0.034350403688032993 0.013654271610899556 0 0.034153114050229583 0.013994628289374625 0 0.033951646579939522 0.013408086853214832 0 0.034350403688032993 0.013654271610899556 0 0.045977156827479777 0.0041798853757832972 0 0.046860277123581061 0.00085236371650457613 0 0.046466170417652969 0.00088238211665398586 0 0.039812640229277663 0.0091053984676886298 0 0.040999661598542951 0.0054647022940014743 0 0.045589282351049094 0.0022663145427763523 0 0.046409849003246677 0.0010115688674429044 0 0.045977156827479777 0.0041798853757832972 0 0.043864019426929718 0.0036682497002923841 0 0.046466170417652969 0.00088238211665398586 0 0.033951646579939522 0.013408086853214832 0 0.034549020424184375 0.013154831415056129 0 0.034350403688032993 0.013654271610899556 0 0.033951646579939522 0.013408086853214832 0 0.034549020424184375 0.013154831415056129 0 0.034255058055401272 0.012424141702407755 0 0.034549020424184375 0.013154831415056129 0 0.034809852732258652 0.013810471720104455 0 0.035374775722005231 0.01244934277680365 0 0.034549020424184375 0.013154831415056129 0 0.034809852732258652 0.013810471720104455 0 0.034350403688032993 0.013654271610899556 0 0.034424217881597052 0.01409881282155827 0 0.034809852732258652 0.013810471720104455 0 0.034350403688032993 0.013654271610899556 0 0.035194654122930935 0.014075631197385214 0 0.034809852732258652 0.013810471720104455 0 0.035063743216818745 0.013744357859109218 0 0.034010543833775032 0.016207246032862981 0 0.03718756367567419 0.007444103343703292 0 0.034809852732258652 0.013810471720104455 0 0.035063743216818745 0.013744357859109218 0 0.034932028049048977 0.013473048881216049 0 0.035063743216818745 0.013744357859109218 0 0.035102111324721623 0.013515130385313804 0 0.034932028049048977 0.013473048881216049 0 0.035063743216818745 0.013744357859109218 0 0.035102111324721623 0.013515130385313804 0 0.035183396117124822 0.013709044845518457 0 0.035063743216818745 0.013744357859109218 0 0.035197342458720034 0.013905720563820683 0 0.035183396117124822 0.013709044845518457 0 0.035194654122930935 0.014075631197385214 0 0.035063743216818745 0.013744357859109218 0 0.035197342458720034 0.013905720563820683 0 0.048296105611650826 0.0097541776410749112 0 0.043742232617506246 0.0034027382076020161 0 0.047383691121794115 0.0012260307384716184 0 0.047390614507415864 0.001255327409423544 0 0.047371921159637426 0.0011368489265194291 0 0.051753876993784899 0.0077053571686983091 0 0.053139081359125012 0.010257036391616556 0 0.051331389822217598 0.012087765141579745 0 0.050303972934674313 0.0056385354005763699 0 0.053461492775911071 0.013926699782849498 0 0.050303972934674313 0.0056385354005763699 0 0.048296105611650826 0.0097541776410749112 0 0.053461492775911071 0.013926699782849498 0 0.059610038719628659 0.013723088675894281 0 0.060011635900054199 0.019761191484421268 0 0.060798421263102316 0.019698014227332368 0 0.060134881239708844 0.018954071563173646 0 0.057921059235638242 0.0084077938313086766 0 0.057903985299418127 0.0087642765588218496 0 0.057277348235801918 0.0079982545020169816 0 0.06036293602925917 0.020004982764644429 0 0.060798421263102316 0.019698014227332368 0 0.06074014860297651 0.019790642783453292 0 0.060011635900054199 0.019761191484421268 0 0.06036293602925917 0.020004982764644429 0 0.060798421263102316 0.019698014227332368 0 0.053822048860172687 0.018853953448752424 0 0.054703887842724029 0.016227091712598157 0 0.060291425983699756 0.020541638925086921 0 0.06036293602925917 0.020004982764644429 0 0.06074014860297651 0.019790642783453292 0 0.059997903979137242 0.020290176718792307 0 0.060291425983699756 0.020541638925086921 0 0.06036293602925917 0.020004982764644429 0 0.058678357269037106 0.019724777210674314 0 0.054703887842724029 0.016227091712598157 0 0.043843268846104066 0.015386748058954234 0 0.048296105611650826 0.0097541776410749112 0 0.040498210793570959 0.012601598183005299 0 0.038686240891271782 0.0091948750495873272 0 0.040622898220963627 0.010586071159546356 0 0.049840743930180856 0.015096515882913074 0 0.049732756876494304 0.015181698670951609 0 0.049792318793910266 0.015211450082774337 0 0.049645416384273014 0.01511327343887771 0 0.049750723346465527 0.015218696508664331 0 0.049732756876494304 0.015181698670951609 0 0.038686240891271782 0.0091948750495873272 0 0.041268257571263726 0.0096642615237773379 0 0.040622898220963627 0.010586071159546356 0 0.049732756876494304 0.015181698670951609 0 0.049780792849653241 0.015224658457521969 0 0.049792318793910266 0.015211450082774337 0 0.049750723346465527 0.015218696508664331 0 0.049732756876494304 0.015181698670951609 0 0.049769438790460967 0.015201987633788513 0 0.051459909903005009 0.01386157042687749 0 0.053461492775911071 0.013926699782849498 0 0.048296105611650826 0.0097541776410749112 0 0.053461492775911071 0.013926699782849498 0 0.053461492775911071 0.013926699782849498 0 0.054703887842724029 0.016227091712598157 0 0.040498210793570959 0.012601598183005299 0 0.04204483731468938 0.0108841624349946 0 0.040622898220963627 0.010586071159546356 0 0.042844159920313998 0.011960589275041211 0 0.040498210793570959 0.012601598183005299 0 0.04204483731468938 0.0108841624349946 0 0.042844159920313998 0.011960589275041211 0 0.04204483731468938 0.0108841624349946 0 0.042687950895064719 0.0095683375251567112 0 0.04204483731468938 0.0108841624349946 0 0.041268257571263726 0.0096642615237773379 0 0.042687950895064719 0.0095683375251567112 0 0.04204483731468938 0.0108841624349946 0 0.041268257571263726 0.0096642615237773379 0 0.040622898220963627 0.010586071159546356 0 0.042844159920313998 0.011960589275041211 0 0.042687950895064719 0.0095683375251567112 0 0.044505848502651817 0.0080922904426454535 0 0.036567861330185254 0.014512614656260747 0 0.039443266930084903 0.01078300666143533 0 0.033722447128981717 0.014764811238316716 0 0.033912852816466513 0.014577105075665687 0 0.033804755254155862 0.014277325377806075 0 0.036567861330185254 0.014512614656260747 0 0.033458003611779544 0.015061742791639424 0 0.033353510673185954 0.015453407259454214 0 0.033738761112804556 0.015398993818509147 0 0.033785483354328689 0.01495055449368321 0 0.033253692240417375 0.015495870031867863 0 0.033353510673185954 0.015453407259454214 0 0.033785483354328689 0.01495055449368321 0 0.044505848502651817 0.0080922904426454535 0 0.041898066785149485 0.0081204527427731262 0 0.043449301317971548 0.0059957047677782239 0 0.042687950895064719 0.0095683375251567112 0 0.044505848502651817 0.0080922904426454535 0 0.041898066785149485 0.0081204527427731262 0 0.038686240891271782 0.0091948750495873272 0 0.041898066785149485 0.0081204527427731262 0 0.041239420965734505 0.0064782459625673527 0 0.038686240891271782 0.0091948750495873272 0 0.041268257571263726 0.0096642615237773379 0 0.041898066785149485 0.0081204527427731262 0 0.041268257571263726 0.0096642615237773379 0 0.042687950895064719 0.0095683375251567112 0 0.041898066785149485 0.0081204527427731262 0 0.047371921159637426 0.0011368489265194291 0 0.047213886504855522 0.00081274941032173913 0 0.047340395789531538 0.00098494029366800019 0 0.047371921159637426 0.0011368489265194291 0 0.047340395789531538 0.00098494029366800019 0 0.047440422334081363 0.0011912771686665518 0 0.043742232617506246 0.0034027382076020161 0 0.045589282351049094 0.0022663145427763523 0 0.041898066785149485 0.0081204527427731262 0 0.041239420965734505 0.0064782459625673527 0 0.043449301317971548 0.0059957047677782239 0 0.045977156827479777 0.0041798853757832972 0 0.044505848502651817 0.0080922904426454535 0 0.043449301317971548 0.0059957047677782239 0 0.045977156827479777 0.0041798853757832972 0 0.043449301317971548 0.0059957047677782239 0 0.043864019426929718 0.0036682497002923841 0 0.041239420965734505 0.0064782459625673527 0 0.043449301317971548 0.0059957047677782239 0 0.043864019426929718 0.0036682497002923841 0 0.047213886504855522 0.00081274941032173913 0 0.047232848548939936 0.00085655058281321281 0 0.046852829253297361 0.00087171406320652887 0 0.047213886504855522 0.00081274941032173913 0 0.047232848548939936 0.00085655058281321281 0 0.047340395789531538 0.00098494029366800019 0 0.047340395789531538 0.00098494029366800019 0 0.047374099572781533 0.0010229683231258724 0 0.047440422334081363 0.0011912771686665518 0 0.047232848548939936 0.00085655058281321281 0 0.047340395789531538 0.00098494029366800019 0 0.047341357120462196 0.00089860143123666569 0 0.047340395789531538 0.00098494029366800019 0 0.047374099572781533 0.0010229683231258724 0 0.047341357120462196 0.00089860143123666569 0 0.047247341412915797 0.0010801716189042922 0 0.047440422334081363 0.0011912771686665518 0 0.046888057326605184 0.0016590151315661603 0 0.047374099572781533 0.0010229683231258724 0 0.047247341412915797 0.0010801716189042922 0 0.047440422334081363 0.0011912771686665518 0 0.047374099572781533 0.0010229683231258724 0 0.047247341412915797 0.0010801716189042922 0 0.047328849984235116 0.00091789181213404989 0 0.047383691121794115 0.0012260307384716184 0 0.047371921159637426 0.0011368489265194291 0 0.047440422334081363 0.0011912771686665518 0 0.047505769719622198 0.0028724863528067778 0 0.047440422334081363 0.0011912771686665518 0 0.046888057326605184 0.0016590151315661603 0 0.050303972934674313 0.0056385354005763699 0 0.046750287517962223 -0.00016331858874154675 0 0.057921059235638242 0.0084077938313086766 0 0.057452119501406017 0.0074815351372832534 0 0.057277348235801918 0.0079982545020169816 0 0.050303972934674313 0.0056385354005763699 0 0.052712002689453349 0.0048830575933790981 0 0.045690250842085972 0.00038253027216781423 0 0.050443981032888739 0.0031163244300018282 0 0.047247341412915797 0.0010801716189042922 0 0.046888057326605184 0.0016590151315661603 0 0.046672321882978748 0.0010771230763266801 0 0.052712002689453349 0.0048830575933790981 0 0.050443981032888739 0.0031163244300018282 0 0.048796554955421192 -0.00025427354721233687 0 0.048667796376249545 -0.00029623620732793283 0 0.048843699295045416 -0.0002579136715647904 0 0.047222383273057528 0.00088929210662919307 0 0.047096345270718327 0.00099445181711877231 0 0.047085118901914823 0.00096392320855910607 0 0.04759796422751221 0.0002200288902114934 0 0.049608016883410704 0.0015980769737658019 0 0.047247341412915797 0.0010801716189042922 0 0.047222383273057528 0.00088929210662919307 0 0.047096345270718327 0.00099445181711877231 0 0.048796554955421192 -0.00025427354721233687 0 0.048807454501000685 -0.00026741804343289964 0 0.048781808913580915 -0.00020232570237987927 0 0.048807454501000685 -0.00026741804343289964 0 0.048781808913580915 -0.00020232570237987927 0 0.048822666699268449 -0.00035869642649276768 0 0.04864661854733094 -6.4088864147199856e-05 0 0.048781808913580915 -0.00020232570237987927 0 0.048667796376249545 -0.00029623620732793283 0 0.048796554955421192 -0.00025427354721233687 0 0.048781808913580915 -0.00020232570237987927 0 0.048667796376249545 -0.00029623620732793283 0 0.048781808913580915 -0.00020232570237987927 0 0.048806068054187218 -0.0002411488102703558 0 0.048822666699268449 -0.00035869642649276768 0 0.04864661854733094 -6.4088864147199856e-05 0 0.048781808913580915 -0.00020232570237987927 0 0.048806068054187218 -0.0002411488102703558 0 0.048806068054187218 -0.0002411488102703558 0 0.048822666699268449 -0.00035869642649276768 0 0.048841220004406896 -0.00028905393409763908 0 0.048822666699268449 -0.00035869642649276768 0 0.04904691700412802 -0.00044365071459559355 0 0.049245627684736781 -0.00065941544054416192 0 0.048822666699268449 -0.00035869642649276768 0 0.04904691700412802 -0.00044365071459559355 0 0.048841220004406896 -0.00028905393409763908 0 0.04904691700412802 -0.00044365071459559355 0 0.049179730252841364 -0.00036910203140000017 0 0.049245627684736781 -0.00065941544054416192 0 0.048244806978390023 0.00040493771904169968 0 0.048667796376249545 -0.00029623620732793283 0 0.047427744537991506 0.00065423978908177749 0 0.048806068054187218 -0.0002411488102703558 0 0.048244806978390023 0.00040493771904169968 0 0.047915061934049333 0.0013382252990842894 0 0.04864661854733094 -6.4088864147199856e-05 0 0.048806068054187218 -0.0002411488102703558 0 0.048244806978390023 0.00040493771904169968 0 0.04864661854733094 -6.4088864147199856e-05 0 0.048244806978390023 0.00040493771904169968 0 0.048667796376249545 -0.00029623620732793283 0 0.047247341412915797 0.0010801716189042922 0 0.047222383273057528 0.00088929210662919307 0 0.047328849984235116 0.00091789181213404989 0 0.04759796422751221 0.0002200288902114934 0 0.047656273759477709 0.00059537804755151777 0 0.047222383273057528 0.00088929210662919307 0 0.047328849984235116 0.00091789181213404989 0 0.047427744537991506 0.00065423978908177749 0 0.047374099572781533 0.0010229683231258724 0 0.047328849984235116 0.00091789181213404989 0 0.047341357120462196 0.00089860143123666569 0 0.047341357120462196 0.00089860143123666569 0 0.047175952654231343 0.00081969371199642051 0 0.047427744537991506 0.00065423978908177749 0 0.047328849984235116 0.00091789181213404989 0 0.047341357120462196 0.00089860143123666569 0 0.047427744537991506 0.00065423978908177749 0 0.047175952654231343 0.00081969371199642051 0 0.046881199370771731 0.00093701420326324089 0 0.047427744537991506 0.00065423978908177749 0 0.047232848548939936 0.00085655058281321281 0 0.046852829253297361 0.00087171406320652887 0 0.047175952654231343 0.00081969371199642051 0 0.047232848548939936 0.00085655058281321281 0 0.047341357120462196 0.00089860143123666569 0 0.047175952654231343 0.00081969371199642051 0 0.046852829253297361 0.00087171406320652887 0 0.047175952654231343 0.00081969371199642051 0 0.046881199370771731 0.00093701420326324089 0 0.046881199370771731 0.00093701420326324089 0 0.047427744537991506 0.00065423978908177749 0 0.047312753482200556 0.0010772628200784193 0 0.046881199370771731 0.00093701420326324089 0 0.046727291016316869 0.0012033461211740345 0 0.047312753482200556 0.0010772628200784193 0 0.046881199370771731 0.00093701420326324089 0 0.046727291016316869 0.0012033461211740345 0 0.046642834813922548 0.0010705127983592392 0 0.048244806978390023 0.00040493771904169968 0 0.047312753482200556 0.0010772628200784193 0 0.047915061934049333 0.0013382252990842894 0 0.048244806978390023 0.00040493771904169968 0 0.047427744537991506 0.00065423978908177749 0 0.047312753482200556 0.0010772628200784193 0 0.047312753482200556 0.0010772628200784193 0 0.047915061934049333 0.0013382252990842894 0 0.046864062192833698 0.0023161502770180508 0 0.047666683758435344 0.00048259381258721368 0 0.046046878773664306 0.0012688649818186136 0 0.046727291016316869 0.0012033461211740345 0 0.047312753482200556 0.0010772628200784193 0 0.046864062192833698 0.0023161502770180508 0 0.046727291016316869 0.0012033461211740345 0 0.046864062192833698 0.0023161502770180508 0 0.045815590823338498 0.0018618343288295386 0 0.047498953880939825 -0.00037769652380183937 0 0.046027940775492972 0.0012429733884094058 0 0.045466229115102119 0.00018822273010132539 0 0.046027940775492972 0.0012429733884094058 0 0.045466229115102119 0.00018822273010132539 0 0.043249284292955818 0.0017458004822231731 0 0.044712532936623708 -0.0030532238143353169 0 0.047731445059875956 -0.0025744877426221984 0 0.047498953880939825 -0.00037769652380183937 0 0.046027940775492972 0.0012429733884094058 0 0.048049468211878728 0.00079960963528143212 0 0.043468994916699644 -0.007567188162633777 0 0.047731742872391937 -0.0058977496410691273 0 0.046068117721953579 -0.0055094905901638142 0 0.048049468211878728 0.00079960963528143212 0 0.048832455227369065 -2.5009020389333529e-05 0 0.049316767192780796 0.00037184297887000122 0 0.047731445059875956 -0.0025744877426221984 0 0.049377675192733422 -0.0021419414054230585 0 0.047731742872391937 -0.0058977496410691273 0 0.049323657871442578 -0.0036268565146157766 0 0.049564805106254342 -0.0046518543954207851 0 0.048832455227369065 -2.5009020389333529e-05 0 0.049179730252841364 -0.00036910203140000017 0 0.049682335964324545 -0.00031424206521376652 0 0.048832455227369065 -2.5009020389333529e-05 0 0.049179730252841364 -0.00036910203140000017 0 0.048841220004406896 -0.00028905393409763908 0 0.04904691700412802 -0.00044365071459559355 0 0.049179730252841364 -0.00036910203140000017 0 0.048841220004406896 -0.00028905393409763908 0 0.048806068054187218 -0.0002411488102703558 0 0.048841220004406896 -0.00028905393409763908 0 0.048461203863804966 -0.00015170008317572916 0 0.048832455227369065 -2.5009020389333529e-05 0 0.048841220004406896 -0.00028905393409763908 0 0.048461203863804966 -0.00015170008317572916 0 0.047498953880939825 -0.00037769652380183937 0 0.048049468211878728 0.00079960963528143212 0 0.048204597257302015 5.1417975854859829e-05 0 0.047498953880939825 -0.00037769652380183937 0 0.048461203863804966 -0.00015170008317572916 0 0.048204597257302015 5.1417975854859829e-05 0 0.048049468211878728 0.00079960963528143212 0 0.048832455227369065 -2.5009020389333529e-05 0 0.048204597257302015 5.1417975854859829e-05 0 0.048806068054187218 -0.0002411488102703558 0 0.047498953880939825 -0.00037769652380183937 0 0.048461203863804966 -0.00015170008317572916 0 0.048662290530198403 -0.0001290610587668338 0 0.047666683758435344 0.00048259381258721368 0 0.048832455227369065 -2.5009020389333529e-05 0 0.048461203863804966 -0.00015170008317572916 0 0.048204597257302015 5.1417975854859829e-05 0 0.031832712625209363 0.0057654159984267201 0 0.03248535417783819 0.0053144794249302546 0 0.032207682390826567 0.0060834129978507429 0 0.031832712625209363 0.0057654159984267201 0 0.032207682390826567 0.0060834129978507429 0 0.031830476738691285 0.0064043702462397486 0 0.031832712625209363 0.0057654159984267201 0 0.031830476738691285 0.0064043702462397486 0 0.031421550728491794 0.0061605609076515579 0 0.031832712625209363 0.0057654159984267201 0 0.031845737998404289 0.0053011553992967815 0 0.03248535417783819 0.0053144794249302546 0 0.03383015632949183 0.0094377129365167643 0 0.03718756367567419 0.007444103343703292 0 0.04447114785791121 5.7136276410875237e-05 0 0.043970772371465114 0.0014292546901939784 0 0.044764102808461464 0.0012802772537767314 0 0.03718756367567419 0.007444103343703292 0 0.03833218022114368 0.0027388291133289577 0 0.04447114785791121 5.7136276410875237e-05 0 0.044764102808461464 0.0012802772537767314 0 0.045076625184648521 0.00073597659135526408 0 0.043970772371465114 0.0014292546901939784 0 0.044764102808461464 0.0012802772537767314 0 0.044859795709855127 0.0018467493582665715 0 0.046616899001324062 0.00071547785619584399 0 0.046341030077120253 0.001025004573931982 0 0.045476566659736629 0.0015912971171784228 0 0.045076625184648521 0.00073597659135526408 0 0.045767425984166242 0.00029316959440277567 0 0.045476566659736629 0.0015912971171784228 0 0.043964685282699839 0.0015574676433246747 0 0.046147135215060572 0.0010428387183438316 0 0.044764102808461464 0.0012802772537767314 0 0.045076625184648521 0.00073597659135526408 0 0.045476566659736629 0.0015912971171784228 0 0.046341030077120253 0.001025004573931982 0 0.046362823498999159 0.0012032109594895986 0 0.045476566659736629 0.0015912971171784228 0 0.046362823498999159 0.0012032109594895986 0 0.046066865824403364 0.0015670177429966522 0 0.045476566659736629 0.0015912971171784228 0 0.04447114785791121 5.7136276410875237e-05 0 0.045767425984166242 0.00029316959440277567 0 0.045826981173681135 0.00013262884404125489 0 0.03718756367567419 0.007444103343703292 0 0.040999661598542951 0.0054647022940014743 0 0.034549020424184375 0.013154831415056129 0 0.035374775722005231 0.01244934277680365 0 0.034255058055401272 0.012424141702407755 0 0.04447114785791121 5.7136276410875237e-05 0 0.045076625184648521 0.00073597659135526408 0 0.045767425984166242 0.00029316959440277567 0 0.0465047499195331 0.00086606348639366973 0 0.046616899001324062 0.00071547785619584399 0 0.046341030077120253 0.001025004573931982 0 0.047213886504855522 0.00081274941032173913 0 0.046852829253297361 0.00087171406320652887 0 0.046466170417652969 0.00088238211665398586 0 0.0465047499195331 0.00086606348639366973 0 0.046511512285465982 0.00084818972219353821 0 0.046582638778150991 0.00093038280528026467 0 0.046511512285465982 0.00084818972219353821 0 0.046616899001324062 0.00071547785619584399 0 0.046466170417652969 0.00088238211665398586 0 0.0465047499195331 0.00086606348639366973 0 0.046511512285465982 0.00084818972219353821 0 0.046616899001324062 0.00071547785619584399 0 0.046616899001324062 0.00071547785619584399 0 0.046860277123581061 0.00085236371650457613 0 0.046466170417652969 0.00088238211665398586 0 0.043964685282699839 0.0015574676433246747 0 0.040999661598542951 0.0054647022940014743 0 0.046852829253297361 0.00087171406320652887 0 0.046511512285465982 0.00084818972219353821 0 0.046466170417652969 0.00088238211665398586 0 0.046852829253297361 0.00087171406320652887 0 0.046511512285465982 0.00084818972219353821 0 0.046582638778150991 0.00093038280528026467 0 0.046852829253297361 0.00087171406320652887 0 0.046881199370771731 0.00093701420326324089 0 0.046582638778150991 0.00093038280528026467 0 0.046727291016316869 0.0012033461211740345 0 0.046362823498999159 0.0012032109594895986 0 0.046066865824403364 0.0015670177429966522 0 0.046881199370771731 0.00093701420326324089 0 0.046642834813922548 0.0010705127983592392 0 0.046582638778150991 0.00093038280528026467 0 0.046642834813922548 0.0010705127983592392 0 0.046582638778150991 0.00093038280528026467 0 0.046362823498999159 0.0012032109594895986 0 0.046582638778150991 0.00093038280528026467 0 0.046341030077120253 0.001025004573931982 0 0.046362823498999159 0.0012032109594895986 0 0.0465047499195331 0.00086606348639366973 0 0.046582638778150991 0.00093038280528026467 0 0.046341030077120253 0.001025004573931982 0 0.046727291016316869 0.0012033461211740345 0 0.046642834813922548 0.0010705127983592392 0 0.046362823498999159 0.0012032109594895986 0 0.046727291016316869 0.0012033461211740345 0 0.045815590823338498 0.0018618343288295386 0 0.044078730423406987 0.0015082642280047373 0 0.046727291016316869 0.0012033461211740345 0 0.045879215898803671 0.0020747180350753945 0 0.046066865824403364 0.0015670177429966522 0 0.046564790625639958 0.0012372971879327484 0 0.044866277012296868 0.0018326617396002664 0 0.04493269270374995 0.0021172006840057948 0 0.045815590823338498 0.0018618343288295386 0 0.044078730423406987 0.0015082642280047373 0 0.04493269270374995 0.0021172006840057948 0 0.045291325240622834 0.0025558416754944825 0 0.044281883886566925 0.0027617266838124957 0 0.04493269270374995 0.0021172006840057948 0 0.045815590823338498 0.0018618343288295386 0 0.045291325240622834 0.0025558416754944825 0 0.046864062192833698 0.0023161502770180508 0 0.045815590823338498 0.0018618343288295386 0 0.045291325240622834 0.0025558416754944825 0 0.045466229115102119 0.00018822273010132539 0 0.04290182235887785 0.0010806973646824069 0 0.043249284292955818 0.0017458004822231731 0 0.046046878773664306 0.0012688649818186136 0 0.043886640352319838 0.0028652992380994303 0 0.046864062192833698 0.0023161502770180508 0 0.045291325240622834 0.0025558416754944825 0 0.044243202324195569 0.0040810580063916635 0 0.044712532936623708 -0.0030532238143353169 0 0.039276444048891461 -0.0032683823941797511 0 0.045291325240622834 0.0025558416754944825 0 0.044281883886566925 0.0027617266838124957 0 0.044243202324195569 0.0040810580063916635 0 0.044281883886566925 0.0027617266838124957 0 0.043683644901834545 0.0033554780896667092 0 0.042853609890922545 0.0028444669859815563 0 0.044281883886566925 0.0027617266838124957 0 0.043683644901834545 0.0033554780896667092 0 0.044243202324195569 0.0040810580063916635 0 0.044243202324195569 0.0040810580063916635 0 0.04179886995405227 0.0045084295425868266 0 0.039840506861569938 0.0062531562801836195 0 0.043683644901834545 0.0033554780896667092 0 0.044243202324195569 0.0040810580063916635 0 0.04282979710747184 0.0035947433592830986 0 0.044243202324195569 0.0040810580063916635 0 0.04282979710747184 0.0035947433592830986 0 0.04179886995405227 0.0045084295425868266 0 0.04282979710747184 0.0035947433592830986 0 0.041581328464146368 0.0036286356460971075 0 0.04179886995405227 0.0045084295425868266 0 0.04282979710747184 0.0035947433592830986 0 0.042853609890922545 0.0028444669859815563 0 0.041581328464146368 0.0036286356460971075 0 0.043683644901834545 0.0033554780896667092 0 0.04282979710747184 0.0035947433592830986 0 0.042853609890922545 0.0028444669859815563 0 0.044866277012296868 0.0018326617396002664 0 0.042388487417628358 0.0027777439586499746 0 0.042853609890922545 0.0028444669859815563 0 0.044078730423406987 0.0015082642280047373 0 0.04006541443353337 0.0027046218162650269 0 0.045879215898803671 0.0020747180350753945 0 0.044859795709855127 0.0018467493582665715 0 0.044244173483599242 0.0029066972832569099 0 0.04493269270374995 0.0021172006840057948 0 0.044281883886566925 0.0027617266838124957 0 0.044078730423406987 0.0015082642280047373 0 0.044281883886566925 0.0027617266838124957 0 0.042853609890922545 0.0028444669859815563 0 0.044078730423406987 0.0015082642280047373 0 0.045879215898803671 0.0020747180350753945 0 0.046066865824403364 0.0015670177429966522 0 0.045476566659736629 0.0015912971171784228 0 0.044764102808461464 0.0012802772537767314 0 0.045476566659736629 0.0015912971171784228 0 0.044859795709855127 0.0018467493582665715 0 0.045879215898803671 0.0020747180350753945 0 0.045476566659736629 0.0015912971171784228 0 0.044859795709855127 0.0018467493582665715 0 0.043970772371465114 0.0014292546901939784 0 0.044244173483599242 0.0029066972832569099 0 0.043338344658881846 0.0033001992745829247 0 0.043970772371465114 0.0014292546901939784 0 0.044859795709855127 0.0018467493582665715 0 0.044244173483599242 0.0029066972832569099 0 0.041581328464146368 0.0036286356460971075 0 0.040267094305887215 0.0045568827435150932 0 0.04006541443353337 0.0027046218162650269 0 0.042853609890922545 0.0028444669859815563 0 0.041581328464146368 0.0036286356460971075 0 0.04006541443353337 0.0027046218162650269 0 0.041581328464146368 0.0036286356460971075 0 0.04179886995405227 0.0045084295425868266 0 0.040267094305887215 0.0045568827435150932 0 0.04179886995405227 0.0045084295425868266 0 0.040267094305887215 0.0045568827435150932 0 0.039840506861569938 0.0062531562801836195 0 0.040267094305887215 0.0045568827435150932 0 0.04006541443353337 0.0027046218162650269 0 0.038648937028610296 0.0045200777641967024 0 0.040267094305887215 0.0045568827435150932 0 0.038648937028610296 0.0045200777641967024 0 0.039037495509910244 0.0054720859175567673 0 0.04006541443353337 0.0027046218162650269 0 0.03755785869391521 0.0036233593069284276 0 0.038648937028610296 0.0045200777641967024 0 0.042388487417628358 0.0027777439586499746 0 0.037827669765979212 0.0052588740967175907 0 0.031948097017403469 0.0068605309130928029 0 0.031597991666140149 0.0070012630888438088 0 0.031830476738691285 0.0064043702462397486 0 0.038648937028610296 0.0045200777641967024 0 0.035333075150066125 0.0045484938475709152 0 0.037511842310124104 0.0056318903671017965 0 0.03755785869391521 0.0036233593069284276 0 0.038648937028610296 0.0045200777641967024 0 0.035333075150066125 0.0045484938475709152 0 0.038648937028610296 0.0045200777641967024 0 0.037511842310124104 0.0056318903671017965 0 0.039037495509910244 0.0054720859175567673 0 0.037827669765979212 0.0052588740967175907 0 0.0244759475406396 0.0069391619496096619 0 0.03833218022114368 0.0027388291133289577 0 0.037827669765979212 0.0052588740967175907 0 0.031597991666140149 0.0070012630888438088 0 0.031830476738691285 0.0064043702462397486 0 0.031421550728491794 0.0061605609076515579 0 0.032207682390826567 0.0060834129978507429 0 0.031948097017403469 0.0068605309130928029 0 0.031830476738691285 0.0064043702462397486 0 0.029030295504198427 -0.0045247189677203132 0 0.030392385743703752 -0.0025091588861813189 0 0.027971283799540513 -8.4876694365977075e-05 0 0.026873192020361359 -0.004808869535608014 0 0.029030295504198427 -0.0045247189677203132 0 0.027971283799540513 -8.4876694365977075e-05 0 0.026225393527878105 0.0031511223868057074 0 0.024617514595539038 0.0021521204259644516 0 0.020850353058447766 0.0043599269509780065 0 0.021851990887925832 0.0059210817196864727 0 0.020270993067713967 0.0059486760314014318 0 0.036060225999584236 0.0078884070752881872 0 0.038855276340554225 0.0064482433363008476 0 0.039826461392814767 0.0062933220480983236 0 0.026873192020361359 -0.004808869535608014 0 0.029030295504198427 -0.0045247189677203132 0 0.030252087905948667 -0.0064063492768812692 0 0.026225393527878105 0.0031511223868057074 0 0.037509669845296127 0.0013718361524214923 0 0.0244759475406396 0.0069391619496096619 0 0.026225393527878105 0.0031511223868057074 0 0.035333075150066125 0.0045484938475709152 0 0.036060225999584236 0.0078884070752881872 0 0.037511842310124104 0.0056318903671017965 0 0.036060225999584236 0.0078884070752881872 0 0.037511842310124104 0.0056318903671017965 0 0.038855276340554225 0.0064482433363008476 0 0.037511842310124104 0.0056318903671017965 0 0.038855276340554225 0.0064482433363008476 0 0.039037495509910244 0.0054720859175567673 0 0.029030295504198427 -0.0045247189677203132 0 0.030368959721674898 -0.0052527014021951767 0 0.031225858848206972 -0.0045276553063460174 0 0.029030295504198427 -0.0045247189677203132 0 0.030368959721674898 -0.0052527014021951767 0 0.030252087905948667 -0.0064063492768812692 0 0.030368959721674898 -0.0052527014021951767 0 0.030252087905948667 -0.0064063492768812692 0 0.030972321541634311 -0.0055630125704030165 0 0.030368959721674898 -0.0052527014021951767 0 0.030972321541634311 -0.0055630125704030165 0 0.031225858848206972 -0.0045276553063460174 0 0.038855276340554225 0.0064482433363008476 0 0.039840506861569938 0.0062531562801836195 0 0.039037495509910244 0.0054720859175567673 0 0.038101348981036183 0.0022153153682259092 0 0.037509669845296127 0.0013718361524214923 0 0.040267094305887215 0.0045568827435150932 0 0.039840506861569938 0.0062531562801836195 0 0.039037495509910244 0.0054720859175567673 0 0.030252087905948667 -0.0064063492768812692 0 0.032443959461233143 -0.0061212510993706275 0 0.030972321541634311 -0.0055630125704030165 0 0.032443959461233143 -0.0061212510993706275 0 0.031225858848206972 -0.0045276553063460174 0 0.033511135926923896 -0.004745627261418253 0 0.032443959461233143 -0.0061212510993706275 0 0.030972321541634311 -0.0055630125704030165 0 0.031225858848206972 -0.0045276553063460174 0 0.031225858848206972 -0.0045276553063460174 0 0.030392385743703752 -0.0025091588861813189 0 0.032498037511854615 -0.0028599888903750206 0 0.031225858848206972 -0.0045276553063460174 0 0.032498037511854615 -0.0028599888903750206 0 0.033511135926923896 -0.004745627261418253 0 0.029030295504198427 -0.0045247189677203132 0 0.031225858848206972 -0.0045276553063460174 0 0.030392385743703752 -0.0025091588861813189 0 0.030392385743703752 -0.0025091588861813189 0 0.032498037511854615 -0.0028599888903750206 0 0.031591589351869148 -0.0006342609413959229 0 0.033987144397614556 -0.0012260056206439918 0 0.032498037511854615 -0.0028599888903750206 0 0.031591589351869148 -0.0006342609413959229 0 0.033987144397614556 -0.0012260056206439918 0 0.035069787012598309 -0.0031547194136153779 0 0.032498037511854615 -0.0028599888903750206 0 0.033987144397614556 -0.0012260056206439918 0 0.035069787012598309 -0.0031547194136153779 0 0.037083081866044289 -0.0010171864580232638 0 0.035069787012598309 -0.0031547194136153779 0 0.032498037511854615 -0.0028599888903750206 0 0.033511135926923896 -0.004745627261418253 0 0.043886640352319838 0.0028652992380994303 0 0.037509669845296127 0.0013718361524214923 0 0.037509669845296127 0.0013718361524214923 0 0.039276444048891461 -0.0032683823941797511 0 0.04290182235887785 0.0010806973646824069 0 0.039960469855216431 0.0022581765885390736 0 0.043249284292955818 0.0017458004822231731 0 0.030252087905948667 -0.0064063492768812692 0 0.032443959461233143 -0.0061212510993706275 0 0.036230676639883393 -0.0076061140520628911 0 0.032443959461233143 -0.0061212510993706275 0 0.034481038682889244 -0.0059265118751852747 0 0.036230676639883393 -0.0076061140520628911 0 0.032443959461233143 -0.0061212510993706275 0 0.033511135926923896 -0.004745627261418253 0 0.034481038682889244 -0.0059265118751852747 0 0.034481038682889244 -0.0059265118751852747 0 0.035782189404489788 -0.0052510228060252259 0 0.036230676639883393 -0.0076061140520628911 0 0.035069787012598309 -0.0031547194136153779 0 0.033511135926923896 -0.004745627261418253 0 0.035782189404489788 -0.0052510228060252259 0 0.033511135926923896 -0.004745627261418253 0 0.034481038682889244 -0.0059265118751852747 0 0.035782189404489788 -0.0052510228060252259 0 0.040060580019138883 -0.0060886662601913099 0 0.037706239532972308 -0.0040120154572451574 0 0.040074339540006866 -0.0027041910506837969 0 0.035782189404489788 -0.0052510228060252259 0 0.037439507402047933 -0.0057087590380475737 0 0.037706239532972308 -0.0040120154572451574 0 0.043468994916699644 -0.007567188162633777 0 0.036230676639883393 -0.0076061140520628911 0 0.040060580019138883 -0.0060886662601913099 0 0.037439507402047933 -0.0057087590380475737 0 0.036230676639883393 -0.0076061140520628911 0 0.040060580019138883 -0.0060886662601913099 0 0.035782189404489788 -0.0052510228060252259 0 0.037439507402047933 -0.0057087590380475737 0 0.036230676639883393 -0.0076061140520628911 0 0.037439507402047933 -0.0057087590380475737 0 0.040060580019138883 -0.0060886662601913099 0 0.037706239532972308 -0.0040120154572451574 0 0.037083081866044289 -0.0010171864580232638 0 0.040074339540006866 -0.0027041910506837969 0 0.040793040003324572 0.00091380154309433762 0 0.037706239532972308 -0.0040120154572451574 0 0.037083081866044289 -0.0010171864580232638 0 0.040074339540006866 -0.0027041910506837969 0 0.035069787012598309 -0.0031547194136153779 0 0.037706239532972308 -0.0040120154572451574 0 0.037083081866044289 -0.0010171864580232638 0 0.035069787012598309 -0.0031547194136153779 0 0.035782189404489788 -0.0052510228060252259 0 0.037706239532972308 -0.0040120154572451574 0 0.037083081866044289 -0.0010171864580232638 0 0.036940743894005097 0.0021694241282599761 0 0.034158511896392303 0.00083856127592968658 0 0.037083081866044289 -0.0010171864580232638 0 0.036940743894005097 0.0021694241282599761 0 0.040793040003324572 0.00091380154309433762 0 0.036940743894005097 0.0021694241282599761 0 0.035702596953871603 0.0040170179559453501 0 0.03795946907454318 0.0046933659183736008 0 0.036940743894005097 0.0021694241282599761 0 0.035702596953871603 0.0040170179559453501 0 0.033512375440753868 0.0031164356787755088 0 0.035702596953871603 0.0040170179559453501 0 0.033512375440753868 0.0031164356787755088 0 0.034390001914238813 0.005893798933465727 0 0.036940743894005097 0.0021694241282599761 0 0.033512375440753868 0.0031164356787755088 0 0.034158511896392303 0.00083856127592968658 0 0.033512375440753868 0.0031164356787755088 0 0.030866384525841457 0.0018661617572053484 0 0.031067350348441079 0.0051869719079075125 0 0.033512375440753868 0.0031164356787755088 0 0.034158511896392303 0.00083856127592968658 0 0.030866384525841457 0.0018661617572053484 0 0.034158511896392303 0.00083856127592968658 0 0.031591589351869148 -0.0006342609413959229 0 0.030866384525841457 0.0018661617572053484 0 0.033987144397614556 -0.0012260056206439918 0 0.037083081866044289 -0.0010171864580232638 0 0.034158511896392303 0.00083856127592968658 0 0.033987144397614556 -0.0012260056206439918 0 0.034158511896392303 0.00083856127592968658 0 0.031591589351869148 -0.0006342609413959229 0 0.031591589351869148 -0.0006342609413959229 0 0.030866384525841457 0.0018661617572053484 0 0.027971283799540513 -8.4876694365977075e-05 0 0.030392385743703752 -0.0025091588861813189 0 0.031591589351869148 -0.0006342609413959229 0 0.027971283799540513 -8.4876694365977075e-05 0 0.030866384525841457 0.0018661617572053484 0 0.02862512663947463 0.0039805868283595636 0 0.031067350348441079 0.0051869719079075125 0 0.030866384525841457 0.0018661617572053484 0 0.02862512663947463 0.0039805868283595636 0 0.027971283799540513 -8.4876694365977075e-05 0 0.023824792638805273 0.0061290728844407352 0 0.021851990887925832 0.0059210817196864727 0 0.022106201393934648 0.0064943107615330359 0 0.023824792638805273 0.0061290728844407352 0 0.022106201393934648 0.0064943107615330359 0 0.022586107025561172 0.0064750462719671458 0 0.026352304484215015 0.0054832870931824261 0 0.024617514595539038 0.0021521204259644516 0 0.021851990887925832 0.0059210817196864727 0 0.020270993067713967 0.0059486760314014318 0 0.022106201393934648 0.0064943107615330359 0 0.048360397790744324 -0.0030494777762350316 0 0.047451513172850471 -0.0040509534800050309 0 0.047135774026115608 -0.0027911284342719903 0 0.048360397790744324 -0.0030494777762350316 0 0.049323657871442578 -0.0036268565146157766 0 0.049514878955132589 -0.002457925389260705 0 0.048360397790744324 -0.0030494777762350316 0 0.049323657871442578 -0.0036268565146157766 0 0.047451513172850471 -0.0040509534800050309 0 0.047731742872391937 -0.0058977496410691273 0 0.049323657871442578 -0.0036268565146157766 0 0.047451513172850471 -0.0040509534800050309 0 0.047731742872391937 -0.0058977496410691273 0 0.047451513172850471 -0.0040509534800050309 0 0.046068117721953579 -0.0055094905901638142 0 0.043468994916699644 -0.007567188162633777 0 0.044827359989869961 -0.0038453820273306322 0 0.046068117721953579 -0.0055094905901638142 0 0.047451513172850471 -0.0040509534800050309 0 0.044827359989869961 -0.0038453820273306322 0 0.046068117721953579 -0.0055094905901638142 0 0.040060580019138883 -0.0060886662601913099 0 0.044827359989869961 -0.0038453820273306322 0 0.040074339540006866 -0.0027041910506837969 0 0.043468994916699644 -0.007567188162633777 0 0.040060580019138883 -0.0060886662601913099 0 0.044827359989869961 -0.0038453820273306322 0 0.044840785671013926 -0.0038120934350270382 0 0.044183302150452061 -0.0014264173487568558 0 0.044827359989869961 -0.0038453820273306322 0 0.040074339540006866 -0.0027041910506837969 0 0.040793040003324572 0.00091380154309433762 0 0.044827359989869961 -0.0038453820273306322 0 0.047135774026115608 -0.0027911284342719903 0 0.0472733425566631 -0.0027735139380798157 0 0.047451513172850471 -0.0040509534800050309 0 0.044827359989869961 -0.0038453820273306322 0 0.047135774026115608 -0.0027911284342719903 0 0.047135774026115608 -0.0027911284342719903 0 0.0472733425566631 -0.0027735139380798157 0 0.04782339965955041 -0.0033540998026024911 0 0.0472733425566631 -0.0027735139380798157 0 0.04782339965955041 -0.0033540998026024911 0 0.048920348482722753 -0.0038650139397865021 0 0.044183302150452061 -0.0014264173487568558 0 0.042953645422712003 0.0012339676149621004 0 0.036940743894005097 0.0021694241282599761 0 0.040793040003324572 0.00091380154309433762 0 0.03795946907454318 0.0046933659183736008 0 0.047135774026115608 -0.0027911284342719903 0 0.04782339965955041 -0.0033540998026024911 0 0.04795105540206232 -0.0026273490348168336 0 0.04795105540206232 -0.0026273490348168336 0 0.049514878955132589 -0.002457925389260705 0 0.049423523984823449 -0.0020924026139481264 0 0.048360397790744324 -0.0030494777762350316 0 0.047135774026115608 -0.0027911284342719903 0 0.04795105540206232 -0.0026273490348168336 0 0.048360397790744324 -0.0030494777762350316 0 0.04795105540206232 -0.0026273490348168336 0 0.049514878955132589 -0.002457925389260705 0 0.050532461009021729 -0.0018869724364010559 0 0.049514878955132589 -0.002457925389260705 0 0.049423523984823449 -0.0020924026139481264 0 0.050532461009021729 -0.0018869724364010559 0 0.050463064164912995 -0.0021610897578634622 0 0.049514878955132589 -0.002457925389260705 0 0.050532461009021729 -0.0018869724364010559 0 0.050463064164912995 -0.0021610897578634622 0 0.051344174190837463 -0.0016845509165848889 0 0.049323657871442578 -0.0036268565146157766 0 0.049514878955132589 -0.002457925389260705 0 0.050475431621179533 -0.0026844748124140705 0 0.050463064164912995 -0.0021610897578634622 0 0.049514878955132589 -0.002457925389260705 0 0.050475431621179533 -0.0026844748124140705 0 0.050463064164912995 -0.0021610897578634622 0 0.050475431621179533 -0.0026844748124140705 0 0.051344174190837463 -0.0016845509165848889 0 0.050475431621179533 -0.0026844748124140705 0 0.050631187539723649 -0.0031975669626739282 0 0.051333616384739454 -0.0021740298598797642 0 0.049323657871442578 -0.0036268565146157766 0 0.050631187539723649 -0.0031975669626739282 0 0.049564805106254342 -0.0046518543954207851 0 0.049323657871442578 -0.0036268565146157766 0 0.050475431621179533 -0.0026844748124140705 0 0.050631187539723649 -0.0031975669626739282 0 0.052055263823561196 -0.001718148657518224 0 0.052717388769179807 -0.0007076855555400275 0 0.052906387023385619 -0.00043643064457243375 0 0.052055263823561196 -0.001718148657518224 0 0.052018198421023266 -0.0013729316443337922 0 0.052717388769179807 -0.0007076855555400275 0 0.052094896514734243 -0.0014932135504970247 0 0.052155557791923567 -0.0010963197471416401 0 0.052055263823561196 -0.001718148657518224 0 0.051946077004721126 -0.0021885730693909987 0 0.051882539463416928 -0.0023325551589526224 0 0.052055263823561196 -0.001718148657518224 0 0.051333616384739454 -0.0021740298598797642 0 0.051537696645058639 -0.0025815742991802532 0 0.050631187539723649 -0.0031975669626739282 0 0.051333616384739454 -0.0021740298598797642 0 0.051537696645058639 -0.0025815742991802532 0 0.052055263823561196 -0.001718148657518224 0 0.051333616384739454 -0.0021740298598797642 0 0.052018198421023266 -0.0013729316443337922 0 0.050475431621179533 -0.0026844748124140705 0 0.051333616384739454 -0.0021740298598797642 0 0.051344174190837463 -0.0016845509165848889 0 0.051333616384739454 -0.0021740298598797642 0 0.051344174190837463 -0.0016845509165848889 0 0.052018198421023266 -0.0013729316443337922 0 0.051344174190837463 -0.0016845509165848889 0 0.052018198421023266 -0.0013729316443337922 0 0.052549358408777523 -0.00074607086013609748 0 0.052018198421023266 -0.0013729316443337922 0 0.052549358408777523 -0.00074607086013609748 0 0.052717388769179807 -0.0007076855555400275 0 0.051344174190837463 -0.0016845509165848889 0 0.052549358408777523 -0.00074607086013609748 0 0.051805007782114991 -0.0013228625000522146 0 0.050532461009021729 -0.0018869724364010559 0 0.051344174190837463 -0.0016845509165848889 0 0.051805007782114991 -0.0013228625000522146 0 0.050532461009021729 -0.0018869724364010559 0 0.051805007782114991 -0.0013228625000522146 0 0.050640988115296534 -0.0017755482202055073 0 0.051805007782114991 -0.0013228625000522146 0 0.053177693055619264 -0.00042078347930794185 0 0.052682104533069797 -0.0011445626131927336 0 0.053449361358966108 -0.00031688453025254795 0 0.054407483168637708 2.0847863526815566e-05 0 0.053177693055619264 -0.00042078347930794185 0 0.052682104533069797 -0.0011445626131927336 0 0.053663837950832176 -0.0012416916696856935 0 0.053177693055619264 -0.00042078347930794185 0 0.054007011278052755 0.00094797787023010154 0 0.054753778892924383 0.0012921609419978693 0 0.053177693055619264 -0.00042078347930794185 0 0.054217221323528596 -0.0011724126005891468 0 0.053663837950832176 -0.0012416916696856935 0 0.053177693055619264 -0.00042078347930794185 0 0.054007011278052755 0.00094797787023010154 0 0.053267350897624674 9.8195374701563347e-05 0 0.052549358408777523 -0.00074607086013609748 0 0.051805007782114991 -0.0013228625000522146 0 0.053177693055619264 -0.00042078347930794185 0 0.052549358408777523 -0.00074607086013609748 0 0.053177693055619264 -0.00042078347930794185 0 0.053267350897624674 9.8195374701563347e-05 0 0.05499948952411416 0.00020270765138094709 0 0.054753778892924383 0.0012921609419978693 0 0.054982037721176415 0.0020463419812236181 0 0.054999442550454282 0.0002003269471252108 0 0.054407483168637708 2.0847863526815566e-05 0 0.054007011278052755 0.00094797787023010154 0 0.054753778892924383 0.0012921609419978693 0 0.054982037721176415 0.0020463419812236181 0 0.054007011278052755 0.00094797787023010154 0 0.054982037721176415 0.0020463419812236181 0 0.054446095058832814 0.0022169957428427108 0 0.05499948952411416 0.00020270765138094709 0 0.054982037721176415 0.0020463419812236181 0 0.054998265812993198 0.0033134577519871706 0 0.054982037721176415 0.0020463419812236181 0 0.054998265812993198 0.0033134577519871706 0 0.054881535444443408 0.0033173279560798647 0 0.054998265812993198 0.0033134577519871706 0 0.054881535444443408 0.0033173279560798647 0 0.055000523372502552 0.0052099555526120408 0 0.054881535444443408 0.0033173279560798647 0 0.054375934933588131 0.0031207519744834091 0 0.055000523372502552 0.0052099555526120408 0 0.054982037721176415 0.0020463419812236181 0 0.054881535444443408 0.0033173279560798647 0 0.054446095058832814 0.0022169957428427108 0 0.054881535444443408 0.0033173279560798647 0 0.054446095058832814 0.0022169957428427108 0 0.054375934933588131 0.0031207519744834091 0 0.054446095058832814 0.0022169957428427108 0 0.053992134597643536 0.0018909770800220611 0 0.054375934933588131 0.0031207519744834091 0 0.054007011278052755 0.00094797787023010154 0 0.054446095058832814 0.0022169957428427108 0 0.053914625497843115 0.0013755419053372905 0 0.054446095058832814 0.0022169957428427108 0 0.053914625497843115 0.0013755419053372905 0 0.053992134597643536 0.0018909770800220611 0 0.053992134597643536 0.0018909770800220611 0 0.053726556828590954 0.0013983163668491515 0 0.053568249243076717 0.00094532636144980316 0 0.053914625497843115 0.0013755419053372905 0 0.053992134597643536 0.0018909770800220611 0 0.053568249243076717 0.00094532636144980316 0 0.053992134597643536 0.0018909770800220611 0 0.053726556828590954 0.0013983163668491515 0 0.053952664486741762 0.0020291069874134606 0 0.053726556828590954 0.0013983163668491515 0 0.053952664486741762 0.0020291069874134606 0 0.053793481159123566 0.0013771164231242722 0 0.053952664486741762 0.0020291069874134606 0 0.054176349048463864 0.0025447629381214112 0 0.053975925932165422 0.0018533415023906869 0 0.053992134597643536 0.0018909770800220611 0 0.053952664486741762 0.0020291069874134606 0 0.054375934933588131 0.0031207519744834091 0 0.055003786521101605 0.0051588354158346858 0 0.05489729899296613 0.0047653036659122162 0 0.054330070048562967 0.0028992646869827532 0 0.055000523372502552 0.0052099555526120408 0 0.054498612544179266 0.00093162917970611285 0 0.054999994880010158 0.0064268977867124443 0 0.055000005528088251 0.0052196337250199048 0 0.055359924972934099 0.0084350979992155201 0 0.053952664486741762 0.0020291069874134606 0 0.054375934933588131 0.0031207519744834091 0 0.054176349048463864 0.0025447629381214112 0 0.054375934933588131 0.0031207519744834091 0 0.054176349048463864 0.0025447629381214112 0 0.054330070048562967 0.0028992646869827532 0 0.054176349048463864 0.0025447629381214112 0 0.054330070048562967 0.0028992646869827532 0 0.054125240537406888 0.0020553895120406949 0 0.054375934933588131 0.0031207519744834091 0 0.054330070048562967 0.0028992646869827532 0 0.055000523372502552 0.0052099555526120408 0 0.052549358408777523 -0.00074607086013609748 0 0.053267350897624674 9.8195374701563347e-05 0 0.053117061751568946 -6.2157804353341861e-05 0 0.053117061751568946 -6.2157804353341861e-05 0 0.052717388769179807 -0.0007076855555400275 0 0.05319038770795223 0.0001137220957655808 0 0.053117061751568946 -6.2157804353341861e-05 0 0.053520343695768115 0.00061686503900418115 0 0.05319038770795223 0.0001137220957655808 0 0.052549358408777523 -0.00074607086013609748 0 0.053117061751568946 -6.2157804353341861e-05 0 0.052717388769179807 -0.0007076855555400275 0 0.054007011278052755 0.00094797787023010154 0 0.053267350897624674 9.8195374701563347e-05 0 0.053520343695768115 0.00061686503900418115 0 0.053267350897624674 9.8195374701563347e-05 0 0.053117061751568946 -6.2157804353341861e-05 0 0.053520343695768115 0.00061686503900418115 0 0.054007011278052755 0.00094797787023010154 0 0.053914625497843115 0.0013755419053372905 0 0.053520343695768115 0.00061686503900418115 0 0.053914625497843115 0.0013755419053372905 0 0.053520343695768115 0.00061686503900418115 0 0.053568249243076717 0.00094532636144980316 0 0.053520343695768115 0.00061686503900418115 0 0.053568249243076717 0.00094532636144980316 0 0.05319038770795223 0.0001137220957655808 0 0.053568249243076717 0.00094532636144980316 0 0.053313249896977624 0.00041236729478104838 0 0.05319038770795223 0.0001137220957655808 0 0.053726556828590954 0.0013983163668491515 0 0.05352136916011048 0.00089273408343899644 0 0.053657261987557998 0.0010727950978677136 0 0.053726556828590954 0.0013983163668491515 0 0.053568249243076717 0.00094532636144980316 0 0.05352136916011048 0.00089273408343899644 0 0.053568249243076717 0.00094532636144980316 0 0.05352136916011048 0.00089273408343899644 0 0.053313249896977624 0.00041236729478104838 0 0.052717388769179807 -0.0007076855555400275 0 0.05319038770795223 0.0001137220957655808 0 0.052906387023385619 -0.00043643064457243375 0 0.053313249896977624 0.00041236729478104838 0 0.05319038770795223 0.0001137220957655808 0 0.052906387023385619 -0.00043643064457243375 0 0.051946077004721126 -0.0021885730693909987 0 0.05168707163808834 -0.0021565679167681265 0 0.051836490373621945 -0.0020947403561389602 0 0.052155557791923567 -0.0010963197471416401 0 0.054282460946129908 -0.00042719549159371512 0 0.053313249896977624 0.00041236729478104838 0 0.052906387023385619 -0.00043643064457243375 0 0.05331503837804466 0.00039695631146483457 0 0.054282460946129908 -0.00042719549159371512 0 0.054709684239245895 0.001055605429965234 0 0.053400339921974738 0.00061922018693968321 0 0.053657261987557998 0.0010727950978677136 0 0.053893077474754733 0.0011029358663917415 0 0.053419278572956676 0.00063320109617593322 0 0.053400339921974738 0.00061922018693968321 0 0.053893077474754733 0.0011029358663917415 0 0.05352136916011048 0.00089273408343899644 0 0.053313249896977624 0.00041236729478104838 0 0.053400339921974738 0.00061922018693968321 0 0.053313249896977624 0.00041236729478104838 0 0.05331503837804466 0.00039695631146483457 0 0.053400339921974738 0.00061922018693968321 0 0.054282460946129908 -0.00042719549159371512 0 0.054065782684305508 -0.00010931279301960848 0 0.05352136916011048 0.00089273408343899644 0 0.053400339921974738 0.00061922018693968321 0 0.053657261987557998 0.0010727950978677136 0 0.056734319464748682 0.00072991567904190564 0 0.056798727012137576 0.0015191028931321464 0 0.055360549824114758 0.00086812462392119646 0 0.056951007494288948 -0.00022643253408624272 0 0.056734319464748682 0.00072991567904190564 0 0.055360549824114758 0.00086812462392119646 0 0.056798727012137576 0.0015191028931321464 0 0.055360549824114758 0.00086812462392119646 0 0.056116106998227805 0.0021734953636547909 0 0.05168707163808834 -0.0021565679167681265 0 0.051836490373621945 -0.0020947403561389602 0 0.051823891532774363 -0.0017392741543300315 0 0.054282460946129908 -0.00042719549159371512 0 0.054937908295591822 -0.00052063706801754321 0 0.056951007494288948 -0.00022643253408624272 0 0.057444685148096628 0.0010144715603728973 0 0.058414989765504015 0.0013712919647310142 0 0.056798727012137576 0.0015191028931321464 0 0.057444685148096628 0.0010144715603728973 0 0.057711602828099617 0.0018127016210771007 0 0.056734319464748682 0.00072991567904190564 0 0.056798727012137576 0.0015191028931321464 0 0.057444685148096628 0.0010144715603728973 0 0.057444685148096628 0.0010144715603728973 0 0.057711602828099617 0.0018127016210771007 0 0.058414989765504015 0.0013712919647310142 0 0.056951007494288948 -0.00022643253408624272 0 0.056734319464748682 0.00072991567904190564 0 0.057444685148096628 0.0010144715603728973 0 0.054330070048562967 0.0028992646869827532 0 0.054498612544179266 0.00093162917970611285 0 0.054125240537406888 0.0020553895120406949 0 0.054999994880010158 0.0064268977867124443 0 0.055359924972934099 0.0084350979992155201 0 0.054999993482750371 0.0095401268331381898 0 0.054125240537406888 0.0020553895120406949 0 0.053967974436626619 0.0013424055654153119 0 0.053975925932165422 0.0018533415023906869 0 0.054176349048463864 0.0025447629381214112 0 0.054125240537406888 0.0020553895120406949 0 0.053975925932165422 0.0018533415023906869 0 0.054498612544179266 0.00093162917970611285 0 0.054125240537406888 0.0020553895120406949 0 0.053967974436626619 0.0013424055654153119 0 0.053967974436626619 0.0013424055654153119 0 0.053793481159123566 0.0013771164231242722 0 0.053893077474754733 0.0011029358663917415 0 0.053657261987557998 0.0010727950978677136 0 0.053793481159123566 0.0013771164231242722 0 0.053893077474754733 0.0011029358663917415 0 0.053967974436626619 0.0013424055654153119 0 0.053975925932165422 0.0018533415023906869 0 0.053793481159123566 0.0013771164231242722 0 0.053952664486741762 0.0020291069874134606 0 0.053975925932165422 0.0018533415023906869 0 0.053793481159123566 0.0013771164231242722 0 0.053726556828590954 0.0013983163668491515 0 0.053657261987557998 0.0010727950978677136 0 0.053793481159123566 0.0013771164231242722 0 0.054709684239245895 0.001055605429965234 0 0.053901728888508436 0.0017601934596492297 0 0.053893077474754733 0.0011029358663917415 0 0.054067323911501777 0.0012655622835364391 0 0.053945602404028709 0.0018360174664386248 0 0.053967974436626619 0.0013424055654153119 0 0.053893077474754733 0.0011029358663917415 0 0.054067323911501777 0.0012655622835364391 0 0.05489729899296613 0.0047653036659122162 0 0.054686150198520876 0.0070775139991972472 0 0.054498612544179266 0.00093162917970611285 0 0.05361308814319074 0.0022808890522698884 0 0.053945602404028709 0.0018360174664386248 0 0.054498612544179266 0.00093162917970611285 0 0.054067323911501777 0.0012655622835364391 0 0.053945602404028709 0.0018360174664386248 0 0.055359924972934099 0.0084350979992155201 0 0.054999993482750371 0.0095401268331381898 0 0.055703465529330497 0.011647064973396241 0 0.054498612544179266 0.00093162917970611285 0 0.053967974436626619 0.0013424055654153119 0 0.054067323911501777 0.0012655622835364391 0 0.054999993482750371 0.0095401268331381898 0 0.055703465529330497 0.011647064973396241 0 0.054999988142184646 0.012653346117978165 0 0.05361308814319074 0.0022808890522698884 0 0.053945602404028709 0.0018360174664386248 0 0.054312230558611667 0.0022549910790929991 0 0.05361308814319074 0.0022808890522698884 0 0.054312230558611667 0.0022549910790929991 0 0.054449274635267962 0.0028756547865491319 0 0.055360549824114758 0.00086812462392119646 0 0.053945602404028709 0.0018360174664386248 0 0.054312230558611667 0.0022549910790929991 0 0.055360549824114758 0.00086812462392119646 0 0.054312230558611667 0.0022549910790929991 0 0.055169211150662964 0.0024776176579521031 0 0.055360549824114758 0.00086812462392119646 0 0.055169211150662964 0.0024776176579521031 0 0.056116106998227805 0.0021734953636547909 0 0.054312230558611667 0.0022549910790929991 0 0.055169211150662964 0.0024776176579521031 0 0.054449274635267962 0.0028756547865491319 0 0.055390666347874644 0.0049853896329458735 0 0.054912969144972693 0.0036844824140204379 0 0.056104440080720512 0.0034281146847298777 0 0.055169211150662964 0.0024776176579521031 0 0.054912969144972693 0.0036844824140204379 0 0.056104440080720512 0.0034281146847298777 0 0.054539767128320808 0.0047004001986864375 0 0.054912969144972693 0.0036844824140204379 0 0.054194617857364215 0.0037081217896043637 0 0.054912969144972693 0.0036844824140204379 0 0.054449274635267962 0.0028756547865491319 0 0.054194617857364215 0.0037081217896043637 0 0.055169211150662964 0.0024776176579521031 0 0.054912969144972693 0.0036844824140204379 0 0.054449274635267962 0.0028756547865491319 0 0.054902050287958151 0.009696302609289326 0 0.054686150198520876 0.0070775139991972472 0 0.056046073408633663 0.014856201461760888 0 0.055703465529330497 0.011647064973396241 0 0.054999988142184646 0.012653346117978165 0 0.053604165858136495 0.0052368349876116419 0 0.05361308814319074 0.0022808890522698884 0 0.054194617857364215 0.0037081217896043637 0 0.05361308814319074 0.0022808890522698884 0 0.054449274635267962 0.0028756547865491319 0 0.054194617857364215 0.0037081217896043637 0 0.057307375525068059 0.0027059385490419436 0 0.058594611648217332 0.0034850962250908483 0 0.058388357305920048 0.0024454856134422348 0 0.057307375525068059 0.0027059385490419436 0 0.057711602828099617 0.0018127016210771007 0 0.058388357305920048 0.0024454856134422348 0 0.056798727012137576 0.0015191028931321464 0 0.057307375525068059 0.0027059385490419436 0 0.057711602828099617 0.0018127016210771007 0 0.056798727012137576 0.0015191028931321464 0 0.057307375525068059 0.0027059385490419436 0 0.056116106998227805 0.0021734953636547909 0 0.055169211150662964 0.0024776176579521031 0 0.056116106998227805 0.0021734953636547909 0 0.056104440080720512 0.0034281146847298777 0 0.057307375525068059 0.0027059385490419436 0 0.056116106998227805 0.0021734953636547909 0 0.056104440080720512 0.0034281146847298777 0 0.056463993077051383 0.0050091046524429013 0 0.056104440080720512 0.0034281146847298777 0 0.057552384719834371 0.0040341763228110032 0 0.057307375525068059 0.0027059385490419436 0 0.056104440080720512 0.0034281146847298777 0 0.057552384719834371 0.0040341763228110032 0 0.057307375525068059 0.0027059385490419436 0 0.057552384719834371 0.0040341763228110032 0 0.058594611648217332 0.0034850962250908483 0 0.059042445014030352 0.0047762486432465284 0 0.057552384719834371 0.0040341763228110032 0 0.058594611648217332 0.0034850962250908483 0 0.058594611648217332 0.0034850962250908483 0 0.058388357305920048 0.0024454856134422348 0 0.059926128089370499 0.0030073517028350867 0 0.058594611648217332 0.0034850962250908483 0 0.059926128089370499 0.0030073517028350867 0 0.059497646491116066 0.0037952586310666912 0 0.059042445014030352 0.0047762486432465284 0 0.058594611648217332 0.0034850962250908483 0 0.059497646491116066 0.0037952586310666912 0 0.058388357305920048 0.0024454856134422348 0 0.059724366928321247 0.0028847962154997038 0 0.058414989765504015 0.0013712919647310142 0 0.051591821867326235 -0.0016486127395045206 0 0.051470218369231505 -0.0019548615165427873 0 0.051823891532774363 -0.0017392741543300315 0 0.056212619693317374 0.0015201245272229676 0 0.054937908295591822 -0.00052063706801754321 0 0.059845519983617611 0.0029436248289830915 0 0.056212619693317374 0.0015201245272229676 0 0.057711602828099617 0.0018127016210771007 0 0.058388357305920048 0.0024454856134422348 0 0.058414989765504015 0.0013712919647310142 0 0.051365512874432959 -0.0016107693243226232 0 0.051591821867326235 -0.0016486127395045206 0 0.051470218369231505 -0.0019548615165427873 0 0.051046343925075149 -0.0016342970956753748 0 0.051470218369231505 -0.0019548615165427873 0 0.050684213396386117 -0.002288794169420605 0 0.051046343925075149 -0.0016342970956753748 0 0.051365512874432959 -0.0016107693243226232 0 0.051306054640043439 -0.0013111830446339977 0 0.051046343925075149 -0.0016342970956753748 0 0.051365512874432959 -0.0016107693243226232 0 0.051470218369231505 -0.0019548615165427873 0 0.059042445014030352 0.0047762486432465284 0 0.059497646491116066 0.0037952586310666912 0 0.060467080084968504 0.003856019087395436 0 0.059042445014030352 0.0047762486432465284 0 0.060467080084968504 0.003856019087395436 0 0.06063380549508128 0.0038277004494871457 0 0.056212619693317374 0.0015201245272229676 0 0.057983461977917684 0.0068253160342235083 0 0.056212619693317374 0.0015201245272229676 0 0.053168616974393235 0.002306278995074225 0 0.059926128089370499 0.0030073517028350867 0 0.060467080084968504 0.003856019087395436 0 0.060634063361454202 0.0038325842379195447 0 0.056235572771499202 0.0031836881158625167 0 0.055881578533189348 0.0028184481576621827 0 0.055559188156889226 0.0029850271032117507 0 0.059926128089370499 0.0030073517028350867 0 0.059497646491116066 0.0037952586310666912 0 0.060467080084968504 0.003856019087395436 0 0.058438319407122692 0.0066409019868378287 0 0.057983461977917684 0.0068253160342235083 0 0.056688076895407905 0.0073187551897917931 0 0.056073281911646178 0.0066430334092292325 0 0.056581900477720298 0.0065437630561311494 0 0.057983461977917684 0.0068253160342235083 0 0.053168616974393235 0.002306278995074225 0 0.05671337665192433 0.0045518276002392138 0 0.053744199047447781 0.005007408828528865 0 0.055043827171773474 0.005428540977178012 0 0.057983461977917684 0.0068253160342235083 0 0.054067964461072419 0.0038612384157177657 0 0.052005265763377558 0.0013169012869158195 0 0.052801648749039545 0.0015725287906850289 0 0.0513258956474145 0.0023831210916446248 0 0.050684213396386117 -0.002288794169420605 0 0.05004531656975815 -0.0020244753544897032 0 0.050583325335217928 -0.0017443709077187802 0 0.053168616974393235 0.002306278995074225 0 0.050176351641138935 -0.00040732668390591948 0 0.054067964461072419 0.0038612384157177657 0 0.053168616974393235 0.002306278995074225 0 0.050443981032888739 0.0031163244300018282 0 0.049608016883410704 0.0015980769737658019 0 0.052976947669280947 0.0032551998344232573 0 0.050054903810871063 0.0023208814635160583 0 0.050756486006589573 0.0036052105436400598 0 0.054067964461072419 0.0038612384157177657 0 0.050443981032888739 0.0031163244300018282 0 0.052005265763377558 0.0013169012869158195 0 0.050841578964912384 0.0014978217013220793 0 0.0513258956474145 0.0023831210916446248 0 0.054067964461072419 0.0038612384157177657 0 0.049608016883410704 0.0015980769737658019 0 0.049608016883410704 0.0015980769737658019 0 0.050176351641138935 -0.00040732668390591948 0 0.048796554955421192 -0.00025427354721233687 0 0.048843699295045416 -0.0002579136715647904 0 0.048810483645470581 -0.00021954273222804109 0 0.048822666699268449 -0.00035869642649276768 0 0.049879621797534773 -0.0014603559705162251 0 0.049245627684736781 -0.00065941544054416192 0 0.048807454501000685 -0.00026741804343289964 0 0.048822666699268449 -0.00035869642649276768 0 0.048810483645470581 -0.00021954273222804109 0 0.048630634959794854 -0.00045235833759856719 0 0.050176351641138935 -0.00040732668390591948 0 0.049879621797534773 -0.0014603559705162251 0 0.049714460912000033 -0.00097818890440250781 0 0.050515400570019728 -0.00091068176915907605 0 0.049879621797534773 -0.0014603559705162251 0 0.049714460912000033 -0.00097818890440250781 0 0.049245627684736781 -0.00065941544054416192 0 0.048796554955421192 -0.00025427354721233687 0 0.048807454501000685 -0.00026741804343289964 0 0.048810483645470581 -0.00021954273222804109 0 0.049714460912000033 -0.00097818890440250781 0 0.050515400570019728 -0.00091068176915907605 0 0.04961358673292534 -0.00063664984620826544 0 0.049179730252841364 -0.00036910203140000017 0 0.049245627684736781 -0.00065941544054416192 0 0.04961358673292534 -0.00063664984620826544 0 0.049714460912000033 -0.00097818890440250781 0 0.049245627684736781 -0.00065941544054416192 0 0.04961358673292534 -0.00063664984620826544 0 0.050176351641138935 -0.00040732668390591948 0 0.05029103843760617 -0.0013957912984408343 0 0.05004531656975815 -0.0020244753544897032 0 0.050583325335217928 -0.0017443709077187802 0 0.050515400570019728 -0.00091068176915907605 0 0.051046343925075149 -0.0016342970956753748 0 0.050684213396386117 -0.002288794169420605 0 0.050583325335217928 -0.0017443709077187802 0 0.051046343925075149 -0.0016342970956753748 0 0.050583325335217928 -0.0017443709077187802 0 0.050515400570019728 -0.00091068176915907605 0 0.050515400570019728 -0.00091068176915907605 0 0.049682335964324545 -0.00031424206521376652 0 0.050824695230909017 -0.00038322712282750086 0 0.050515400570019728 -0.00091068176915907605 0 0.050824695230909017 -0.00038322712282750086 0 0.051306054640043439 -0.0013111830446339977 0 0.051046343925075149 -0.0016342970956753748 0 0.050515400570019728 -0.00091068176915907605 0 0.051306054640043439 -0.0013111830446339977 0 0.048832455227369065 -2.5009020389333529e-05 0 0.049682335964324545 -0.00031424206521376652 0 0.049316767192780796 0.00037184297887000122 0 0.049682335964324545 -0.00031424206521376652 0 0.049316767192780796 0.00037184297887000122 0 0.050824695230909017 -0.00038322712282750086 0 0.049179730252841364 -0.00036910203140000017 0 0.04961358673292534 -0.00063664984620826544 0 0.049682335964324545 -0.00031424206521376652 0 0.050515400570019728 -0.00091068176915907605 0 0.04961358673292534 -0.00063664984620826544 0 0.049682335964324545 -0.00031424206521376652 0 0.049377675192733422 -0.0021419414054230585 0 0.050817679532524106 -0.0019470834538570132 0 0.050631187539723649 -0.0031975669626739282 0 0.049564805106254342 -0.0046518543954207851 0 0.051057055260189228 -0.0035170057966513808 0 0.050631187539723649 -0.0031975669626739282 0 0.051057055260189228 -0.0035170057966513808 0 0.051537696645058639 -0.0025815742991802532 0 0.051057055260189228 -0.0035170057966513808 0 0.051623992927284097 -0.0025769685736456594 0 0.051537696645058639 -0.0025815742991802532 0 0.051057055260189228 -0.0035170057966513808 0 0.051623992927284097 -0.0025769685736456594 0 0.051879338379419992 -0.0019134613998851287 0 0.051623992927284097 -0.0025769685736456594 0 0.051537696645058639 -0.0025815742991802532 0 0.051882539463416928 -0.0023325551589526224 0 0.052055263823561196 -0.001718148657518224 0 0.051537696645058639 -0.0025815742991802532 0 0.051882539463416928 -0.0023325551589526224 0 0.051946077004721126 -0.0021885730693909987 0 0.051882539463416928 -0.0023325551589526224 0 0.051836490373621945 -0.0020947403561389602 0 0.051882539463416928 -0.0023325551589526224 0 0.051836490373621945 -0.0020947403561389602 0 0.051879338379419992 -0.0019134613998851287 0 0.051623992927284097 -0.0025769685736456594 0 0.051882539463416928 -0.0023325551589526224 0 0.051879338379419992 -0.0019134613998851287 0 0.051836490373621945 -0.0020947403561389602 0 0.051879338379419992 -0.0019134613998851287 0 0.051823891532774363 -0.0017392741543300315 0 0.051591821867326235 -0.0016486127395045206 0 0.051879338379419992 -0.0019134613998851287 0 0.051823891532774363 -0.0017392741543300315 0 0.051591821867326235 -0.0016486127395045206 0 0.051879338379419992 -0.0019134613998851287 0 0.051306054640043439 -0.0013111830446339977 0 0.050817679532524106 -0.0019470834538570132 0 0.051679267700741285 -0.0019101873355451208 0 0.051365512874432959 -0.0016107693243226232 0 0.051591821867326235 -0.0016486127395045206 0 0.051306054640043439 -0.0013111830446339977 0 0.050824695230909017 -0.00038322712282750086 0 0.051879338379419992 -0.0019134613998851287 0 0.051306054640043439 -0.0013111830446339977 0 0.0084944044189714692 0.01177731160656826 0 0.0097321720942930585 0.013861155531385482 0 0.010251156181035935 0.010806720189524303 0 0.0084944044189714692 0.01177731160656826 0 0.010251156181035935 0.010806720189524303 0 0.0081868197839595237 0.0096947438629340302 0 -0.0013221129570837222 0.0072647124660333165 0 -0.0013393243390358472 0.0072919644134580592 0 -0.0013556941929280327 0.007267229672462701 0 0.0084944044189714692 0.01177731160656826 0 0.0065688024867694714 0.010831577438819615 0 0.0081868197839595237 0.0096947438629340302 0 0.0084944044189714692 0.01177731160656826 0 0.0065688024867694714 0.010831577438819615 0 0.0062160174917533133 0.014350900696744096 0 0.0063729474426329601 0.0063188383043937474 0 0.010525328118240173 0.0057262891777269762 0 0.0084004230910410104 0.0076864828232163281 0 0.0017776478857856946 0.0086767461470264682 0 0.0017710021472672709 0.0085047719224883196 0 0.0017710021472672709 0.0085047719224883196 0 0.011187263486046361 0.0099261773950740321 0 -0.0012429715260538338 0.010717142020722249 0 0.00080159189029549503 0.010392239949544238 0 -0.00077580520366973295 0.0056998680329055683 0 0.0017710021472672709 0.0085047719224883196 0 -0.0035734103732054648 0.0072367916193682956 0 0.0084944044189714692 0.01177731160656826 0 0.0062160174917533133 0.014350900696744096 0 0.0097321720942930585 0.013861155531385482 0 0.0097321720942930585 0.013861155531385482 0 0.013331142816103477 0.013257855613214251 0 0.01248356815524887 0.011654640105877584 0 0.010525328118240173 0.0057262891777269762 0 0.014943372396526525 0.0066086456266223241 0 0.014574340414804213 0.0051866067409576493 0 0.011187263486046361 0.0099261773950740321 0 0.01328306012708589 0.0093063726210031797 0 0.014059004032032796 0.012351121874672166 0 0.013470736833817779 0.010763710702536714 0 0.014055876433287205 0.012505281195781875 0 0.01248356815524887 0.011654640105877584 0 0.012836038070499899 0.0095952611193249621 0 0.013331142816103477 0.013257855613214251 0 0.014055876433287205 0.012505281195781875 0 0.01248356815524887 0.011654640105877584 0 0.0097321720942930585 0.013861155531385482 0 0.01248356815524887 0.011654640105877584 0 0.010251156181035935 0.010806720189524303 0 0.01248356815524887 0.011654640105877584 0 0.010251156181035935 0.010806720189524303 0 0.012836038070499899 0.0095952611193249621 0 0.010251156181035935 0.010806720189524303 0 0.012836038070499899 0.0095952611193249621 0 0.0099658491735482996 0.0085865448411214778 0 0.014122691390668247 0.011748160237068086 0 0.014277366188047789 0.011575854851850238 0 0.014489200052878506 0.011781558315225333 0 0.014055876433287205 0.012505281195781875 0 0.014122691390668247 0.011748160237068086 0 0.014489200052878506 0.011781558315225333 0 0.014122691390668247 0.011748160237068086 0 0.014277366188047789 0.011575854851850238 0 0.014169220076991012 0.01157222945763719 0 0.014277366188047789 0.011575854851850238 0 0.014169220076991012 0.01157222945763719 0 0.014058784559531098 0.011669473699874661 0 0.012836038070499899 0.0095952611193249621 0 0.011400073581970328 0.0067969062530908184 0 0.0099658491735482996 0.0085865448411214778 0 0.013470736833817779 0.010763710702536714 0 0.012864871010019735 0.0089870363466975894 0 0.0089017657636831019 0.0064735947915190049 0 0.00847536682801746 0.008055880031240862 0 0.0099658491735482996 0.0085865448411214778 0 0.011400073581970328 0.0067969062530908184 0 0.0089017657636831019 0.0064735947915190049 0 0.0099658491735482996 0.0085865448411214778 0 0.0089017657636831019 0.0064735947915190049 0 0.00847536682801746 0.008055880031240862 0 0.0068476588099727499 0.007472307366164734 0 0.010251156181035935 0.010806720189524303 0 0.0099658491735482996 0.0085865448411214778 0 0.0081868197839595237 0.0096947438629340302 0 0.00847536682801746 0.008055880031240862 0 0.0099658491735482996 0.0085865448411214778 0 0.0081868197839595237 0.0096947438629340302 0 0.0017776478857856946 0.0086767461470264682 0 -0.00022939833039843394 0.0045326470075586099 0 0.0065055627404336418 0.010859546034421611 0 0.0081868197839595237 0.0096947438629340302 0 0.0068476588099727499 0.007472307366164734 0 -0.0062256923271033103 0.0041741202402331822 0 -0.0066211473854112255 0.0021421792663830477 0 -0.0067770844115271293 0.0031495230921545834 0 0.0017776478857856946 0.0086767461470264682 0 0.0083316306931289896 0.0090783592282638707 0 0.00847536682801746 0.008055880031240862 0 0.0081868197839595237 0.0096947438629340302 0 0.0068476588099727499 0.007472307366164734 0 -0.0066211473854112255 0.0021421792663830477 0 -0.0068997273813227707 0.0027352694078369359 0 -0.0067770844115271293 0.0031495230921545834 0 -0.0066211473854112255 0.0021421792663830477 0 -0.0059937237278763419 0.002281727241911826 0 -0.0068997273813227707 0.0027352694078369359 0 -0.0059937237278763419 0.002281727241911826 0 -0.0068997273813227707 0.0027352694078369359 0 -0.0084371799906140122 0.0025158956353051945 0 -0.0084371799906140122 0.0025158956353051945 0 -0.010089193633737724 0.0034852011314498925 0 -0.010429062106292287 0.0011449527976580861 0 -0.0062116555091930991 0.0024466857291655895 0 -0.0061333989555093825 0.0018632743612714147 0 -0.0059937237278763419 0.002281727241911826 0 -0.0084371799906140122 0.0025158956353051945 0 -0.010429062106292287 0.0011449527976580861 0 -0.010089193633737724 0.0034852011314498925 0 -0.0077204832547165007 0.0038098466364453864 0 -0.0093032395430528193 0.004848655701917704 0 -0.0084371799906140122 0.0025158956353051945 0 -0.010089193633737724 0.0034852011314498925 0 -0.0077204832547165007 0.0038098466364453864 0 -0.0062256923271033103 0.0041741202402331822 0 -0.0077204832547165007 0.0038098466364453864 0 -0.0067770844115271293 0.0031495230921545834 0 -0.0068997273813227707 0.0027352694078369359 0 -0.0077204832547165007 0.0038098466364453864 0 -0.0067770844115271293 0.0031495230921545834 0 -0.0068997273813227707 0.0027352694078369359 0 -0.0084371799906140122 0.0025158956353051945 0 -0.0077204832547165007 0.0038098466364453864 0 -0.010429062106292287 0.0011449527976580861 0 -0.012272934128376949 0.0031453558278367643 0 -0.013399967780263715 0.0014622549134083315 0 -0.0061333989555093825 0.0018632743612714147 0 -0.0082908929861644776 0.0066515312170621803 0 -0.010089193633737724 0.0034852011314498925 0 -0.012272934128376949 0.0031453558278367643 0 -0.01270077340814345 0.0051262050332893175 0 -0.010089193633737724 0.0034852011314498925 0 -0.010429062106292287 0.0011449527976580861 0 -0.012272934128376949 0.0031453558278367643 0 -0.012272934128376949 0.0031453558278367643 0 -0.014058172454671265 0.003855450734245779 0 -0.013399967780263715 0.0014622549134083315 0 -0.012962476465320866 0.0046872391466293477 0 -0.016348617508283311 0.0046177148479384289 0 -0.017080414656202862 0.0052384250139216239 0 -0.01270077340814345 0.0051262050332893175 0 -0.019099245137823392 0.0028224382606091827 0 -0.012272934128376949 0.0031453558278367643 0 -0.01270077340814345 0.0051262050332893175 0 -0.014058172454671265 0.003855450734245779 0 -0.01270077340814345 0.0051262050332893175 0 -0.010106508914822732 0.006700738692292655 0 -0.013768967615280719 0.0081089596184975039 0 -0.010265054851356058 0.0062651733934682456 0 -0.013507391670903738 0.0063802899495287446 0 -0.01270077340814345 0.0051262050332893175 0 -0.016217041986665504 0.007105188632390581 0 -0.013768967615280719 0.0081089596184975039 0 -0.017080414656202862 0.0052384250139216239 0 -0.01270077340814345 0.0051262050332893175 0 -0.016217041986665504 0.007105188632390581 0 0.0017776478857856946 0.0086767461470264682 0 -0.0063132908670448318 0.005507120637217559 0 -0.0062256923271033103 0.0041741202402331822 0 -0.0077204832547165007 0.0038098466364453864 0 -0.0072880349144511282 0.0049916780051655896 0 -0.0075698343393663312 0.0038153177699129523 0 -0.0063132908670448318 0.005507120637217559 0 -0.0077204832547165007 0.0038098466364453864 0 -0.0073994230380025417 0.0052427570815854543 0 -0.0093032395430528193 0.004848655701917704 0 -0.01270077340814345 0.0051262050332893175 0 -0.0093032395430528193 0.004848655701917704 0 -0.010106508914822732 0.006700738692292655 0 -0.010089193633737724 0.0034852011314498925 0 -0.01270077340814345 0.0051262050332893175 0 -0.0093032395430528193 0.004848655701917704 0 -0.0073994230380025417 0.0052427570815854543 0 -0.0093032395430528193 0.004848655701917704 0 -0.010106508914822732 0.006700738692292655 0 -0.010113372370148208 0.0057103331954274214 0 -0.0096289108324158924 0.0072274730584717959 0 -0.012961049597075355 0.0077332861646394902 0 -0.010113372370148208 0.0057103331954274214 0 -0.0081252845858607869 0.0059202972530573404 0 -0.0096289108324158924 0.0072274730584717959 0 -0.0062888151273563682 0.0067154145301081027 0 -0.0081252845858607869 0.0059202972530573404 0 -0.0096289108324158924 0.0072274730584717959 0 -0.0035734103732054648 0.0072367916193682956 0 -0.0063132908670448318 0.005507120637217559 0 -0.0072642228301565519 0.0036903648766994858 0 -0.010113372370148208 0.0057103331954274214 0 -0.0081252845858607869 0.0059202972530573404 0 -0.0062888151273563682 0.0067154145301081027 0 -0.0072642228301565519 0.0036903648766994858 0 -0.0081252845858607869 0.0059202972530573404 0 -0.0063132908670448318 0.005507120637217559 0 -0.010265054851356058 0.0062651733934682456 0 -0.0013393243390358472 0.0072919644134580592 0 -0.0013437657482107193 0.0072914167700922046 0 -0.0013556941929280327 0.007267229672462701 0 -0.0035734103732054648 0.0072367916193682956 0 -0.011900563058854985 0.0046783914797617386 0 -0.010189546660348284 0.0021794849235069799 0 -0.012399544842981391 0.0025117467207605953 0 -0.010051247444822187 0.0026039459653859833 0 -0.012399544842981391 0.0025117467207605953 0 -0.011203967457490525 0.0041486641180757426 0 -0.010051247444822187 0.0026039459653859833 0 -0.012399544842981391 0.0025117467207605953 0 -0.012764641223936182 0.0049339709005660256 0 -0.011203967457490525 0.0041486641180757426 0 -0.012399544842981391 0.0025117467207605953 0 -0.012764641223936182 0.0049339709005660256 0 -0.01396994814332778 0.0041538905672014945 0 -0.012764641223936182 0.0049339709005660256 0 -0.011203967457490525 0.0041486641180757426 0 -0.011301483515038478 0.0059614567324108572 0 -0.011203967457490525 0.0041486641180757426 0 -0.011301483515038478 0.0059614567324108572 0 -0.0092885319282008903 0.004970959164832262 0 -0.014700166127512999 0.002797354291080655 0 -0.015606345171548469 0.0047150245181645772 0 -0.016925630342405899 0.004320883913421736 0 -0.016217041986665504 0.007105188632390581 0 -0.016910898906751331 0.007920701528571196 0 -0.017184023114425184 0.0073025461560768633 0 -0.013507391670903738 0.0063802899495287446 0 -0.016766503266057751 0.0059823769939233449 0 -0.016217041986665504 0.007105188632390581 0 -0.013768967615280719 0.0081089596184975039 0 -0.016910898906751331 0.007920701528571196 0 -0.014700166127512999 0.002797354291080655 0 -0.01396994814332778 0.0041538905672014945 0 -0.015606345171548469 0.0047150245181645772 0 -0.012399544842981391 0.0025117467207605953 0 -0.014700166127512999 0.002797354291080655 0 -0.01396994814332778 0.0041538905672014945 0 -0.011900563058854985 0.0046783914797617386 0 -0.013507391670903738 0.0063802899495287446 0 -0.012764641223936182 0.0049339709005660256 0 -0.01396994814332778 0.0041538905672014945 0 -0.014191320489912784 0.0056516201752380172 0 -0.01396994814332778 0.0041538905672014945 0 -0.015606345171548469 0.0047150245181645772 0 -0.014191320489912784 0.0056516201752380172 0 -0.015606345171548469 0.0047150245181645772 0 -0.017314374666860213 0.0057599317968281133 0 -0.016925630342405899 0.004320883913421736 0 -0.015606345171548469 0.0047150245181645772 0 -0.017314374666860213 0.0057599317968281133 0 -0.017172753116026694 0.0065190877309060863 0 -0.017314374666860213 0.0057599317968281133 0 -0.017172753116026694 0.0065190877309060863 0 -0.018049009729113212 0.0063016909598388919 0 -0.015631248931245914 0.0046893626213608489 0 -0.015913096754226256 0.0062270189190947525 0 -0.015606345171548469 0.0047150245181645772 0 -0.014656596864549676 0.0062113583711203395 0 -0.014191320489912784 0.0056516201752380172 0 -0.014656596864549676 0.0062113583711203395 0 -0.014191320489912784 0.0056516201752380172 0 -0.013160757929264442 0.0066736786810206884 0 -0.013945902487401079 0.0069383698280620363 0 -0.011641181501692742 0.0055933671576785483 0 -0.014656596864549676 0.0062113583711203395 0 -0.013995854414743417 0.0070151364046340745 0 -0.013160757929264442 0.0066736786810206884 0 -0.011920006131341893 0.0069921784739580811 0 -0.013995854414743417 0.0070151364046340745 0 -0.010814863320916572 0.0047482154948637421 0 -0.017172753116026694 0.0065190877309060863 0 -0.01796464549693037 0.0066583193066528986 0 -0.017917845529832489 0.006910700027765922 0 -0.014656596864549676 0.0062113583711203395 0 -0.013995854414743417 0.0070151364046340745 0 -0.014669035624920838 0.008063394838072311 0 -0.015913096754226256 0.0062270189190947525 0 -0.016273301553701297 0.0075150665612226898 0 -0.017172753116026694 0.0065190877309060863 0 -0.018049009729113212 0.0063016909598388919 0 -0.01796464549693037 0.0066583193066528986 0 -0.011234842739940493 0.0049081723900513043 0 0.0039754186459360604 0.0051314121611040616 0 -0.0077375813092039761 0.0029996264408981145 0 -0.010814863320916572 0.0047482154948637421 0 -0.0085000495591734705 0.0055725918857883611 0 -0.011234842739940493 0.0049081723900513043 0 -0.011641181501692742 0.0055933671576785483 0 -0.012764641223936182 0.0049339709005660256 0 -0.014191320489912784 0.0056516201752380172 0 -0.013160757929264442 0.0066736786810206884 0 -0.012764641223936182 0.0049339709005660256 0 -0.011301483515038478 0.0059614567324108572 0 -0.013160757929264442 0.0066736786810206884 0 -0.0085000495591734705 0.0055725918857883611 0 -0.010330581847090653 0.0075465887565289436 0 -0.0075904582595844637 0.0074176921663837089 0 -0.010814863320916572 0.0047482154948637421 0 -0.0085000495591734705 0.0055725918857883611 0 -0.010330581847090653 0.0075465887565289436 0 -0.011920006131341893 0.0069921784739580811 0 -0.010814863320916572 0.0047482154948637421 0 -0.010330581847090653 0.0075465887565289436 0 -0.0077375813092039761 0.0029996264408981145 0 -0.0085000495591734705 0.0055725918857883611 0 -0.0060826456851969836 0.0051517969899945041 0 -0.0085000495591734705 0.0055725918857883611 0 -0.0060826456851969836 0.0051517969899945041 0 -0.0075904582595844637 0.0074176921663837089 0 -0.0060826456851969836 0.0051517969899945041 0 -0.0049610028197063383 0.0077865960164928113 0 -0.0075904582595844637 0.0074176921663837089 0 -0.0060826456851969836 0.0051517969899945041 0 -0.0033445476429425774 0.0056392857481377635 0 -0.0049610028197063383 0.0077865960164928113 0 0.021467468618303211 0.005610505703484858 0 0.021414410266267704 0.0058765394938902126 0 0.021301447208997838 0.0054486543824759145 0 0.021467468618303211 0.005610505703484858 0 0.021414410266267704 0.0058765394938902126 0 0.021555052146111035 0.006031014114563628 0 -0.0077375813092039761 0.0029996264408981145 0 -0.0060826456851969836 0.0051517969899945041 0 -0.0046799431455540911 0.0013361592600014886 0 -0.0060826456851969836 0.0051517969899945041 0 -0.0033445476429425774 0.0056392857481377635 0 -0.0046799431455540911 0.0013361592600014886 0 0.0090598778135584455 0.005749758575509121 0 0.0039754186459360604 0.0051314121611040616 0 -0.011203967457490525 0.0041486641180757426 0 -0.0092885319282008903 0.004970959164832262 0 -0.010051247444822187 0.0026039459653859833 0 0.021414410266267704 0.0058765394938902126 0 0.021555052146111035 0.006031014114563628 0 0.02143451549361259 0.0063830357556581528 0 0.0039754186459360604 0.0051314121611040616 0 0.018272696944567516 0.0076264759492433165 0 0.0075085130781959632 0.010716114358072286 0 0.0084004230910410104 0.0076864828232163281 0 0.011276536526793285 0.0086392957996193134 0 0.010525328118240173 0.0057262891777269762 0 0.0084004230910410104 0.0076864828232163281 0 0.011276536526793285 0.0086392957996193134 0 0.0039754186459360604 0.0051314121611040616 0 -0.0017719565745081154 0.0064204257276527354 0 0.0075085130781959632 0.010716114358072286 0 0.0084004230910410104 0.0076864828232163281 0 0.0063091644537261269 0.0070268410420548074 0 0.0063729474426329601 0.0063188383043937474 0 0.0084004230910410104 0.0076864828232163281 0 0.0063091644537261269 0.0070268410420548074 0 -0.0035734103732054648 0.0072367916193682956 0 -0.0017719565745081154 0.0064204257276527354 0 0.0017710021472672709 0.0085047719224883196 0 -0.0017719565745081154 0.0064204257276527354 0 0.021129377399883919 0.0070389254712069924 0 0.02143451549361259 0.0063830357556581528 0 0.021062655401804315 0.0062467898657642112 0 0.010525328118240173 0.0057262891777269762 0 0.014943372396526525 0.0066086456266223241 0 0.011276536526793285 0.0086392957996193134 0 0.017845369168697233 0.0065909563490761528 0 0.018272696944567516 0.0076264759492433165 0 0.021414410266267704 0.0058765394938902126 0 0.02143451549361259 0.0063830357556581528 0 0.021216539858053298 0.0057857733748067283 0 0.02143451549361259 0.0063830357556581528 0 0.021062655401804315 0.0062467898657642112 0 0.021216539858053298 0.0057857733748067283 0 0.021062655401804315 0.0062467898657642112 0 0.021216539858053298 0.0057857733748067283 0 0.020800996238941338 0.0053357935573496813 0 0.021216539858053298 0.0057857733748067283 0 0.021120706443948836 0.0053911960389406563 0 0.021301447208997838 0.0054486543824759145 0 0.021414410266267704 0.0058765394938902126 0 0.021216539858053298 0.0057857733748067283 0 0.021301447208997838 0.0054486543824759145 0 0.020167616197237209 0.0056265942335918303 0 0.023107322909270592 0.0043813726002837417 0 0.021216539858053298 0.0057857733748067283 0 0.020800996238941338 0.0053357935573496813 0 0.021120706443948836 0.0053911960389406563 0 0.020800996238941338 0.0053357935573496813 0 0.020333253205836729 0.004442742321240532 0 0.020952392782241369 0.00417629462230129 0 0.020800996238941338 0.0053357935573496813 0 0.020952392782241369 0.00417629462230129 0 0.021880939501464757 0.0044200750393181007 0 0.020800996238941338 0.0053357935573496813 0 0.020136854311538162 0.0056956477453577545 0 0.020104973834905802 0.0050828990705139845 0 0.020800996238941338 0.0053357935573496813 0 0.020136854311538162 0.0056956477453577545 0 0.020501366778045628 0.006455600253066524 0 0.020800996238941338 0.0053357935573496813 0 0.020104973834905802 0.0050828990705139845 0 0.020333253205836729 0.004442742321240532 0 0.020104973834905802 0.0050828990705139845 0 0.019502498681727914 0.0053490916614737181 0 0.019744871046284376 0.0043446676813602798 0 0.020104973834905802 0.0050828990705139845 0 0.019744871046284376 0.0043446676813602798 0 0.020333253205836729 0.004442742321240532 0 0.019502498681727914 0.0053490916614737181 0 0.019744871046284376 0.0043446676813602798 0 0.018806229139285837 0.0043132332598633007 0 0.019502498681727914 0.0053490916614737181 0 0.018588829310166966 0.0051710338574450544 0 0.018806229139285837 0.0043132332598633007 0 0.018970512726255728 0.0059127287366347306 0 0.019502498681727914 0.0053490916614737181 0 0.018588829310166966 0.0051710338574450544 0 0.020136854311538162 0.0056956477453577545 0 0.019502498681727914 0.0053490916614737181 0 0.019697514963933713 0.0062197044728283654 0 0.018970512726255728 0.0059127287366347306 0 0.019502498681727914 0.0053490916614737181 0 0.019697514963933713 0.0062197044728283654 0 0.020136854311538162 0.0056956477453577545 0 0.020104973834905802 0.0050828990705139845 0 0.019502498681727914 0.0053490916614737181 0 0.019697514963933713 0.0062197044728283654 0 0.019056874810228344 0.0066490567370442169 0 0.019802264262549402 0.0068911988212312118 0 0.018970512726255728 0.0059127287366347306 0 0.019697514963933713 0.0062197044728283654 0 0.019056874810228344 0.0066490567370442169 0 0.018970512726255728 0.0059127287366347306 0 0.019056874810228344 0.0066490567370442169 0 0.018534510272367001 0.0063522504399608536 0 0.018970512726255728 0.0059127287366347306 0 0.018436015558017479 0.0058240451089075756 0 0.018534510272367001 0.0063522504399608536 0 0.018493981190293232 0.0069385761365318693 0 0.019056874810228344 0.0066490567370442169 0 0.018534510272367001 0.0063522504399608536 0 0.018493981190293232 0.0069385761365318693 0 0.019056874810228344 0.0066490567370442169 0 0.019076088750452157 0.0073691862559448051 0 0.018493981190293232 0.0069385761365318693 0 0.019076088750452157 0.0073691862559448051 0 0.018376678690804657 0.0077550569960865724 0 0.019056874810228344 0.0066490567370442169 0 0.019802264262549402 0.0068911988212312118 0 0.019076088750452157 0.0073691862559448051 0 0.019802264262549402 0.0068911988212312118 0 0.019076088750452157 0.0073691862559448051 0 0.019829577574603442 0.0075219310336374712 0 0.019802264262549402 0.0068911988212312118 0 0.020410105551995437 0.0071929727170302665 0 0.019829577574603442 0.0075219310336374712 0 0.019802264262549402 0.0068911988212312118 0 0.020410105551995437 0.0071929727170302665 0 0.020501366778045628 0.006455600253066524 0 0.021129377399883919 0.0070389254712069924 0 0.021062655401804315 0.0062467898657642112 0 0.020501366778045628 0.006455600253066524 0 0.021129377399883919 0.0070389254712069924 0 0.020410105551995437 0.0071929727170302665 0 0.020501366778045628 0.006455600253066524 0 0.021062655401804315 0.0062467898657642112 0 0.020800996238941338 0.0053357935573496813 0 0.020501366778045628 0.006455600253066524 0 0.020136854311538162 0.0056956477453577545 0 0.019697514963933713 0.0062197044728283654 0 0.020501366778045628 0.006455600253066524 0 0.019697514963933713 0.0062197044728283654 0 0.019802264262549402 0.0068911988212312118 0 0.020501366778045628 0.006455600253066524 0 0.020270993067713967 0.0059486760314014318 0 0.01976769268235605 0.0067588482859250905 0 0.018826043660065815 0.0060182569895357698 0 0.020270993067713967 0.0059486760314014318 0 0.022106201393934648 0.0064943107615330359 0 0.01976769268235605 0.0067588482859250905 0 0.022106201393934648 0.0064943107615330359 0 0.022586107025561172 0.0064750462719671458 0 0.022264607384002287 0.0063383804544711901 0 0.019471712749575126 0.0092239523772278918 0 0.025405019071862944 -0.0017743793017014546 0 0.022106201393934648 0.0064943107615330359 0 0.01976769268235605 0.0067588482859250905 0 0.019098749005821865 0.0085333769051003441 0 0.019061578862864473 0.0066319226160146041 0 0.01976769268235605 0.0067588482859250905 0 0.01884890511228875 0.0077616590225823975 0 0.017157317285163683 0.0044648089982643946 0 0.017802334508325628 0.0046325471694917825 0 0.017130436041101142 0.0043711258442935171 0 0.017157317285163683 0.0044648089982643946 0 0.017208672967407655 0.0046442812001787652 0 0.017802334508325628 0.0046325471694917825 0 0.01976769268235605 0.0067588482859250905 0 0.019008192014180223 0.0082655133556495692 0 0.01884890511228875 0.0077616590225823975 0 0.01976769268235605 0.0067588482859250905 0 0.019008192014180223 0.0082655133556495692 0 0.019098749005821865 0.0085333769051003441 0 0.023785687829992463 0.0013443106194796408 0 0.021398747522417164 0.0042602371881710448 0 0.021398747522417164 0.0042602371881710448 0 0.018324909181224411 0.0058643908844742791 0 0.019061578862864473 0.0066319226160146041 0 0.01884890511228875 0.0077616590225823975 0 0.018529512654211489 0.006545860627506039 0 0.017208672967407655 0.0046442812001787652 0 0.017428516079654826 0.0052517316473375706 0 0.017802334508325628 0.0046325471694917825 0 0.018529512654211489 0.006545860627506039 0 0.018826043660065815 0.0060182569895357698 0 0.017905187785943678 0.0059445554805321139 0 0.019061578862864473 0.0066319226160146041 0 0.018529512654211489 0.006545860627506039 0 0.018826043660065815 0.0060182569895357698 0 0.019061578862864473 0.0066319226160146041 0 0.01976769268235605 0.0067588482859250905 0 0.018826043660065815 0.0060182569895357698 0 0.018324909181224411 0.0058643908844742791 0 0.017903596315559298 0.0058517877458871036 0 0.018058043229202306 0.0055231161777143404 0 0.018104437662810474 0.0061433712516128832 0 0.017905187785943678 0.0059445554805321139 0 0.017428516079654826 0.0052517316473375706 0 0.018058043229202306 0.0055231161777143404 0 0.017905187785943678 0.0059445554805321139 0 0.017428516079654826 0.0052517316473375706 0 0.018058043229202306 0.0055231161777143404 0 0.017802334508325628 0.0046325471694917825 0 0.018058043229202306 0.0055231161777143404 0 0.017802334508325628 0.0046325471694917825 0 0.018588829310166966 0.0051710338574450544 0 0.017802334508325628 0.0046325471694917825 0 0.018588829310166966 0.0051710338574450544 0 0.018806229139285837 0.0043132332598633007 0 0.018970512726255728 0.0059127287366347306 0 0.018588829310166966 0.0051710338574450544 0 0.018436015558017479 0.0058240451089075756 0 0.018058043229202306 0.0055231161777143404 0 0.018436015558017479 0.0058240451089075756 0 0.018104437662810474 0.0061433712516128832 0 0.018058043229202306 0.0055231161777143404 0 0.018588829310166966 0.0051710338574450544 0 0.018436015558017479 0.0058240451089075756 0 0.018436015558017479 0.0058240451089075756 0 0.018104437662810474 0.0061433712516128832 0 0.018534510272367001 0.0063522504399608536 0 0.018104437662810474 0.0061433712516128832 0 0.018534510272367001 0.0063522504399608536 0 0.018102468653309833 0.0066939964622282416 0 0.018493981190293232 0.0069385761365318693 0 0.018534510272367001 0.0063522504399608536 0 0.018102468653309833 0.0066939964622282416 0 0.018493981190293232 0.0069385761365318693 0 0.018102468653309833 0.0066939964622282416 0 0.017998920794802486 0.0074964758043325197 0 0.018493981190293232 0.0069385761365318693 0 0.017998920794802486 0.0074964758043325197 0 0.018376678690804657 0.0077550569960865724 0 0.018102468653309833 0.0066939964622282416 0 0.017659883530509492 0.0074576304979380907 0 0.017998920794802486 0.0074964758043325197 0 0.018102468653309833 0.0066939964622282416 0 0.0178391675849673 0.0064770572280026771 0 0.017659883530509492 0.0074576304979380907 0 0.0178391675849673 0.0064770572280026771 0 0.017391486958349644 0.0073129435931733695 0 0.017659883530509492 0.0074576304979380907 0 0.0178391675849673 0.0064770572280026771 0 0.017905187785943678 0.0059445554805321139 0 0.017980856200969227 0.0059158313947154486 0 0.018104437662810474 0.0061433712516128832 0 0.0178391675849673 0.0064770572280026771 0 0.017905187785943678 0.0059445554805321139 0 0.018104437662810474 0.0061433712516128832 0 0.018102468653309833 0.0066939964622282416 0 0.0178391675849673 0.0064770572280026771 0 0.018826043660065815 0.0060182569895357698 0 0.017980856200969227 0.0059158313947154486 0 0.0186432838268197 0.0054867041362768156 0 0.018826043660065815 0.0060182569895357698 0 0.017905187785943678 0.0059445554805321139 0 0.017980856200969227 0.0059158313947154486 0 0.0178391675849673 0.0064770572280026771 0 0.017526445184918332 0.0063626404888126788 0 0.017391486958349644 0.0073129435931733695 0 0.0178391675849673 0.0064770572280026771 0 0.017980856200969227 0.0059158313947154486 0 0.017526445184918332 0.0063626404888126788 0 0.017980856200969227 0.0059158313947154486 0 0.017526445184918332 0.0063626404888126788 0 0.0186432838268197 0.0054867041362768156 0 0.018050394063916817 0.0060579820451058392 0 0.017526445184918332 0.0063626404888126788 0 0.017971942888939045 0.0061552003823301532 0 0.017672529140027572 0.0060339574610006356 0 0.017971942888939045 0.0061552003823301532 0 0.0186432838268197 0.0054867041362768156 0 0.0244759475406396 0.0069391619496096619 0 0.014705131061873272 0.0070329555847180323 0 0.017526445184918332 0.0063626404888126788 0 0.017971942888939045 0.0061552003823301532 0 0.0186432838268197 0.0054867041362768156 0 0.018050394063916817 0.0060579820451058392 0 0.017672529140027572 0.0060339574610006356 0 0.017971942888939045 0.0061552003823301532 0 0.020850353058447766 0.0043599269509780065 0 0.020270993067713967 0.0059486760314014318 0 0.0186432838268197 0.0054867041362768156 0 0.026225393527878105 0.0031511223868057074 0 0.016243687491137922 0.0064238561633228478 0 0.020270993067713967 0.0059486760314014318 0 0.018826043660065815 0.0060182569895357698 0 0.0186432838268197 0.0054867041362768156 0 0.0244759475406396 0.0069391619496096619 0 0.022836638260094473 0.0073930358395840516 0 0.015688639758283669 0.0094967632185957527 0 0.016559083857172679 0.0081426368811190388 0 0.016375228802009832 0.0093536049576883502 0 0.015219144616915556 0.0073066936356622888 0 0.015688639758283669 0.0094967632185957527 0 0.016559083857172679 0.0081426368811190388 0 0.015219144616915556 0.0073066936356622888 0 0.017526445184918332 0.0063626404888126788 0 0.016559083857172679 0.0081426368811190388 0 0.016559083857172679 0.0081426368811190388 0 0.017391486958349644 0.0073129435931733695 0 0.017332050421474621 0.0082393601497950265 0 0.017526445184918332 0.0063626404888126788 0 0.016559083857172679 0.0081426368811190388 0 0.017391486958349644 0.0073129435931733695 0 0.016559083857172679 0.0081426368811190388 0 0.016375228802009832 0.0093536049576883502 0 0.016795744540612875 0.0089961311833491649 0 0.016559083857172679 0.0081426368811190388 0 0.016795744540612875 0.0089961311833491649 0 0.017332050421474621 0.0082393601497950265 0 0.016795744540612875 0.0089961311833491649 0 0.017092972589569818 0.0092744800801515329 0 0.016652737293153447 0.0097385708715751231 0 0.016375228802009832 0.0093536049576883502 0 0.016795744540612875 0.0089961311833491649 0 0.016652737293153447 0.0097385708715751231 0 0.017092972589569818 0.0092744800801515329 0 0.017460258886273797 0.0089173891126208132 0 0.017171269841524131 0.0099395799477881505 0 0.017092972589569818 0.0092744800801515329 0 0.017332050421474621 0.0082393601497950265 0 0.017460258886273797 0.0089173891126208132 0 0.016795744540612875 0.0089961311833491649 0 0.017092972589569818 0.0092744800801515329 0 0.017332050421474621 0.0082393601497950265 0 0.017391486958349644 0.0073129435931733695 0 0.017332050421474621 0.0082393601497950265 0 0.017659883530509492 0.0074576304979380907 0 0.017332050421474621 0.0082393601497950265 0 0.017683463319819043 0.0080523632566755019 0 0.017460258886273797 0.0089173891126208132 0 0.017332050421474621 0.0082393601497950265 0 0.017659883530509492 0.0074576304979380907 0 0.017683463319819043 0.0080523632566755019 0 0.017683463319819043 0.0080523632566755019 0 0.017857163848496171 0.0083543821200138518 0 0.017460258886273797 0.0089173891126208132 0 0.017659883530509492 0.0074576304979380907 0 0.017683463319819043 0.0080523632566755019 0 0.017998920794802486 0.0074964758043325197 0 0.017683463319819043 0.0080523632566755019 0 0.017998920794802486 0.0074964758043325197 0 0.017857163848496171 0.0083543821200138518 0 0.017998920794802486 0.0074964758043325197 0 0.017857163848496171 0.0083543821200138518 0 0.018376678690804657 0.0077550569960865724 0 0.017857163848496171 0.0083543821200138518 0 0.017614461298962533 0.0094772644963726192 0 0.018161718510507199 0.0085108123254148266 0 0.017857163848496171 0.0083543821200138518 0 0.017460258886273797 0.0089173891126208132 0 0.017614461298962533 0.0094772644963726192 0 0.017460258886273797 0.0089173891126208132 0 0.017614461298962533 0.0094772644963726192 0 0.017171269841524131 0.0099395799477881505 0 0.017614461298962533 0.0094772644963726192 0 0.017171269841524131 0.0099395799477881505 0 0.017235344823393992 0.010508407667347185 0 0.017171269841524131 0.0099395799477881505 0 0.017039644801929911 0.010490797782138385 0 0.017235344823393992 0.010508407667347185 0 0.017039644801929911 0.010490797782138385 0 0.017235344823393992 0.010508407667347185 0 0.016932088961925752 0.010795160365097483 0 0.016932088961925752 0.010795160365097483 0 0.016737478493292112 0.010929937509961287 0 0.016636021731470357 0.010999977197444243 0 0.016932088961925752 0.010795160365097483 0 0.016737478493292112 0.010929937509961287 0 0.016864909027223412 0.010737250008447066 0 0.016737478493292112 0.010929937509961287 0 0.016864909027223412 0.010737250008447066 0 0.016696137777932888 0.010949079541290273 0 0.017039644801929911 0.010490797782138385 0 0.016932088961925752 0.010795160365097483 0 0.016864909027223412 0.010737250008447066 0 0.016864909027223412 0.010737250008447066 0 0.016761208536926663 0.010565641817997079 0 0.016896845080218176 0.010329563443891821 0 0.017039644801929911 0.010490797782138385 0 0.016864909027223412 0.010737250008447066 0 0.016896845080218176 0.010329563443891821 0 0.016864909027223412 0.010737250008447066 0 0.016742332674336217 0.01079280587685981 0 0.016696137777932888 0.010949079541290273 0 0.016864909027223412 0.010737250008447066 0 0.016742332674336217 0.01079280587685981 0 0.016761208536926663 0.010565641817997079 0 0.017104753365604002 0.011202604974518849 0 0.019010073375774178 0.011480219090787166 0 0.016742332674336217 0.01079280587685981 0 0.016761208536926663 0.010565641817997079 0 0.016619541087653806 0.010739625326426633 0 0.016761208536926663 0.010565641817997079 0 0.016896845080218176 0.010329563443891821 0 0.016704638544210393 0.010388370918946444 0 0.016743849734264168 0.010133950717035253 0 0.016896845080218176 0.010329563443891821 0 0.016704638544210393 0.010388370918946444 0 0.016743849734264168 0.010133950717035253 0 0.016896845080218176 0.010329563443891821 0 0.016930566482061579 0.0098955499365133582 0 0.017171269841524131 0.0099395799477881505 0 0.017039644801929911 0.010490797782138385 0 0.016896845080218176 0.010329563443891821 0 0.017092972589569818 0.0092744800801515329 0 0.017171269841524131 0.0099395799477881505 0 0.016930566482061579 0.0098955499365133582 0 0.017171269841524131 0.0099395799477881505 0 0.016896845080218176 0.010329563443891821 0 0.016930566482061579 0.0098955499365133582 0 0.016743849734264168 0.010133950717035253 0 0.016930566482061579 0.0098955499365133582 0 0.016652737293153447 0.0097385708715751231 0 0.017092972589569818 0.0092744800801515329 0 0.016930566482061579 0.0098955499365133582 0 0.016652737293153447 0.0097385708715751231 0 0.016375228802009832 0.0093536049576883502 0 0.016652737293153447 0.0097385708715751231 0 0.016232488128391186 0.010000981085102162 0 0.016652737293153447 0.0097385708715751231 0 0.016465660523919172 0.010280891225026371 0 0.016232488128391186 0.010000981085102162 0 0.016743849734264168 0.010133950717035253 0 0.016465660523919172 0.010280891225026371 0 0.016704638544210393 0.010388370918946444 0 0.016743849734264168 0.010133950717035253 0 0.016652737293153447 0.0097385708715751231 0 0.016465660523919172 0.010280891225026371 0 0.016465660523919172 0.010280891225026371 0 0.016232488128391186 0.010000981085102162 0 0.016093026194433487 0.010787502826428359 0 0.016465660523919172 0.010280891225026371 0 0.016704638544210393 0.010388370918946444 0 0.016622696036792676 0.010547960607135752 0 0.016761208536926663 0.010565641817997079 0 0.016704638544210393 0.010388370918946444 0 0.016622696036792676 0.010547960607135752 0 0.016761208536926663 0.010565641817997079 0 0.016622696036792676 0.010547960607135752 0 0.016619541087653806 0.010739625326426633 0 0.016622696036792676 0.010547960607135752 0 0.016692722480634057 0.010781317844936005 0 0.016634566007279538 0.010778817533019725 0 0.018160295592096934 0.010634900775181364 0 0.019010073375774178 0.011480219090787166 0 0.019010073375774178 0.011480219090787166 0 0.020509431331343728 0.011614254911476935 0 0.020509431331343728 0.011614254911476935 0 0.027718942627543618 0.0098141663644496727 0 0.016622696036792676 0.010547960607135752 0 0.016634566007279538 0.010778817533019725 0 0.016093026194433487 0.010787502826428359 0 0.016465660523919172 0.010280891225026371 0 0.016622696036792676 0.010547960607135752 0 0.016093026194433487 0.010787502826428359 0 0.031832712625209363 0.0057654159984267201 0 0.031845737998404289 0.0053011553992967815 0 0.031215778500158768 0.0053135238225606989 0 0.03383015632949183 0.0094377129365167643 0 0.027718942627543618 0.0098141663644496727 0 0.015688639758283669 0.0094967632185957527 0 0.016232488128391186 0.010000981085102162 0 0.016093026194433487 0.010787502826428359 0 0.022836638260094473 0.0073930358395840516 0 0.027718942627543618 0.0098141663644496727 0 0.031832712625209363 0.0057654159984267201 0 0.031421550728491794 0.0061605609076515579 0 0.031215778500158768 0.0053135238225606989 0 0.015688639758283669 0.0094967632185957527 0 0.016375228802009832 0.0093536049576883502 0 0.016232488128391186 0.010000981085102162 0 0.015282989237122751 0.012778443547325873 0 0.016087928437877493 0.012341149459463407 0 0.015462136098873085 0.011878547784433192 0 0.022203046755560729 0.0083225912893507975 0 0.019337152775054059 0.0087152001962534816 0 0.020179216725092933 0.0094913893111310387 0 0.018821497689543935 0.008257823196925319 0 0.020407546185807819 0.0085373844020191613 0 0.018821497689543935 0.008257823196925319 0 0.017927297969090504 0.011012230282623735 0 0.014774395479659173 0.012177311163246296 0 0.015282989237122751 0.012778443547325873 0 0.015462136098873085 0.011878547784433192 0 0.014055876433287205 0.012505281195781875 0 0.014774395479659173 0.012177311163246296 0 0.014489200052878506 0.011781558315225333 0 0.014055876433287205 0.012505281195781875 0 0.014774395479659173 0.012177311163246296 0 0.015282989237122751 0.012778443547325873 0 0.021129377399883919 0.0070389254712069924 0 0.020410105551995437 0.0071929727170302665 0 0.020455256955824987 0.0079863673522494929 0 0.013331142816103477 0.013257855613214251 0 0.014055876433287205 0.012505281195781875 0 0.015282989237122751 0.012778443547325873 0 0.014943372396526525 0.0066086456266223241 0 0.014574340414804213 0.0051866067409576493 0 0.018486772488692252 0.0046755355395645456 0 0.017845369168697233 0.0065909563490761528 0 0.018821497689543935 0.008257823196925319 0 0.01328306012708589 0.0093063726210031797 0 0.018821497689543935 0.008257823196925319 0 0.020455256955824987 0.0079863673522494929 0 0.019829577574603442 0.0075219310336374712 0 0.019512327295205911 0.0079775963214455195 0 0.020410105551995437 0.0071929727170302665 0 0.020455256955824987 0.0079863673522494929 0 0.019829577574603442 0.0075219310336374712 0 0.019076088750452157 0.0073691862559448051 0 0.019829577574603442 0.0075219310336374712 0 0.019512327295205911 0.0079775963214455195 0 0.020455256955824987 0.0079863673522494929 0 0.019512327295205911 0.0079775963214455195 0 0.019337152775054059 0.0087152001962534816 0 0.019076088750452157 0.0073691862559448051 0 0.019512327295205911 0.0079775963214455195 0 0.018829445084976946 0.0080955897930385639 0 0.019512327295205911 0.0079775963214455195 0 0.018829445084976946 0.0080955897930385639 0 0.019337152775054059 0.0087152001962534816 0 0.018829445084976946 0.0080955897930385639 0 0.018224092797722621 0.009072858246926151 0 0.019337152775054059 0.0087152001962534816 0 0.019076088750452157 0.0073691862559448051 0 0.018376678690804657 0.0077550569960865724 0 0.018829445084976946 0.0080955897930385639 0 0.018829445084976946 0.0080955897930385639 0 0.018161718510507199 0.0085108123254148266 0 0.018224092797722621 0.009072858246926151 0 0.017857163848496171 0.0083543821200138518 0 0.018376678690804657 0.0077550569960865724 0 0.018161718510507199 0.0085108123254148266 0 0.018376678690804657 0.0077550569960865724 0 0.018829445084976946 0.0080955897930385639 0 0.018161718510507199 0.0085108123254148266 0 0.017614461298962533 0.0094772644963726192 0 0.018161718510507199 0.0085108123254148266 0 0.018224092797722621 0.009072858246926151 0 0.018224092797722621 0.009072858246926151 0 0.019337152775054059 0.0087152001962534816 0 0.01765104246482355 0.010780258507163437 0 0.017614461298962533 0.0094772644963726192 0 0.018224092797722621 0.009072858246926151 0 0.01765104246482355 0.010780258507163437 0 0.017927297969090504 0.011012230282623735 0 0.017770561709916644 0.010838973997105135 0 0.019337152775054059 0.0087152001962534816 0 0.020179216725092933 0.0094913893111310387 0 0.01765104246482355 0.010780258507163437 0 0.016087928437877493 0.012341149459463407 0 0.016326942886291187 0.011430434741610767 0 0.01765104246482355 0.010780258507163437 0 0.016087928437877493 0.012341149459463407 0 0.016326942886291187 0.011430434741610767 0 0.015462136098873085 0.011878547784433192 0 0.016326942886291187 0.011430434741610767 0 0.015988351675336909 0.011335960418171663 0 0.015462136098873085 0.011878547784433192 0 0.016326942886291187 0.011430434741610767 0 0.016657529019800246 0.011032444787013585 0 0.01765104246482355 0.010780258507163437 0 0.016326942886291187 0.011430434741610767 0 0.016657529019800246 0.011032444787013585 0 0.015988351675336909 0.011335960418171663 0 0.016657529019800246 0.011032444787013585 0 0.015988351675336909 0.011335960418171663 0 0.015856446636745201 0.011216170682994242 0 0.017614461298962533 0.0094772644963726192 0 0.017235344823393992 0.010508407667347185 0 0.01765104246482355 0.010780258507163437 0 0.016657529019800246 0.011032444787013585 0 0.01765104246482355 0.010780258507163437 0 0.016963579970840623 0.010888813943557469 0 0.017235344823393992 0.010508407667347185 0 0.016932088961925752 0.010795160365097483 0 0.016963579970840623 0.010888813943557469 0 0.017235344823393992 0.010508407667347185 0 0.01765104246482355 0.010780258507163437 0 0.016963579970840623 0.010888813943557469 0 0.016932088961925752 0.010795160365097483 0 0.016963579970840623 0.010888813943557469 0 0.016636021731470357 0.010999977197444243 0 0.016657529019800246 0.011032444787013585 0 0.016963579970840623 0.010888813943557469 0 0.016409671090413504 0.011072692719261677 0 0.016963579970840623 0.010888813943557469 0 0.016409671090413504 0.011072692719261677 0 0.016636021731470357 0.010999977197444243 0 0.016409671090413504 0.011072692719261677 0 0.016636021731470357 0.010999977197444243 0 0.016256124953724419 0.01110756766437709 0 0.016409671090413504 0.011072692719261677 0 0.015856446636745201 0.011216170682994242 0 0.015709601676073603 0.011228275110648162 0 0.016657529019800246 0.011032444787013585 0 0.016409671090413504 0.011072692719261677 0 0.015856446636745201 0.011216170682994242 0 0.015176825875832186 0.011385951301258407 0 0.014740008615975001 0.011520898624135531 0 0.014352935860705343 0.011606399377133716 0 0.015856446636745201 0.011216170682994242 0 0.015176825875832186 0.011385951301258407 0 0.015125605895322903 0.01137749724075897 0 0.015176825875832186 0.011385951301258407 0 0.015298854129336474 0.011460230841068113 0 0.014740008615975001 0.011520898624135531 0 0.015988351675336909 0.011335960418171663 0 0.015856446636745201 0.011216170682994242 0 0.015298854129336474 0.011460230841068113 0 0.015856446636745201 0.011216170682994242 0 0.015176825875832186 0.011385951301258407 0 0.015298854129336474 0.011460230841068113 0 0.015988351675336909 0.011335960418171663 0 0.015298854129336474 0.011460230841068113 0 0.015462136098873085 0.011878547784433192 0 0.015298854129336474 0.011460230841068113 0 0.014956413962205057 0.01174356875743659 0 0.014740008615975001 0.011520898624135531 0 0.015298854129336474 0.011460230841068113 0 0.015462136098873085 0.011878547784433192 0 0.014956413962205057 0.01174356875743659 0 0.014774395479659173 0.012177311163246296 0 0.015462136098873085 0.011878547784433192 0 0.014956413962205057 0.01174356875743659 0 0.014774395479659173 0.012177311163246296 0 0.014489200052878506 0.011781558315225333 0 0.014956413962205057 0.01174356875743659 0 0.014489200052878506 0.011781558315225333 0 0.014956413962205057 0.01174356875743659 0 0.014740008615975001 0.011520898624135531 0 0.014277366188047789 0.011575854851850238 0 0.014740008615975001 0.011520898624135531 0 0.014352935860705343 0.011606399377133716 0 0.014277366188047789 0.011575854851850238 0 0.014489200052878506 0.011781558315225333 0 0.014740008615975001 0.011520898624135531 0 0.014352935860705343 0.011606399377133716 0 0.014058784559531098 0.011669473699874661 0 0.013658240932652655 0.012057865157221742 0 0.014277366188047789 0.011575854851850238 0 0.014352935860705343 0.011606399377133716 0 0.014058784559531098 0.011669473699874661 0 0.013931284744626786 0.011671260604161479 0 0.012897490036053188 0.011788238976551227 0 0.013658240932652655 0.012057865157221742 0 0.014352935860705343 0.011606399377133716 0 0.013931284744626786 0.011671260604161479 0 0.013658240932652655 0.012057865157221742 0 0.013931284744626786 0.011671260604161479 0 0.014757211015264051 0.011425529231130611 0 0.014687192020197372 0.011224168066630388 0 0.014352935860705343 0.011606399377133716 0 0.013931284744626786 0.011671260604161479 0 0.014757211015264051 0.011425529231130611 0 0.015176825875832186 0.011385951301258407 0 0.014352935860705343 0.011606399377133716 0 0.015125605895322903 0.01137749724075897 0 0.014352935860705343 0.011606399377133716 0 0.014757211015264051 0.011425529231130611 0 0.015125605895322903 0.01137749724075897 0 0.014757211015264051 0.011425529231130611 0 0.015125605895322903 0.01137749724075897 0 0.015709601676073603 0.011228275110648162 0 0.015856446636745201 0.011216170682994242 0 0.015125605895322903 0.01137749724075897 0 0.015709601676073603 0.011228275110648162 0 0.016409671090413504 0.011072692719261677 0 0.015709601676073603 0.011228275110648162 0 0.016256124953724419 0.01110756766437709 0 0.016636021731470357 0.010999977197444243 0 0.016256124953724419 0.01110756766437709 0 0.016441080199807261 0.011054653314033686 0 0.015709601676073603 0.011228275110648162 0 0.016256124953724419 0.01110756766437709 0 0.016009584741288319 0.011126271949222249 0 0.016256124953724419 0.01110756766437709 0 0.016441080199807261 0.011054653314033686 0 0.016009584741288319 0.011126271949222249 0 0.016441080199807261 0.011054653314033686 0 0.016009584741288319 0.011126271949222249 0 0.016109996077589384 0.011021965087740736 0 0.016009584741288319 0.011126271949222249 0 0.016109996077589384 0.011021965087740736 0 0.01552230404500311 0.011173832956157585 0 0.016109996077589384 0.011021965087740736 0 0.01552230404500311 0.011173832956157585 0 0.015525668917232616 0.010912855776921774 0 0.014757211015264051 0.011425529231130611 0 0.01552230404500311 0.011173832956157585 0 0.014687192020197372 0.011224168066630388 0 0.014757211015264051 0.011425529231130611 0 0.015709601676073603 0.011228275110648162 0 0.01552230404500311 0.011173832956157585 0 0.015709601676073603 0.011228275110648162 0 0.016009584741288319 0.011126271949222249 0 0.01552230404500311 0.011173832956157585 0 0.01552230404500311 0.011173832956157585 0 0.015525668917232616 0.010912855776921774 0 0.014687192020197372 0.011224168066630388 0 0.015525668917232616 0.010912855776921774 0 0.014811194146055542 0.010551747235762519 0 0.014687192020197372 0.011224168066630388 0 0.016109996077589384 0.011021965087740736 0 0.015525668917232616 0.010912855776921774 0 0.016293987911792096 0.010675799249055807 0 0.015549522081304485 0.010805616111002064 0 0.016552043238722364 0.01094094053809298 0 0.015525668917232616 0.010912855776921774 0 0.016293987911792096 0.010675799249055807 0 0.016506645021638129 0.010378417329855833 0 0.015525668917232616 0.010912855776921774 0 0.015671838816896041 0.010480281528584424 0 0.016245803204002245 0.010726311552188852 0 0.015671838816896041 0.010480281528584424 0 0.016245803204002245 0.010726311552188852 0 0.016130615718521011 0.010028205728494536 0 0.015525668917232616 0.010912855776921774 0 0.015671838816896041 0.010480281528584424 0 0.014811194146055542 0.010551747235762519 0 0.015671838816896041 0.010480281528584424 0 0.014811194146055542 0.010551747235762519 0 0.015448124854419079 0.0099026771137535139 0 0.014811194146055542 0.010551747235762519 0 0.013350913481952841 0.0111546837725591 0 0.013720201807496104 0.009749950726511936 0 0.014811194146055542 0.010551747235762519 0 0.013350913481952841 0.0111546837725591 0 0.014687192020197372 0.011224168066630388 0 0.013350913481952841 0.0111546837725591 0 0.012206788446326151 0.011662897904456584 0 0.012897490036053188 0.011788238976551227 0 0.013350913481952841 0.0111546837725591 0 0.012069915965582448 0.011525532944001668 0 0.012206788446326151 0.011662897904456584 0 0.013246865566997508 0.011402534739692965 0 0.012975448677232838 0.010119454733821592 0 0.013931284744626786 0.011671260604161479 0 0.013350913481952841 0.0111546837725591 0 0.012897490036053188 0.011788238976551227 0 0.013931284744626786 0.011671260604161479 0 0.013350913481952841 0.0111546837725591 0 0.014687192020197372 0.011224168066630388 0 0.035197342458720034 0.013905720563820683 0 0.035183396117124822 0.013709044845518457 0 0.035291342073947414 0.01386091986975185 0 0.035197342458720034 0.013905720563820683 0 0.035291342073947414 0.01386091986975185 0 0.035190586263438697 0.014041066827609677 0 0.035102111324721623 0.013515130385313804 0 0.035247355861948979 0.013530295984535205 0 0.035183396117124822 0.013709044845518457 0 0.027718942627543618 0.0098141663644496727 0 0.03161379930866879 0.013930800614592271 0 0.035247355861948979 0.013530295984535205 0 0.035183396117124822 0.013709044845518457 0 0.035291342073947414 0.01386091986975185 0 0.026613611417530422 0.011502747211949729 0 0.026082185118726332 0.01148441393881821 0 0.026311729228817742 0.012416754850641573 0 0.026613611417530422 0.011502747211949729 0 0.026580983461098467 0.012423222880203958 0 0.026311729228817742 0.012416754850641573 0 0.021826766229815726 0.011561411783575589 0 0.021811959463916293 0.01156099488500548 0 0.021833657787132661 0.011820795375799125 0 0.021826766229815726 0.011561411783575589 0 0.021833657787132661 0.011820795375799125 0 0.021922908401252106 0.011855988748909391 0 0.020509431331343728 0.011614254911476935 0 0.024256287969086587 0.012010467879116155 0 0.021833657787132661 0.011820795375799125 0 0.021922908401252106 0.011855988748909391 0 0.021848537481400601 0.01205799629216046 0 0.026580983461098467 0.012423222880203958 0 0.026311729228817742 0.012416754850641573 0 0.026543422461852078 0.013331176528717029 0 0.016705766091564232 0.010956796905691419 0 0.016525224082414847 0.010970855842210386 0 0.016528088892744045 0.01079014025072594 0 0.016705766091564232 0.010956796905691419 0 0.016696137777932888 0.010949079541290273 0 0.016525224082414847 0.010970855842210386 0 0.016742332674336217 0.01079280587685981 0 0.016712455926953224 0.010793810617417854 0 0.016705766091564232 0.010956796905691419 0 0.016742332674336217 0.01079280587685981 0 0.016705766091564232 0.010956796905691419 0 0.016696137777932888 0.010949079541290273 0 0.019010073375774178 0.011480219090787166 0 0.019347086242032966 0.011255702461324679 0 0.016737478493292112 0.010929937509961287 0 0.016441080199807261 0.011054653314033686 0 0.016696137777932888 0.010949079541290273 0 0.016737478493292112 0.010929937509961287 0 0.016636021731470357 0.010999977197444243 0 0.016441080199807261 0.011054653314033686 0 0.016441080199807261 0.011054653314033686 0 0.016696137777932888 0.010949079541290273 0 0.016525224082414847 0.010970855842210386 0 0.016441080199807261 0.011054653314033686 0 0.016109996077589384 0.011021965087740736 0 0.016525224082414847 0.010970855842210386 0 0.016525224082414847 0.010970855842210386 0 0.016383089010095192 0.010868514649400651 0 0.016528088892744045 0.01079014025072594 0 0.016109996077589384 0.011021965087740736 0 0.016525224082414847 0.010970855842210386 0 0.016383089010095192 0.010868514649400651 0 0.016528088892744045 0.01079014025072594 0 0.01640574915887355 0.010585652566203019 0 0.016677530416526712 0.01052602087617451 0 0.016383089010095192 0.010868514649400651 0 0.016528088892744045 0.01079014025072594 0 0.016293987911792096 0.010675799249055807 0 0.016109996077589384 0.011021965087740736 0 0.016383089010095192 0.010868514649400651 0 0.016293987911792096 0.010675799249055807 0 0.016497934554488471 0.010758436660472118 0 0.016552043238722364 0.01094094053809298 0 0.016528088892744045 0.01079014025072594 0 0.016293987911792096 0.010675799249055807 0 0.01640574915887355 0.010585652566203019 0 0.016245803204002245 0.010726311552188852 0 0.016792228841022824 0.010155325496435002 0 0.016130615718521011 0.010028205728494536 0 0.016552043238722364 0.01094094053809298 0 0.018650625687317009 0.011280741985891411 0 0.016552043238722364 0.01094094053809298 0 0.019290082938367349 0.011710455899544921 0 0.021021089661121307 0.01401693935139587 0 0.02203270519686738 0.012853997042214769 0 0.020716329015255188 0.012564393383171972 0 0.01750523246300352 0.011630136905757272 0 0.018329803151297366 0.011322794120143788 0 0.018218587698987338 0.010790129310889541 0 0.019290082938367349 0.011710455899544921 0 0.018650625687317009 0.011280741985891411 0 0.019290082938367349 0.011710455899544921 0 0.02428208423595157 0.012871409795869464 0 0.021021089661121307 0.01401693935139587 0 0.02203270519686738 0.012853997042214769 0 0.02324520600524636 0.013186055589151625 0 0.019347086242032966 0.011255702461324679 0 0.019290082938367349 0.011710455899544921 0 0.021922908401252106 0.011855988748909391 0 0.021982220447892078 0.012115320652258768 0 0.021848537481400601 0.01205799629216046 0 0.016705766091564232 0.010956796905691419 0 0.016528088892744045 0.01079014025072594 0 0.016677530416526712 0.01052602087617451 0 0.035291342073947414 0.01386091986975185 0 0.035217409644500562 0.014043120308002113 0 0.035190586263438697 0.014041066827609677 0 0.024256287969086587 0.012010467879116155 0 0.02747714078794667 0.013130486597479578 0 0.03161379930866879 0.013930800614592271 0 0.02747714078794667 0.013130486597479578 0 0.035217409644500562 0.014043120308002113 0 0.03518935977090662 0.014058591301652846 0 0.035190586263438697 0.014041066827609677 0 0.02747714078794667 0.013130486597479578 0 0.02428208423595157 0.012871409795869464 0 0.021982220447892078 0.012115320652258768 0 0.021848537481400601 0.01205799629216046 0 0.021877189607213507 0.012165506401924299 0 0.02203270519686738 0.012853997042214769 0 0.02324520600524636 0.013186055589151625 0 0.023081239909362276 0.012432234533177055 0 0.027084878664057593 0.012952550978700274 0 0.027246151041316832 0.013693407470358748 0 0.027017041174540395 0.013782419170974763 0 0.02428208423595157 0.012871409795869464 0 0.028288453313370335 0.013514651313414292 0 0.02325867411226322 0.013193406482422378 0 0.023865630451307403 0.012962989492184454 0 0.023081239909362276 0.012432234533177055 0 0.02428208423595157 0.012871409795869464 0 0.023983856538573749 0.01265967263504619 0 0.03517102616251451 0.014070826036183693 0 0.035166415842993327 0.014074932127396784 0 0.03518935977090662 0.014058591301652846 0 0.032131564687850306 0.014913489772099406 0 0.030226826377894516 0.014083034291764817 0 0.027221211667292747 0.013721713860386415 0 0.028330240360566847 0.013295932707414576 0 0.028229862155453169 0.01453679223213547 0 0.03517102616251451 0.014070826036183693 0 0.035164559758431413 0.01407494191860555 0 0.035166415842993327 0.014074932127396784 0 0.030226826377894516 0.014083034291764817 0 0.028288453313370335 0.013514651313414292 0 0.028288453313370335 0.013514651313414292 0 0.027734571527655391 0.013888976526914711 0 0.02747714078794667 0.013130486597479578 0 0.028288453313370335 0.013514651313414292 0 0.035217409644500562 0.014043120308002113 0 0.035166415842993327 0.014074932127396784 0 0.03518935977090662 0.014058591301652846 0 0.03517102616251451 0.014070826036183693 0 0.03518935977090662 0.014058591301652846 0 0.035179063819297689 0.014062660328245954 0 0.03518935977090662 0.014058591301652846 0 0.035179063819297689 0.014062660328245954 0 0.035190586263438697 0.014041066827609677 0 0.03517102616251451 0.014070826036183693 0 0.035179063819297689 0.014062660328245954 0 0.035169781944875793 0.014074113428107908 0 0.03517102616251451 0.014070826036183693 0 0.035166200028132207 0.014072628176701751 0 0.035169781944875793 0.014074113428107908 0 0.035170022207710913 0.014065232685119684 0 0.035179063819297689 0.014062660328245954 0 0.035169781944875793 0.014074113428107908 0 0.035170022207710913 0.014065232685119684 0 0.035179063819297689 0.014062660328245954 0 0.035190586263438697 0.014041066827609677 0 0.029117068273315849 0.015705437486785497 0 0.029089611661861279 0.015730137722757248 0 0.029100100953349646 0.015704356326652645 0 0.029089611661861279 0.015730137722757248 0 0.029100100953349646 0.015704356326652645 0 0.029069039698373347 0.015715384802410536 0 0.033998488450573669 0.015627093897650692 0 0.030226826377894516 0.014083034291764817 0 0.029117068273315849 0.015705437486785497 0 0.029107898269435162 0.015688110944211915 0 0.029100100953349646 0.015704356326652645 0 0.035155419224631682 0.014093775945567736 0 0.035166200028132207 0.014072628176701751 0 0.035169781944875793 0.014074113428107908 0 0.024931474182729167 0.014346608623500933 0 0.024925456038691982 0.014351194132643326 0 0.024910458435690647 0.014344601348142744 0 0.027734571527655391 0.013888976526914711 0 0.025659326673349428 0.015475501171812052 0 0.029100100953349646 0.015704356326652645 0 0.029107281308350778 0.015689043065152324 0 0.029069039698373347 0.015715384802410536 0 0.029107898269435162 0.015688110944211915 0 0.029100100953349646 0.015704356326652645 0 0.029107281308350778 0.015689043065152324 0 0.030226826377894516 0.014083034291764817 0 0.027734571527655391 0.013888976526914711 0 0.023895322809544074 0.012567836449784655 0 0.023081239909362276 0.012432234533177055 0 0.021983186068556836 0.011051628096873326 0 0.027734571527655391 0.013888976526914711 0 0.020677648523836533 0.01340917035570271 0 0.023865630451307403 0.012962989492184454 0 0.023895322809544074 0.012567836449784655 0 0.023081239909362276 0.012432234533177055 0 0.019659213620954782 0.014724911769036524 0 0.018903156445867993 0.015054994372727906 0 0.018909883056916533 0.015604070558370264 0 0.025659326673349428 0.015475501171812052 0 0.020677648523836533 0.01340917035570271 0 0.019659213620954782 0.014724911769036524 0 0.018903156445867993 0.015054994372727906 0 0.019176492568075416 0.01459032137897196 0 0.018895833600179365 0.014742668452778974 0 0.018903156445867993 0.015054994372727906 0 0.019176492568075416 0.01459032137897196 0 0.018895833600179365 0.014742668452778974 0 0.018534449242477533 0.014871060281496595 0 0.018903156445867993 0.015054994372727906 0 0.018895833600179365 0.014742668452778974 0 0.018650574727251006 0.01461044710277903 0 0.018534449242477533 0.014871060281496595 0 0.018534449242477533 0.014871060281496595 0 0.018238040166578141 0.015097543223840789 0 0.018292828344938554 0.014510112407336224 0 0.018650574727251006 0.01461044710277903 0 0.018534449242477533 0.014871060281496595 0 0.018292828344938554 0.014510112407336224 0 0.018534449242477533 0.014871060281496595 0 0.018903156445867993 0.015054994372727906 0 0.018238040166578141 0.015097543223840789 0 0.020677648523836533 0.01340917035570271 0 0.017638775683583279 0.011236082512590784 0 0.018903156445867993 0.015054994372727906 0 0.018909883056916533 0.015604070558370264 0 0.018238040166578141 0.015097543223840789 0 0.019141758657114056 0.011951163974654127 0 0.0187887830386439 0.012368562061931552 0 0.018602199321589793 0.011520500517584716 0 0.018650625687317009 0.011280741985891411 0 0.017638775683583279 0.011236082512590784 0 0.021983186068556836 0.011051628096873326 0 0.022066401658479329 0.012109636689039619 0 0.020716329015255188 0.012564393383171972 0 0.023081239909362276 0.012432234533177055 0 0.021983186068556836 0.011051628096873326 0 0.022066401658479329 0.012109636689039619 0 0.020677648523836533 0.01340917035570271 0 0.018650625687317009 0.011280741985891411 0 0.02203270519686738 0.012853997042214769 0 0.022066401658479329 0.012109636689039619 0 0.020716329015255188 0.012564393383171972 0 0.02203270519686738 0.012853997042214769 0 0.023081239909362276 0.012432234533177055 0 0.022066401658479329 0.012109636689039619 0 0.016792228841022824 0.010155325496435002 0 0.016130615718521011 0.010028205728494536 0 0.016649395651543032 0.0093355621340345356 0 0.016130615718521011 0.010028205728494536 0 0.016649395651543032 0.0093355621340345356 0 0.015904728509592115 0.0094097644519700284 0 0.016649395651543032 0.0093355621340345356 0 0.015904728509592115 0.0094097644519700284 0 0.015762356123623471 0.0085843605817519757 0 0.017638775683583279 0.011236082512590784 0 0.01596120969039605 0.014937196281111323 0 0.018238040166578141 0.015097543223840789 0 0.018292828344938554 0.014510112407336224 0 0.01710104780163187 0.014224688667523829 0 0.015938529340018118 0.018600781387208311 0 0.015725003211272359 0.018506014577339594 0 0.015954919351452292 0.01851837381984326 0 0.016804699425365575 0.016431748659917037 0 0.01596120969039605 0.014937196281111323 0 0.018355669618805994 0.014011402545236619 0 0.018292828344938554 0.014510112407336224 0 0.01710104780163187 0.014224688667523829 0 0.015938529340018118 0.018600781387208311 0 0.015796266504563703 0.018920194933388514 0 0.015725003211272359 0.018506014577339594 0 0.015938529340018118 0.018600781387208311 0 0.015796266504563703 0.018920194933388514 0 0.016112833227862691 0.0195023338088272 0 0.01595366257670932 0.018641980977494442 0 0.015792138300086557 0.01918946122570649 0 0.015796266504563703 0.018920194933388514 0 0.015413033031807572 0.019108249205662155 0 0.015725003211272359 0.018506014577339594 0 0.015413033031807572 0.019108249205662155 0 0.015725003211272359 0.018506014577339594 0 0.015033994307606692 0.018917370765594375 0 0.016804699425365575 0.016431748659917037 0 0.018715120283465617 0.016145919895626991 0 0.018355669618805994 0.014011402545236619 0 0.018857257836825587 0.014277158218836577 0 0.019586056956309987 0.01383009760251362 0 0.018650574727251006 0.01461044710277903 0 0.018292828344938554 0.014510112407336224 0 0.018857257836825587 0.014277158218836577 0 0.018355669618805994 0.014011402545236619 0 0.018292828344938554 0.014510112407336224 0 0.018857257836825587 0.014277158218836577 0 0.018895833600179365 0.014742668452778974 0 0.018650574727251006 0.01461044710277903 0 0.018857257836825587 0.014277158218836577 0 0.018895833600179365 0.014742668452778974 0 0.018857257836825587 0.014277158218836577 0 0.019176492568075416 0.01459032137897196 0 0.025659326673349428 0.015475501171812052 0 0.021858397961766082 0.015710797672374897 0 0.019659213620954782 0.014724911769036524 0 0.019358511803370164 0.014189583650201162 0 0.019723569887440211 0.013821234962907557 0 0.018857257836825587 0.014277158218836577 0 0.019176492568075416 0.01459032137897196 0 0.019358511803370164 0.014189583650201162 0 0.019659213620954782 0.014724911769036524 0 0.019176492568075416 0.01459032137897196 0 0.019358511803370164 0.014189583650201162 0 0.019358511803370164 0.014189583650201162 0 0.019585974744020993 0.013844692966599551 0 0.019723569887440211 0.013821234962907557 0 0.019633023654570318 0.014209419351947488 0 0.018715120283465617 0.016145919895626991 0 0.018857257836825587 0.014277158218836577 0 0.019358511803370164 0.014189583650201162 0 0.019586056956309987 0.01383009760251362 0 0.015725003211272359 0.018506014577339594 0 0.015033994307606692 0.018917370765594375 0 0.014812959557453704 0.018603657874369791 0 0.015413033031807572 0.019108249205662155 0 0.015033994307606692 0.018917370765594375 0 0.014979195593469956 0.019370039853996483 0 0.015033994307606692 0.018917370765594375 0 0.014809432628790751 0.019149252022223673 0 0.014979195593469956 0.019370039853996483 0 0.014809432628790751 0.019149252022223673 0 0.014636156370850329 0.0189560569261173 0 0.014623400236712405 0.019396308487658422 0 0.015033994307606692 0.018917370765594375 0 0.014809432628790751 0.019149252022223673 0 0.014636156370850329 0.0189560569261173 0 0.015033994307606692 0.018917370765594375 0 0.014665488226945213 0.018802606392836894 0 0.014812959557453704 0.018603657874369791 0 0.015033994307606692 0.018917370765594375 0 0.014636156370850329 0.0189560569261173 0 0.014665488226945213 0.018802606392836894 0 0.018208850009395431 0.018419949900531269 0 0.018801162076285974 0.017899440017430348 0 0.018715120283465617 0.016145919895626991 0 0.021858397961766082 0.015710797672374897 0 0.018801162076285974 0.017899440017430348 0 0.018715120283465617 0.016145919895626991 0 0.018801162076285974 0.017899440017430348 0 0.021858397961766082 0.015710797672374897 0 0.019152426325563 0.017165478813650246 0 0.020404698933508113 0.015124122843619341 0 0.019298788179632778 0.015322658540892011 0 0.03114459418456654 0.017294209091521923 0 0.023403123231571361 0.018215540992035241 0 0.018801162076285974 0.017899440017430348 0 0.023403123231571361 0.018215540992035241 0 0.023975700888977824 0.017822057157990623 0 0.024783835950971712 0.017928229934396828 0 0.02458805461023772 0.01689893337478544 0 0.021858397961766082 0.015710797672374897 0 0.03114459418456654 0.017294209091521923 0 0.033492596326152715 0.017946795883567679 0 0.033430120703164999 0.018078888929569055 0 0.033381416166609786 0.017843466973521942 0 0.014636156370850329 0.0189560569261173 0 0.014661866351139745 0.018767149049572288 0 0.014065335012018778 0.019611259120371 0 0.023975700888977824 0.017822057157990623 0 0.023955330035896238 0.018067813638766781 0 0.024783835950971712 0.017928229934396828 0 0.028730035970901891 0.015598108899417831 0 0.029091755821421608 0.015630728930351404 0 0.029037050326500172 0.015687877358684384 0 0.029089611661861279 0.015730137722757248 0 0.029069039698373347 0.015715384802410536 0 0.029037050326500172 0.015687877358684384 0 0.02864377059778344 0.01611118841093373 0 0.028730035970901891 0.015598108899417831 0 0.029037050326500172 0.015687877358684384 0 0.029089611661861279 0.015730137722757248 0 0.029091755821421608 0.015630728930351404 0 0.029037050326500172 0.015687877358684384 0 0.032235373512499076 0.016012775377652166 0 0.03114459418456654 0.017294209091521923 0 0.025659326673349428 0.015475501171812052 0 0.029609573417620858 0.01536818204639964 0 0.013720201807496104 0.009749950726511936 0 0.01468554989422975 0.0094773786688815333 0 0.013900087862447416 0.0087897217783661462 0 0.01468554989422975 0.0094773786688815333 0 0.014868064673084493 0.0086725951678147985 0 0.013900087862447416 0.0087897217783661462 0 0.012028897623398396 0.011380210670159034 0 0.011893699766623939 0.011446825528422109 0 0.012300066671808819 0.011481782269135838 0 0.012975448677232838 0.010119454733821592 0 0.014510601307851924 0.012838229382043792 0 0.012028897623398396 0.011380210670159034 0 0.012300066671808819 0.011481782269135838 0 0.012041542449633747 0.011378482311791005 0 0.012028897623398396 0.011380210670159034 0 0.011893699766623939 0.011446825528422109 0 0.011644082321253607 0.011286675223252999 0 0.011893699766623939 0.011446825528422109 0 0.012300066671808819 0.011481782269135838 0 0.012069915965582448 0.011525532944001668 0 0.013350913481952841 0.0111546837725591 0 0.012300066671808819 0.011481782269135838 0 0.012069915965582448 0.011525532944001668 0 0.014811194146055542 0.010551747235762519 0 0.013720201807496104 0.009749950726511936 0 0.01468554989422975 0.0094773786688815333 0 0.014811194146055542 0.010551747235762519 0 0.015448124854419079 0.0099026771137535139 0 0.01468554989422975 0.0094773786688815333 0 0.015448124854419079 0.0099026771137535139 0 0.01468554989422975 0.0094773786688815333 0 0.015340555888443489 0.0092065807254655355 0 0.015671838816896041 0.010480281528584424 0 0.016130615718521011 0.010028205728494536 0 0.015448124854419079 0.0099026771137535139 0 0.016130615718521011 0.010028205728494536 0 0.015448124854419079 0.0099026771137535139 0 0.015904728509592115 0.0094097644519700284 0 0.015448124854419079 0.0099026771137535139 0 0.015904728509592115 0.0094097644519700284 0 0.015340555888443489 0.0092065807254655355 0 0.015904728509592115 0.0094097644519700284 0 0.015340555888443489 0.0092065807254655355 0 0.015762356123623471 0.0085843605817519757 0 0.01468554989422975 0.0094773786688815333 0 0.015340555888443489 0.0092065807254655355 0 0.014868064673084493 0.0086725951678147985 0 0.015340555888443489 0.0092065807254655355 0 0.014868064673084493 0.0086725951678147985 0 0.015762356123623471 0.0085843605817519757 0 0.015947199375622535 0.018081822016920632 0 0.015564086108105519 0.018121808524994277 0 0.015904591818173924 0.018423390349932626 0 0.015471372277327521 0.013313587234287079 0 0.01596120969039605 0.014937196281111323 0 0.01596120969039605 0.014937196281111323 0 0.016255467228497342 0.019193751439481963 0 0.015938529340018118 0.018600781387208311 0 0.015861865525857981 0.018530907238162031 0 0.015639637397330441 0.018579672970979684 0 0.015938529340018118 0.018600781387208311 0 0.015954919351452292 0.01851837381984326 0 0.015861865525857981 0.018530907238162031 0 0.015954919351452292 0.01851837381984326 0 0.015861865525857981 0.018530907238162031 0 0.015904591818173924 0.018423390349932626 0 0.015947199375622535 0.018081822016920632 0 0.015904591818173924 0.018423390349932626 0 0.016170375235609123 0.01849656980431336 0 0.015861865525857981 0.018530907238162031 0 0.015904591818173924 0.018423390349932626 0 0.015978192208727905 0.018593617389204304 0 0.015904591818173924 0.018423390349932626 0 0.016170375235609123 0.01849656980431336 0 0.015978192208727905 0.018593617389204304 0 0.012028897623398396 0.011380210670159034 0 0.012117835967604917 0.010628763527348041 0 0.01209528630241484 0.011371270402498437 0 0.015471372277327521 0.013313587234287079 0 0.014510601307851924 0.012838229382043792 0 0.015947199375622535 0.018081822016920632 0 0.016170375235609123 0.01849656980431336 0 0.016236218913407863 0.017983273516461201 0 0.014438166434761588 0.015197666954027283 0 0.014510601307851924 0.012838229382043792 0 0.012028897623398396 0.011380210670159034 0 0.012117835967604917 0.010628763527348041 0 0.011644082321253607 0.011286675223252999 0 0.013984241397186728 0.01280501744926018 0 0.014510601307851924 0.012838229382043792 0 0.012117835967604917 0.010628763527348041 0 0.011644082321253607 0.011286675223252999 0 0.011370175890829046 0.010915303196917747 0 0.012117835967604917 0.010628763527348041 0 0.011370175890829046 0.010915303196917747 0 0.01114959712317325 0.010420390282827855 0 0.011370175890829046 0.010915303196917747 0 0.010569589914140391 0.011014401477796851 0 0.01114959712317325 0.010420390282827855 0 0.010569589914140391 0.011014401477796851 0 0.01114959712317325 0.010420390282827855 0 0.010129899805380593 0.010574766631171994 0 0.010569589914140391 0.011014401477796851 0 0.010531616065321436 0.011381487846582028 0 0.011223660864206416 0.011296359105379572 0 0.010569589914140391 0.011014401477796851 0 0.010531616065321436 0.011381487846582028 0 0.0098529093597178787 0.011377953816623298 0 0.010531616065321436 0.011381487846582028 0 0.011223660864206416 0.011296359105379572 0 0.01112368388681673 0.011493448986148139 0 0.011370175890829046 0.010915303196917747 0 0.010569589914140391 0.011014401477796851 0 0.011223660864206416 0.011296359105379572 0 0.011644082321253607 0.011286675223252999 0 0.011223660864206416 0.011296359105379572 0 0.011579584026514888 0.011384094427193002 0 0.011644082321253607 0.011286675223252999 0 0.011370175890829046 0.010915303196917747 0 0.011223660864206416 0.011296359105379572 0 0.0086686376598863555 0.01136424691193349 0 0.009590701823775959 0.011072331881340668 0 0.0093508922024620241 0.010397965068414918 0 0.0086686376598863555 0.01136424691193349 0 0.009590701823775959 0.011072331881340668 0 0.0089108979089332595 0.011599846495183249 0 0.010569589914140391 0.011014401477796851 0 0.009590701823775959 0.011072331881340668 0 0.010129899805380593 0.010574766631171994 0 0.010569589914140391 0.011014401477796851 0 0.009590701823775959 0.011072331881340668 0 0.0098529093597178787 0.011377953816623298 0 0.009590701823775959 0.011072331881340668 0 0.0098529093597178787 0.011377953816623298 0 0.0089108979089332595 0.011599846495183249 0 0.010531616065321436 0.011381487846582028 0 0.0098529093597178787 0.011377953816623298 0 0.010359818534339071 0.011613895475701351 0 0.0098529093597178787 0.011377953816623298 0 0.0096075157737565177 0.01170790198883782 0 0.010359818534339071 0.011613895475701351 0 0.0098529093597178787 0.011377953816623298 0 0.0089108979089332595 0.011599846495183249 0 0.0096075157737565177 0.01170790198883782 0 0.0089108979089332595 0.011599846495183249 0 0.0079228570906655898 0.012151422536642559 0 0.0078382645794776405 0.011675862381169832 0 0.0086686376598863555 0.01136424691193349 0 0.0089108979089332595 0.011599846495183249 0 0.0078382645794776405 0.011675862381169832 0 0.008868485390339173 0.012010551160322541 0 0.010131535923083019 0.011961845712367811 0 0.0082114683465630833 0.012629849481922533 0 0.008868485390339173 0.012010551160322541 0 0.0082114683465630833 0.012629849481922533 0 0.0079228570906655898 0.012151422536642559 0 0.0089108979089332595 0.011599846495183249 0 0.008868485390339173 0.012010551160322541 0 0.0079228570906655898 0.012151422536642559 0 0.0089108979089332595 0.011599846495183249 0 0.008868485390339173 0.012010551160322541 0 0.0096075157737565177 0.01170790198883782 0 0.008868485390339173 0.012010551160322541 0 0.0096075157737565177 0.01170790198883782 0 0.010131535923083019 0.011961845712367811 0 0.0096075157737565177 0.01170790198883782 0 0.010131535923083019 0.011961845712367811 0 0.010359818534339071 0.011613895475701351 0 0.010131535923083019 0.011961845712367811 0 0.010038166752140332 0.012371283221232767 0 0.0082114683465630833 0.012629849481922533 0 0.010131535923083019 0.011961845712367811 0 0.010038166752140332 0.012371283221232767 0 0.010750475495229646 0.012049053169433365 0 0.0082114683465630833 0.012629849481922533 0 0.007314295125407406 0.013111110278054413 0 0.007317185431027425 0.013092209345592482 0 0.010038166752140332 0.012371283221232767 0 0.0082114683465630833 0.012629849481922533 0 0.0097249097834455223 0.012598917606050846 0 0.0081633267714157683 0.012395665695357116 0 0.0085962153013356343 0.01294175776102323 0 0.011536058138478949 0.011490828287355601 0 0.01112368388681673 0.011493448986148139 0 0.011406812828254018 0.011643294270108453 0 0.011536058138478949 0.011490828287355601 0 0.011406812828254018 0.011643294270108453 0 0.012069915965582448 0.011525532944001668 0 0.011893699766623939 0.011446825528422109 0 0.011536058138478949 0.011490828287355601 0 0.012069915965582448 0.011525532944001668 0 0.011893699766623939 0.011446825528422109 0 0.011644082321253607 0.011286675223252999 0 0.011579584026514888 0.011384094427193002 0 0.011893699766623939 0.011446825528422109 0 0.011579584026514888 0.011384094427193002 0 0.011536058138478949 0.011490828287355601 0 0.011223660864206416 0.011296359105379572 0 0.011579584026514888 0.011384094427193002 0 0.011536058138478949 0.011490828287355601 0 0.011223660864206416 0.011296359105379572 0 0.011536058138478949 0.011490828287355601 0 0.01112368388681673 0.011493448986148139 0 0.01112368388681673 0.011493448986148139 0 0.010359818534339071 0.011613895475701351 0 0.010855218473727318 0.011664669484526591 0 0.010531616065321436 0.011381487846582028 0 0.01112368388681673 0.011493448986148139 0 0.010359818534339071 0.011613895475701351 0 0.010131535923083019 0.011961845712367811 0 0.010359818534339071 0.011613895475701351 0 0.010855218473727318 0.011664669484526591 0 0.010131535923083019 0.011961845712367811 0 0.010855218473727318 0.011664669484526591 0 0.010984763255469654 0.011813359931678596 0 0.01112368388681673 0.011493448986148139 0 0.010855218473727318 0.011664669484526591 0 0.011406812828254018 0.011643294270108453 0 0.010855218473727318 0.011664669484526591 0 0.010984763255469654 0.011813359931678596 0 0.011406812828254018 0.011643294270108453 0 0.010984763255469654 0.011813359931678596 0 0.011517262814760379 0.0117581783938244 0 0.011406812828254018 0.011643294270108453 0 0.010131535923083019 0.011961845712367811 0 0.010984763255469654 0.011813359931678596 0 0.010750475495229646 0.012049053169433365 0 0.010750475495229646 0.012049053169433365 0 0.011517262814760379 0.0117581783938244 0 0.011383740890031111 0.01197828736201626 0 0.010984763255469654 0.011813359931678596 0 0.010750475495229646 0.012049053169433365 0 0.011517262814760379 0.0117581783938244 0 0.011517262814760379 0.0117581783938244 0 0.012069915965582448 0.011525532944001668 0 0.012206788446326151 0.011662897904456584 0 0.011517262814760379 0.0117581783938244 0 0.011406812828254018 0.011643294270108453 0 0.012069915965582448 0.011525532944001668 0 0.011517262814760379 0.0117581783938244 0 0.012206788446326151 0.011662897904456584 0 0.011383740890031111 0.01197828736201626 0 0.012206788446326151 0.011662897904456584 0 0.011915541026847262 0.012011289013789178 0 0.011383740890031111 0.01197828736201626 0 0.012206788446326151 0.011662897904456584 0 0.012897490036053188 0.011788238976551227 0 0.011915541026847262 0.012011289013789178 0 0.012897490036053188 0.011788238976551227 0 0.011915541026847262 0.012011289013789178 0 0.012346420602684864 0.012185473027128416 0 0.011147301355003272 0.012409179544011471 0 0.011620905193195429 0.012363957912438679 0 0.011195593417293929 0.012203948416773486 0 0.011620905193195429 0.012363957912438679 0 0.011915541026847262 0.012011289013789178 0 0.012346420602684864 0.012185473027128416 0 0.011620905193195429 0.012363957912438679 0 0.011915541026847262 0.012011289013789178 0 0.011195593417293929 0.012203948416773486 0 0.011147301355003272 0.012409179544011471 0 0.011195593417293929 0.012203948416773486 0 0.010943765096297789 0.012333960910135529 0 0.011195593417293929 0.012203948416773486 0 0.011383740890031111 0.01197828736201626 0 0.010726493341714783 0.012240583647551047 0 0.011915541026847262 0.012011289013789178 0 0.011195593417293929 0.012203948416773486 0 0.011383740890031111 0.01197828736201626 0 0.010750475495229646 0.012049053169433365 0 0.011383740890031111 0.01197828736201626 0 0.010726493341714783 0.012240583647551047 0 0.010351833120927519 0.012420366449745385 0 0.0097249097834455223 0.012598917606050846 0 0.010582461153645941 0.012460607439292302 0 0.010038166752140332 0.012371283221232767 0 0.010750475495229646 0.012049053169433365 0 0.010726493341714783 0.012240583647551047 0 0.0085962153013356343 0.01294175776102323 0 0.0082517204233360283 0.01121620806046573 0 0.010038166752140332 0.012371283221232767 0 0.010726493341714783 0.012240583647551047 0 0.010351833120927519 0.012420366449745385 0 0.010038166752140332 0.012371283221232767 0 0.010351833120927519 0.012420366449745385 0 0.0097249097834455223 0.012598917606050846 0 0.010351833120927519 0.012420366449745385 0 0.010721975596900192 0.012356476808665357 0 0.010582461153645941 0.012460607439292302 0 0.010726493341714783 0.012240583647551047 0 0.010351833120927519 0.012420366449745385 0 0.010721975596900192 0.012356476808665357 0 0.011195593417293929 0.012203948416773486 0 0.010726493341714783 0.012240583647551047 0 0.010721975596900192 0.012356476808665357 0 0.007317185431027425 0.013092209345592482 0 0.0071756942605913096 0.01294385336438271 0 0.0070428292349297575 0.012887286032783373 0 0.007314295125407406 0.013111110278054413 0 0.0071756942605913096 0.01294385336438271 0 0.0066452434830377794 0.01330584575854594 0 0.007314295125407406 0.013111110278054413 0 0.007317185431027425 0.013092209345592482 0 0.0071756942605913096 0.01294385336438271 0 0.0043701051599724268 0.0079762367691697863 0 0.0011277305579027476 0.005413025100278677 0 0.00011443986471974505 0.0049463888900759577 0 -0.0002037776628908153 0.0059893721825081602 0 -0.0010444104004348953 0.0051733459890239766 0 0.0058777902095842544 0.0074500189200939343 0 0.0063484344243751037 0.0076705162212067574 0 0.0057148335841177324 0.0090305260279183071 0 0.010767265336899659 0.012378839262404759 0 0.010592299562206087 0.012321143006555959 0 0.011201093030008895 0.012973824376628936 0 0.011195593417293929 0.012203948416773486 0 0.010943765096297789 0.012333960910135529 0 0.010721975596900192 0.012356476808665357 0 0.010767265336899659 0.012378839262404759 0 0.010943765096297789 0.012333960910135529 0 0.010721975596900192 0.012356476808665357 0 0.0043701051599724268 0.0079762367691697863 0 0.0082517204233360283 0.01121620806046573 0 0.0096029854305255073 0.011857511010220815 0 0.0082517204233360283 0.01121620806046573 0 0.010767265336899659 0.012378839262404759 0 0.010721975596900192 0.012356476808665357 0 0.010582461153645941 0.012460607439292302 0 0.011147301355003272 0.012409179544011471 0 0.010767265336899659 0.012378839262404759 0 0.010943765096297789 0.012333960910135529 0 0.0063484344243751037 0.0076705162212067574 0 0.0070295315225661634 0.0090039161338205977 0 0.0057148335841177324 0.0090305260279183071 0 0.010864919244923079 0.0093614032789796266 0 0.0011277305579027476 0.005413025100278677 0 0.0082517204233360283 0.01121620806046573 0 0.010864919244923079 0.0093614032789796266 0 0.011147301355003272 0.012409179544011471 0 0.010767265336899659 0.012378839262404759 0 0.011201093030008895 0.012973824376628936 0 0.0089017657636831019 0.0064735947915190049 0 0.0068476588099727499 0.007472307366164734 0 0.0071450535157136213 0.0041291331511776382 0 -0.00022939833039843394 0.0045326470075586099 0 0.0011277305579027476 0.005413025100278677 0 -0.0066211473854112255 0.0021421792663830477 0 -0.0059937237278763419 0.002281727241911826 0 -0.0076287795518953268 0.0050731802527844835 0 0.0089017657636831019 0.0064735947915190049 0 0.009991098007966567 0.0040447395500619251 0 0.0071450535157136213 0.0041291331511776382 0 0.012864871010019735 0.0089870363466975894 0 0.010864919244923079 0.0093614032789796266 0 0.011400073581970328 0.0067969062530908184 0 0.0089017657636831019 0.0064735947915190049 0 0.009991098007966567 0.0040447395500619251 0 0.014169220076991012 0.01157222945763719 0 0.01431043274204666 0.011846726489280918 0 0.014161609068404947 0.01188148613550369 0 0.014169220076991012 0.01157222945763719 0 0.014058784559531098 0.011669473699874661 0 0.014161609068404947 0.01188148613550369 0 0.014058784559531098 0.011669473699874661 0 0.013658240932652655 0.012057865157221742 0 0.014161609068404947 0.01188148613550369 0 0.012897490036053188 0.011788238976551227 0 0.013658240932652655 0.012057865157221742 0 0.012346420602684864 0.012185473027128416 0 0.013418067021912337 0.012166030133733449 0 0.013383043999958591 0.012180748361756153 0 0.013658240932652655 0.012057865157221742 0 0.012346420602684864 0.012185473027128416 0 0.012110431259501652 0.012861817056292571 0 0.011620905193195429 0.012363957912438679 0 0.012346420602684864 0.012185473027128416 0 0.012110431259501652 0.012861817056292571 0 0.011147301355003272 0.012409179544011471 0 0.011620905193195429 0.012363957912438679 0 0.011201093030008895 0.012973824376628936 0 0.010864919244923079 0.0093614032789796266 0 0.013383043999958591 0.012180748361756153 0 0.011620905193195429 0.012363957912438679 0 0.011201093030008895 0.012973824376628936 0 0.012110431259501652 0.012861817056292571 0 -0.0017907803733616316 0.0051540360031766732 0 -0.0017992825862802888 0.004643138468577359 0 -0.0026141466883112799 0.0053354796000109886 0 -0.0017907803733616316 0.0051540360031766732 0 -0.0015803181606969818 0.004823258873329404 0 -0.0017992825862802888 0.004643138468577359 0 -0.0017907803733616316 0.0051540360031766732 0 -0.0015803181606969818 0.004823258873329404 0 -0.0017901326712310695 0.0050925625809482497 0 -0.0018009291338868954 0.0081973439649412616 0 -0.0020613361089785302 0.0059377550003518603 0 -0.0015803181606969818 0.004823258873329404 0 -0.0017992825862802888 0.004643138468577359 0 -0.0016917664204930531 0.004218365471194899 0 -0.0018009291338868954 0.0081973439649412616 0 -0.0082908929861644776 0.0066515312170621803 0 -0.002044888217829268 0.0036357532628573525 0 -0.0017992825862802888 0.004643138468577359 0 -0.0026141466883112799 0.0053354796000109886 0 -0.002044888217829268 0.0036357532628573525 0 -0.0017992825862802888 0.004643138468577359 0 -0.0016917664204930531 0.004218365471194899 0 -0.0059937237278763419 0.002281727241911826 0 -0.002044888217829268 0.0036357532628573525 0 -0.0026141466883112799 0.0053354796000109886 0 -0.0059937237278763419 0.002281727241911826 0 -0.0076287795518953268 0.0050731802527844835 0 -0.0026141466883112799 0.0053354796000109886 0 -0.0002037776628908153 0.0059893721825081602 0 -0.0026141466883112799 0.0053354796000109886 0 -0.0010444104004348953 0.0051733459890239766 0 0.0011277305579027476 0.005413025100278677 0 -0.0048166521754166147 0.0054170175754926688 0 -0.0017907803733616316 0.0051540360031766732 0 -0.0026141466883112799 0.0053354796000109886 0 -0.0014161511862614549 0.0050703792196682921 0 -0.0026141466883112799 0.0053354796000109886 0 -0.0014161511862614549 0.0050703792196682921 0 -0.0010444104004348953 0.0051733459890239766 0 0.00011443986471974505 0.0049463888900759577 0 -0.0010444104004348953 0.0051733459890239766 0 -0.00061813050456970345 0.0048352909222365925 0 -0.0014161511862614549 0.0050703792196682921 0 -0.0010444104004348953 0.0051733459890239766 0 -0.00061813050456970345 0.0048352909222365925 0 0.0043701051599724268 0.0079762367691697863 0 0.0028715840186846653 0.009167750054018417 0 -0.0014161511862614549 0.0050703792196682921 0 -0.00061813050456970345 0.0048352909222365925 0 -0.0014251447164490322 0.0048670393006441529 0 -0.00061813050456970345 0.0048352909222365925 0 -0.0014251447164490322 0.0048670393006441529 0 -0.0010336396281294018 0.0042017894085784576 0 -0.0014251447164490322 0.0048670393006441529 0 -0.0018204490355771884 0.0042276187478854817 0 -0.0010336396281294018 0.0042017894085784576 0 -0.0017907803733616316 0.0051540360031766732 0 -0.0014251447164490322 0.0048670393006441529 0 -0.0017901326712310695 0.0050925625809482497 0 -0.0017907803733616316 0.0051540360031766732 0 -0.0014161511862614549 0.0050703792196682921 0 -0.0014251447164490322 0.0048670393006441529 0 -0.0028827536225481806 0.010670800241693678 0 -0.0022788852225037229 0.0070188686422986745 0 -0.0046895413569493141 0.0070344709773806869 0 -0.0020613361089785302 0.0059377550003518603 0 -0.0018089178959989807 0.0043894678790305092 0 -0.0022788852225037229 0.0070188686422986745 0 -0.0018204490355771884 0.0042276187478854817 0 -0.0033141166934554695 0.0039430360842510554 0 -0.0014251447164490322 0.0048670393006441529 0 -0.0017901326712310695 0.0050925625809482497 0 -0.0018204490355771884 0.0042276187478854817 0 0.0052854061032550645 0.013764044210148613 0 0.0046485513419825377 0.013242419305578342 0 0.002647025136353399 0.013840093443377851 0 0.0020244674669744321 0.008886005162366338 0 -0.0002135042705398476 0.0082044211034513256 0 -0.0018204490355771884 0.0042276187478854817 0 -0.0010336396281294018 0.0042017894085784576 0 -0.0029915277911421981 0.002341303485308509 0 -0.0018204490355771884 0.0042276187478854817 0 -0.0033141166934554695 0.0039430360842510554 0 -0.0029915277911421981 0.002341303485308509 0 0.0052854061032550645 0.013764044210148613 0 0.0046485513419825377 0.013242419305578342 0 0.005765500259348728 0.01287858840069432 0 0.0046485513419825377 0.013242419305578342 0 0.005765500259348728 0.01287858840069432 0 0.0047159634146277255 0.01248459613183301 0 0.0032218943904103207 0.012290878793329577 0 0.0047159634146277255 0.01248459613183301 0 0.002647025136353399 0.013840093443377851 0 0.0046485513419825377 0.013242419305578342 0 0.0047159634146277255 0.01248459613183301 0 0.002647025136353399 0.013840093443377851 0 0.007314295125407406 0.013111110278054413 0 0.0066452434830377794 0.01330584575854594 0 0.0067749463846865522 0.012982851792784765 0 0.0082114683465630833 0.012629849481922533 0 0.007314295125407406 0.013111110278054413 0 0.0067749463846865522 0.012982851792784765 0 0.0028715840186846653 0.009167750054018417 0 0.0020244674669744321 0.008886005162366338 0 0.0066452434830377794 0.01330584575854594 0 0.0052854061032550645 0.013764044210148613 0 0.0067749463846865522 0.012982851792784765 0 0.0052854061032550645 0.013764044210148613 0 0.005765500259348728 0.01287858840069432 0 0.0067749463846865522 0.012982851792784765 0 0.005765500259348728 0.01287858840069432 0 0.0067749463846865522 0.012982851792784765 0 0.0068658241472898153 0.012209794150257015 0 0.0082114683465630833 0.012629849481922533 0 0.0067749463846865522 0.012982851792784765 0 0.0079228570906655898 0.012151422536642559 0 0.0067749463846865522 0.012982851792784765 0 0.0079228570906655898 0.012151422536642559 0 0.0068658241472898153 0.012209794150257015 0 0.0079228570906655898 0.012151422536642559 0 0.0078382645794776405 0.011675862381169832 0 0.0068658241472898153 0.012209794150257015 0 0.0078382645794776405 0.011675862381169832 0 0.0068658241472898153 0.012209794150257015 0 0.0069883252749994035 0.011511876419850695 0 0.0068658241472898153 0.012209794150257015 0 0.0069883252749994035 0.011511876419850695 0 0.006007478826523611 0.011955496246872558 0 0.005765500259348728 0.01287858840069432 0 0.0068658241472898153 0.012209794150257015 0 0.006007478826523611 0.011955496246872558 0 0.0086686376598863555 0.01136424691193349 0 0.0078382645794776405 0.011675862381169832 0 0.0083843302488833937 0.011584570359702919 0 0.0078382645794776405 0.011675862381169832 0 0.0069883252749994035 0.011511876419850695 0 0.0083843302488833937 0.011584570359702919 0 0.0032218943904103207 0.012290878793329577 0 0.0038795010617302659 0.011433119090998629 0 0.0024325231771967046 0.010958898590752639 0 0.0047159634146277255 0.01248459613183301 0 0.0053639728406600093 0.011373526058700163 0 0.0038795010617302659 0.011433119090998629 0 0.0032218943904103207 0.012290878793329577 0 0.0047159634146277255 0.01248459613183301 0 0.0038795010617302659 0.011433119090998629 0 0.005765500259348728 0.01287858840069432 0 0.0047159634146277255 0.01248459613183301 0 0.006007478826523611 0.011955496246872558 0 0.0047159634146277255 0.01248459613183301 0 0.006007478826523611 0.011955496246872558 0 0.0053639728406600093 0.011373526058700163 0 0.0069883252749994035 0.011511876419850695 0 0.006007478826523611 0.011955496246872558 0 0.0053639728406600093 0.011373526058700163 0 0.0069883252749994035 0.011511876419850695 0 0.0053639728406600093 0.011373526058700163 0 0.0062490257841820943 0.010836006588101651 0 0.0053639728406600093 0.011373526058700163 0 0.0038795010617302659 0.011433119090998629 0 0.0041138010458362457 0.010381691264356445 0 0.0038795010617302659 0.011433119090998629 0 0.0041138010458362457 0.010381691264356445 0 0.0024325231771967046 0.010958898590752639 0 0.0053639728406600093 0.011373526058700163 0 0.0041138010458362457 0.010381691264356445 0 0.0062490257841820943 0.010836006588101651 0 0.0041138010458362457 0.010381691264356445 0 0.0062490257841820943 0.010836006588101651 0 0.0051336488540807456 0.010372299655714023 0 0.0062490257841820943 0.010836006588101651 0 0.0051336488540807456 0.010372299655714023 0 0.0057051632552281746 0.010125484622696445 0 0.0062490257841820943 0.010836006588101651 0 0.0057051632552281746 0.010125484622696445 0 0.0072787203451062463 0.010632778080154677 0 0.0051336488540807456 0.010372299655714023 0 0.0048142212269082886 0.010075480358040853 0 0.0057051632552281746 0.010125484622696445 0 0.0041138010458362457 0.010381691264356445 0 0.0051336488540807456 0.010372299655714023 0 0.0048142212269082886 0.010075480358040853 0 0.0048142212269082886 0.010075480358040853 0 0.0057051632552281746 0.010125484622696445 0 0.0047657672712372789 0.0097226518636450102 0 0.0057051632552281746 0.010125484622696445 0 0.0067222655227183476 0.0096010415900438933 0 0.0072787203451062463 0.010632778080154677 0 0.0057051632552281746 0.010125484622696445 0 0.0067222655227183476 0.0096010415900438933 0 0.0054610657698096095 0.0093038316759555626 0 0.0054610657698096095 0.0093038316759555626 0 0.0047657672712372789 0.0097226518636450102 0 0.0044767904132799602 0.0091408156422032212 0 0.0057051632552281746 0.010125484622696445 0 0.0054610657698096095 0.0093038316759555626 0 0.0047657672712372789 0.0097226518636450102 0 0.0080267755357013894 0.010084176416208976 0 0.0091109057686156129 0.010914820732789734 0 0.00958933632421923 0.010266247549689116 0 0.0080267755357013894 0.010084176416208976 0 0.00958933632421923 0.010266247549689116 0 0.0082439209047928865 0.0090745120640454407 0 0.0067222655227183476 0.0096010415900438933 0 0.0080267755357013894 0.010084176416208976 0 0.0082439209047928865 0.0090745120640454407 0 0.0067222655227183476 0.0096010415900438933 0 0.0080267755357013894 0.010084176416208976 0 0.0072787203451062463 0.010632778080154677 0 0.0080267755357013894 0.010084176416208976 0 0.0072787203451062463 0.010632778080154677 0 0.0091109057686156129 0.010914820732789734 0 0.0072787203451062463 0.010632778080154677 0 0.0091109057686156129 0.010914820732789734 0 0.0088453460389922856 0.011452945277702393 0 0.0072787203451062463 0.010632778080154677 0 0.0088453460389922856 0.011452945277702393 0 0.0075973124999253435 0.011246739509479601 0 0.0062490257841820943 0.010836006588101651 0 0.0072787203451062463 0.010632778080154677 0 0.0075973124999253435 0.011246739509479601 0 0.0069883252749994035 0.011511876419850695 0 0.0062490257841820943 0.010836006588101651 0 0.0075973124999253435 0.011246739509479601 0 0.0069883252749994035 0.011511876419850695 0 0.0075973124999253435 0.011246739509479601 0 0.0083843302488833937 0.011584570359702919 0 0.0088453460389922856 0.011452945277702393 0 0.0075973124999253435 0.011246739509479601 0 0.0083843302488833937 0.011584570359702919 0 0.0087015573326472122 0.011625961289567163 0 0.010201731945877715 0.0115723700463468 0 0.0083843302488833937 0.011584570359702919 0 0.010914353647959297 0.012883707125387917 0 0.010775330470611166 0.012203466236088482 0 0.0086686376598863555 0.01136424691193349 0 0.0083843302488833937 0.011584570359702919 0 0.0093508922024620241 0.010397965068414918 0 0.009590701823775959 0.011072331881340668 0 0.0093508922024620241 0.010397965068414918 0 0.010129899805380593 0.010574766631171994 0 0.010201731945877715 0.0115723700463468 0 0.011719513768587167 0.011320085467929742 0 0.0093508922024620241 0.010397965068414918 0 0.010129899805380593 0.010574766631171994 0 0.01055256223217719 0.0099209545466030485 0 0.010775330470611166 0.012203466236088482 0 0.013031648863354981 0.012764431660758633 0 0.012221909188378588 0.012293950220167349 0 0.010914353647959297 0.012883707125387917 0 0.010775330470611166 0.012203466236088482 0 0.013031648863354981 0.012764431660758633 0 0.0088453460389922856 0.011452945277702393 0 0.0083843302488833937 0.011584570359702919 0 0.010775330470611166 0.012203466236088482 0 0.0088453460389922856 0.011452945277702393 0 0.010775330470611166 0.012203466236088482 0 0.010563572347854901 0.011675667317732067 0 0.01114959712317325 0.010420390282827855 0 0.01055256223217719 0.0099209545466030485 0 0.011455688179910734 0.0097863039967383391 0 0.01114959712317325 0.010420390282827855 0 0.010129899805380593 0.010574766631171994 0 0.01055256223217719 0.0099209545466030485 0 0.013031648863354981 0.012764431660758633 0 0.013313049911479734 0.012584942803690442 0 0.012221909188378588 0.012293950220167349 0 0.013031648863354981 0.012764431660758633 0 0.013161477590406053 0.01260413222710924 0 0.013313049911479734 0.012584942803690442 0 0.013031648863354981 0.012764431660758633 0 0.012606320028055082 0.011994466247557296 0 0.013161477590406053 0.01260413222710924 0 0.011719513768587167 0.011320085467929742 0 0.011926613832210761 0.010741287002354785 0 0.012606320028055082 0.011994466247557296 0 0.013161477590406053 0.01260413222710924 0 0.012063448562730308 0.013290611291293299 0 0.013161477590406053 0.01260413222710924 0 0.013565797686801955 0.013405077031543439 0 0.012063448562730308 0.013290611291293299 0 0.013161477590406053 0.01260413222710924 0 0.013565797686801955 0.013405077031543439 0 0.013313049911479734 0.012584942803690442 0 0.013565797686801955 0.013405077031543439 0 0.013313049911479734 0.012584942803690442 0 0.013904306523089573 0.012998774129246058 0 0.013313049911479734 0.012584942803690442 0 0.013208033012460655 0.01251740122932302 0 0.012221909188378588 0.012293950220167349 0 0.013313049911479734 0.012584942803690442 0 0.013208033012460655 0.01251740122932302 0 0.013904306523089573 0.012998774129246058 0 0.013208033012460655 0.01251740122932302 0 0.014299111994480612 0.012631750352878401 0 0.013072282196236646 0.012181852209042998 0 0.013208033012460655 0.01251740122932302 0 0.014299111994480612 0.012631750352878401 0 0.013904306523089573 0.012998774129246058 0 0.013757611735107162 0.012096390137043615 0 0.014299111994480612 0.012631750352878401 0 0.013072282196236646 0.012181852209042998 0 0.014299111994480612 0.012631750352878401 0 0.014248467223570153 0.014155765482557627 0 0.014958749100962617 0.016121886739897947 0 0.014299111994480612 0.012631750352878401 0 0.014248467223570153 0.014155765482557627 0 0.013904306523089573 0.012998774129246058 0 0.013565797686801955 0.013405077031543439 0 0.014248467223570153 0.014155765482557627 0 0.013904306523089573 0.012998774129246058 0 0.013565797686801955 0.013405077031543439 0 0.013044509196163033 0.016131575823523127 0 0.012063448562730308 0.013290611291293299 0 0.013565797686801955 0.013405077031543439 0 0.014248467223570153 0.014155765482557627 0 0.013044509196163033 0.016131575823523127 0 0.014248467223570153 0.014155765482557627 0 0.013044509196163033 0.016131575823523127 0 0.014958749100962617 0.016121886739897947 0 0.0091109057686156129 0.010914820732789734 0 0.0088453460389922856 0.011452945277702393 0 0.010563572347854901 0.011675667317732067 0 0.010563572347854901 0.011675667317732067 0 0.011934884983926298 0.011925996743167289 0 0.010609335144778428 0.011179107373045661 0 0.0091109057686156129 0.010914820732789734 0 0.010563572347854901 0.011675667317732067 0 0.010609335144778428 0.011179107373045661 0 0.010775330470611166 0.012203466236088482 0 0.010563572347854901 0.011675667317732067 0 0.012221909188378588 0.012293950220167349 0 0.010563572347854901 0.011675667317732067 0 0.012221909188378588 0.012293950220167349 0 0.011934884983926298 0.011925996743167289 0 0.013208033012460655 0.01251740122932302 0 0.012221909188378588 0.012293950220167349 0 0.011934884983926298 0.011925996743167289 0 0.011934884983926298 0.011925996743167289 0 0.011508874668342805 0.010872279949404595 0 0.010609335144778428 0.011179107373045661 0 0.011934884983926298 0.011925996743167289 0 0.013072282196236646 0.012181852209042998 0 0.011508874668342805 0.010872279949404595 0 0.013208033012460655 0.01251740122932302 0 0.011934884983926298 0.011925996743167289 0 0.013072282196236646 0.012181852209042998 0 0.013757611735107162 0.012096390137043615 0 0.013072282196236646 0.012181852209042998 0 0.011508874668342805 0.010872279949404595 0 0.011508874668342805 0.010872279949404595 0 0.010609335144778428 0.011179107373045661 0 0.00958933632421923 0.010266247549689116 0 0.0091109057686156129 0.010914820732789734 0 0.010609335144778428 0.011179107373045661 0 0.00958933632421923 0.010266247549689116 0 0.011508874668342805 0.010872279949404595 0 0.00958933632421923 0.010266247549689116 0 0.0098313627243267962 0.0091074374991014818 0 0.011508874668342805 0.010872279949404595 0 0.0098313627243267962 0.0091074374991014818 0 0.011479228291419293 0.0084690992266189726 0 0.013757611735107162 0.012096390137043615 0 0.011508874668342805 0.010872279949404595 0 0.011479228291419293 0.0084690992266189726 0 0.01367830538707485 0.011898210564582051 0 0.013223074449047348 0.011272672108052025 0 0.013757611735107162 0.012096390137043615 0 0.01479831559877836 0.013443626397574361 0 0.012788431134847239 0.01323142337543242 0 0.01479831559877836 0.013443626397574361 0 0.014642024794732617 0.015052910834399507 0 0.013727233742815644 0.014954105555592716 0 0.01479831559877836 0.013443626397574361 0 0.012788431134847239 0.01323142337543242 0 0.013727233742815644 0.014954105555592716 0 0.01479831559877836 0.013443626397574361 0 0.015615402769663249 0.015436137042526124 0 0.014642024794732617 0.015052910834399507 0 0.011479228291419293 0.0084690992266189726 0 0.0099077380049044008 0.0080747037840867182 0 0.0099218960956897785 0.0071347713356703056 0 0.013223074449047348 0.011272672108052025 0 0.012629485998955543 0.010076907835712051 0 0.01479831559877836 0.013443626397574361 0 0.015705756021827562 0.015336566700210479 0 0.015615402769663249 0.015436137042526124 0 0.0099077380049044008 0.0080747037840867182 0 0.0099218960956897785 0.0071347713356703056 0 0.0091337830501157461 0.0075464871724439907 0 0.0098313627243267962 0.0091074374991014818 0 0.0099077380049044008 0.0080747037840867182 0 0.0090455302146568144 0.0082373967250263993 0 0.0098313627243267962 0.0091074374991014818 0 0.011479228291419293 0.0084690992266189726 0 0.0099077380049044008 0.0080747037840867182 0 0.014958749100962617 0.016121886739897947 0 0.017400553902757607 0.019925678007 0 0.013452115105443361 0.021596203766300212 0 0.013044509196163033 0.016131575823523127 0 0.014958749100962617 0.016121886739897947 0 0.013452115105443361 0.021596203766300212 0 0.014531738980896486 0.013196785101570845 0 0.014892431766378786 0.016909014508501991 0 0.013757611735107162 0.012096390137043615 0 0.014299111994480612 0.012631750352878401 0 0.012788431134847239 0.01323142337543242 0 0.014299111994480612 0.012631750352878401 0 0.014958749100962617 0.016121886739897947 0 0.017400553902757607 0.019925678007 0 0.012788431134847239 0.01323142337543242 0 0.011659978173038191 0.016072692342569955 0 0.013727233742815644 0.014954105555592716 0 0.014892431766378786 0.016909014508501991 0 0.014595957466763428 0.020545816699884749 0 0.017400553902757607 0.019925678007 0 0.017624967317937196 0.026485951390996659 0 0.013452115105443361 0.021596203766300212 0 0.017624967317937196 0.026485951390996659 0 0.013452115105443361 0.021596203766300212 0 0.011916397126353532 0.026912643746880831 0 0.011659978173038191 0.016072692342569955 0 0.013727233742815644 0.014954105555592716 0 0.014367536260310803 0.016625137682014648 0 0.011659978173038191 0.016072692342569955 0 0.013498929215251214 0.018514165328984068 0 0.014367536260310803 0.016625137682014648 0 0.011659978173038191 0.016072692342569955 0 0.013498929215251214 0.018514165328984068 0 0.010817897295693064 0.019219004588570177 0 0.014595957466763428 0.020545816699884749 0 0.014927694852777876 0.029778966253014384 0 0.017624967317937196 0.026485951390996659 0 0.014482988394367624 0.030114938525339554 0 0.016932272063355926 0.032511607563328625 0 0.015705756021827562 0.015336566700210479 0 0.015298450917326855 0.014727760632511359 0 0.014372243991099742 0.014192483928154689 0 0.015705756021827562 0.015336566700210479 0 0.015615402769663249 0.015436137042526124 0 0.015298450917326855 0.014727760632511359 0 0.014642024794732617 0.015052910834399507 0 0.013727233742815644 0.014954105555592716 0 0.014367536260310803 0.016625137682014648 0 0.015615402769663249 0.015436137042526124 0 0.014642024794732617 0.015052910834399507 0 0.014367536260310803 0.016625137682014648 0 0.013498929215251214 0.018514165328984068 0 0.014367536260310803 0.016625137682014648 0 0.016016259538382524 0.017951743971255329 0 0.01757016335920316 0.027178736834634881 0 0.016979625251114867 0.024641448265371759 0 0.015737287850938749 0.014025483636087134 0 0.015298450917326855 0.014727760632511359 0 0.014372243991099742 0.014192483928154689 0 0.015615402769663249 0.015436137042526124 0 0.014367536260310803 0.016625137682014648 0 0.016016259538382524 0.017951743971255329 0 0.015423468383825868 0.012279621098273618 0 0.016979625251114867 0.024641448265371759 0 0.0096229578554140275 0.028182902952467923 0 0.012221655231927383 0.027744483831087449 0 0.011216962438994227 0.029504347502613059 0 0.016979625251114867 0.024641448265371759 0 0.0097496978094871369 0.016937453402799535 0 0.015615402769663249 0.015436137042526124 0 0.015737287850938749 0.014025483636087134 0 0.015298450917326855 0.014727760632511359 0 0.0097496978094871369 0.016937453402799535 0 0.0043792570042075728 0.016048293966022288 0 0.012221655231927383 0.027744483831087449 0 0.013248346809572289 0.029335173506679871 0 0.011216962438994227 0.029504347502613059 0 0.0052657752602121447 0.020659813127174166 0 0.0071598596407330241 0.0203312711772064 0 0.0060231892538054263 0.021840310611583452 0 0.0097496978094871369 0.016937453402799535 0 0.003839065620283421 0.030239370099698421 0 0.0099218960956897785 0.0071347713356703056 0 0.0088895914658571364 0.0058684932256813527 0 0.0087900318132009912 0.0069910742222898808 0 0.012629485998955543 0.010076907835712051 0 0.0097496978094871369 0.016937453402799535 0 0.0088895914658571364 0.0058684932256813527 0 0.0087900318132009912 0.0069910742222898808 0 0.0078629233337839978 0.006843310123254601 0 0.0087900318132009912 0.0069910742222898808 0 0.0091337830501157461 0.0075464871724439907 0 0.0080461535494965025 0.0077737283515586916 0 0.0087900318132009912 0.0069910742222898808 0 0.0078629233337839978 0.006843310123254601 0 0.0080461535494965025 0.0077737283515586916 0 0.0099218960956897785 0.0071347713356703056 0 0.0087900318132009912 0.0069910742222898808 0 0.0091337830501157461 0.0075464871724439907 0 0.0078629233337839978 0.006843310123254601 0 0.0059879676414231553 0.007751978010334613 0 0.0080461535494965025 0.0077737283515586916 0 0.0078629233337839978 0.006843310123254601 0 0.0075170570046315969 0.0059525874901830197 0 0.0059879676414231553 0.007751978010334613 0 0.0088895914658571364 0.0058684932256813527 0 0.0078629233337839978 0.006843310123254601 0 0.0075170570046315969 0.0059525874901830197 0 -0.0010077386575918243 0.032957602609277332 0 -0.0013412361478816761 0.032677298597853836 0 -0.00071372916414202351 0.032650879938613375 0 0.0043792570042075728 0.016048293966022288 0 0.003839065620283421 0.030239370099698421 0 -0.0018798787094756082 0.033043978001066045 0 -0.0019074564890209488 0.032607556619394643 0 -0.0013412361478816761 0.032677298597853836 0 0.0043792570042075728 0.016048293966022288 0 0.0015785174304811689 0.020222459288987263 0 -0.0010077386575918243 0.032957602609277332 0 -0.0018798787094756082 0.033043978001066045 0 -0.0013412361478816761 0.032677298597853836 0 -0.0018798787094756082 0.033043978001066045 0 -0.0022627973094421117 0.032679500345184277 0 -0.0019074564890209488 0.032607556619394643 0 -0.0018798787094756082 0.033043978001066045 0 -0.0022627973094421117 0.032679500345184277 0 -0.0027253212971818197 0.033122861912617492 0 0.0015785174304811689 0.020222459288987263 0 0.00036170600487289207 0.024223541017605269 0 0.0055942012327400278 0.0073051966092387306 0 0.0050862158673402654 0.0078583691564386663 0 0.0044119511300430621 0.0074826499344722297 0 0.0055942012327400278 0.0073051966092387306 0 0.0050862158673402654 0.0078583691564386663 0 0.0059879676414231553 0.007751978010334613 0 0.0062366807157776183 0.0073470709669956656 0 0.0055942012327400278 0.0073051966092387306 0 0.0059879676414231553 0.007751978010334613 0 0.0043792570042075728 0.016048293966022288 0 0.0076147446535622188 0.0040380610171679206 0 0.0059879676414231553 0.007751978010334613 0 0.0060479911224968104 0.0087546830954791689 0 0.0070145706658195396 0.0084892729086212312 0 0.0059879676414231553 0.007751978010334613 0 0.0051889349859407649 0.0085807509142925391 0 0.0060479911224968104 0.0087546830954791689 0 0.0050862158673402654 0.0078583691564386663 0 0.0059879676414231553 0.007751978010334613 0 0.0051889349859407649 0.0085807509142925391 0 0.0054610657698096095 0.0093038316759555626 0 0.0051889349859407649 0.0085807509142925391 0 0.0060479911224968104 0.0087546830954791689 0 0.0054610657698096095 0.0093038316759555626 0 0.0051889349859407649 0.0085807509142925391 0 0.0044767904132799602 0.0091408156422032212 0 0.0067222655227183476 0.0096010415900438933 0 0.0060479911224968104 0.0087546830954791689 0 0.0070145706658195396 0.0084892729086212312 0 0.0067222655227183476 0.0096010415900438933 0 0.0054610657698096095 0.0093038316759555626 0 0.0060479911224968104 0.0087546830954791689 0 0.0067222655227183476 0.0096010415900438933 0 0.0082439209047928865 0.0090745120640454407 0 0.0070145706658195396 0.0084892729086212312 0 0.0098313627243267962 0.0091074374991014818 0 0.0082439209047928865 0.0090745120640454407 0 0.0090455302146568144 0.0082373967250263993 0 0.00958933632421923 0.010266247549689116 0 0.0098313627243267962 0.0091074374991014818 0 0.0082439209047928865 0.0090745120640454407 0 0.0082439209047928865 0.0090745120640454407 0 0.0090455302146568144 0.0082373967250263993 0 0.0080461535494965025 0.0077737283515586916 0 0.0099077380049044008 0.0080747037840867182 0 0.0090455302146568144 0.0082373967250263993 0 0.0091337830501157461 0.0075464871724439907 0 0.0090455302146568144 0.0082373967250263993 0 0.0091337830501157461 0.0075464871724439907 0 0.0080461535494965025 0.0077737283515586916 0 0.0082439209047928865 0.0090745120640454407 0 0.0070145706658195396 0.0084892729086212312 0 0.0080461535494965025 0.0077737283515586916 0 0.0059879676414231553 0.007751978010334613 0 0.0070145706658195396 0.0084892729086212312 0 0.0080461535494965025 0.0077737283515586916 0 0.014377702621326115 0.022253071799713749 0 0.014633712977212172 0.021708370510486984 0 0.014183723387894462 0.021816158887890891 0 0.014377702621326115 0.022253071799713749 0 0.013867857804310114 0.022156236098536564 0 0.014183723387894462 0.021816158887890891 0 0.013867857804310114 0.022156236098536564 0 0.014183723387894462 0.021816158887890891 0 0.013885997943996255 0.021872677548617835 0 0.013776570540808577 0.021961530950148727 0 0.013867857804310114 0.022156236098536564 0 0.013885997943996255 0.021872677548617835 0 0.013867857804310114 0.022156236098536564 0 0.013462397585254079 0.023196642041696133 0 0.014077897207172323 0.022987889865833586 0 0.0124549422601556 0.023559818159579554 0 0.013867857804310114 0.022156236098536564 0 0.013462397585254079 0.023196642041696133 0 0.0124549422601556 0.023559818159579554 0 0.013462397585254079 0.023196642041696133 0 0.013620488665782247 0.02425313471178113 0 0.013462397585254079 0.023196642041696133 0 0.014077897207172323 0.022987889865833586 0 0.013620488665782247 0.02425313471178113 0 0.014077897207172323 0.022987889865833586 0 0.015090268877392135 0.023190570871484722 0 0.013620488665782247 0.02425313471178113 0 0.014377702621326115 0.022253071799713749 0 0.013867857804310114 0.022156236098536564 0 0.014077897207172323 0.022987889865833586 0 0.014377702621326115 0.022253071799713749 0 0.014077897207172323 0.022987889865833586 0 0.015090268877392135 0.023190570871484722 0 0.012499175826062463 0.022688230037441921 0 0.0085712138823095373 0.027493855444457819 0 0.014377702621326115 0.022253071799713749 0 0.015068009882822123 0.021713808757253993 0 0.015567680689713417 0.021775495961845949 0 0.014377702621326115 0.022253071799713749 0 0.015090268877392135 0.023190570871484722 0 0.0182138863717838 0.021348840842634467 0 0.015090268877392135 0.023190570871484722 0 0.0182138863717838 0.021348840842634467 0 0.015598562401880045 0.024239694499501533 0 0.016348262674918151 0.021741155278242937 0 0.012499175826062463 0.022688230037441921 0 0.0055736280352867351 0.025917887618520537 0 0.0039939624777987383 0.029886600898069642 0 0.0014872026133777908 0.030408831476624019 0 0.014377702621326115 0.022253071799713749 0 0.014633712977212172 0.021708370510486984 0 0.015068009882822123 0.021713808757253993 0 0.014633712977212172 0.021708370510486984 0 0.015017458545996853 0.021461056843548047 0 0.014505828538452102 0.021311460416712072 0 0.014633712977212172 0.021708370510486984 0 0.015068009882822123 0.021713808757253993 0 0.015017458545996853 0.021461056843548047 0 0.015068009882822123 0.021713808757253993 0 0.015017458545996853 0.021461056843548047 0 0.015342780745609378 0.021358963814758315 0 0.015017458545996853 0.021461056843548047 0 0.015255471777436733 0.020983425239340957 0 0.015342780745609378 0.021358963814758315 0 0.015017458545996853 0.021461056843548047 0 0.014505828538452102 0.021311460416712072 0 0.015255471777436733 0.020983425239340957 0 0.022798159308628368 0.021127835452412966 0 0.011028451842178079 0.0205566448248162 0 0.013779148258717585 0.021328610843006756 0 0.014505828538452102 0.021311460416712072 0 0.013987752757385811 0.021615765254942167 0 0.014633712977212172 0.021708370510486984 0 0.014505828538452102 0.021311460416712072 0 0.014183723387894462 0.021816158887890891 0 0.014505828538452102 0.021311460416712072 0 0.014183723387894462 0.021816158887890891 0 0.013987752757385811 0.021615765254942167 0 0.014183723387894462 0.021816158887890891 0 0.013987752757385811 0.021615765254942167 0 0.013885997943996255 0.021872677548617835 0 0.013441606891591028 0.020685693396855512 0 0.014292656390945116 0.020381985629120872 0 0.014065335012018778 0.019611259120371 0 0.022798159308628368 0.021127835452412966 0 0.023403123231571361 0.018215540992035241 0 0.013441606891591028 0.020685693396855512 0 0.014505828538452102 0.021311460416712072 0 0.014292656390945116 0.020381985629120872 0 0.014292656390945116 0.020381985629120872 0 0.014065335012018778 0.019611259120371 0 0.014634777802843195 0.019845381474411047 0 0.014636156370850329 0.0189560569261173 0 0.014065335012018778 0.019611259120371 0 0.014623400236712405 0.019396308487658422 0 0.014065335012018778 0.019611259120371 0 0.014623400236712405 0.019396308487658422 0 0.014634777802843195 0.019845381474411047 0 0.033545923465261057 0.017857338242547243 0 0.033492596326152715 0.017946795883567679 0 0.033381416166609786 0.017843466973521942 0 0.014979195593469956 0.019370039853996483 0 0.015067779168436896 0.019900822946849295 0 0.015271662487859388 0.019517807002666043 0 0.014979195593469956 0.019370039853996483 0 0.014623400236712405 0.019396308487658422 0 0.014634777802843195 0.019845381474411047 0 0.014809432628790751 0.019149252022223673 0 0.014979195593469956 0.019370039853996483 0 0.014623400236712405 0.019396308487658422 0 0.014979195593469956 0.019370039853996483 0 0.014634777802843195 0.019845381474411047 0 0.015067779168436896 0.019900822946849295 0 0.015067779168436896 0.019900822946849295 0 0.014858853465586028 0.020448091980666279 0 0.015420323341441838 0.020359365160185848 0 0.014634777802843195 0.019845381474411047 0 0.015067779168436896 0.019900822946849295 0 0.014858853465586028 0.020448091980666279 0 0.014292656390945116 0.020381985629120872 0 0.014634777802843195 0.019845381474411047 0 0.014858853465586028 0.020448091980666279 0 0.014505828538452102 0.021311460416712072 0 0.014292656390945116 0.020381985629120872 0 0.014858853465586028 0.020448091980666279 0 0.014505828538452102 0.021311460416712072 0 0.014858853465586028 0.020448091980666279 0 0.015255471777436733 0.020983425239340957 0 0.014858853465586028 0.020448091980666279 0 0.015420323341441838 0.020359365160185848 0 0.015255471777436733 0.020983425239340957 0 0.015576099366157749 0.020724168734833792 0 0.015420323341441838 0.020359365160185848 0 0.015255471777436733 0.020983425239340957 0 0.015950179293270157 0.020616615120025827 0 0.015420323341441838 0.020359365160185848 0 0.01559175961146758 0.019668576434724305 0 0.015576099366157749 0.020724168734833792 0 0.015950179293270157 0.020616615120025827 0 0.015529858557533211 0.021149619641917014 0 0.015576099366157749 0.020724168734833792 0 0.015950179293270157 0.020616615120025827 0 0.015420323341441838 0.020359365160185848 0 0.015067779168436896 0.019900822946849295 0 0.01559175961146758 0.019668576434724305 0 0.015271662487859388 0.019517807002666043 0 0.015067779168436896 0.019900822946849295 0 0.015420323341441838 0.020359365160185848 0 0.01559175961146758 0.019668576434724305 0 0.015950179293270157 0.020616615120025827 0 0.01559175961146758 0.019668576434724305 0 0.016112833227862691 0.0195023338088272 0 0.015796266504563703 0.018920194933388514 0 0.015413033031807572 0.019108249205662155 0 0.01559175961146758 0.019668576434724305 0 0.015413033031807572 0.019108249205662155 0 0.01559175961146758 0.019668576434724305 0 0.015271662487859388 0.019517807002666043 0 0.015413033031807572 0.019108249205662155 0 0.014979195593469956 0.019370039853996483 0 0.015271662487859388 0.019517807002666043 0 0.015796266504563703 0.018920194933388514 0 0.01559175961146758 0.019668576434724305 0 0.016112833227862691 0.0195023338088272 0 0.015220362132046793 0.01892029274053315 0 0.015639637397330441 0.018579672970979684 0 0.015553957096196702 0.018785333333620167 0 0.015639637397330441 0.018579672970979684 0 0.015553957096196702 0.018785333333620167 0 0.01572199538515939 0.018780950530718037 0 0.015915286319724036 0.01929289827628235 0 0.015792138300086557 0.01918946122570649 0 0.015220362132046793 0.01892029274053315 0 0.015553957096196702 0.018785333333620167 0 0.015417011129735035 0.019029516230042426 0 0.015553957096196702 0.018785333333620167 0 0.015417011129735035 0.019029516230042426 0 0.015660677145700876 0.018965792900555944 0 0.015553957096196702 0.018785333333620167 0 0.015660677145700876 0.018965792900555944 0 0.01572199538515939 0.018780950530718037 0 0.015417011129735035 0.019029516230042426 0 0.015697133899659495 0.0195505727582806 0 0.014467826564507933 0.019974824685186673 0 0.015417011129735035 0.019029516230042426 0 0.015660677145700876 0.018965792900555944 0 0.015697133899659495 0.0195505727582806 0 0.010524580717078661 0.019938274435160983 0 0.012499175826062463 0.022688230037441921 0 0.013946709637521083 0.018754291101925228 0 0.010524580717078661 0.019938274435160983 0 0.015915286319724036 0.01929289827628235 0 0.012499175826062463 0.022688230037441921 0 0.015220362132046793 0.01892029274053315 0 0.015417011129735035 0.019029516230042426 0 0.014901814867488464 0.019625826710337031 0 0.01630227372278803 0.01801069275867849 0 0.012499175826062463 0.022688230037441921 0 0.015950179293270157 0.020616615120025827 0 0.015529858557533211 0.021149619641917014 0 0.015567680689713417 0.021775495961845949 0 0.015576099366157749 0.020724168734833792 0 0.015255471777436733 0.020983425239340957 0 0.015529858557533211 0.021149619641917014 0 0.015255471777436733 0.020983425239340957 0 0.015529858557533211 0.021149619641917014 0 0.015342780745609378 0.021358963814758315 0 0.015529858557533211 0.021149619641917014 0 0.015435097312065046 0.021523528154613895 0 0.015567680689713417 0.021775495961845949 0 0.015068009882822123 0.021713808757253993 0 0.015435097312065046 0.021523528154613895 0 0.015567680689713417 0.021775495961845949 0 0.015529858557533211 0.021149619641917014 0 0.015435097312065046 0.021523528154613895 0 0.015342780745609378 0.021358963814758315 0 0.015068009882822123 0.021713808757253993 0 0.015435097312065046 0.021523528154613895 0 0.015342780745609378 0.021358963814758315 0 0.012499175826062463 0.022688230037441921 0 0.003272221166349619 0.031234135394032768 0 0.0068288032342039996 0.028373034495642477 0 0.0054533125719074668 0.026033129356979458 0 0.0039939624777987383 0.029886600898069642 0 0.010268675773629535 0.024551540891989486 0 0.0068288032342039996 0.028373034495642477 0 0.0095854949402246481 0.030992130856857515 0 0.010524580717078661 0.019938274435160983 0 0.0042959489156191074 0.025473174918432977 0 0.010268675773629535 0.024551540891989486 0 0.0068288032342039996 0.028373034495642477 0 0.0054533125719074668 0.026033129356979458 0 0.0011644208117399454 0.01428478552704535 0 0.0050326104824738533 0.018042545938253499 0 0.00035839609848091139 0.020077839244159141 0 0.0050326104824738533 0.018042545938253499 0 0.005531966483935659 0.013157510296552108 0 0.0093081151271129699 0.016675142475341995 0 0.010553312032979212 0.015977102745595086 0 0.011600695983985195 0.013071592408065583 0 0.0011644208117399454 0.01428478552704535 0 0.0050326104824738533 0.018042545938253499 0 0.005531966483935659 0.013157510296552108 0 0.010524580717078661 0.019938274435160983 0 0.010553312032979212 0.015977102745595086 0 0.015618125961503672 0.019066226882021611 0 0.015863600131720928 0.018916926019837802 0 0.015780359077022341 0.018861231572256068 0 0.015660677145700876 0.018965792900555944 0 0.015618125961503672 0.019066226882021611 0 0.015780359077022341 0.018861231572256068 0 0.015660677145700876 0.018965792900555944 0 0.015780359077022341 0.018861231572256068 0 0.01572199538515939 0.018780950530718037 0 0.015780359077022341 0.018861231572256068 0 0.015844405065563616 0.018679905321242595 0 0.015929090753218508 0.018757778511333305 0 0.015780359077022341 0.018861231572256068 0 0.01572199538515939 0.018780950530718037 0 0.015844405065563616 0.018679905321242595 0 0.015861865525857981 0.018530907238162031 0 0.015639637397330441 0.018579672970979684 0 0.015844405065563616 0.018679905321242595 0 0.015639637397330441 0.018579672970979684 0 0.01572199538515939 0.018780950530718037 0 0.015844405065563616 0.018679905321242595 0 0.015861865525857981 0.018530907238162031 0 0.015844405065563616 0.018679905321242595 0 0.015978192208727905 0.018593617389204304 0 0.015844405065563616 0.018679905321242595 0 0.015978192208727905 0.018593617389204304 0 0.015929090753218508 0.018757778511333305 0 0.015863600131720928 0.018916926019837802 0 0.015929090753218508 0.018757778511333305 0 0.016084496538314237 0.018796589998917101 0 0.015978192208727905 0.018593617389204304 0 0.015929090753218508 0.018757778511333305 0 0.016084496538314237 0.018796589998917101 0 0.015863600131720928 0.018916926019837802 0 0.015780359077022341 0.018861231572256068 0 0.015929090753218508 0.018757778511333305 0 0.014438166434761588 0.015197666954027283 0 0.011600695983985195 0.013071592408065583 0 0.016170375235609123 0.01849656980431336 0 0.015978192208727905 0.018593617389204304 0 0.016084496538314237 0.018796589998917101 0 0.012117835967604917 0.010628763527348041 0 0.01114959712317325 0.010420390282827855 0 0.011455688179910734 0.0097863039967383391 0 0.011926613832210761 0.010741287002354785 0 0.011600695983985195 0.013071592408065583 0 0.012606320028055082 0.011994466247557296 0 0.010092228060652979 0.012049508048221204 0 0.012063448562730308 0.013290611291293299 0 0.012117835967604917 0.010628763527348041 0 0.011455688179910734 0.0097863039967383391 0 0.012187971446624361 0.0096378536381688494 0 0.011600695983985195 0.013071592408065583 0 0.0091690603746375828 0.015841983721392974 0 0.010092228060652979 0.012049508048221204 0 0.012063448562730308 0.013290611291293299 0 0.0093222885127059955 0.015195779858791777 0 0.005531966483935659 0.013157510296552108 0 0.0097240446685116482 0.012028194872334436 0 0.0093081151271129699 0.016675142475341995 0 0.013044509196163033 0.016131575823523127 0 0.012063448562730308 0.013290611291293299 0 0.0093222885127059955 0.015195779858791777 0 0.013044509196163033 0.016131575823523127 0 0.0093222885127059955 0.015195779858791777 0 0.011403174009196089 0.018886375877647448 0 0.013044509196163033 0.016131575823523127 0 0.011403174009196089 0.018886375877647448 0 0.013452115105443361 0.021596203766300212 0 0.011403174009196089 0.018886375877647448 0 0.0089370442710173751 0.021044340715145493 0 0.013452115105443361 0.021596203766300212 0 0.0093222885127059955 0.015195779858791777 0 0.011403174009196089 0.018886375877647448 0 0.0089370442710173751 0.021044340715145493 0 0.0091690603746375828 0.015841983721392974 0 0.0089832948170142906 0.020777761461466079 0 0.0089370442710173751 0.021044340715145493 0 0.013452115105443361 0.021596203766300212 0 0.0088541762026408139 0.025129958715009695 0 0.013452115105443361 0.021596203766300212 0 0.011916397126353532 0.026912643746880831 0 0.0088541762026408139 0.025129958715009695 0 0.017624967317937196 0.026485951390996659 0 0.011916397126353532 0.026912643746880831 0 0.014482988394367624 0.030114938525339554 0 0.011916397126353532 0.026912643746880831 0 0.014482988394367624 0.030114938525339554 0 0.01230571770538336 0.031187524317561936 0 0.014482988394367624 0.030114938525339554 0 0.013747389888519479 0.033419517400312099 0 0.016932272063355926 0.032511607563328625 0 0.014482988394367624 0.030114938525339554 0 0.01230571770538336 0.031187524317561936 0 0.013747389888519479 0.033419517400312099 0 0.011916397126353532 0.026912643746880831 0 0.01230571770538336 0.031187524317561936 0 0.0098212882008413081 0.030238194180468476 0 0.0098212882008413081 0.030238194180468476 0 0.0083070378897825356 0.033686928698745219 0 0.011265674764429984 0.03517985843249944 0 0.01230571770538336 0.031187524317561936 0 0.0098212882008413081 0.030238194180468476 0 0.011265674764429984 0.03517985843249944 0 0.011916397126353532 0.026912643746880831 0 0.0098212882008413081 0.030238194180468476 0 0.0088541762026408139 0.025129958715009695 0 0.0088541762026408139 0.025129958715009695 0 0.0065487699392462202 0.029210548802275599 0 0.0046113872876146463 0.024098390145636778 0 0.0098212882008413081 0.030238194180468476 0 0.0088541762026408139 0.025129958715009695 0 0.0065487699392462202 0.029210548802275599 0 0.0098212882008413081 0.030238194180468476 0 0.0065487699392462202 0.029210548802275599 0 0.0083070378897825356 0.033686928698745219 0 0.0065487699392462202 0.029210548802275599 0 0.0050249661306710986 0.034773629878298726 0 0.0083070378897825356 0.033686928698745219 0 0.0065487699392462202 0.029210548802275599 0 0.0026805955043585484 0.030613617614164316 0 0.0050249661306710986 0.034773629878298726 0 0.0026805955043585484 0.030613617614164316 0 -0.00079099636467194409 0.034477856290299883 0 0.0050249661306710986 0.034773629878298726 0 0.0065487699392462202 0.029210548802275599 0 0.0026805955043585484 0.030613617614164316 0 0.0046113872876146463 0.024098390145636778 0 0.0026805955043585484 0.030613617614164316 0 0.0046113872876146463 0.024098390145636778 0 -0.00052441648262484611 0.026635976416389148 0 0.0089370442710173751 0.021044340715145493 0 0.0088541762026408139 0.025129958715009695 0 0.0046113872876146463 0.024098390145636778 0 0.0050326104824738533 0.018042545938253499 0 0.0093081151271129699 0.016675142475341995 0 0.0089370442710173751 0.021044340715145493 0 0.0050326104824738533 0.018042545938253499 0 0.0089370442710173751 0.021044340715145493 0 0.0046113872876146463 0.024098390145636778 0 0.0050326104824738533 0.018042545938253499 0 0.0046113872876146463 0.024098390145636778 0 0.00035839609848091139 0.020077839244159141 0 0.0068288032342039996 0.028373034495642477 0 0.0095854949402246481 0.030992130856857515 0 0.006033814944433267 0.032906658487878528 0 0.0068288032342039996 0.028373034495642477 0 0.006033814944433267 0.032906658487878528 0 0.0039939624777987383 0.029886600898069642 0 0.006033814944433267 0.032906658487878528 0 0.0031317652167276249 0.032439802870278936 0 0.0039939624777987383 0.029886600898069642 0 0.006033814944433267 0.032906658487878528 0 0.0053001166273087697 0.036476816605258686 0 0.003221610655620303 0.03494631225770433 0 0.006033814944433267 0.032906658487878528 0 0.0053001166273087697 0.036476816605258686 0 0.0086471387257330019 0.037549047940904849 0 0.006033814944433267 0.032906658487878528 0 0.003221610655620303 0.03494631225770433 0 0.0031317652167276249 0.032439802870278936 0 0.0095854949402246481 0.030992130856857515 0 0.006033814944433267 0.032906658487878528 0 0.0086471387257330019 0.037549047940904849 0 0.0042959489156191074 0.025473174918432977 0 0.0041514946778123717 0.032088989871320812 0 0.0046113872876146463 0.024098390145636778 0 0.00035839609848091139 0.020077839244159141 0 -0.00052441648262484611 0.026635976416389148 0 0.0086471387257330019 0.037549047940904849 0 0.0049481742436971029 0.042444792233415143 0 0.0070506649641066755 0.043523869121991243 0 0.0026805955043585484 0.030613617614164316 0 -0.00052441648262484611 0.026635976416389148 0 -0.00079099636467194409 0.034477856290299883 0 0.0041514946778123717 0.032088989871320812 0 0.0031701502731799353 0.038870123322001945 0 0.0049481742436971029 0.042444792233415143 0 0.0047202168649564617 0.039347616476242603 0 0.0035937071782148828 0.04127945018962461 0 0.0053001166273087697 0.036476816605258686 0 0.0086471387257330019 0.037549047940904849 0 0.0047202168649564617 0.039347616476242603 0 0.0086471387257330019 0.037549047940904849 0 0.0049481742436971029 0.042444792233415143 0 0.0047202168649564617 0.039347616476242603 0 0.0053001166273087697 0.036476816605258686 0 0.0047202168649564617 0.039347616476242603 0 0.0024710589762088377 0.037621271600268152 0 0.0024710589762088377 0.037621271600268152 0 -0.00017845538488239622 0.038617845701570779 0 0.00041120885016184369 0.036380303721441014 0 0.0024710589762088377 0.037621271600268152 0 0.0016633647825936217 0.039780896929242186 0 -0.00017845538488239622 0.038617845701570779 0 0.0044124750513183557 0.039432939480489593 0 0.0017631301906645607 0.040117687024840767 0 0.0047202168649564617 0.039347616476242603 0 0.0024710589762088377 0.037621271600268152 0 0.0016633647825936217 0.039780896929242186 0 0.0035937071782148828 0.04127945018962461 0 0.0019288838568190629 0.040458266035916922 0 0.0026432174665284827 0.042923264232451581 0 0.0047202168649564617 0.039347616476242603 0 0.0035937071782148828 0.04127945018962461 0 0.0019288838568190629 0.040458266035916922 0 0.0019288838568190629 0.040458266035916922 0 0.0026432174665284827 0.042923264232451581 0 -0.0013914993027615919 0.041314004824981973 0 0.0049481742436971029 0.042444792233415143 0 0.0035937071782148828 0.04127945018962461 0 0.0026432174665284827 0.042923264232451581 0 0.0026882411906445614 0.043094075075976332 0 -0.00054048444229984436 0.040851290106698385 0 0.0026432174665284827 0.042923264232451581 0 0.0012535616194293952 0.04285959478250656 0 0.001644969322235105 0.043964647165107902 0 0.00053619941968450016 0.044626997330244056 0 0.0012535616194293952 0.04285959478250656 0 0.001644969322235105 0.043964647165107902 0 0.0017631301906645607 0.040117687024840767 0 -0.00054048444229984436 0.040851290106698385 0 0.0016633647825936217 0.039780896929242186 0 -0.001248886584114569 0.040378962806972035 0 -0.00017845538488239622 0.038617845701570779 0 -0.0024455647807382413 0.037660941760994354 0 -0.001248886584114569 0.040378962806972035 0 -0.00017845538488239622 0.038617845701570779 0 -0.0024455647807382413 0.037660941760994354 0 -0.00017845538488239622 0.038617845701570779 0 0.00041120885016184369 0.036380303721441014 0 -0.0024455647807382413 0.037660941760994354 0 -0.0020136874924149301 0.034652458377626767 0 0.00041120885016184369 0.036380303721441014 0 -0.0020136874924149301 0.034652458377626767 0 0.00041120885016184369 0.036380303721441014 0 0.0010657475558179174 0.0338949941483477 0 0.00041120885016184369 0.036380303721441014 0 0.003221610655620303 0.03494631225770433 0 0.0010657475558179174 0.0338949941483477 0 0.0024710589762088377 0.037621271600268152 0 0.00041120885016184369 0.036380303721441014 0 0.003221610655620303 0.03494631225770433 0 0.0053001166273087697 0.036476816605258686 0 0.0024710589762088377 0.037621271600268152 0 0.003221610655620303 0.03494631225770433 0 0.003221610655620303 0.03494631225770433 0 0.0010657475558179174 0.0338949941483477 0 0.0031317652167276249 0.032439802870278936 0 0.0010657475558179174 0.0338949941483477 0 0.0031317652167276249 0.032439802870278936 0 0.0014872026133777908 0.030408831476624019 0 0.0031317652167276249 0.032439802870278936 0 0.0039939624777987383 0.029886600898069642 0 0.0014872026133777908 0.030408831476624019 0 0.004359293630994689 0.031013617546810375 0 0.0085712138823095373 0.027493855444457819 0 -0.0020136874924149301 0.034652458377626767 0 0.0010657475558179174 0.0338949941483477 0 0.0014872026133777908 0.030408831476624019 0 0.011826585653959186 0.025010450200980042 0 0.012724769523197507 0.027660069667242923 0 0.013620488665782247 0.02425313471178113 0 0.015090268877392135 0.023190570871484722 0 0.015598562401880045 0.024239694499501533 0 0.013620488665782247 0.02425313471178113 0 0.012724769523197507 0.027660069667242923 0 0.015598562401880045 0.024239694499501533 0 0.013620488665782247 0.02425313471178113 0 0.011826585653959186 0.025010450200980042 0 0.0124549422601556 0.023559818159579554 0 0.013620488665782247 0.02425313471178113 0 0.0010184975712388862 0.04859719883695305 0 0.00225509280227762 0.049344431332110153 0 0.0018824292778964089 0.047608076854193576 0 0.0010120680491075399 0.04993110247191531 0 0.0010184975712388862 0.04859719883695305 0 0.00225509280227762 0.049344431332110153 0 0.00225509280227762 0.049344431332110153 0 0.0018824292778964089 0.047608076854193576 0 0.0032533615740784755 0.048302813885302213 0 0.0018824292778964089 0.047608076854193576 0 0.0031776184887311962 0.046757408145200456 0 0.0032533615740784755 0.048302813885302213 0 0.00074285866484867795 0.047513523493130892 0 0.0010184975712388862 0.04859719883695305 0 0.0018824292778964089 0.047608076854193576 0 0.00090028018810496351 0.046256793964097223 0 0.00074285866484867795 0.047513523493130892 0 0.0018824292778964089 0.047608076854193576 0 0.00090028018810496351 0.046256793964097223 0 0.0018824292778964089 0.047608076854193576 0 0.0019788170845002444 0.045513420829277167 0 0.00053619941968450016 0.044626997330244056 0 0.0019788170845002444 0.045513420829277167 0 0.001644969322235105 0.043964647165107902 0 0.00053619941968450016 0.044626997330244056 0 0.00090028018810496351 0.046256793964097223 0 0.0019788170845002444 0.045513420829277167 0 0.0019788170845002444 0.045513420829277167 0 0.001644969322235105 0.043964647165107902 0 0.0024923473310830518 0.044297858318097669 0 0.0019788170845002444 0.045513420829277167 0 0.0024923473310830518 0.044297858318097669 0 0.0038202912217136509 0.044806318773765667 0 0.0049481742436971029 0.042444792233415143 0 0.0026432174665284827 0.042923264232451581 0 0.0038202912217136509 0.044806318773765667 0 0.0026432174665284827 0.042923264232451581 0 0.0024923473310830518 0.044297858318097669 0 0.0038202912217136509 0.044806318773765667 0 0.0026432174665284827 0.042923264232451581 0 0.001644969322235105 0.043964647165107902 0 0.0024923473310830518 0.044297858318097669 0 0.0018824292778964089 0.047608076854193576 0 0.0019788170845002444 0.045513420829277167 0 0.0031776184887311962 0.046757408145200456 0 0.0019788170845002444 0.045513420829277167 0 0.0031776184887311962 0.046757408145200456 0 0.0038202912217136509 0.044806318773765667 0 0.0031776184887311962 0.046757408145200456 0 0.0038202912217136509 0.044806318773765667 0 0.0052725859482356504 0.047229021203640933 0 0.0049481742436971029 0.042444792233415143 0 0.0038202912217136509 0.044806318773765667 0 0.0070506649641066755 0.043523869121991243 0 0.0038202912217136509 0.044806318773765667 0 0.0070506649641066755 0.043523869121991243 0 0.0052725859482356504 0.047229021203640933 0 -0.00079099636467194409 0.034477856290299883 0 0.00055079994972308168 0.042785724845241915 0 0.0041623600810159851 0.039917594384415514 0 0.0031701502731799353 0.038870123322001945 0 0.0029846541733486165 0.044827516422531799 0 0.0029846541733486165 0.044827516422531799 0 0.0032689089868335091 0.048883928212120072 0 0.00055079994972308168 0.042785724845241915 0 0.0033759350338350754 0.049314786764833633 0 0.0069614742174457459 0.04617152190458805 0 0.0052725859482356504 0.047229021203640933 0 0.0032533615740784755 0.048302813885302213 0 0.0033759350338350754 0.049314786764833633 0 0.0031776184887311962 0.046757408145200456 0 0.0052725859482356504 0.047229021203640933 0 0.0032533615740784755 0.048302813885302213 0 0.00225509280227762 0.049344431332110153 0 0.0032533615740784755 0.048302813885302213 0 0.0033759350338350754 0.049314786764833633 0 0.0033759350338350754 0.049314786764833633 0 0.0069614742174457459 0.04617152190458805 0 0.0065838990159849805 0.051314748254990217 0 0.0069614742174457459 0.04617152190458805 0 0.0099684708593297672 0.04832607405214865 0 0.0091138588620168007 0.051469291626901406 0 0.0069614742174457459 0.04617152190458805 0 0.0089222115156758139 0.039231942177521073 0 0.01221866480702105 0.04408135065465104 0 0.0069674207818993224 0.046207895030884315 0 0.010931021246239736 0.046213106412025529 0 0.00055079994972308168 0.042785724845241915 0 0.0069614742174457459 0.04617152190458805 0 0.0041623600810159851 0.039917594384415514 0 0.0041623600810159851 0.039917594384415514 0 0.0050249661306710986 0.034773629878298726 0 0.0089222115156758139 0.039231942177521073 0 -0.00079099636467194409 0.034477856290299883 0 0.0041623600810159851 0.039917594384415514 0 0.0050249661306710986 0.034773629878298726 0 0.0050249661306710986 0.034773629878298726 0 0.0083070378897825356 0.033686928698745219 0 0.0089222115156758139 0.039231942177521073 0 0.0069614742174457459 0.04617152190458805 0 0.0041623600810159851 0.039917594384415514 0 0.0089222115156758139 0.039231942177521073 0 0.0089222115156758139 0.039231942177521073 0 0.013778797228970683 0.039457908254471701 0 0.01221866480702105 0.04408135065465104 0 0.0089222115156758139 0.039231942177521073 0 0.011265674764429984 0.03517985843249944 0 0.013778797228970683 0.039457908254471701 0 0.0083070378897825356 0.033686928698745219 0 0.0089222115156758139 0.039231942177521073 0 0.011265674764429984 0.03517985843249944 0 0.014922136131226194 0.035128627943089977 0 0.013778797228970683 0.039457908254471701 0 0.017272954053174742 0.038441432419606299 0 0.011265674764429984 0.03517985843249944 0 0.014922136131226194 0.035128627943089977 0 0.013778797228970683 0.039457908254471701 0 0.011413515978404369 0.034991269170518188 0 0.014489630772234948 0.034138310002239318 0 0.01230571770538336 0.031187524317561936 0 0.011265674764429984 0.03517985843249944 0 0.013747389888519479 0.033419517400312099 0 0.013778797228970683 0.039457908254471701 0 0.017272954053174742 0.038441432419606299 0 0.017227184831598446 0.042715165636696688 0 0.013778797228970683 0.039457908254471701 0 0.01221866480702105 0.04408135065465104 0 0.017227184831598446 0.042715165636696688 0 0.0099684708593297672 0.04832607405214865 0 0.010999598738924275 0.050414429223224748 0 0.01153180474318035 0.04973363736112206 0 0.010931021246239736 0.046213106412025529 0 0.013913132818587541 0.046141742716832732 0 0.0099684708593297672 0.04832607405214865 0 0.010537026664066262 0.05160141641893732 0 0.0091138588620168007 0.051469291626901406 0 0.0099684708593297672 0.04832607405214865 0 0.010999598738924275 0.050414429223224748 0 0.010537026664066262 0.05160141641893732 0 0.010999598738924275 0.050414429223224748 0 0.010537026664066262 0.05160141641893732 0 0.011516403662791561 0.051758222871215821 0 0.010537026664066262 0.05160141641893732 0 0.01118773670808971 0.053591519851708506 0 0.011516403662791561 0.051758222871215821 0 0.010537026664066262 0.05160141641893732 0 0.010304189171894042 0.053663554737743931 0 0.0091138588620168007 0.051469291626901406 0 0.010304189171894042 0.053663554737743931 0 0.01118773670808971 0.053591519851708506 0 0.01147172063375849 0.054696414159948706 0 0.010537026664066262 0.05160141641893732 0 0.010304189171894042 0.053663554737743931 0 0.01118773670808971 0.053591519851708506 0 0.010304189171894042 0.053663554737743931 0 0.01147172063375849 0.054696414159948706 0 0.010531037061299455 0.055358151826419073 0 0.015480110342077587 0.054999916204677722 0 0.01607941014519099 0.055973630095508257 0 0.012896119999779045 0.055000102915595997 0 0.01147172063375849 0.054696414159948706 0 0.010531037061299455 0.055358151826419073 0 0.012891009270246841 0.055001006439845374 0 0.013250566070429327 0.055556075391347021 0 0.01289580277240465 0.055000142732906425 0 0.015480110342077587 0.054999916204677722 0 0.01607941014519099 0.055973630095508257 0 0.018066843341387306 0.05499850954825812 0 0.010304189171894042 0.053663554737743931 0 0.010531037061299455 0.055358151826419073 0 0.008356474179819013 0.054753033653027521 0 0.013250566070429327 0.055556075391347021 0 0.01337385720528576 0.054917566582981921 0 0.01607941014519099 0.055973630095508257 0 0.018621936211260872 0.0552424323782841 0 0.018066843341387306 0.05499850954825812 0 0.018621936211260872 0.0552424323782841 0 0.018066843341387306 0.05499850954825812 0 0.020639199070419331 0.05500174094981454 0 0.018621936211260872 0.0552424323782841 0 0.01837269049717959 0.054391461423767135 0 0.020639199070419331 0.05500174094981454 0 0.01337385720528576 0.054917566582981921 0 0.010993084545058778 0.052843643093930116 0 0.008356474179819013 0.054753033653027521 0 0.0065838990159849805 0.051314748254990217 0 0.0053001665394581529 0.053259815404050802 0 0.010304189171894042 0.053663554737743931 0 0.008356474179819013 0.054753033653027521 0 0.0091138588620168007 0.051469291626901406 0 0.008356474179819013 0.054753033653027521 0 0.0091138588620168007 0.051469291626901406 0 0.0065838990159849805 0.051314748254990217 0 0.0069614742174457459 0.04617152190458805 0 0.0091138588620168007 0.051469291626901406 0 0.0065838990159849805 0.051314748254990217 0 0.0033759350338350754 0.049314786764833633 0 0.0065838990159849805 0.051314748254990217 0 0.0053001665394581529 0.053259815404050802 0 0.0033759350338350754 0.049314786764833633 0 0.0053001665394581529 0.053259815404050802 0 0.0026110316335857925 0.051169452284897311 0 0.014404922277775184 0.052732390332955154 0 0.016896698261578091 0.052355018002713492 0 0.013028509688751723 0.051296382680461078 0 0.010993084545058778 0.052843643093930116 0 0.0082029105322897998 0.051372424467576804 0 0.018621936211260872 0.0552424323782841 0 0.016896698261578091 0.052355018002713492 0 0.01837269049717959 0.054391461423767135 0 0.016896698261578091 0.052355018002713492 0 0.01837269049717959 0.054391461423767135 0 0.015573042168847737 0.054632911419575998 0 0.01837269049717959 0.054391461423767135 0 0.020639199070419331 0.05500174094981454 0 0.015573042168847737 0.054632911419575998 0 0.020647616649027294 0.054999971847678193 0 0.019602196316123727 0.055433066997239384 0 0.020648140850567816 0.055000070308416374 0 0.022877908339055921 0.054999908751149906 0 0.023658909584907468 0.056598613381965208 0 0.022877908339055921 0.054999908751149906 0 0.023982677974732899 0.055856876513844529 0 0.025105130257276089 0.054999934560063565 0 0.022877908339055921 0.054999908751149906 0 0.023982677974732899 0.055856876513844529 0 0.023658909584907468 0.056598613381965208 0 0.023982677974732899 0.055856876513844529 0 0.023658909584907468 0.056598613381965208 0 0.024213831254207355 0.056399328157334158 0 0.014404922277775184 0.052732390332955154 0 0.016896698261578091 0.052355018002713492 0 0.015573042168847737 0.054632911419575998 0 0.019602196316123727 0.055433066997239384 0 0.017825279824893871 0.053726652560538955 0 0.023658909584907468 0.056598613381965208 0 0.024213831254207355 0.056399328157334158 0 0.023778074575384417 0.055256094136805309 0 0.014404922277775184 0.052732390332955154 0 0.015573042168847737 0.054632911419575998 0 0.012418193153494111 0.052378921195239216 0 0.023982677974732899 0.055856876513844529 0 0.024213831254207355 0.056399328157334158 0 0.025105130257276089 0.054999934560063565 0 0.024213831254207355 0.056399328157334158 0 0.025105130257276089 0.054999934560063565 0 0.026321496212703896 0.056119711594210274 0 0.028038276187163955 0.056818319613334993 0 0.026321496212703896 0.056119711594210274 0 0.027333950433150553 0.054999589251779349 0 0.025105130257276089 0.054999934560063565 0 0.026321496212703896 0.056119711594210274 0 0.027333950433150553 0.054999589251779349 0 0.024261007248755517 0.05645627018888616 0 0.024658070426465943 0.056741293314798262 0 0.028038276187163955 0.056818319613334993 0 0.026321496212703896 0.056119711594210274 0 0.026840076757549687 0.057746369286296874 0 0.024213831254207355 0.056399328157334158 0 0.02262231570903887 0.05583299830325425 0 0.023778074575384417 0.055256094136805309 0 0.024213831254207355 0.056399328157334158 0 0.026321496212703896 0.056119711594210274 0 0.026840076757549687 0.057746369286296874 0 0.017229321173343141 0.053029684687535696 0 0.017825279824893871 0.053726652560538955 0 0.022070560515555313 0.054747135780255307 0 0.02262231570903887 0.05583299830325425 0 0.023778074575384417 0.055256094136805309 0 0.021194074484199528 0.053374648111365226 0 0.022070560515555313 0.054747135780255307 0 0.023778074575384417 0.055256094136805309 0 0.011260501623610085 0.051232651858634966 0 0.013028509688751723 0.051296382680461078 0 0.012418193153494111 0.052378921195239216 0 0.014404922277775184 0.052732390332955154 0 0.013028509688751723 0.051296382680461078 0 0.012418193153494111 0.052378921195239216 0 0.00225509280227762 0.049344431332110153 0 0.0033759350338350754 0.049314786764833633 0 0.0026110316335857925 0.051169452284897311 0 0.0010120680491075399 0.04993110247191531 0 0.00225509280227762 0.049344431332110153 0 0.0026110316335857925 0.051169452284897311 0 0.011260501623610085 0.051232651858634966 0 0.011145436764016104 0.051561062009862574 0 0.012418193153494111 0.052378921195239216 0 0.0049120174835189656 0.050275420916211448 0 0.0082029105322897998 0.051372424467576804 0 -0.0014803264609999469 0.032173068913120446 0 -0.0018553899648344897 0.032115522695173281 0 -0.0016906945783629963 0.03226693072145731 0 0.00079571398772662475 0.038835374895698584 0 0.0003856342736097047 0.041265214927863142 0 0.003140081394824642 0.049470309526039938 0 0.0038963563119638811 0.049933274233645464 0 0.0024255742265938038 0.049924406819195549 0 0.003140081394824642 0.049470309526039938 0 0.0038963563119638811 0.049933274233645464 0 0.0040957120827365134 0.048949373822877992 0 0.00079571398772662475 0.038835374895698584 0 -0.0010060542781231046 0.031729532847370234 0 -0.00042963785659576759 0.031421749024609695 0 0.00022371509862944159 0.031984733216365663 0 0.0010409478894326727 0.031597596239783053 0 0.00079571398772662475 0.038835374895698584 0 0.011837869772273959 0.041182045352573728 0 0.0059105831641232424 0.043762464116304356 0 0.0063474237129660998 0.043440788437174721 0 0.0068133527139706317 0.043751693529821445 0 0.00079571398772662475 0.038835374895698584 0 0.0051641643081498994 0.046441877700879479 0 0.0038963563119638811 0.049933274233645464 0 0.0040957120827365134 0.048949373822877992 0 0.0047118266833598649 0.049349984061966265 0 0.0040957120827365134 0.048949373822877992 0 0.0047118266833598649 0.049349984061966265 0 0.0048779722170217438 0.048620153707932538 0 0.0051641643081498994 0.046441877700879479 0 0.0082338862502622876 0.048442974909597605 0 0.0047118266833598649 0.049349984061966265 0 0.0048779722170217438 0.048620153707932538 0 0.0055923726200536403 0.048703722213253822 0 0.0040957120827365134 0.048949373822877992 0 0.0048779722170217438 0.048620153707932538 0 0.0045864350014889563 0.047989565839450278 0 0.0040957120827365134 0.048949373822877992 0 0.0033123614740404811 0.048686041060856854 0 0.0045864350014889563 0.047989565839450278 0 0.003140081394824642 0.049470309526039938 0 0.0040957120827365134 0.048949373822877992 0 0.0033123614740404811 0.048686041060856854 0 0.0031450240299760231 0.048838142497545776 0 0.0015664325629685116 0.049043818273957825 0 0.003140081394824642 0.049470309526039938 0 0.0033123614740404811 0.048686041060856854 0 0.0016243482146370591 0.049168081140976289 0 0.0033123614740404811 0.048686041060856854 0 0.0012822991442149659 0.049644482668978036 0 0.002510770087497186 0.048264267803105575 0 0.0013205781823231052 0.053773572012639798 0 0.0033045281732133865 0.055648371987724668 0 0.001888094724051983 0.058229543722461551 0 0.0024984428410437793 0.057746999703853948 0 0.0032088385652322225 0.057724143454466026 0 0.0012822991442149659 0.049644482668978036 0 0.00082377531043803054 0.049390264079999031 0 0.002510770087497186 0.048264267803105575 0 0.001888094724051983 0.058229543722461551 0 0.0024984428410437793 0.057746999703853948 0 0.0015780505251653261 0.057461798283728958 0 0.0016243482146370591 0.049168081140976289 0 0.0024255742265938038 0.049924406819195549 0 0.00097256515863296646 0.049925894071591058 0 0.0003856342736097047 0.041265214927863142 0 -0.00078426254932139629 0.040396304759607059 0 -0.0018553899648344897 0.032115522695173281 0 -0.0020554783295415897 0.032229761634276502 0 -0.0022628110962006993 0.032180314112381578 0 0.003140081394824642 0.049470309526039938 0 0.0016243482146370591 0.049168081140976289 0 0.0024255742265938038 0.049924406819195549 0 -0.0020554783295415897 0.032229761634276502 0 -0.0018150429355495048 0.032324654982883769 0 -0.0016906945783629963 0.03226693072145731 0 -0.0018553899648344897 0.032115522695173281 0 -0.0020554783295415897 0.032229761634276502 0 -0.0016906945783629963 0.03226693072145731 0 -0.0018150429355495048 0.032324654982883769 0 -0.00091243790886734325 0.032367942562059014 0 -0.0012078838022280989 0.031957039634141496 0 -0.0019142687377705495 0.032449202465508691 0 -0.0010060542781231046 0.031729532847370234 0 -0.0020554783295415897 0.032229761634276502 0 -0.0022519140987724119 0.032313916243351969 0 -0.0024564584964599993 0.032349398598361008 0 -0.0020554783295415897 0.032229761634276502 0 -0.0022519140987724119 0.032313916243351969 0 -0.0018150429355495048 0.032324654982883769 0 -0.0022519140987724119 0.032313916243351969 0 -0.0019074564890209488 0.032607556619394643 0 -0.0018150429355495048 0.032324654982883769 0 -0.0022627973094421117 0.032679500345184277 0 -0.0022519140987724119 0.032313916243351969 0 -0.0019074564890209488 0.032607556619394643 0 -0.0018150429355495048 0.032324654982883769 0 -0.0013412361478816761 0.032677298597853836 0 -0.00091243790886734325 0.032367942562059014 0 -0.0019074564890209488 0.032607556619394643 0 -0.0018150429355495048 0.032324654982883769 0 -0.0013412361478816761 0.032677298597853836 0 -0.0013412361478816761 0.032677298597853836 0 -0.00091243790886734325 0.032367942562059014 0 -0.00071372916414202351 0.032650879938613375 0 -0.00091243790886734325 0.032367942562059014 0 -0.00018613141857903208 0.032444245960722561 0 -0.00019369096458315762 0.033414522551640465 0 -0.001035317725678897 0.032520875884808953 0 0.003839065620283421 0.030239370099698421 0 -0.00091243790886734325 0.032367942562059014 0 -0.00051349823944243185 0.032019152884762689 0 -0.00018613141857903208 0.032444245960722561 0 -0.00042963785659576759 0.031421749024609695 0 -0.00051349823944243185 0.032019152884762689 0 -0.0012078838022280989 0.031957039634141496 0 -0.00091243790886734325 0.032367942562059014 0 -0.00051349823944243185 0.032019152884762689 0 -0.0012078838022280989 0.031957039634141496 0 0.00022371509862944159 0.031984733216365663 0 0.00042854793435901284 0.032610018634918414 0 0.0010457353426066675 0.032073107443197829 0 -0.00042963785659576759 0.031421749024609695 0 -0.00051349823944243185 0.032019152884762689 0 0.00022371509862944159 0.031984733216365663 0 -0.00051349823944243185 0.032019152884762689 0 0.00022371509862944159 0.031984733216365663 0 -0.00018613141857903208 0.032444245960722561 0 0.00022371509862944159 0.031984733216365663 0 -0.00018613141857903208 0.032444245960722561 0 0.00042854793435901284 0.032610018634918414 0 -0.00018613141857903208 0.032444245960722561 0 0.00042854793435901284 0.032610018634918414 0 -0.00019369096458315762 0.033414522551640465 0 0.0058495449381050146 0.032362781763822686 0 0.003839065620283421 0.030239370099698421 0 0.01162646355291139 0.031515071375222997 0 0.013248346809572289 0.029335173506679871 0 0.011216962438994227 0.029504347502613059 0 0.016979625251114867 0.024641448265371759 0 0.016876535262419511 0.035636030255520798 0 0.0096229578554140275 0.028182902952467923 0 0.011216962438994227 0.029504347502613059 0 0.0097800799063794321 0.030941939424313582 0 0.01162646355291139 0.031515071375222997 0 0.011216962438994227 0.029504347502613059 0 0.0097800799063794321 0.030941939424313582 0 0.020804149207821428 0.035912773626375724 0 0.023663870805683936 0.035412220773925501 0 0.023828976191837895 0.037751590018051069 0 0.020804149207821428 0.035912773626375724 0 0.023828976191837895 0.037751590018051069 0 0.021350096827240789 0.038953997235127158 0 0.023828976191837895 0.037751590018051069 0 0.021350096827240789 0.038953997235127158 0 0.022615476679191813 0.039843102144944291 0 0.021350096827240789 0.038953997235127158 0 0.022615476679191813 0.039843102144944291 0 0.020877218978796106 0.041656898900057748 0 0.016876535262419511 0.035636030255520798 0 0.014371847692476512 0.036246898245844678 0 0.01162646355291139 0.031515071375222997 0 0.0097800799063794321 0.030941939424313582 0 0.0099777891506856401 0.033715540389606995 0 0.023828976191837895 0.037751590018051069 0 0.022615476679191813 0.039843102144944291 0 0.023895123449715446 0.039987523373918102 0 0.0058495449381050146 0.032362781763822686 0 0.014371847692476512 0.036246898245844678 0 0.01784499668601151 0.03633980129661335 0 0.019388706396609442 0.037981809045255423 0 0.017272954053174742 0.038441432419606299 0 0.014927694852777876 0.029778966253014384 0 0.016855952671761855 0.039498176947134873 0 0.014922136131226194 0.035128627943089977 0 0.018323830675074263 0.03464145227187667 0 0.017272954053174742 0.038441432419606299 0 0.014489630772234948 0.034138310002239318 0 0.014927694852777876 0.029778966253014384 0 0.020804149207821428 0.035912773626375724 0 0.021350096827240789 0.038953997235127158 0 0.019388706396609442 0.037981809045255423 0 0.01757016335920316 0.027178736834634881 0 0.014927694852777876 0.029778966253014384 0 0.020804149207821428 0.035912773626375724 0 0.01784499668601151 0.03633980129661335 0 0.019388706396609442 0.037981809045255423 0 0.021350096827240789 0.038953997235127158 0 0.019388706396609442 0.037981809045255423 0 0.0193258155818526 0.039914823396634061 0 0.021350096827240789 0.038953997235127158 0 0.0193258155818526 0.039914823396634061 0 0.020877218978796106 0.041656898900057748 0 0.0193258155818526 0.039914823396634061 0 0.017272954053174742 0.038441432419606299 0 0.017227184831598446 0.042715165636696688 0 0.019388706396609442 0.037981809045255423 0 0.0193258155818526 0.039914823396634061 0 0.017272954053174742 0.038441432419606299 0 0.01153180474318035 0.04973363736112206 0 0.013283376496674527 0.049900233625007361 0 0.012372512507573857 0.051040890118863508 0 0.013913132818587541 0.046141742716832732 0 0.018772554559261578 0.046214743432297936 0 0.0193258155818526 0.039914823396634061 0 0.017227184831598446 0.042715165636696688 0 0.020877218978796106 0.041656898900057748 0 0.012372512507573857 0.051040890118863508 0 0.011516403662791561 0.051758222871215821 0 0.012333393479298866 0.052618212723222334 0 0.013283376496674527 0.049900233625007361 0 0.012372512507573857 0.051040890118863508 0 0.013446980802656924 0.051299589912392522 0 0.012372512507573857 0.051040890118863508 0 0.013446980802656924 0.051299589912392522 0 0.012333393479298866 0.052618212723222334 0 0.010999598738924275 0.050414429223224748 0 0.01153180474318035 0.04973363736112206 0 0.011516403662791561 0.051758222871215821 0 0.01153180474318035 0.04973363736112206 0 0.012372512507573857 0.051040890118863508 0 0.011516403662791561 0.051758222871215821 0 0.014371847692476512 0.036246898245844678 0 0.011837869772273959 0.041182045352573728 0 0.00022371509862944159 0.031984733216365663 0 0.0010457353426066675 0.032073107443197829 0 0.0010409478894326727 0.031597596239783053 0 0.022615476679191813 0.039843102144944291 0 0.023895123449715446 0.039987523373918102 0 0.023116376295113462 0.040869834927638286 0 0.014371847692476512 0.036246898245844678 0 0.020119162340640831 0.03776509647267963 0 0.023769459278585359 0.039662633325920689 0 0.023876823526026783 0.041033794349141221 0 0.023116376295113462 0.040869834927638286 0 0.022615476679191813 0.039843102144944291 0 0.020877218978796106 0.041656898900057748 0 0.023116376295113462 0.040869834927638286 0 0.013283376496674527 0.049900233625007361 0 0.015719554961721408 0.049662954419591461 0 0.014567122453706945 0.050740898203314573 0 0.020877218978796106 0.041656898900057748 0 0.023876823526026783 0.041033794349141221 0 0.023116376295113462 0.040869834927638286 0 0.018772554559261578 0.046214743432297936 0 0.011837869772273959 0.041182045352573728 0 0.013283376496674527 0.049900233625007361 0 0.014567122453706945 0.050740898203314573 0 0.013446980802656924 0.051299589912392522 0 0.013446980802656924 0.051299589912392522 0 0.014588169472801015 0.051780138800749061 0 0.013441370754925278 0.052526801061375375 0 0.014567122453706945 0.050740898203314573 0 0.013446980802656924 0.051299589912392522 0 0.014588169472801015 0.051780138800749061 0 0.0063474237129660998 0.043440788437174721 0 0.0068133527139706317 0.043751693529821445 0 0.0067590950245684199 0.043134627598635643 0 0.011837869772273959 0.041182045352573728 0 0.0082338862502622876 0.048442974909597605 0 0.015719554961721408 0.049662954419591461 0 0.014567122453706945 0.050740898203314573 0 0.015903219691082413 0.051649137248831557 0 0.014567122453706945 0.050740898203314573 0 0.014588169472801015 0.051780138800749061 0 0.015903219691082413 0.051649137248831557 0 0.0048779722170217438 0.048620153707932538 0 0.0055923726200536403 0.048703722213253822 0 0.0056068326592324663 0.048023711092295959 0 0.0056719589084727453 0.048809167868582505 0 0.0056068326592324663 0.048023711092295959 0 0.0068735426460635905 0.047784059109501523 0 0.0056068326592324663 0.048023711092295959 0 0.0068735426460635905 0.047784059109501523 0 0.0045864350014889563 0.047989565839450278 0 0.0082338862502622876 0.048442974909597605 0 0.0066247260437976739 0.04815672160240192 0 0.0099628057562814853 0.058383503931428507 0 0.0078716200489365208 0.057298299193227306 0 0.006139079066680553 0.058977881073252268 0 0.010804789614127591 0.052732857612048017 0 0.0047309063908835738 0.053285026117148367 0 0.0082338862502622876 0.048442974909597605 0 0.010804789614127591 0.052732857612048017 0 0.014588169472801015 0.051780138800749061 0 0.015903219691082413 0.051649137248831557 0 0.014363348851049101 0.053251922192016445 0 0.014588169472801015 0.051780138800749061 0 0.013441370754925278 0.052526801061375375 0 0.014363348851049101 0.053251922192016445 0 0.010804789614127591 0.052732857612048017 0 0.01190362950376052 0.055761036697679185 0 0.010804789614127591 0.052732857612048017 0 0.013783520103544443 0.053300563520210599 0 0.015028040260697543 0.053348932755382092 0 0.012498348487079064 0.053649022536883299 0 0.012093887162531231 0.055546522881363386 0 0.013441370754925278 0.052526801061375375 0 0.014363348851049101 0.053251922192016445 0 0.012498348487079064 0.053649022536883299 0 0.0099628057562814853 0.058383503931428507 0 0.0098484301869792533 0.056454253158983871 0 0.012093887162531231 0.055546522881363386 0 0.010899323953910526 0.055668955616780001 0 0.0098484301869792533 0.056454253158983871 0 0.012093887162531231 0.055546522881363386 0 0.010899323953910526 0.055668955616780001 0 0.0098484301869792533 0.056454253158983871 0 0.0089956010360798949 0.055999083611195509 0 0.0098484301869792533 0.056454253158983871 0 0.0078716200489365208 0.057298299193227306 0 0.0089956010360798949 0.055999083611195509 0 0.0078716200489365208 0.057298299193227306 0 0.0089956010360798949 0.055999083611195509 0 0.0068454452178104298 0.056591059444596289 0 0.0099628057562814853 0.058383503931428507 0 0.0098484301869792533 0.056454253158983871 0 0.0078716200489365208 0.057298299193227306 0 0.011516403662791561 0.051758222871215821 0 0.012333393479298866 0.052618212723222334 0 0.011707033767795237 0.05393949325302768 0 0.01118773670808971 0.053591519851708506 0 0.011516403662791561 0.051758222871215821 0 0.011707033767795237 0.05393949325302768 0 0.012333393479298866 0.052618212723222334 0 0.012023579318857999 0.05432164740250494 0 0.011707033767795237 0.05393949325302768 0 0.013441370754925278 0.052526801061375375 0 0.012333393479298866 0.052618212723222334 0 0.012498348487079064 0.053649022536883299 0 0.013446980802656924 0.051299589912392522 0 0.013441370754925278 0.052526801061375375 0 0.012333393479298866 0.052618212723222334 0 0.012333393479298866 0.052618212723222334 0 0.012498348487079064 0.053649022536883299 0 0.012023579318857999 0.05432164740250494 0 0.011805994276296073 0.055122297717091054 0 0.011707033767795237 0.05393949325302768 0 0.011819108828882919 0.055120232402928168 0 0.012498348487079064 0.053649022536883299 0 0.012093887162531231 0.055546522881363386 0 0.012023579318857999 0.05432164740250494 0 0.012093887162531231 0.055546522881363386 0 0.011805994276296073 0.055122297717091054 0 0.012023579318857999 0.05432164740250494 0 0.010899323953910526 0.055668955616780001 0 0.012093887162531231 0.055546522881363386 0 0.011805994276296073 0.055122297717091054 0 0.011805994276296073 0.055122297717091054 0 0.012023579318857999 0.05432164740250494 0 0.011707033767795237 0.05393949325302768 0 0.01118773670808971 0.053591519851708506 0 0.011707033767795237 0.05393949325302768 0 0.011819108828882919 0.055120232402928168 0 0.01118773670808971 0.053591519851708506 0 0.01147172063375849 0.054696414159948706 0 0.011819108828882919 0.055120232402928168 0 0.011819108828882919 0.055120232402928168 0 0.010835635033693038 0.055434014286666028 0 0.011431810714808468 0.055242478851179048 0 0.011805994276296073 0.055122297717091054 0 0.011819108828882919 0.055120232402928168 0 0.010835635033693038 0.055434014286666028 0 0.010899323953910526 0.055668955616780001 0 0.011805994276296073 0.055122297717091054 0 0.010835635033693038 0.055434014286666028 0 0.010835635033693038 0.055434014286666028 0 0.011431810714808468 0.055242478851179048 0 0.010064617018803283 0.054998418767229794 0 0.011431810714808468 0.055242478851179048 0 0.012891009270246841 0.055001006439845374 0 0.010064617018803283 0.054998418767229794 0 0.011819108828882919 0.055120232402928168 0 0.011431810714808468 0.055242478851179048 0 0.012891009270246841 0.055001006439845374 0 0.01147172063375849 0.054696414159948706 0 0.011819108828882919 0.055120232402928168 0 0.012891009270246841 0.055001006439845374 0 0.0072645557454076078 0.055755109749971575 0 0.0089956010360798949 0.055999083611195509 0 0.008933635254257704 0.055403562802842289 0 0.0072645557454076078 0.055755109749971575 0 0.0089956010360798949 0.055999083611195509 0 0.0068454452178104298 0.056591059444596289 0 0.010835635033693038 0.055434014286666028 0 0.0089956010360798949 0.055999083611195509 0 0.008933635254257704 0.055403562802842289 0 0.010899323953910526 0.055668955616780001 0 0.010835635033693038 0.055434014286666028 0 0.0089956010360798949 0.055999083611195509 0 0.010835635033693038 0.055434014286666028 0 0.010064617018803283 0.054998418767229794 0 0.008933635254257704 0.055403562802842289 0 0.010064617018803283 0.054998418767229794 0 0.008933635254257704 0.055403562802842289 0 0.0072294732270479509 0.054999184576802827 0 0.0072645557454076078 0.055755109749971575 0 0.008933635254257704 0.055403562802842289 0 0.0072294732270479509 0.054999184576802827 0 0.0072645557454076078 0.055755109749971575 0 0.0072294732270479509 0.054999184576802827 0 0.0057726657796318007 0.055583213943426177 0 0.0072294732270479509 0.054999184576802827 0 0.0057726657796318007 0.055583213943426177 0 0.0043967338379415563 0.054999440932274803 0 0.0057726657796318007 0.055583213943426177 0 0.0040850058988661422 0.056112343791284151 0 0.0043967338379415563 0.054999440932274803 0 0.0040850058988661422 0.056112343791284151 0 0.0053599255513225065 0.05675402270316534 0 0.0042817729024430774 0.056843997827636827 0 0.0040850058988661422 0.056112343791284151 0 0.0057761429044215842 0.056170853194237404 0 0.0053599255513225065 0.05675402270316534 0 0.0057726657796318007 0.055583213943426177 0 0.0040850058988661422 0.056112343791284151 0 0.0057761429044215842 0.056170853194237404 0 0.0072645557454076078 0.055755109749971575 0 0.0057726657796318007 0.055583213943426177 0 0.0057761429044215842 0.056170853194237404 0 0.0057761429044215842 0.056170853194237404 0 0.0068454452178104298 0.056591059444596289 0 0.0053599255513225065 0.05675402270316534 0 0.0072645557454076078 0.055755109749971575 0 0.0057761429044215842 0.056170853194237404 0 0.0068454452178104298 0.056591059444596289 0 0.0078716200489365208 0.057298299193227306 0 0.0068454452178104298 0.056591059444596289 0 0.0057380768536435967 0.057548720324850082 0 0.0068454452178104298 0.056591059444596289 0 0.0057380768536435967 0.057548720324850082 0 0.0053599255513225065 0.05675402270316534 0 0.0057380768536435967 0.057548720324850082 0 0.0053599255513225065 0.05675402270316534 0 0.0042817729024430774 0.056843997827636827 0 0.0057380768536435967 0.057548720324850082 0 0.0042817729024430774 0.056843997827636827 0 0.0044579429054623252 0.05781674287353155 0 0.0042817729024430774 0.056843997827636827 0 0.0044579429054623252 0.05781674287353155 0 0.0032916071908911568 0.057295741715189516 0 0.0047309063908835738 0.053285026117148367 0 0.0033045281732133865 0.055648371987724668 0 0.0043221055907136322 0.05842284650847774 0 0.006139079066680553 0.058977881073252268 0 0.0028947992194296064 0.059236889159691455 0 0.0033123614740404811 0.048686041060856854 0 0.0045864350014889563 0.047989565839450278 0 0.002510770087497186 0.048264267803105575 0 0.0056007322932739162 0.057519490171873938 0 0.0041792694367619801 0.058118444908190091 0 0.0041792694367619801 0.058118444908190091 0 0.0033045281732133865 0.055648371987724668 0 0.0078716200489365208 0.057298299193227306 0 0.0057380768536435967 0.057548720324850082 0 0.006139079066680553 0.058977881073252268 0 0.0057380768536435967 0.057548720324850082 0 0.0043221055907136322 0.05842284650847774 0 0.006139079066680553 0.058977881073252268 0 0.0048779722170217438 0.048620153707932538 0 0.0056068326592324663 0.048023711092295959 0 0.0045864350014889563 0.047989565839450278 0 0.0022297426923887972 0.057073323525586556 0 0.0024984428410437793 0.057746999703853948 0 0.0032916071908911568 0.057295741715189516 0 0.0022297426923887972 0.057073323525586556 0 0.001634154551209446 0.056615841810754568 0 0.0012768536431553262 0.057026724570002449 0 0.0022297426923887972 0.057073323525586556 0 0.0012768536431553262 0.057026724570002449 0 0.0015780505251653261 0.057461798283728958 0 0.0022297426923887972 0.057073323525586556 0 0.0024984428410437793 0.057746999703853948 0 0.0015780505251653261 0.057461798283728958 0 0.0024984428410437793 0.057746999703853948 0 0.0034345222470309232 0.057986242421236081 0 0.0032916071908911568 0.057295741715189516 0 0.0025925068430354072 0.057286462972271912 0 0.0033045281732133865 0.055648371987724668 0 0.0044579429054623252 0.05781674287353155 0 0.0034345222470309232 0.057986242421236081 0 0.0032916071908911568 0.057295741715189516 0 0.0042817729024430774 0.056843997827636827 0 0.0032916071908911568 0.057295741715189516 0 0.0030604596034003572 0.056271232603750533 0 0.0024447364962855004 0.057100207305176273 0 0.00085027629917232229 0.058178066786173238 0 0.0022297426923887972 0.057073323525586556 0 0.0030604596034003572 0.056271232603750533 0 0.001634154551209446 0.056615841810754568 0 0.0022297426923887972 0.057073323525586556 0 0.0032916071908911568 0.057295741715189516 0 0.0030604596034003572 0.056271232603750533 0 0.0018768702982553856 0.057947690202611049 0 0.0015629694961230337 0.054999618918952629 0 -0.00071269300910436985 0.057429902513669376 0 0.0018768702982553856 0.057947690202611049 0 -0.00071269300910436985 0.057429902513669376 0 -0.00011752540267166963 0.059474020458112641 0 0.0040850058988661422 0.056112343791284151 0 0.0042817729024430774 0.056843997827636827 0 0.0030604596034003572 0.056271232603750533 0 0.0039212259893883382 0.056189423073981663 0 0.0024447364962855004 0.057100207305176273 0 0.0040850058988661422 0.056112343791284151 0 0.0043967338379415563 0.054999440932274803 0 0.0015629694961230337 0.054999618918952629 0 0.0040850058988661422 0.056112343791284151 0 0.0018768702982553856 0.057947690202611049 0 0.0015629694961230337 0.054999618918952629 0 0.0015629694961230337 0.054999618918952629 0 -0.0012705791707305306 0.055000026865520329 0 -0.00071269300910436985 0.057429902513669376 0 -0.0012705791707305306 0.055000026865520329 0 -0.0026915972347536228 0.056687004084230795 0 -0.00071269300910436985 0.057429902513669376 0 -0.0012705791707305306 0.055000026865520329 0 -0.0026915972347536228 0.056687004084230795 0 -0.0041038517169627378 0.054999931416573576 0 -0.0026915972347536228 0.056687004084230795 0 -0.0047033283038797604 0.057433547790088579 0 -0.0026703741176754394 0.058586406681276453 0 -0.0026915972347536228 0.056687004084230795 0 -0.00071269300910436985 0.057429902513669376 0 -0.0026703741176754394 0.058586406681276453 0 -0.0056636832638655224 0.056084416586915965 0 -0.0041038517169627378 0.054999931416573576 0 -0.0069370791938934253 0.054999987026219471 0 -0.0056636832638655224 0.056084416586915965 0 -0.0069078607496601942 0.056890626153784173 0 -0.0069370791938934253 0.054999987026219471 0 -0.0056636832638655224 0.056084416586915965 0 -0.0041038517169627378 0.054999931416573576 0 -0.0047033283038797604 0.057433547790088579 0 -0.0026915972347536228 0.056687004084230795 0 -0.0041038517169627378 0.054999931416573576 0 -0.0047033283038797604 0.057433547790088579 0 -0.0047033283038797604 0.057433547790088579 0 -0.0069183420231718603 0.058777686421216606 0 -0.0069078607496601942 0.056890626153784173 0 -0.0056636832638655224 0.056084416586915965 0 -0.0047033283038797604 0.057433547790088579 0 -0.0069078607496601942 0.056890626153784173 0 -0.0066622831122913409 0.057611919642608353 0 -0.0084442757013851524 0.05677355955587908 0 -0.0081627040531866892 0.05529493609259549 0 -0.010103919144225501 0.055922930633028084 0 -0.010076547122774256 0.054467891438275802 0 -0.0047033283038797604 0.057433547790088579 0 -0.0045215529793600773 0.059846673277192966 0 -0.0069183420231718603 0.058777686421216606 0 -0.0047033283038797604 0.057433547790088579 0 -0.0045215529793600773 0.059846673277192966 0 -0.0026703741176754394 0.058586406681276453 0 -0.0081627040531866892 0.05529493609259549 0 -0.0061510438841847785 0.056169549203995285 0 -0.0081380781999073181 0.05756923340492999 0 -0.0081627040531866892 0.05529493609259549 0 -0.0091057203531056778 0.056601510808613635 0 -0.0081380781999073181 0.05756923340492999 0 -0.0081627040531866892 0.05529493609259549 0 -0.0091057203531056778 0.056601510808613635 0 -0.010103919144225501 0.055922930633028084 0 -0.0091057203531056778 0.056601510808613635 0 -0.010157918482388171 0.057392005067327161 0 -0.010103919144225501 0.055922930633028084 0 -0.00071269300910436985 0.057429902513669376 0 -0.0013984060065680844 0.059104509219094957 0 -0.00011752540267166963 0.059474020458112641 0 -0.00071269300910436985 0.057429902513669376 0 -0.0013984060065680844 0.059104509219094957 0 -0.0026703741176754394 0.058586406681276453 0 -0.0013984060065680844 0.059104509219094957 0 -0.00011752540267166963 0.059474020458112641 0 -0.0020904361346868097 0.060920746382915746 0 -0.0045215529793600773 0.059846673277192966 0 -0.0026703741176754394 0.058586406681276453 0 -0.0020904361346868097 0.060920746382915746 0 -0.0013984060065680844 0.059104509219094957 0 -0.0026703741176754394 0.058586406681276453 0 -0.0020904361346868097 0.060920746382915746 0 -0.0066622831122913409 0.057611919642608353 0 -0.0022238240823302313 0.057368711456625879 0 -0.00015491215324668417 0.056457815440356315 0 0.00073417062504073838 0.057085699134694648 0 -0.00040704832202255426 0.057293251608873906 0 0.00037075729859560927 0.056964735727156178 0 0.00073417062504073838 0.057085699134694648 0 0.0012768536431553262 0.057026724570002449 0 0.00085027629917232229 0.058178066786173238 0 -0.0022238240823302313 0.057368711456625879 0 0.001634154551209446 0.056615841810754568 0 0.00037075729859560927 0.056964735727156178 0 0.0012768536431553262 0.057026724570002449 0 -0.0022238240823302313 0.057368711456625879 0 0.00010427242437486974 0.057640325799093228 0 0.00073417062504073838 0.057085699134694648 0 0.0012768536431553262 0.057026724570002449 0 0.0015780505251653261 0.057461798283728958 0 0.00073417062504073838 0.057085699134694648 0 0.0015780505251653261 0.057461798283728958 0 0.00068713175320820848 0.057706820512379402 0 0.0012822991442149659 0.049644482668978036 0 0.00082377531043803054 0.049390264079999031 0 -0.00097068774254258745 0.050616860653149479 0 0.001888094724051983 0.058229543722461551 0 0.00019050752663292409 0.058282936864247528 0 -0.00014338879153749832 0.059114789920964139 0 0.001888094724051983 0.058229543722461551 0 0.0015780505251653261 0.057461798283728958 0 0.00068713175320820848 0.057706820512379402 0 0.001888094724051983 0.058229543722461551 0 0.00068713175320820848 0.057706820512379402 0 0.00019050752663292409 0.058282936864247528 0 0.00073417062504073838 0.057085699134694648 0 0.00068713175320820848 0.057706820512379402 0 -0.00040704832202255426 0.057293251608873906 0 0.00068713175320820848 0.057706820512379402 0 0.00019050752663292409 0.058282936864247528 0 -0.00058914647765229893 0.057888552471327612 0 0.0015664325629685116 0.049043818273957825 0 -0.00065716755939879839 0.052548064486998371 0 0.0013205781823231052 0.053773572012639798 0 -0.00065716755939879839 0.052548064486998371 0 -0.0022628110962006993 0.032180314112381578 0 -0.0022920341539809314 0.03226303163404539 0 -0.0024564584964599993 0.032349398598361008 0 -0.00078426254932139629 0.040396304759607059 0 -0.00053141881839874827 0.048793189379397139 0 0.0016243482146370591 0.049168081140976289 0 0.00097256515863296646 0.049925894071591058 0 -7.5479372004627813e-05 0.049718242881313095 0 0.00097256515863296646 0.049925894071591058 0 -0.00048153048871117963 0.049952833304710252 0 -7.5479372004627813e-05 0.049718242881313095 0 -0.00053141881839874827 0.048793189379397139 0 -0.0018631841852777135 0.055111637900239346 0 -0.00087046279425705836 0.053031978744097909 0 -0.0013979052939044785 0.05305321171506959 0 -0.00017607331057099688 0.052607567074198329 0 -0.0018631841852777135 0.055111637900239346 0 -0.00065716755939879839 0.052548064486998371 0 -0.00053141881839874827 0.048793189379397139 0 -0.00065716755939879839 0.052548064486998371 0 0.00019050752663292409 0.058282936864247528 0 -0.00014338879153749832 0.059114789920964139 0 -0.0012241710738203921 0.058417329130153642 0 -0.0014796149931407751 0.059490193066142331 0 -0.00014338879153749832 0.059114789920964139 0 -0.0012241710738203921 0.058417329130153642 0 -0.0014796149931407751 0.059490193066142331 0 -0.0012241710738203921 0.058417329130153642 0 -0.0025512412262228509 0.058393579030238119 0 -0.00015491215324668417 0.056457815440356315 0 -0.00040704832202255426 0.057293251608873906 0 -0.0028576433413263886 0.057355273594798743 0 -0.0012241710738203921 0.058417329130153642 0 -0.00058914647765229893 0.057888552471327612 0 -0.0028576433413263886 0.057355273594798743 0 -0.00058914647765229893 0.057888552471327612 0 -0.00040704832202255426 0.057293251608873906 0 -0.0028576433413263886 0.057355273594798743 0 -0.0022238240823302313 0.057368711456625879 0 -0.0056753798889789932 0.057356857224431138 0 0.00019050752663292409 0.058282936864247528 0 -0.0012241710738203921 0.058417329130153642 0 -0.00058914647765229893 0.057888552471327612 0 0.00068713175320820848 0.057706820512379402 0 -0.00058914647765229893 0.057888552471327612 0 -0.00040704832202255426 0.057293251608873906 0 -0.0012241710738203921 0.058417329130153642 0 -0.0028576433413263886 0.057355273594798743 0 -0.0025512412262228509 0.058393579030238119 0 -0.0091057203531056778 0.056601510808613635 0 -0.0081380781999073181 0.05756923340492999 0 -0.010157918482388171 0.057392005067327161 0 -0.0081380781999073181 0.05756923340492999 0 -0.010093356276386529 0.058805611607537084 0 -0.010157918482388171 0.057392005067327161 0 -0.0056753798889789932 0.057356857224431138 0 -0.0079707080889174983 0.058465102843711522 0 -0.0028576433413263886 0.057355273594798743 0 -0.0047810522441260961 0.058613489190692876 0 -0.0058244573627639655 0.058061622454399824 0 -0.0018631841852777135 0.055111637900239346 0 -0.0041605753342526912 0.058644411474440626 0 -0.0028576433413263886 0.057355273594798743 0 -0.0047810522441260961 0.058613489190692876 0 -0.0025512412262228509 0.058393579030238119 0 -0.0024143006387514635 0.058427519487851839 0 -0.0047810522441260961 0.058613489190692876 0 -0.0041588784215089297 0.059133003276301013 0 -0.0014796149931407751 0.059490193066142331 0 -0.0047810522441260961 0.058613489190692876 0 -0.0025512412262228509 0.058393579030238119 0 -0.0018631841852777135 0.055111637900239346 0 -0.004600137868156399 0.059468232322645281 0 -0.0022920341539809314 0.03226303163404539 0 -0.0037305458809602727 0.032881184853679551 0 -0.0023907648454347887 0.0327183893063724 0 -0.0010217821521008657 0.056796616688013793 0 -0.0039119731391636416 0.057993140717712423 0 -0.0041631310283650911 0.059292898533884218 0 -0.00053141881839874827 0.048793189379397139 0 -0.0040156748501283925 0.045344414218916926 0 -0.00023997230061735135 0.056740800440302538 0 -0.0010217821521008657 0.056796616688013793 0 -0.0041631310283650911 0.059292898533884218 0 -0.0041605753342526912 0.058644411474440626 0 -0.0059980130383618145 0.059130305204731261 0 -0.0047810522441260961 0.058613489190692876 0 -0.0041588784215089297 0.059133003276301013 0 -0.0063577999311968079 0.059202278381759676 0 -0.0041631310283650911 0.059292898533884218 0 -0.0075527063484586952 0.061033508466097279 0 -0.0063577999311968079 0.059202278381759676 0 -0.0039119731391636416 0.057993140717712423 0 -0.0041631310283650911 0.059292898533884218 0 -0.0063577999311968079 0.059202278381759676 0 -0.0047810522441260961 0.058613489190692876 0 -0.0058244573627639655 0.058061622454399824 0 -0.0063577999311968079 0.059202278381759676 0 -0.0040156748501283925 0.045344414218916926 0 -0.0063297097738324835 0.048356132071859757 0 -0.0037305458809602727 0.032881184853679551 0 -0.0046272700066282693 0.034322013548627128 0 -0.0061330472487190939 0.034290888476005865 0 -0.0037305458809602727 0.032881184853679551 0 -0.0046272700066282693 0.034322013548627128 0 -0.0034545687173073822 0.034718116840606293 0 -0.0037305458809602727 0.032881184853679551 0 -0.0023907648454347887 0.0327183893063724 0 -0.0034545687173073822 0.034718116840606293 0 -0.0022859662486655638 0.032721415605095672 0 -0.0023452191272006328 0.033050684909232214 0 -0.0023907648454347887 0.0327183893063724 0 -0.0025853492415268998 0.031216465610734611 0 -0.00091091691443712509 0.031337314654136278 0 -0.0027295927521492221 0.032225385204930686 0 -0.0023907648454347887 0.0327183893063724 0 -0.0025853492415268998 0.031216465610734611 0 -0.0022519140987724119 0.032313916243351969 0 -0.0027295927521492221 0.032225385204930686 0 -0.0024564584964599993 0.032349398598361008 0 -0.0022627973094421117 0.032679500345184277 0 -0.0022519140987724119 0.032313916243351969 0 -0.0027295927521492221 0.032225385204930686 0 -0.0020554783295415897 0.032229761634276502 0 -0.0022628110962006993 0.032180314112381578 0 -0.0024564584964599993 0.032349398598361008 0 -0.0022920341539809314 0.03226303163404539 0 -0.0024564584964599993 0.032349398598361008 0 -0.0023907648454347887 0.0327183893063724 0 -0.0027295927521492221 0.032225385204930686 0 -0.0024564584964599993 0.032349398598361008 0 -0.0023907648454347887 0.0327183893063724 0 -0.012851896408644488 0.059515033637387686 0 -0.011684058043938884 0.059730132424118919 0 -0.012627714825635884 0.058747929581694176 0 -0.012851896408644488 0.059515033637387686 0 -0.012599937322687754 0.060711371246658596 0 -0.011684058043938884 0.059730132424118919 0 -0.012851896408644488 0.059515033637387686 0 -0.013983573430203983 0.059879921517486716 0 -0.01346579533195906 0.058483616642460566 0 -0.014258950063331525 0.059946518352641844 0 -0.013721428209866918 0.058402083512806652 0 -0.013983573430203983 0.059879921517486716 0 -0.012599937322687754 0.060711371246658596 0 -0.013555331396126366 0.061586904419735092 0 -0.013983573430203983 0.059879921517486716 0 -0.015033387785673941 0.061783441430194347 0 -0.013555331396126366 0.061586904419735092 0 -0.012851896408644488 0.059515033637387686 0 -0.013983573430203983 0.059879921517486716 0 -0.012599937322687754 0.060711371246658596 0 -0.012496352929592707 0.060677002504035467 0 -0.010370265359751605 0.05939352028982621 0 -0.012599937322687754 0.060711371246658596 0 -0.010136702706590863 0.060801061158548324 0 -0.011466985475037897 0.062448027378983008 0 -0.010136702706590863 0.060801061158548324 0 -0.0075527063484586952 0.061033508466097279 0 -0.0089569504508212935 0.058899670821835358 0 -0.012599937322687754 0.060711371246658596 0 -0.010136702706590863 0.060801061158548324 0 -0.0089569504508212935 0.058899670821835358 0 -0.010136702706590863 0.060801061158548324 0 -0.0075527063484586952 0.061033508466097279 0 -0.011466985475037897 0.062448027378983008 0 -0.0046272700066282693 0.034322013548627128 0 -0.0061330472487190939 0.034290888476005865 0 -0.0051522919326686106 0.035291694708936026 0 -0.0075527063484586952 0.061033508466097279 0 -0.0063577999311968079 0.059202278381759676 0 -0.0089569504508212935 0.058899670821835358 0 -0.0058244573627639655 0.058061622454399824 0 -0.0063577999311968079 0.059202278381759676 0 -0.0089569504508212935 0.058899670821835358 0 -0.0079707080889174983 0.058465102843711522 0 -0.010370265359751605 0.05939352028982621 0 -0.011684058043938884 0.059730132424118919 0 -0.011477321490152775 0.058722135881960021 0 -0.012627714825635884 0.058747929581694176 0 -0.011477321490152775 0.058722135881960021 0 -0.011988889676149229 0.058148083294663075 0 -0.012627714825635884 0.058747929581694176 0 -0.011477321490152775 0.058722135881960021 0 -0.011988889676149229 0.058148083294663075 0 -0.010798605599592285 0.058136560353858377 0 -0.010093356276386529 0.058805611607537084 0 -0.010798605599592285 0.058136560353858377 0 -0.010157918482388171 0.057392005067327161 0 -0.010093356276386529 0.058805611607537084 0 -0.011684058043938884 0.059730132424118919 0 -0.011477321490152775 0.058722135881960021 0 -0.010093356276386529 0.058805611607537084 0 -0.011477321490152775 0.058722135881960021 0 -0.010798605599592285 0.058136560353858377 0 -0.010798605599592285 0.058136560353858377 0 -0.010157918482388171 0.057392005067327161 0 -0.01101629036218741 0.05696086219105323 0 -0.011988889676149229 0.058148083294663075 0 -0.010798605599592285 0.058136560353858377 0 -0.01101629036218741 0.05696086219105323 0 -0.011988889676149229 0.058148083294663075 0 -0.01101629036218741 0.05696086219105323 0 -0.011938265347843141 0.056113207505208672 0 -0.011988889676149229 0.058148083294663075 0 -0.01338188767408189 0.057001600150422056 0 -0.01265831495034094 0.056456800910337869 0 -0.011989872288626148 0.058200866230030839 0 -0.012442398393979343 0.056075677545909509 0 -0.013721428209866918 0.058402083512806652 0 -0.01336193027129981 0.057074178202483512 0 -0.011988889676149229 0.058148083294663075 0 -0.012627714825635884 0.058747929581694176 0 -0.01338188767408189 0.057001600150422056 0 -0.012627714825635884 0.058747929581694176 0 -0.01346579533195906 0.058483616642460566 0 -0.01338188767408189 0.057001600150422056 0 -0.012851896408644488 0.059515033637387686 0 -0.012627714825635884 0.058747929581694176 0 -0.01346579533195906 0.058483616642460566 0 -0.014471893738734224 0.05990675105264983 0 -0.01397151910859841 0.058406390279740227 0 -0.015012284956572154 0.058434564356089229 0 -0.01397151910859841 0.058406390279740227 0 -0.01446843419273428 0.057035973076001507 0 -0.015012284956572154 0.058434564356089229 0 -0.015609468859717198 0.055758992613440576 0 -0.016551671574768143 0.056622915913243504 0 -0.01397151910859841 0.058406390279740227 0 -0.01446843419273428 0.057035973076001507 0 -0.01338188767408189 0.057001600150422056 0 -0.016996648294105906 0.054554496427601941 0 -0.01426290032564782 0.055514731997446283 0 -0.016894318965167909 0.054513579596970813 0 -0.01446843419273428 0.057035973076001507 0 -0.013493454867182174 0.056198694269945455 0 -0.01426290032564782 0.055514731997446283 0 -0.015609468859717198 0.055758992613440576 0 -0.014438210670784926 0.055285111494165741 0 -0.01446843419273428 0.057035973076001507 0 -0.01338188767408189 0.057001600150422056 0 -0.013493454867182174 0.056198694269945455 0 -0.01338188767408189 0.057001600150422056 0 -0.013493454867182174 0.056198694269945455 0 -0.01265831495034094 0.056456800910337869 0 -0.013493454867182174 0.056198694269945455 0 -0.01426290032564782 0.055514731997446283 0 -0.012894738086841153 0.055313517506818316 0 -0.01426290032564782 0.055514731997446283 0 -0.016894318965167909 0.054513579596970813 0 -0.016074817308239224 0.055130734370132571 0 -0.010160264015534921 0.057354711413488711 0 -0.01014933838854582 0.055739282218643521 0 -0.010157918482388171 0.057392005067327161 0 -0.01101629036218741 0.05696086219105323 0 -0.01021568696522542 0.05618741529177574 0 -0.01101629036218741 0.05696086219105323 0 -0.01021568696522542 0.05618741529177574 0 -0.010987961168261418 0.055913572879738624 0 -0.01101629036218741 0.05696086219105323 0 -0.010987961168261418 0.055913572879738624 0 -0.011938265347843141 0.056113207505208672 0 -0.013493454867182174 0.056198694269945455 0 -0.01265831495034094 0.056456800910337869 0 -0.012894738086841153 0.055313517506818316 0 -0.012442398393979343 0.056075677545909509 0 -0.011219773916496536 0.055877822031376867 0 -0.011938265347843141 0.056113207505208672 0 -0.011324317771136095 0.055228485783200179 0 -0.011969429109770559 0.054274394088094799 0 -0.010987961168261418 0.055913572879738624 0 -0.011938265347843141 0.056113207505208672 0 -0.011324317771136095 0.055228485783200179 0 -0.011324317771136095 0.055228485783200179 0 -0.010229956780954024 0.055039356824402481 0 -0.011969429109770559 0.054274394088094799 0 -0.01021568696522542 0.05618741529177574 0 -0.010987961168261418 0.055913572879738624 0 -0.010229956780954024 0.055039356824402481 0 -0.010987961168261418 0.055913572879738624 0 -0.011324317771136095 0.055228485783200179 0 -0.010229956780954024 0.055039356824402481 0 -0.01014933838854582 0.055739282218643521 0 -0.0084442757013851524 0.05677355955587908 0 -0.0070073405693388711 0.056862783307186505 0 -0.0097649383414068966 0.057509363541022339 0 -0.0086136110271868745 0.056210354598855837 0 -0.0084442757013851524 0.05677355955587908 0 -0.011219773916496536 0.055877822031376867 0 -0.0070332114356846422 0.05871114737678635 0 -0.0070073405693388711 0.056862783307186505 0 -0.0097649383414068966 0.057509363541022339 0 -0.0084442757013851524 0.05677355955587908 0 -0.0069479689989857558 0.057204469008664591 0 -0.0097649383414068966 0.057509363541022339 0 -0.0086136110271868745 0.056210354598855837 0 -0.0099028778272056556 0.054982171095948627 0 -0.011219773916496536 0.055877822031376867 0 -0.0098139174463992666 0.055561130085059647 0 -0.010786809130540398 0.056746335126553783 0 -0.0099056653721943146 0.054980631091277564 0 -0.01114922729557034 0.055566498752612895 0 -0.0070073405693388711 0.056862783307186505 0 -0.0086136110271868745 0.056210354598855837 0 -0.0069373749812792884 0.054999900782660094 0 -0.0086136110271868745 0.056210354598855837 0 -0.0099028778272056556 0.054982171095948627 0 -0.0069373749812792884 0.054999900782660094 0 -0.0069479689989857558 0.057204469008664591 0 -0.0069371796504963537 0.055000210131074645 0 -0.01426290032564782 0.055514731997446283 0 -0.014401097465032953 0.055464806121917239 0 -0.012760466541795152 0.055714498527202908 0 -0.01426290032564782 0.055514731997446283 0 -0.014401097465032953 0.055464806121917239 0 -0.016074817308239224 0.055130734370132571 0 -0.01426290032564782 0.055514731997446283 0 -0.012894738086841153 0.055313517506818316 0 -0.012760466541795152 0.055714498527202908 0 -0.011219773916496536 0.055877822031376867 0 -0.012758079517510309 0.055678510036495391 0 -0.010786809130540398 0.056746335126553783 0 -0.012760466541795152 0.055714498527202908 0 -0.01114922729557034 0.055566498752612895 0 -0.0099056653721943146 0.054980631091277564 0 -0.01114922729557034 0.055566498752612895 0 -0.012995164275621848 0.05499924052739865 0 -0.012760466541795152 0.055714498527202908 0 -0.01114922729557034 0.055566498752612895 0 -0.012995164275621848 0.05499924052739865 0 -0.014401097465032953 0.055464806121917239 0 -0.012760466541795152 0.055714498527202908 0 -0.012995164275621848 0.05499924052739865 0 -0.014401097465032953 0.055464806121917239 0 -0.012995164275621848 0.05499924052739865 0 -0.015337069640474568 0.05539948271490696 0 -0.012995164275621848 0.05499924052739865 0 -0.015337069640474568 0.05539948271490696 0 -0.016019170994613186 0.054999110112875185 0 -0.014401097465032953 0.055464806121917239 0 -0.015337069640474568 0.05539948271490696 0 -0.016074817308239224 0.055130734370132571 0 -0.016141149277778162 0.055454188268996195 0 -0.016074817308239224 0.055130734370132571 0 -0.01684304174715822 0.05474932697687878 0 -0.015337069640474568 0.05539948271490696 0 -0.016141149277778162 0.055454188268996195 0 -0.016074817308239224 0.055130734370132571 0 -0.017130767870406648 0.057023000650480223 0 -0.016020883963424291 0.054999983853084702 0 -0.018244572727458375 0.05499997971887851 0 -0.015337069640474568 0.05539948271490696 0 -0.016141149277778162 0.055454188268996195 0 -0.016019170994613186 0.054999110112875185 0 -0.016403289517904041 0.056380294270603565 0 -0.016020988840331724 0.055000205793798537 0 -0.017130767870406648 0.057023000650480223 0 -0.01877075086476461 0.056605089107820167 0 -0.018244572727458375 0.05499997971887851 0 -0.01877075086476461 0.056605089107820167 0 -0.020468274217299107 0.054999970813339523 0 -0.020419351260578034 0.057028978429133799 0 -0.01877075086476461 0.056605089107820167 0 -0.018244572727458375 0.05499997971887851 0 -0.020468274217299107 0.054999970813339523 0 -0.022621867377337637 0.056584686345208683 0 -0.02049069480671132 0.054679825795019503 0 -0.01877075086476461 0.056605089107820167 0 -0.020419351260578034 0.057028978429133799 0 -0.018203588827513561 0.059004035880910174 0 -0.016403289517904041 0.056380294270603565 0 -0.02049069480671132 0.054679825795019503 0 -0.017130767870406648 0.057023000650480223 0 -0.01877075086476461 0.056605089107820167 0 -0.018203588827513561 0.059004035880910174 0 -0.02049069480671132 0.054679825795019503 0 -0.024744063812602766 0.053146303851526827 0 -0.025556220356297177 0.055179944356288091 0 -0.025004038455718962 0.055064387676993926 0 -0.02545461897102709 0.054632230533591397 0 -0.024507600177301931 0.055620419773301358 0 -0.025556220356297177 0.055179944356288091 0 -0.025004038455718962 0.055064387676993926 0 -0.025004038455718962 0.055064387676993926 0 -0.02545461897102709 0.054632230533591397 0 -0.025099739054120634 0.054447813449795664 0 -0.024744063812602766 0.053146303851526827 0 -0.025043596091792433 0.053783596948900704 0 -0.02545461897102709 0.054632230533591397 0 -0.025099739054120634 0.054447813449795664 0 -0.025042073163195983 0.05379644901396808 0 -0.022956539619913476 0.048940069231929569 0 -0.022082428734122628 0.052850196177598049 0 -0.018411351657627351 0.053480448855191022 0 -0.024169743756166547 0.051973578269489736 0 -0.022082428734122628 0.052850196177598049 0 -0.023352330789774743 0.053863362756853717 0 -0.022956539619913476 0.048940069231929569 0 -0.024169743756166547 0.051973578269489736 0 -0.022082428734122628 0.052850196177598049 0 -0.022082428734122628 0.052850196177598049 0 -0.018411351657627351 0.053480448855191022 0 -0.021440266562654867 0.054159542856518708 0 -0.02049069480671132 0.054679825795019503 0 -0.018155842638438665 0.052509205323743438 0 -0.018411351657627351 0.053480448855191022 0 -0.016894318965167909 0.054513579596970813 0 -0.01684304174715822 0.05474932697687878 0 -0.018411351657627351 0.053480448855191022 0 -0.016894318965167909 0.054513579596970813 0 -0.017976919200338577 0.054472102886106627 0 -0.016996648294105906 0.054554496427601941 0 -0.016894318965167909 0.054513579596970813 0 -0.017976919200338577 0.054472102886106627 0 -0.016894318965167909 0.054513579596970813 0 -0.016074817308239224 0.055130734370132571 0 -0.01684304174715822 0.05474932697687878 0 -0.016141149277778162 0.055454188268996195 0 -0.015578927246421804 0.054791971755120662 0 -0.01684304174715822 0.05474932697687878 0 -0.015578927246421804 0.054791971755120662 0 -0.018411351657627351 0.053480448855191022 0 -0.01684304174715822 0.05474932697687878 0 -0.025909813786423749 0.055919173906695332 0 -0.027775628413688955 0.056018237592107854 0 -0.02670806162696596 0.056855537397786038 0 -0.025909813786423749 0.055919173906695332 0 -0.025381189796396871 0.054999047863764805 0 -0.02807244898426807 0.054999637944915032 0 -0.025909813786423749 0.055919173906695332 0 -0.02807244898426807 0.054999637944915032 0 -0.027775628413688955 0.056018237592107854 0 -0.025909813786423749 0.055919173906695332 0 -0.025381189796396871 0.054999047863764805 0 -0.024076648462719005 0.055666629994850739 0 -0.025909813786423749 0.055919173906695332 0 -0.024814523694232957 0.055830912877590989 0 -0.025555590413451346 0.056093829596191726 0 -0.025909813786423749 0.055919173906695332 0 -0.024814523694232957 0.055830912877590989 0 -0.024076648462719005 0.055666629994850739 0 -0.024814523694232957 0.055830912877590989 0 -0.024076648462719005 0.055666629994850739 0 -0.024666064747986459 0.055420383977291335 0 -0.025381189796396871 0.054999047863764805 0 -0.024076648462719005 0.055666629994850739 0 -0.022697914622789681 0.055000534574025838 0 -0.020468274217299107 0.054999970813339523 0 -0.020419351260578034 0.057028978429133799 0 -0.02269198698863303 0.055000009133235203 0 -0.024507600177301931 0.055620419773301358 0 -0.024076648462719005 0.055666629994850739 0 -0.022697914622789681 0.055000534574025838 0 -0.022621867377337637 0.056584686345208683 0 -0.022692351610336742 0.054999859018720405 0 -0.024507600177301931 0.055620419773301358 0 -0.024076648462719005 0.055666629994850739 0 -0.024666064747986459 0.055420383977291335 0 -0.024507600177301931 0.055620419773301358 0 -0.025004038455718962 0.055064387676993926 0 -0.024666064747986459 0.055420383977291335 0 -0.025004038455718962 0.055064387676993926 0 -0.024985750479547545 0.05485955010187115 0 -0.024666064747986459 0.055420383977291335 0 -0.025004038455718962 0.055064387676993926 0 -0.025099739054120634 0.054447813449795664 0 -0.024985750479547545 0.05485955010187115 0 -0.024985750479547545 0.05485955010187115 0 -0.02514541971691393 0.054716480314575384 0 -0.02526019877103958 0.053986213789939279 0 -0.025099739054120634 0.054447813449795664 0 -0.024985750479547545 0.05485955010187115 0 -0.02526019877103958 0.053986213789939279 0 -0.024985750479547545 0.05485955010187115 0 -0.025007075467002989 0.055174420521467982 0 -0.02514541971691393 0.054716480314575384 0 -0.025007075467002989 0.055174420521467982 0 -0.02514541971691393 0.054716480314575384 0 -0.025157641224686746 0.055216008918095381 0 -0.025007075467002989 0.055174420521467982 0 -0.025090009125803985 0.055447062041572515 0 -0.024919741883716855 0.055533401320187574 0 -0.025007075467002989 0.055174420521467982 0 -0.025090009125803985 0.055447062041572515 0 -0.025157641224686746 0.055216008918095381 0 -0.024814523694232957 0.055830912877590989 0 -0.024919741883716855 0.055533401320187574 0 -0.024666064747986459 0.055420383977291335 0 -0.025007075467002989 0.055174420521467982 0 -0.024919741883716855 0.055533401320187574 0 -0.024666064747986459 0.055420383977291335 0 -0.024985750479547545 0.05485955010187115 0 -0.025007075467002989 0.055174420521467982 0 -0.024666064747986459 0.055420383977291335 0 -0.024814523694232957 0.055830912877590989 0 -0.024919741883716855 0.055533401320187574 0 -0.02514356382835534 0.055760679183633192 0 -0.024814523694232957 0.055830912877590989 0 -0.025555590413451346 0.056093829596191726 0 -0.02514356382835534 0.055760679183633192 0 -0.025555590413451346 0.056093829596191726 0 -0.025442174839245355 0.05589831212231744 0 -0.02514356382835534 0.055760679183633192 0 -0.025090009125803985 0.055447062041572515 0 -0.024919741883716855 0.055533401320187574 0 -0.02514356382835534 0.055760679183633192 0 -0.025442174839245355 0.05589831212231744 0 -0.02514356382835534 0.055760679183633192 0 -0.02522183241775636 0.055515999741629254 0 -0.036980991729512851 0.053992739964664437 0 -0.03669347197663328 0.054303559413323474 0 -0.036079371259547841 0.054364549021198395 0 -0.025090009125803985 0.055447062041572515 0 -0.02514356382835534 0.055760679183633192 0 -0.02522183241775636 0.055515999741629254 0 -0.02522183241775636 0.055515999741629254 0 -0.025157641224686746 0.055216008918095381 0 -0.025196803258287544 0.055310543747883405 0 -0.02522183241775636 0.055515999741629254 0 -0.025196803258287544 0.055310543747883405 0 -0.025245488979509699 0.055427756141143945 0 -0.025090009125803985 0.055447062041572515 0 -0.02522183241775636 0.055515999741629254 0 -0.025157641224686746 0.055216008918095381 0 -0.02514541971691393 0.054716480314575384 0 -0.025157641224686746 0.055216008918095381 0 -0.025190925374232613 0.055215775393599072 0 -0.025157641224686746 0.055216008918095381 0 -0.025196803258287544 0.055310543747883405 0 -0.025190925374232613 0.055215775393599072 0 -0.025196803258287544 0.055310543747883405 0 -0.025190925374232613 0.055215775393599072 0 -0.025245488979509699 0.055427756141143945 0 -0.036799078783084936 0.053739449186590259 0 -0.036980991729512851 0.053992739964664437 0 -0.036550530067464997 0.053877302486168267 0 -0.036799078783084936 0.053739449186590259 0 -0.036550530067464997 0.053877302486168267 0 -0.036589717109830659 0.053589307512241162 0 -0.036799078783084936 0.053739449186590259 0 -0.036980991729512851 0.053992739964664437 0 -0.036812425239443405 0.05333537836020627 0 -0.025190925374232613 0.055215775393599072 0 -0.025245488979509699 0.055427756141143945 0 -0.0253827547486715 0.055620141860974324 0 -0.031158136065997741 0.054436208681384053 0 -0.031095482652522714 0.054857085519024337 0 -0.025442174839245355 0.05589831212231744 0 -0.02522183241775636 0.055515999741629254 0 -0.0253827547486715 0.055620141860974324 0 -0.02522183241775636 0.055515999741629254 0 -0.025245488979509699 0.055427756141143945 0 -0.0253827547486715 0.055620141860974324 0 -0.036980991729512851 0.053992739964664437 0 -0.036550530067464997 0.053877302486168267 0 -0.036079371259547841 0.054364549021198395 0 -0.03669347197663328 0.054303559413323474 0 -0.036079371259547841 0.054364549021198395 0 -0.035630373136917075 0.055318086014891001 0 -0.031095482652522714 0.054857085519024337 0 -0.031217760939600263 0.055992778134367038 0 -0.036550530067464997 0.053877302486168267 0 -0.036079371259547841 0.054364549021198395 0 -0.036388608370143162 0.053488495406016211 0 -0.0358535448005829 0.053796658125987398 0 -0.036079371259547841 0.054364549021198395 0 -0.036388608370143162 0.053488495406016211 0 -0.0358535448005829 0.053796658125987398 0 -0.036079371259547841 0.054364549021198395 0 -0.035218902649353984 0.05445470878635613 0 -0.025555590413451346 0.056093829596191726 0 -0.025442174839245355 0.05589831212231744 0 -0.02670806162696596 0.056855537397786038 0 -0.025442174839245355 0.05589831212231744 0 -0.0253827547486715 0.055620141860974324 0 -0.02670806162696596 0.056855537397786038 0 -0.025909813786423749 0.055919173906695332 0 -0.025555590413451346 0.056093829596191726 0 -0.02670806162696596 0.056855537397786038 0 -0.036578399873169298 0.050882180689057532 0 -0.037143473328616547 0.05156241458696878 0 -0.037333513505006313 0.050130069859640185 0 -0.036578399873169298 0.050882180689057532 0 -0.036878657683204821 0.050001369436750487 0 -0.037063268608817777 0.0501825157479713 0 -0.036578399873169298 0.050882180689057532 0 -0.036144283396558549 0.05235973905209651 0 -0.037143473328616547 0.05156241458696878 0 -0.036144283396558549 0.05235973905209651 0 -0.036666258222717761 0.052728921744881453 0 -0.037143473328616547 0.05156241458696878 0 -0.036578399873169298 0.050882180689057532 0 -0.036144283396558549 0.05235973905209651 0 -0.035427904687544191 0.052752965730791135 0 -0.036144283396558549 0.05235973905209651 0 -0.036117919118346525 0.053162531430402032 0 -0.03551604485242435 0.05337178155111727 0 -0.0358535448005829 0.053796658125987398 0 -0.036117919118346525 0.053162531430402032 0 -0.03551604485242435 0.05337178155111727 0 -0.0358535448005829 0.053796658125987398 0 -0.036117919118346525 0.053162531430402032 0 -0.036388608370143162 0.053488495406016211 0 -0.036117919118346525 0.053162531430402032 0 -0.036388608370143162 0.053488495406016211 0 -0.036666258222717761 0.052728921744881453 0 -0.036388608370143162 0.053488495406016211 0 -0.036666258222717761 0.052728921744881453 0 -0.036812425239443405 0.05333537836020627 0 -0.036550530067464997 0.053877302486168267 0 -0.036589717109830659 0.053589307512241162 0 -0.036388608370143162 0.053488495406016211 0 -0.036589717109830659 0.053589307512241162 0 -0.036388608370143162 0.053488495406016211 0 -0.036812425239443405 0.05333537836020627 0 -0.036144283396558549 0.05235973905209651 0 -0.036117919118346525 0.053162531430402032 0 -0.036666258222717761 0.052728921744881453 0 -0.036980991729512851 0.053992739964664437 0 -0.037024733451897079 0.052733270170233708 0 -0.037422836999912598 0.052173688161197183 0 -0.036980991729512851 0.053992739964664437 0 -0.037422836999912598 0.052173688161197183 0 -0.037840639938000929 0.052300112814349473 0 -0.036666258222717761 0.052728921744881453 0 -0.037024733451897079 0.052733270170233708 0 -0.037143473328616547 0.05156241458696878 0 -0.036666258222717761 0.052728921744881453 0 -0.037024733451897079 0.052733270170233708 0 -0.036812425239443405 0.05333537836020627 0 -0.036980991729512851 0.053992739964664437 0 -0.037024733451897079 0.052733270170233708 0 -0.036812425239443405 0.05333537836020627 0 -0.036799078783084936 0.053739449186590259 0 -0.036589717109830659 0.053589307512241162 0 -0.036812425239443405 0.05333537836020627 0 -0.037422836999912598 0.052173688161197183 0 -0.037143473328616547 0.05156241458696878 0 -0.037916830820169084 0.050800652178492202 0 -0.037024733451897079 0.052733270170233708 0 -0.037422836999912598 0.052173688161197183 0 -0.037143473328616547 0.05156241458696878 0 -0.037422836999912598 0.052173688161197183 0 -0.037840639938000929 0.052300112814349473 0 -0.037916830820169084 0.050800652178492202 0 -0.037840639938000929 0.052300112814349473 0 -0.037667593797812052 0.051553863408236471 0 -0.037916830820169084 0.050800652178492202 0 -0.02514541971691393 0.054716480314575384 0 -0.025190925374232613 0.055215775393599072 0 -0.02523304571837208 0.053870151312604142 0 -0.02514541971691393 0.054716480314575384 0 -0.02523304571837208 0.053870151312604142 0 -0.02526019877103958 0.053986213789939279 0 -0.031158136065997741 0.054436208681384053 0 -0.031541023097543461 0.053127754390628085 0 -0.031541023097543461 0.053127754390628085 0 -0.031490593966173416 0.052548931658844 0 -0.02523304571837208 0.053870151312604142 0 -0.02526019877103958 0.053986213789939279 0 -0.025582863755482993 0.053334240465749583 0 -0.02526019877103958 0.053986213789939279 0 -0.025582863755482993 0.053334240465749583 0 -0.024923333221021887 0.053802653254476168 0 -0.037667593797812052 0.051553863408236471 0 -0.037986528333621504 0.050638750789456094 0 -0.037916830820169084 0.050800652178492202 0 -0.037986528333621504 0.050638750789456094 0 -0.038487281262390073 0.04946347656743353 0 -0.038052498297035539 0.050144469297361119 0 -0.038487281262390073 0.04946347656743353 0 -0.037916830820169084 0.050800652178492202 0 -0.038182250402102061 0.048500012965839272 0 -0.037986528333621504 0.050638750789456094 0 -0.038487281262390073 0.04946347656743353 0 -0.037916830820169084 0.050800652178492202 0 -0.037143473328616547 0.05156241458696878 0 -0.037916830820169084 0.050800652178492202 0 -0.037333513505006313 0.050130069859640185 0 -0.037916830820169084 0.050800652178492202 0 -0.038182250402102061 0.048500012965839272 0 -0.037333513505006313 0.050130069859640185 0 -0.038182250402102061 0.048500012965839272 0 -0.037228004135416791 0.049149842182380776 0 -0.037292651511254549 0.047744609757184045 0 -0.038182250402102061 0.048500012965839272 0 -0.037228004135416791 0.049149842182380776 0 -0.037333513505006313 0.050130069859640185 0 -0.037228004135416791 0.049149842182380776 0 -0.037333513505006313 0.050130069859640185 0 -0.036878657683204821 0.050001369436750487 0 -0.036578399873169298 0.050882180689057532 0 -0.037333513505006313 0.050130069859640185 0 -0.036878657683204821 0.050001369436750487 0 -0.021751176823403669 0.054496801761001024 0 -0.021095704282737313 0.054830750574957947 0 -0.020042959253990546 0.054409034147121872 0 -0.021751176823403669 0.054496801761001024 0 -0.021440266562654867 0.054159542856518708 0 -0.02338360620311309 0.054225705808870546 0 -0.021751176823403669 0.054496801761001024 0 -0.022863099238184827 0.054406403719319547 0 -0.02338360620311309 0.054225705808870546 0 -0.021751176823403669 0.054496801761001024 0 -0.022863099238184827 0.054406403719319547 0 -0.021095704282737313 0.054830750574957947 0 -0.018612554201855282 0.055075748876964967 0 -0.018182575201850064 0.055010216197455823 0 -0.017976919200338577 0.054472102886106627 0 -0.019778387807824181 0.054815807697568247 0 -0.01828687471621096 0.054272984819474623 0 -0.018411351657627351 0.053480448855191022 0 -0.017976919200338577 0.054472102886106627 0 -0.020042959253990546 0.054409034147121872 0 -0.016996648294105906 0.054554496427601941 0 -0.018182575201850064 0.055010216197455823 0 -0.017976919200338577 0.054472102886106627 0 -0.021095704282737313 0.054830750574957947 0 -0.017976919200338577 0.054472102886106627 0 -0.020042959253990546 0.054409034147121872 0 -0.018411351657627351 0.053480448855191022 0 -0.020042959253990546 0.054409034147121872 0 -0.021440266562654867 0.054159542856518708 0 -0.021751176823403669 0.054496801761001024 0 -0.020042959253990546 0.054409034147121872 0 -0.021440266562654867 0.054159542856518708 0 -0.022082428734122628 0.052850196177598049 0 -0.021440266562654867 0.054159542856518708 0 -0.023352330789774743 0.053863362756853717 0 -0.021440266562654867 0.054159542856518708 0 -0.023352330789774743 0.053863362756853717 0 -0.02338360620311309 0.054225705808870546 0 -0.024169743756166547 0.051973578269489736 0 -0.023352330789774743 0.053863362756853717 0 -0.025042073163195983 0.05379644901396808 0 -0.025099739054120634 0.054447813449795664 0 -0.02526019877103958 0.053986213789939279 0 -0.025042073163195983 0.05379644901396808 0 -0.023352330789774743 0.053863362756853717 0 -0.025042073163195983 0.05379644901396808 0 -0.024923333221021887 0.053802653254476168 0 -0.02526019877103958 0.053986213789939279 0 -0.025042073163195983 0.05379644901396808 0 -0.024923333221021887 0.053802653254476168 0 -0.025582863755482993 0.053334240465749583 0 -0.024923333221021887 0.053802653254476168 0 -0.024709870762756443 0.053785782845603342 0 -0.02338360620311309 0.054225705808870546 0 -0.02427765674546354 0.053913075449235286 0 -0.024709870762756443 0.053785782845603342 0 -0.023352330789774743 0.053863362756853717 0 -0.024923333221021887 0.053802653254476168 0 -0.02338360620311309 0.054225705808870546 0 -0.024923333221021887 0.053802653254476168 0 -0.02338360620311309 0.054225705808870546 0 -0.024709870762756443 0.053785782845603342 0 -0.022863099238184827 0.054406403719319547 0 -0.02338360620311309 0.054225705808870546 0 -0.02427765674546354 0.053913075449235286 0 -0.02427765674546354 0.053913075449235286 0 -0.024709870762756443 0.053785782845603342 0 -0.025163426563268681 0.05323485508138575 0 -0.031490593966173416 0.052548931658844 0 -0.031856446842879887 0.051909084891371408 0 -0.037667593797812052 0.051553863408236471 0 -0.037986528333621504 0.050638750789456094 0 -0.037354756058945782 0.051238952773312862 0 -0.025582863755482993 0.053334240465749583 0 -0.024709870762756443 0.053785782845603342 0 -0.025163426563268681 0.05323485508138575 0 -0.037986528333621504 0.050638750789456094 0 -0.037354756058945782 0.051238952773312862 0 -0.038052498297035539 0.050144469297361119 0 -0.037354756058945782 0.051238952773312862 0 -0.037428690205566356 0.050907668541120617 0 -0.038052498297035539 0.050144469297361119 0 -0.031856446842879887 0.051909084891371408 0 -0.027921198268264051 0.052587224227378306 0 -0.02427765674546354 0.053913075449235286 0 -0.025378554538336446 0.052723431633058135 0 -0.023840542040919264 0.054123682060887808 0 -0.02427765674546354 0.053913075449235286 0 -0.025163426563268681 0.05323485508138575 0 -0.025378554538336446 0.052723431633058135 0 -0.027921198268264051 0.052587224227378306 0 -0.020971665342697298 0.054799691610238808 0 -0.019524598011387503 0.05641791868447614 0 -0.019095224887504619 0.056229331689129393 0 -0.019083881879842196 0.05575577379771543 0 -0.017220852225697303 0.058426672559358607 0 -0.018247111430223239 0.056949236712555321 0 -0.019095224887504619 0.056229331689129393 0 -0.018668000207063856 0.055924675336791525 0 -0.019104942307391317 0.056820637496687261 0 -0.019095224887504619 0.056229331689129393 0 -0.019083881879842196 0.05575577379771543 0 -0.018668000207063856 0.055924675336791525 0 -0.022863099238184827 0.054406403719319547 0 -0.021095704282737313 0.054830750574957947 0 -0.023840542040919264 0.054123682060887808 0 -0.018612554201855282 0.055075748876964967 0 -0.019083881879842196 0.05575577379771543 0 -0.018668000207063856 0.055924675336791525 0 -0.019778387807824181 0.054815807697568247 0 -0.020971665342697298 0.054799691610238808 0 -0.022863099238184827 0.054406403719319547 0 -0.02427765674546354 0.053913075449235286 0 -0.023840542040919264 0.054123682060887808 0 -0.014471893738734224 0.05990675105264983 0 -0.015012284956572154 0.058434564356089229 0 -0.015698787776771386 0.059968852242200485 0 -0.016551671574768143 0.056622915913243504 0 -0.017220852225697303 0.058426672559358607 0 -0.018612554201855282 0.055075748876964967 0 -0.018182575201850064 0.055010216197455823 0 -0.018668000207063856 0.055924675336791525 0 -0.014258950063331525 0.059946518352641844 0 -0.01498537025155482 0.061690339139573225 0 -0.014471893738734224 0.05990675105264983 0 -0.015698787776771386 0.059968852242200485 0 -0.015033387785673941 0.061783441430194347 0 -0.015698787776771386 0.059968852242200485 0 -0.015033387785673941 0.061783441430194347 0 -0.016565942119051935 0.061828708958040282 0 -0.015033387785673941 0.061783441430194347 0 -0.014791209858559638 0.063606276280677582 0 -0.016565942119051935 0.061828708958040282 0 -0.01693201649943139 0.045631462787055058 0 -0.018247111430223239 0.056949236712555321 0 -0.018247111430223239 0.056949236712555321 0 -0.021301780841556244 0.04843132442841401 0 -0.020297609348744642 0.048797285722745519 0 -0.01600405399566979 0.053083866372419845 0 -0.014202217525094284 0.048378659588644561 0 -0.028813560241926429 0.050650486831112285 0 -0.02740678619270934 0.049733062130325002 0 -0.027679814596963944 0.047672070872001482 0 -0.019524598011387503 0.05641791868447614 0 -0.019095224887504619 0.056229331689129393 0 -0.019104942307391317 0.056820637496687261 0 -0.027439717500199391 0.052005972741792632 0 -0.028813560241926429 0.050650486831112285 0 -0.02740678619270934 0.049733062130325002 0 -0.027921198268264051 0.052587224227378306 0 -0.018247111430223239 0.056949236712555321 0 -0.027921198268264051 0.052587224227378306 0 -0.032592744256683993 0.048703910273111384 0 -0.027439717500199391 0.052005972741792632 0 -0.02740678619270934 0.049733062130325002 0 -0.025698429316764044 0.048603798865370335 0 -0.037428690205566356 0.050907668541120617 0 -0.038052498297035539 0.050144469297361119 0 -0.038393339068781257 0.049489668325370967 0 -0.038052498297035539 0.050144469297361119 0 -0.038393339068781257 0.049489668325370967 0 -0.038779049989207955 0.049063107037318324 0 -0.038393339068781257 0.049489668325370967 0 -0.038779049989207955 0.049063107037318324 0 -0.038455851046578796 0.04915433149874885 0 -0.02740678619270934 0.049733062130325002 0 -0.025698429316764044 0.048603798865370335 0 -0.027679814596963944 0.047672070872001482 0 -0.025698429316764044 0.048603798865370335 0 -0.027679814596963944 0.047672070872001482 0 -0.02598995698595441 0.046583223213940775 0 -0.021301780841556244 0.04843132442841401 0 -0.020941120351928688 0.037589136756572591 0 -0.027679814596963944 0.047672070872001482 0 -0.02598995698595441 0.046583223213940775 0 -0.026539944669300576 0.044792629930142686 0 -0.014202217525094284 0.048378659588644561 0 -0.0124586966089614 0.043683054571249325 0 -0.016351084387380019 0.046248615649447704 0 -0.038393339068781257 0.049489668325370967 0 -0.038629168515506074 0.048475214184188944 0 -0.038455851046578796 0.04915433149874885 0 -0.025698429316764044 0.048603798865370335 0 -0.02598995698595441 0.046583223213940775 0 -0.024080592456437296 0.045289843518541963 0 -0.032592744256683993 0.048703910273111384 0 -0.031468620210097421 0.048063759607838305 0 -0.022939156766478157 0.029200647874316775 0 -0.023026650776556176 0.029089350190940094 0 -0.022952773712341272 0.029125460488645734 0 -0.024080592456437296 0.045289843518541963 0 -0.026539944669300576 0.044792629930142686 0 -0.024499882898861045 0.043500565803313046 0 -0.020941120351928688 0.037589136756572591 0 -0.023057711867363155 0.035768910442702848 0 -0.02598995698595441 0.046583223213940775 0 -0.024080592456437296 0.045289843518541963 0 -0.026539944669300576 0.044792629930142686 0 -0.022081846560393692 0.027784515618266132 0 -0.021404294874131528 0.027913946281399527 0 -0.021748878791375732 0.028321249880028602 0 -0.020941120351928688 0.037589136756572591 0 -0.01826153523163479 0.035789875985840144 0 -0.020941120351928688 0.037589136756572591 0 -0.022136280681339139 0.027616132401450808 0 -0.021404294874131528 0.027913946281399527 0 -0.020916358400866832 0.027797373222761063 0 -0.021181195120633923 0.027476389228890188 0 -0.022081846560393692 0.027784515618266132 0 -0.021404294874131528 0.027913946281399527 0 -0.021181195120633923 0.027476389228890188 0 -0.021404294874131528 0.027913946281399527 0 -0.020916358400866832 0.027797373222761063 0 -0.021151865638545674 0.028303536261545553 0 -0.020916358400866832 0.027797373222761063 0 -0.020709455608746475 0.027624922212925389 0 -0.020505700984060706 0.027857430510680511 0 -0.020786435781293289 0.027756158779414477 0 -0.020340455963978214 0.027687709533476094 0 -0.020916358400866832 0.027797373222761063 0 -0.020114175331930988 0.027993246724846009 0 -0.020051531064592603 0.027436239444921146 0 -0.020612669448599935 0.027404378001192668 0 -0.020709455608746475 0.027624922212925389 0 -0.021181195120633923 0.027476389228890188 0 -0.01693201649943139 0.045631462787055058 0 -0.01826153523163479 0.035789875985840144 0 -0.020916358400866832 0.027797373222761063 0 -0.020709455608746475 0.027624922212925389 0 -0.021181195120633923 0.027476389228890188 0 -0.020612669448599935 0.027404378001192668 0 -0.020709455608746475 0.027624922212925389 0 -0.020375097036907756 0.027599411137799297 0 -0.020297609348744642 0.048797285722745519 0 -0.014202217525094284 0.048378659588644561 0 -0.016351084387380019 0.046248615649447704 0 -0.038449134559050316 0.04466426193859116 0 -0.037890651807234679 0.046323020643191583 0 -0.038558258700447955 0.046902110497809027 0 -0.038449134559050316 0.04466426193859116 0 -0.037890651807234679 0.046323020643191583 0 -0.037571928743150164 0.044447716459576611 0 -0.038182250402102061 0.048500012965839272 0 -0.037890651807234679 0.046323020643191583 0 -0.038558258700447955 0.046902110497809027 0 -0.038182250402102061 0.048500012965839272 0 -0.037890651807234679 0.046323020643191583 0 -0.037292651511254549 0.047744609757184045 0 -0.038182250402102061 0.048500012965839272 0 -0.038558258700447955 0.046902110497809027 0 -0.038890987042067095 0.047662342089093764 0 -0.038449134559050316 0.04466426193859116 0 -0.038558258700447955 0.046902110497809027 0 -0.039144199484917257 0.045687327594440656 0 -0.038558258700447955 0.046902110497809027 0 -0.039144199484917257 0.045687327594440656 0 -0.038890987042067095 0.047662342089093764 0 -0.039463418828325159 0.046535461963540338 0 -0.038890987042067095 0.047662342089093764 0 -0.038779049989207955 0.049063107037318324 0 -0.039144199484917257 0.045687327594440656 0 -0.039463418828325159 0.046535461963540338 0 -0.038890987042067095 0.047662342089093764 0 -0.038487281262390073 0.04946347656743353 0 -0.038182250402102061 0.048500012965839272 0 -0.038890987042067095 0.047662342089093764 0 -0.038487281262390073 0.04946347656743353 0 -0.038890987042067095 0.047662342089093764 0 -0.038779049989207955 0.049063107037318324 0 -0.038487281262390073 0.04946347656743353 0 -0.038052498297035539 0.050144469297361119 0 -0.038779049989207955 0.049063107037318324 0 -0.039463418828325159 0.046535461963540338 0 -0.038779049989207955 0.049063107037318324 0 -0.040264247966174491 0.045572176107170501 0 -0.038861716195637414 0.048593640400727126 0 -0.039016444753335301 0.047543951319792117 0 -0.038779049989207955 0.049063107037318324 0 -0.038455851046578796 0.04915433149874885 0 -0.038060111478719898 0.049059564325923705 0 -0.038629168515506074 0.048475214184188944 0 -0.038060111478719898 0.049059564325923705 0 -0.037388055944322776 0.047930857810394613 0 -0.038629168515506074 0.048475214184188944 0 -0.038455851046578796 0.04915433149874885 0 -0.038060111478719898 0.049059564325923705 0 -0.038629168515506074 0.048475214184188944 0 -0.037388055944322776 0.047930857810394613 0 -0.037907395033914958 0.046848418698705097 0 -0.031468620210097421 0.048063759607838305 0 -0.030156063612421957 0.038784218476720443 0 -0.024080592456437296 0.045289843518541963 0 -0.022603831379647603 0.042191193157833901 0 -0.024499882898861045 0.043500565803313046 0 -0.041766194228558332 0.0420773459420484 0 -0.040043618372911559 0.044765776809153175 0 -0.039988338463386355 0.042890984251154431 0 -0.039428537471397261 0.044723439097825973 0 -0.040487111105612664 0.043935787507496098 0 -0.040264247966174491 0.045572176107170501 0 -0.040204959587419591 0.044306174685897426 0 -0.040043618372911559 0.044765776809153175 0 -0.039016444753335301 0.047543951319792117 0 -0.039428537471397261 0.044723439097825973 0 -0.039463418828325159 0.046535461963540338 0 -0.040264247966174491 0.045572176107170501 0 -0.040043618372911559 0.044765776809153175 0 -0.039144199484917257 0.045687327594440656 0 -0.039463418828325159 0.046535461963540338 0 -0.040043618372911559 0.044765776809153175 0 -0.038449134559050316 0.04466426193859116 0 -0.039144199484917257 0.045687327594440656 0 -0.039255289669943579 0.04394970181524923 0 -0.039144199484917257 0.045687327594440656 0 -0.040043618372911559 0.044765776809153175 0 -0.039255289669943579 0.04394970181524923 0 -0.040043618372911559 0.044765776809153175 0 -0.039255289669943579 0.04394970181524923 0 -0.039988338463386355 0.042890984251154431 0 -0.041766194228558332 0.0420773459420484 0 -0.039988338463386355 0.042890984251154431 0 -0.039939941119733403 0.041050534253131855 0 -0.039988338463386355 0.042890984251154431 0 -0.039313366768044936 0.042417545237275853 0 -0.039939941119733403 0.041050534253131855 0 -0.039255289669943579 0.04394970181524923 0 -0.039988338463386355 0.042890984251154431 0 -0.039313366768044936 0.042417545237275853 0 -0.039313366768044936 0.042417545237275853 0 -0.038947078767707942 0.041242519533483984 0 -0.039939941119733403 0.041050534253131855 0 -0.039313366768044936 0.042417545237275853 0 -0.038947078767707942 0.041242519533483984 0 -0.038659086969559497 0.042815898649797277 0 -0.038449134559050316 0.04466426193859116 0 -0.038659086969559497 0.042815898649797277 0 -0.037994784311767685 0.042863561346133693 0 -0.039255289669943579 0.04394970181524923 0 -0.039313366768044936 0.042417545237275853 0 -0.038659086969559497 0.042815898649797277 0 -0.038449134559050316 0.04466426193859116 0 -0.039255289669943579 0.04394970181524923 0 -0.038659086969559497 0.042815898649797277 0 -0.039926455908532832 0.039205013985184493 0 -0.039866095972595217 0.037544626285916136 0 -0.038847996905673657 0.03862518827356199 0 -0.039926455908532832 0.039205013985184493 0 -0.039251435233634523 0.039983885194642195 0 -0.038847996905673657 0.03862518827356199 0 -0.039926455908532832 0.039205013985184493 0 -0.039251435233634523 0.039983885194642195 0 -0.039939941119733403 0.041050534253131855 0 -0.038947078767707942 0.041242519533483984 0 -0.039251435233634523 0.039983885194642195 0 -0.038660607393427249 0.040132422370124259 0 -0.038947078767707942 0.041242519533483984 0 -0.039251435233634523 0.039983885194642195 0 -0.039939941119733403 0.041050534253131855 0 -0.041766194228558332 0.0420773459420484 0 -0.039939941119733403 0.041050534253131855 0 -0.041309542448299999 0.040153448092311132 0 -0.039926455908532832 0.039205013985184493 0 -0.039939941119733403 0.041050534253131855 0 -0.041309542448299999 0.040153448092311132 0 -0.040626103948975624 0.03917381036148123 0 -0.039673724229486874 0.040063423176593491 0 -0.039926455908532832 0.039205013985184493 0 -0.040915242774675384 0.038493213167834647 0 -0.041309542448299999 0.040153448092311132 0 -0.040626103948975624 0.03917381036148123 0 -0.039881644790185383 0.03765814122958927 0 -0.039926455908532832 0.039205013985184493 0 -0.040915242774675384 0.038493213167834647 0 -0.039866095972595217 0.037544626285916136 0 -0.03173029177244821 0.020273698603894563 0 -0.030397708954789531 0.023545404955031032 0 -0.033533757221172661 0.023257439704948722 0 -0.040626103948975624 0.03917381036148123 0 -0.035603715767261186 0.039250507618131286 0 -0.037917879426943246 0.039604106795521038 0 -0.038394670869758292 0.040825878627171144 0 -0.039420006777215771 0.040556863590214494 0 -0.041083516357185663 0.037929081366843406 0 -0.042427323928319167 0.038478780760290224 0 -0.042368064741001098 0.038627301339176169 0 -0.041083516357185663 0.037929081366843406 0 -0.042427323928319167 0.038478780760290224 0 -0.041923870206741598 0.03732529081865555 0 -0.033289555561883739 0.032946469847507785 0 -0.037862020944468423 0.029919933427919473 0 -0.039428537471397261 0.044723439097825973 0 -0.039673724229486874 0.040063423176593491 0 -0.037388055944322776 0.047930857810394613 0 -0.037708398768132749 0.04671413927883375 0 -0.037907395033914958 0.046848418698705097 0 -0.03889143824951545 0.042078544062457431 0 -0.038394670869758292 0.040825878627171144 0 -0.039420006777215771 0.040556863590214494 0 -0.039428537471397261 0.044723439097825973 0 -0.035603715767261186 0.039250507618131286 0 -0.032365788668808966 0.039139597495672536 0 -0.032516098212039789 0.038724043402548411 0 -0.031918592390387607 0.038368278326034469 0 -0.033289555561883739 0.032946469847507785 0 -0.035603715767261186 0.039250507618131286 0 -0.023452675881324072 0.029151766856508995 0 -0.023098796082214663 0.02917842351683993 0 -0.023026650776556176 0.029089350190940094 0 -0.033289555561883739 0.032946469847507785 0 -0.030156063612421957 0.038784218476720443 0 -0.030156063612421957 0.038784218476720443 0 -0.023057711867363155 0.035768910442702848 0 -0.035603715767261186 0.039250507618131286 0 -0.030156063612421957 0.038784218476720443 0 -0.023452675881324072 0.029151766856508995 0 -0.023098796082214663 0.02917842351683993 0 -0.023334526048533824 0.029310321080417232 0 -0.023536352421216562 0.029235200345111918 0 -0.023334526048533824 0.029310321080417232 0 -0.023448114642715963 0.029735827017744333 0 -0.023098796082214663 0.02917842351683993 0 -0.023174233336465729 0.029345396209757686 0 -0.023334526048533824 0.029310321080417232 0 -0.033289555561883739 0.032946469847507785 0 -0.026894259316480307 0.025466707453903375 0 -0.023174233336465729 0.029345396209757686 0 -0.023334526048533824 0.029310321080417232 0 -0.023448114642715963 0.029735827017744333 0 -0.023536352421216562 0.029235200345111918 0 -0.023452675881324072 0.029151766856508995 0 -0.023334526048533824 0.029310321080417232 0 -0.023174233336465729 0.029345396209757686 0 -0.023448114642715963 0.029735827017744333 0 -0.023003907179533697 0.029537743256876421 0 -0.030397708954789531 0.023545404955031032 0 -0.028866996019023785 0.027104847680127782 0 -0.032113621252803377 0.025410811930085 0 -0.026894259316480307 0.025466707453903375 0 -0.025987162606402953 0.029040109642897896 0 -0.023448114642715963 0.029735827017744333 0 -0.023232440349340352 0.030531361630991124 0 -0.022805475988457096 0.029893719619440182 0 -0.028866996019023785 0.027104847680127782 0 -0.03249460588052263 0.027992473589616738 0 -0.030468268385897113 0.029442635437070597 0 -0.028866996019023785 0.027104847680127782 0 -0.03249460588052263 0.027992473589616738 0 -0.032113621252803377 0.025410811930085 0 -0.03249460588052263 0.027992473589616738 0 -0.032113621252803377 0.025410811930085 0 -0.035845067003152105 0.026551769700862649 0 -0.03249460588052263 0.027992473589616738 0 -0.035845067003152105 0.026551769700862649 0 -0.03541694048789977 0.030619729328743742 0 -0.030397708954789531 0.023545404955031032 0 -0.032113621252803377 0.025410811930085 0 -0.033533757221172661 0.023257439704948722 0 -0.037862020944468423 0.029919933427919473 0 -0.038510957800497098 0.031108696356131737 0 -0.032113621252803377 0.025410811930085 0 -0.033533757221172661 0.023257439704948722 0 -0.035845067003152105 0.026551769700862649 0 -0.041923870206741598 0.03732529081865555 0 -0.04086622254759513 0.036929484840820377 0 -0.041323872721622058 0.035392794713636669 0 -0.041083516357185663 0.037929081366843406 0 -0.041923870206741598 0.03732529081865555 0 -0.04086622254759513 0.036929484840820377 0 -0.041083516357185663 0.037929081366843406 0 -0.04086622254759513 0.036929484840820377 0 -0.039866095972595217 0.037544626285916136 0 -0.04086622254759513 0.036929484840820377 0 -0.040024219438100701 0.036278737186752633 0 -0.039866095972595217 0.037544626285916136 0 -0.04086622254759513 0.036929484840820377 0 -0.041323872721622058 0.035392794713636669 0 -0.040024219438100701 0.036278737186752633 0 -0.041323872721622058 0.035392794713636669 0 -0.039158418701788336 0.034777780794703103 0 -0.040024219438100701 0.036278737186752633 0 -0.041323872721622058 0.035392794713636669 0 -0.039158418701788336 0.034777780794703103 0 -0.038709733690495393 0.032028579616645902 0 -0.038510957800497098 0.031108696356131737 0 -0.038781230069923893 0.031909711737247291 0 -0.039158418701788336 0.034777780794703103 0 -0.039160037444015958 0.036722795794093363 0 -0.040024219438100701 0.036278737186752633 0 -0.039158418701788336 0.034777780794703103 0 -0.038737674800842337 0.035266801029395355 0 -0.038761407037892832 0.033509896005042325 0 -0.039158418701788336 0.034777780794703103 0 -0.039160037444015958 0.036722795794093363 0 -0.038737674800842337 0.035266801029395355 0 -0.039160037444015958 0.036722795794093363 0 -0.039866095972595217 0.037544626285916136 0 -0.038847996905673657 0.03862518827356199 0 -0.039160037444015958 0.036722795794093363 0 -0.040024219438100701 0.036278737186752633 0 -0.039866095972595217 0.037544626285916136 0 -0.021430139827608073 0.028863623364330137 0 -0.021354787127674791 0.029504998603056012 0 -0.020899706696285977 0.028814949866348159 0 -0.021430139827608073 0.028863623364330137 0 -0.021354787127674791 0.029504998603056012 0 -0.021763902873674561 0.029263173461908501 0 -0.021354787127674791 0.029504998603056012 0 -0.021763902873674561 0.029263173461908501 0 -0.022032958428479923 0.029762807218416242 0 -0.021354787127674791 0.029504998603056012 0 -0.020693301353355464 0.029213985765781526 0 -0.020899706696285977 0.028814949866348159 0 -0.021354787127674791 0.029504998603056012 0 -0.020693301353355464 0.029213985765781526 0 -0.020803683959028506 0.029531377249291543 0 -0.020693301353355464 0.029213985765781526 0 -0.020423184632223593 0.028803805648912672 0 -0.019827656437666034 0.029177023823299411 0 -0.020693301353355464 0.029213985765781526 0 -0.020803683959028506 0.029531377249291543 0 -0.019827656437666034 0.029177023823299411 0 -0.020693301353355464 0.029213985765781526 0 -0.020423184632223593 0.028803805648912672 0 -0.020899706696285977 0.028814949866348159 0 -0.020423184632223593 0.028803805648912672 0 -0.020899706696285977 0.028814949866348159 0 -0.020563013292854305 0.028365446468127872 0 -0.020916358400866832 0.027797373222761063 0 -0.020563013292854305 0.028365446468127872 0 -0.020114175331930988 0.027993246724846009 0 -0.020899706696285977 0.028814949866348159 0 -0.020563013292854305 0.028365446468127872 0 -0.021151865638545674 0.028303536261545553 0 -0.020916358400866832 0.027797373222761063 0 -0.020563013292854305 0.028365446468127872 0 -0.021151865638545674 0.028303536261545553 0 -0.020423184632223593 0.028803805648912672 0 -0.020563013292854305 0.028365446468127872 0 -0.020081354062064578 0.028482588491325254 0 -0.020563013292854305 0.028365446468127872 0 -0.020114175331930988 0.027993246724846009 0 -0.020081354062064578 0.028482588491325254 0 -0.021430139827608073 0.028863623364330137 0 -0.020899706696285977 0.028814949866348159 0 -0.021151865638545674 0.028303536261545553 0 -0.021430139827608073 0.028863623364330137 0 -0.021151865638545674 0.028303536261545553 0 -0.021748878791375732 0.028321249880028602 0 -0.021404294874131528 0.027913946281399527 0 -0.021151865638545674 0.028303536261545553 0 -0.021748878791375732 0.028321249880028602 0 -0.022081846560393692 0.027784515618266132 0 -0.021748878791375732 0.028321249880028602 0 -0.022471643008907725 0.028403639298648423 0 -0.021748878791375732 0.028321249880028602 0 -0.022471643008907725 0.028403639298648423 0 -0.022087424878117518 0.028991234245399275 0 -0.021430139827608073 0.028863623364330137 0 -0.021748878791375732 0.028321249880028602 0 -0.022087424878117518 0.028991234245399275 0 -0.023098796082214663 0.02917842351683993 0 -0.023026650776556176 0.029089350190940094 0 -0.022952773712341272 0.029125460488645734 0 -0.022471643008907725 0.028403639298648423 0 -0.022878826754091915 0.029229473014813143 0 -0.022087424878117518 0.028991234245399275 0 -0.022136280681339139 0.027616132401450808 0 -0.023019941203727239 0.029565895124522509 0 -0.023098796082214663 0.02917842351683993 0 -0.022952773712341272 0.029125460488645734 0 -0.022878826754091915 0.029229473014813143 0 -0.023098796082214663 0.02917842351683993 0 -0.023174233336465729 0.029345396209757686 0 -0.022878826754091915 0.029229473014813143 0 -0.022878826754091915 0.029229473014813143 0 -0.023003907179533697 0.029537743256876421 0 -0.022449203406406593 0.029464999344649436 0 -0.023174233336465729 0.029345396209757686 0 -0.022878826754091915 0.029229473014813143 0 -0.023003907179533697 0.029537743256876421 0 -0.021430139827608073 0.028863623364330137 0 -0.022087424878117518 0.028991234245399275 0 -0.021763902873674561 0.029263173461908501 0 -0.022878826754091915 0.029229473014813143 0 -0.022087424878117518 0.028991234245399275 0 -0.022449203406406593 0.029464999344649436 0 -0.022087424878117518 0.028991234245399275 0 -0.022449203406406593 0.029464999344649436 0 -0.021763902873674561 0.029263173461908501 0 -0.022449203406406593 0.029464999344649436 0 -0.021763902873674561 0.029263173461908501 0 -0.022032958428479923 0.029762807218416242 0 -0.022032958428479923 0.029762807218416242 0 -0.022805475988457096 0.029893719619440182 0 -0.022378584012344421 0.030274854198641267 0 -0.022449203406406593 0.029464999344649436 0 -0.022032958428479923 0.029762807218416242 0 -0.022805475988457096 0.029893719619440182 0 -0.022032958428479923 0.029762807218416242 0 -0.021780133027801279 0.03008469399435991 0 -0.022378584012344421 0.030274854198641267 0 -0.023448114642715963 0.029735827017744333 0 -0.023003907179533697 0.029537743256876421 0 -0.022805475988457096 0.029893719619440182 0 -0.023003907179533697 0.029537743256876421 0 -0.022449203406406593 0.029464999344649436 0 -0.022805475988457096 0.029893719619440182 0 -0.023232440349340352 0.030531361630991124 0 -0.022805475988457096 0.029893719619440182 0 -0.022378584012344421 0.030274854198641267 0 -0.023232440349340352 0.030531361630991124 0 -0.022711937341645672 0.03081823412609461 0 -0.022378584012344421 0.030274854198641267 0 -0.021780133027801279 0.03008469399435991 0 -0.022378584012344421 0.030274854198641267 0 -0.022113781588784416 0.030788960687136019 0 -0.022711937341645672 0.03081823412609461 0 -0.022378584012344421 0.030274854198641267 0 -0.022113781588784416 0.030788960687136019 0 -0.024446886676134479 0.028835106555907496 0 -0.022537846168251875 0.028848386805059131 0 -0.021640988699332529 0.027665892888366905 0 -0.021780133027801279 0.03008469399435991 0 -0.022113781588784416 0.030788960687136019 0 -0.021017539444372204 0.030065212702002689 0 -0.023285718380004414 0.029822973644723565 0 -0.021362335470021566 0.028899462393956334 0 -0.022537846168251875 0.028848386805059131 0 -0.021493562020329333 0.028688606916919296 0 -0.021613588814350999 0.029570876544274351 0 -0.022537846168251875 0.028848386805059131 0 -0.021640988699332529 0.027665892888366905 0 -0.021493562020329333 0.028688606916919296 0 -0.021354787127674791 0.029504998603056012 0 -0.021780133027801279 0.03008469399435991 0 -0.021017539444372204 0.030065212702002689 0 -0.021354787127674791 0.029504998603056012 0 -0.020803683959028506 0.029531377249291543 0 -0.021017539444372204 0.030065212702002689 0 -0.021354787127674791 0.029504998603056012 0 -0.022032958428479923 0.029762807218416242 0 -0.021780133027801279 0.03008469399435991 0 -0.020803683959028506 0.029531377249291543 0 -0.021017539444372204 0.030065212702002689 0 -0.019827656437666034 0.029177023823299411 0 -0.021640988699332529 0.027665892888366905 0 -0.020687276592434221 0.027714041410817979 0 -0.019498664122192942 0.027286507499666487 0 -0.021362335470021566 0.028899462393956334 0 -0.019714267229532186 0.028252974831975992 0 -0.021640988699332529 0.027665892888366905 0 -0.020687276592434221 0.027714041410817979 0 -0.020878675345764389 0.02840908067686404 0 -0.020878675345764389 0.02840908067686404 0 -0.020860083688432174 0.029018059858119765 0 -0.019608505895905841 0.029142243720497254 0 -0.020687276592434221 0.027714041410817979 0 -0.020878675345764389 0.02840908067686404 0 -0.019608505895905841 0.029142243720497254 0 -0.021640988699332529 0.027665892888366905 0 -0.020878675345764389 0.02840908067686404 0 -0.021493562020329333 0.028688606916919296 0 -0.020878675345764389 0.02840908067686404 0 -0.021493562020329333 0.028688606916919296 0 -0.020860083688432174 0.029018059858119765 0 -0.021493562020329333 0.028688606916919296 0 -0.020860083688432174 0.029018059858119765 0 -0.021613588814350999 0.029570876544274351 0 -0.020860083688432174 0.029018059858119765 0 -0.019608505895905841 0.029142243720497254 0 -0.02045489832037398 0.029751113863071183 0 -0.019706431615674046 0.029033737396979748 0 -0.019178434998573482 0.02846195542899976 0 -0.019700388228924656 0.027952656139987223 0 -0.020779212890676375 0.02760570704714459 0 -0.01931415219378926 0.029531169339321702 0 -0.018422910902698812 0.029182804455314137 0 -0.015880010097187196 0.02740501459086114 0 -0.016013805729885422 0.027938489445105553 0 -0.018504600431783206 0.029349544471095338 0 -0.014861720075402091 0.028887338795213682 0 -0.018422910902698812 0.029182804455314137 0 -0.018522037018462143 0.028617910324813336 0 -0.018370986414413808 0.028518418231562342 0 -0.016987123183905242 0.02912055941784596 0 -0.018422910902698812 0.029182804455314137 0 -0.016013805729885422 0.027938489445105553 0 -0.016987123183905242 0.02912055941784596 0 -0.016093594114311237 0.028991164708117387 0 -0.016013805729885422 0.027938489445105553 0 -0.016987123183905242 0.02912055941784596 0 -0.016093594114311237 0.028991164708117387 0 -0.016342784548350718 0.029786120687007745 0 -0.019706431615674046 0.029033737396979748 0 -0.018422910902698812 0.029182804455314137 0 -0.017453169277367175 0.030321527432556533 0 -0.019706431615674046 0.029033737396979748 0 -0.018422910902698812 0.029182804455314137 0 -0.019178434998573482 0.02846195542899976 0 -0.018422910902698812 0.029182804455314137 0 -0.018737271982913098 0.028473901461002878 0 -0.018522037018462143 0.028617910324813336 0 -0.019178434998573482 0.02846195542899976 0 -0.018737271982913098 0.028473901461002878 0 -0.018980399051719516 0.028041457793245485 0 -0.018422910902698812 0.029182804455314137 0 -0.019178434998573482 0.02846195542899976 0 -0.018737271982913098 0.028473901461002878 0 -0.018582631661104347 0.028343272771662074 0 -0.018595456166107242 0.028086734645721621 0 -0.018370986414413808 0.028518418231562342 0 -0.018737271982913098 0.028473901461002878 0 -0.018522037018462143 0.028617910324813336 0 -0.018582631661104347 0.028343272771662074 0 -0.018522037018462143 0.028617910324813336 0 -0.018582631661104347 0.028343272771662074 0 -0.018370986414413808 0.028518418231562342 0 -0.018595456166107242 0.028086734645721621 0 -0.018943898844071282 0.027628757446208293 0 -0.018520313647561761 0.027785640837864837 0 -0.018582631661104347 0.028343272771662074 0 -0.018595456166107242 0.028086734645721621 0 -0.018980399051719516 0.028041457793245485 0 -0.018737271982913098 0.028473901461002878 0 -0.018582631661104347 0.028343272771662074 0 -0.018980399051719516 0.028041457793245485 0 -0.018980399051719516 0.028041457793245485 0 -0.019270260839098372 0.02770416911687025 0 -0.018943898844071282 0.027628757446208293 0 -0.018595456166107242 0.028086734645721621 0 -0.018980399051719516 0.028041457793245485 0 -0.018943898844071282 0.027628757446208293 0 -0.020687276592434221 0.027714041410817979 0 -0.019700388228924656 0.027952656139987223 0 -0.019498664122192942 0.027286507499666487 0 -0.020687276592434221 0.027714041410817979 0 -0.019706431615674046 0.029033737396979748 0 -0.019700388228924656 0.027952656139987223 0 -0.019700388228924656 0.027952656139987223 0 -0.019270260839098372 0.02770416911687025 0 -0.019498664122192942 0.027286507499666487 0 -0.018980399051719516 0.028041457793245485 0 -0.019700388228924656 0.027952656139987223 0 -0.019270260839098372 0.02770416911687025 0 -0.019178434998573482 0.02846195542899976 0 -0.018980399051719516 0.028041457793245485 0 -0.019700388228924656 0.027952656139987223 0 -0.020423184632223593 0.028803805648912672 0 -0.019827656437666034 0.029177023823299411 0 -0.020081354062064578 0.028482588491325254 0 -0.019270260839098372 0.02770416911687025 0 -0.019498664122192942 0.027286507499666487 0 -0.018943898844071282 0.027628757446208293 0 -0.018943898844071282 0.027628757446208293 0 -0.018520313647561761 0.027785640837864837 0 -0.018720906284706552 0.027715770214058792 0 -0.019714267229532186 0.028252974831975992 0 -0.018780018416723356 0.027851389258860916 0 -0.018943898844071282 0.027628757446208293 0 -0.01867452854216534 0.027818511511149422 0 -0.018720906284706552 0.027715770214058792 0 -0.019498664122192942 0.027286507499666487 0 -0.018943898844071282 0.027628757446208293 0 -0.01867452854216534 0.027818511511149422 0 -0.019827656437666034 0.029177023823299411 0 -0.01867452854216534 0.027818511511149422 0 -0.019525202675744133 0.027999103689325427 0 -0.01867452854216534 0.027818511511149422 0 -0.01902717000842389 0.027737563584754595 0 -0.019525202675744133 0.027999103689325427 0 -0.01867452854216534 0.027818511511149422 0 -0.01902717000842389 0.027737563584754595 0 -0.018645952143848264 0.027707644072600877 0 -0.019827656437666034 0.029177023823299411 0 -0.019525202675744133 0.027999103689325427 0 -0.020081354062064578 0.028482588491325254 0 -0.019525202675744133 0.027999103689325427 0 -0.020114175331930988 0.027993246724846009 0 -0.020081354062064578 0.028482588491325254 0 -0.0096484524951962539 0.026294723728368753 0 -0.0093559941212226234 0.027351830586865761 0 -0.008876306945786408 0.026071873272950963 0 -0.0096484524951962539 0.026294723728368753 0 -0.010518137744000735 0.02627617278639658 0 -0.0093559941212226234 0.027351830586865761 0 -0.0096484524951962539 0.026294723728368753 0 -0.008876306945786408 0.026071873272950963 0 -0.0098417881359686432 0.025499442717779812 0 -0.0096484524951962539 0.026294723728368753 0 -0.010518137744000735 0.02627617278639658 0 -0.0098417881359686432 0.025499442717779812 0 -0.018611836175410054 0.027749873338315627 0 -0.018573652286551213 0.027744155358587482 0 -0.018546948778433266 0.027676468020142061 0 -0.018645952143848264 0.027707644072600877 0 -0.018611836175410054 0.027749873338315627 0 -0.018546948778433266 0.027676468020142061 0 -0.01867452854216534 0.027818511511149422 0 -0.018645952143848264 0.027707644072600877 0 -0.018611836175410054 0.027749873338315627 0 -0.01867452854216534 0.027818511511149422 0 -0.018611836175410054 0.027749873338315627 0 -0.018646501193427062 0.027739134280498921 0 -0.01867452854216534 0.027818511511149422 0 -0.018646501193427062 0.027739134280498921 0 -0.018720906284706552 0.027715770214058792 0 -0.018611836175410054 0.027749873338315627 0 -0.018646501193427062 0.027739134280498921 0 -0.018573652286551213 0.027744155358587482 0 -0.015188728024419004 0.026827451664188297 0 -0.014775683872043942 0.028086716842923302 0 -0.018646501193427062 0.027739134280498921 0 -0.018520313647561761 0.027785640837864837 0 -0.018720906284706552 0.027715770214058792 0 -0.018646501193427062 0.027739134280498921 0 -0.018573652286551213 0.027744155358587482 0 -0.018520313647561761 0.027785640837864837 0 -0.010518137744000735 0.02627617278639658 0 -0.011106052844808721 0.028125291525311822 0 -0.0093559941212226234 0.027351830586865761 0 -0.011106052844808721 0.028125291525311822 0 -0.0093559941212226234 0.027351830586865761 0 -0.0097484783346468949 0.028922505515675091 0 -0.014775683872043942 0.028086716842923302 0 -0.014861720075402091 0.028887338795213682 0 -0.010656385382857724 0.02702724212763466 0 -0.014861720075402091 0.028887338795213682 0 -0.011106052844808721 0.028125291525311822 0 -0.0097484783346468949 0.028922505515675091 0 -0.011691266938206626 0.030036187187455359 0 -0.018595456166107242 0.028086734645721621 0 -0.018520313647561761 0.027785640837864837 0 -0.018370986414413808 0.028518418231562342 0 -0.015841985912145612 0.027415776938605078 0 -0.014566329636637893 0.027935101770503977 0 -0.012011712212340552 0.027195246297013718 0 -0.011051953517111753 0.024915902706463076 0 -0.015841985912145612 0.027415776938605078 0 -0.012011712212340552 0.027195246297013718 0 -0.014861720075402091 0.028887338795213682 0 -0.014895203660697512 0.028711471334261114 0 -0.013378632653846156 0.028421481173073419 0 -0.014684677369913086 0.028718208774181655 0 -0.013426294476900734 0.030014157275325977 0 -0.013378632653846156 0.028421481173073419 0 -0.014566329636637893 0.027935101770503977 0 -0.012011712212340552 0.027195246297013718 0 -0.013378632653846156 0.028421481173073419 0 -0.012168133485561311 0.028674072567063696 0 -0.013426294476900734 0.030014157275325977 0 -0.013378632653846156 0.028421481173073419 0 -0.014566329636637893 0.027935101770503977 0 -0.014684677369913086 0.028718208774181655 0 -0.014566329636637893 0.027935101770503977 0 -0.015506150384552952 0.028505320831259607 0 -0.015478866739743805 0.027948930674225572 0 -0.015841985912145612 0.027415776938605078 0 -0.014566329636637893 0.027935101770503977 0 -0.015478866739743805 0.027948930674225572 0 -0.014566329636637893 0.027935101770503977 0 -0.014684677369913086 0.028718208774181655 0 -0.015506150384552952 0.028505320831259607 0 -0.014684677369913086 0.028718208774181655 0 -0.01552822144846 0.029292392636234049 0 -0.014650261372856088 0.029741720040133139 0 -0.014684677369913086 0.028718208774181655 0 -0.015506150384552952 0.028505320831259607 0 -0.01552822144846 0.029292392636234049 0 -0.015506150384552952 0.028505320831259607 0 -0.01552822144846 0.029292392636234049 0 -0.016093594114311237 0.028991164708117387 0 -0.015506150384552952 0.028505320831259607 0 -0.016093594114311237 0.028991164708117387 0 -0.016013805729885422 0.027938489445105553 0 -0.015506150384552952 0.028505320831259607 0 -0.015478866739743805 0.027948930674225572 0 -0.016013805729885422 0.027938489445105553 0 -0.015841985912145612 0.027415776938605078 0 -0.015478866739743805 0.027948930674225572 0 -0.016013805729885422 0.027938489445105553 0 -0.011051953517111753 0.024915902706463076 0 -0.012011712212340552 0.027195246297013718 0 -0.0096287072121092211 0.027136269208646938 0 -0.012011712212340552 0.027195246297013718 0 -0.010578267986602595 0.028445962410195483 0 -0.0096287072121092211 0.027136269208646938 0 -0.012011712212340552 0.027195246297013718 0 -0.012168133485561311 0.028674072567063696 0 -0.010578267986602595 0.028445962410195483 0 -0.013378632653846156 0.028421481173073419 0 -0.012011712212340552 0.027195246297013718 0 -0.012168133485561311 0.028674072567063696 0 -0.012168133485561311 0.028674072567063696 0 -0.010578267986602595 0.028445962410195483 0 -0.011625342873124091 0.029852482940028926 0 -0.010578267986602595 0.028445962410195483 0 -0.0090623198238949532 0.028713636097444695 0 -0.010120770295645825 0.029941383602781143 0 -0.010578267986602595 0.028445962410195483 0 -0.0090623198238949532 0.028713636097444695 0 -0.0096287072121092211 0.027136269208646938 0 -0.0090623198238949532 0.028713636097444695 0 -0.0081549607782777853 0.027590414288769328 0 -0.0075848013768949436 0.029240218288307394 0 -0.0090623198238949532 0.028713636097444695 0 -0.0096287072121092211 0.027136269208646938 0 -0.0081549607782777853 0.027590414288769328 0 -0.0096287072121092211 0.027136269208646938 0 -0.0081549607782777853 0.027590414288769328 0 -0.0079403768305487676 0.025994807203772691 0 -0.0081549607782777853 0.027590414288769328 0 -0.0065939525808267367 0.026922816507723962 0 -0.0079403768305487676 0.025994807203772691 0 -0.0081549607782777853 0.027590414288769328 0 -0.0065939525808267367 0.026922816507723962 0 -0.0075848013768949436 0.029240218288307394 0 -0.005013137571199121 0.027710156376752282 0 -0.0065939525808267367 0.026922816507723962 0 -0.0075848013768949436 0.029240218288307394 0 0.00067380379792947732 0.01338382256734982 0 0.0022769021840215462 0.012789313245643105 0 0.0015427582048193323 0.015012743410011156 0 -0.005013137571199121 0.027710156376752282 0 -0.0065939525808267367 0.026922816507723962 0 -0.0051009043283323724 0.025671371306475947 0 -0.005013137571199121 0.027710156376752282 0 -0.0051009043283323724 0.025671371306475947 0 -0.0032305819198635483 0.023617378282522746 0 -0.0065939525808267367 0.026922816507723962 0 -0.0061383246043128599 0.025046988622132907 0 -0.0051009043283323724 0.025671371306475947 0 -0.0061383246043128599 0.025046988622132907 0 -0.0051009043283323724 0.025671371306475947 0 -0.0051423630874225532 0.024864872470227131 0 -0.0051009043283323724 0.025671371306475947 0 -0.0051423630874225532 0.024864872470227131 0 -0.0044989375620119532 0.024306173816995468 0 -0.0051423630874225532 0.024864872470227131 0 -0.0049050565430453445 0.024018760348007671 0 -0.0053802906912123454 0.024464973172923205 0 -0.0051423630874225532 0.024864872470227131 0 -0.0049050565430453445 0.024018760348007671 0 -0.0044989375620119532 0.024306173816995468 0 -0.0049050565430453445 0.024018760348007671 0 -0.0056346621995514269 0.023970981453642522 0 -0.0052529189275785787 0.023584253774425922 0 -0.0049050565430453445 0.024018760348007671 0 -0.0053802906912123454 0.024464973172923205 0 -0.0056346621995514269 0.023970981453642522 0 -0.0044989375620119532 0.024306173816995468 0 -0.0039652991449441012 0.023508137176281012 0 -0.0045354882898755444 0.023801652660550749 0 -0.0049050565430453445 0.024018760348007671 0 -0.0044989375620119532 0.024306173816995468 0 -0.0045354882898755444 0.023801652660550749 0 -0.0061383246043128599 0.025046988622132907 0 -0.0062258938716571507 0.023948110553024645 0 -0.0071949288844503131 0.024261631913422739 0 -0.0061383246043128599 0.025046988622132907 0 -0.0053802906912123454 0.024464973172923205 0 -0.0056346621995514269 0.023970981453642522 0 -0.0061383246043128599 0.025046988622132907 0 -0.0051423630874225532 0.024864872470227131 0 -0.0053802906912123454 0.024464973172923205 0 -0.0061383246043128599 0.025046988622132907 0 -0.0056346621995514269 0.023970981453642522 0 -0.0062258938716571507 0.023948110553024645 0 -0.0056346621995514269 0.023970981453642522 0 -0.0062258938716571507 0.023948110553024645 0 -0.0060136636371926552 0.023470015150866688 0 -0.010656385382857724 0.02702724212763466 0 -0.0049089140570599803 0.024889341542258341 0 -0.011051953517111753 0.024915902706463076 0 -0.0071949288844503131 0.024261631913422739 0 -0.0063100394046411053 0.022842798982145959 0 -0.011051953517111753 0.024915902706463076 0 -0.0096287072121092211 0.027136269208646938 0 -0.0079403768305487676 0.025994807203772691 0 -0.0062258938716571507 0.023948110553024645 0 -0.0071949288844503131 0.024261631913422739 0 -0.006576973840347511 0.023657350668207636 0 -0.011051953517111753 0.024915902706463076 0 -0.0071949288844503131 0.024261631913422739 0 -0.0079403768305487676 0.025994807203772691 0 -0.0065939525808267367 0.026922816507723962 0 -0.0061383246043128599 0.025046988622132907 0 -0.0079403768305487676 0.025994807203772691 0 -0.0061383246043128599 0.025046988622132907 0 -0.0071949288844503131 0.024261631913422739 0 -0.0079403768305487676 0.025994807203772691 0 0.0041138010458362457 0.010381691264356445 0 0.002643626814157769 0.010191238110766479 0 0.0023749805955892117 0.009475421340984589 0 0.0041138010458362457 0.010381691264356445 0 0.002643626814157769 0.010191238110766479 0 0.0024325231771967046 0.010958898590752639 0 0.002643626814157769 0.010191238110766479 0 0.0023749805955892117 0.009475421340984589 0 0.0013448231013438628 0.010191533767429308 0 0.0029716906338901061 0.010897480311932011 0 0.00032521816488881165 0.012317536345863198 0 0.00067380379792947732 0.01338382256734982 0 0.0022769021840215462 0.012789313245643105 0 0.0029837208560215098 0.011028231976427065 0 0.0039102052255382885 0.012008865205059388 0 0.0022769021840215462 0.012789313245643105 0 0.0015427582048193323 0.015012743410011156 0 0.0023749805955892117 0.009475421340984589 0 0.0013448231013438628 0.010191533767429308 0 -0.001172113498999364 0.0097625600213734082 0 0.00067380379792947732 0.01338382256734982 0 0.0029837208560215098 0.011028231976427065 0 0.0031670362537175333 0.01024282244175948 0 0.0039102052255382885 0.012008865205059388 0 0.0029837208560215098 0.011028231976427065 0 0.0040156549176472468 0.010101519348642797 0 -0.0019607404420516014 0.021565012517215897 0 0.00032494864962231924 0.016042931919504479 0 -0.0051009043283323724 0.025671371306475947 0 -0.0044989375620119532 0.024306173816995468 0 -0.0032305819198635483 0.023617378282522746 0 -0.0044989375620119532 0.024306173816995468 0 -0.0032305819198635483 0.023617378282522746 0 -0.0039652991449441012 0.023508137176281012 0 0.0014582519114693698 0.012023203272214894 0 0.00032494864962231924 0.016042931919504479 0 0.0039102052255382885 0.012008865205059388 0 0.0022769021840215462 0.012789313245643105 0 0.0029837208560215098 0.011028231976427065 0 0.0045818462457970759 0.010120527224324865 0 0.0029716906338901061 0.010897480311932011 0 0.0048142212269082886 0.010075480358040853 0 0.0039102052255382885 0.012008865205059388 0 0.0040156549176472468 0.010101519348642797 0 0.0041138010458362457 0.010381691264356445 0 0.0048142212269082886 0.010075480358040853 0 0.0023749805955892117 0.009475421340984589 0 0.0048142212269082886 0.010075480358040853 0 0.0040156549176472468 0.010101519348642797 0 0.0047657672712372789 0.0097226518636450102 0 0.0040156549176472468 0.010101519348642797 0 0.0042726405634642894 0.0096113171244152779 0 0.0047657672712372789 0.0097226518636450102 0 0.0040156549176472468 0.010101519348642797 0 0.003835802102810924 0.0095131218589500355 0 0.0042726405634642894 0.0096113171244152779 0 -0.0032305819198635483 0.023617378282522746 0 -0.0036752511181166489 0.023082816351959475 0 -0.0034929669359860778 0.022651445277711835 0 0.0031745281023788448 0.010559979556906721 0 0.0040156549176472468 0.010101519348642797 0 0.003835802102810924 0.0095131218589500355 0 0.00032494864962231924 0.016042931919504479 0 9.5538758336700095e-05 0.016688492763274915 0 0.0029837208560215098 0.011028231976427065 0 0.0031745281023788448 0.010559979556906721 0 0.0040156549176472468 0.010101519348642797 0 -0.0032305819198635483 0.023617378282522746 0 -0.0039652991449441012 0.023508137176281012 0 -0.0036752511181166489 0.023082816351959475 0 -0.0039652991449441012 0.023508137176281012 0 -0.0036752511181166489 0.023082816351959475 0 -0.004295267149370478 0.023240829091994063 0 -0.0036752511181166489 0.023082816351959475 0 -0.0033922904753529008 0.022615971816790589 0 -0.0047989148833207582 0.022988217708417399 0 -0.0033922904753529008 0.022615971816790589 0 -0.0026401925217186691 0.023983735837211501 0 -0.0034929669359860778 0.022651445277711835 0 -0.0036752511181166489 0.023082816351959475 0 -0.0033922904753529008 0.022615971816790589 0 -0.0034929669359860778 0.022651445277711835 0 -0.0033922904753529008 0.022615971816790589 0 -0.0026401925217186691 0.023983735837211501 0 -0.0019697658531234461 0.023227995335361133 0 0.003835802102810924 0.0095131218589500355 0 0.0042726405634642894 0.0096113171244152779 0 0.0044767904132799602 0.0091408156422032212 0 0.0042726405634642894 0.0096113171244152779 0 0.0047657672712372789 0.0097226518636450102 0 0.0044767904132799602 0.0091408156422032212 0 -0.0093559941212226234 0.027351830586865761 0 -0.0077628982936910054 0.02770534254371743 0 -0.008876306945786408 0.026071873272950963 0 -0.0049089140570599803 0.024889341542258341 0 -0.0035479846706424362 0.024536970310412021 0 -0.0093559941212226234 0.027351830586865761 0 -0.0097484783346468949 0.028922505515675091 0 -0.0077628982936910054 0.02770534254371743 0 -0.0071949288844503131 0.024261631913422739 0 -0.006576973840347511 0.023657350668207636 0 -0.0063100394046411053 0.022842798982145959 0 -0.0056058860030426634 0.023108776318510587 0 -0.0063100394046411053 0.022842798982145959 0 -0.0047989148833207582 0.022988217708417399 0 -0.006576973840347511 0.023657350668207636 0 -0.0062939100217065547 0.023441448811698729 0 -0.0063100394046411053 0.022842798982145959 0 -0.0062258938716571507 0.023948110553024645 0 -0.006576973840347511 0.023657350668207636 0 -0.0062939100217065547 0.023441448811698729 0 -0.0027339274413520566 0.021685388158202139 0 -0.0049089140570599803 0.024889341542258341 0 -0.0033922904753529008 0.022615971816790589 0 -0.00063082623284891638 0.021093597805745899 0 -0.001707084629892035 0.022509172360519008 0 -0.00063082623284891638 0.021093597805745899 0 -0.00085340825794429076 0.023062827133269698 0 -0.001707084629892035 0.022509172360519008 0 -0.0033922904753529008 0.022615971816790589 0 -0.0063100394046411053 0.022842798982145959 0 -0.0047989148833207582 0.022988217708417399 0 -0.0062939100217065547 0.023441448811698729 0 -0.0060905750225115664 0.023168656866631457 0 -0.0063100394046411053 0.022842798982145959 0 -0.0060905750225115664 0.023168656866631457 0 -0.0060136636371926552 0.023470015150866688 0 -0.0056058860030426634 0.023108776318510587 0 -0.0062939100217065547 0.023441448811698729 0 -0.0060905750225115664 0.023168656866631457 0 -0.0060136636371926552 0.023470015150866688 0 -0.0062258938716571507 0.023948110553024645 0 -0.0062939100217065547 0.023441448811698729 0 -0.0060136636371926552 0.023470015150866688 0 -0.0056346621995514269 0.023970981453642522 0 -0.0060136636371926552 0.023470015150866688 0 -0.0056362796812253532 0.023470321195208716 0 -0.0056346621995514269 0.023970981453642522 0 -0.0056362796812253532 0.023470321195208716 0 -0.0052529189275785787 0.023584253774425922 0 -0.0056058860030426634 0.023108776318510587 0 -0.0052529189275785787 0.023584253774425922 0 -0.0050998868815289458 0.023253839694479608 0 -0.0056362796812253532 0.023470321195208716 0 -0.0056058860030426634 0.023108776318510587 0 -0.0052529189275785787 0.023584253774425922 0 -0.0060136636371926552 0.023470015150866688 0 -0.0056362796812253532 0.023470321195208716 0 -0.0056058860030426634 0.023108776318510587 0 -0.0060905750225115664 0.023168656866631457 0 -0.0056058860030426634 0.023108776318510587 0 -0.0063100394046411053 0.022842798982145959 0 -0.0036752511181166489 0.023082816351959475 0 -0.004295267149370478 0.023240829091994063 0 -0.0047989148833207582 0.022988217708417399 0 -0.0039652991449441012 0.023508137176281012 0 -0.0045354882898755444 0.023801652660550749 0 -0.00476008949884788 0.023381497442766633 0 -0.0049050565430453445 0.024018760348007671 0 -0.0045354882898755444 0.023801652660550749 0 -0.00476008949884788 0.023381497442766633 0 -0.0049050565430453445 0.024018760348007671 0 -0.00476008949884788 0.023381497442766633 0 -0.0052529189275785787 0.023584253774425922 0 -0.00476008949884788 0.023381497442766633 0 -0.0052529189275785787 0.023584253774425922 0 -0.0050998868815289458 0.023253839694479608 0 -0.0056058860030426634 0.023108776318510587 0 -0.0050998868815289458 0.023253839694479608 0 -0.0047989148833207582 0.022988217708417399 0 -0.00476008949884788 0.023381497442766633 0 -0.0050998868815289458 0.023253839694479608 0 -0.0047989148833207582 0.022988217708417399 0 -0.0039652991449441012 0.023508137176281012 0 -0.00476008949884788 0.023381497442766633 0 -0.004295267149370478 0.023240829091994063 0 -0.00476008949884788 0.023381497442766633 0 -0.004295267149370478 0.023240829091994063 0 -0.0047989148833207582 0.022988217708417399 0 -0.00085340825794429076 0.023062827133269698 0 -0.0019697658531234461 0.023227995335361133 0 -0.001707084629892035 0.022509172360519008 0 -0.0033922904753529008 0.022615971816790589 0 -0.0019697658531234461 0.023227995335361133 0 -0.001707084629892035 0.022509172360519008 0 -0.0026401925217186691 0.023983735837211501 0 -0.0019697658531234461 0.023227995335361133 0 -0.0013433963686465319 0.024340877639674335 0 -0.00085340825794429076 0.023062827133269698 0 -0.0019697658531234461 0.023227995335361133 0 -0.0013433963686465319 0.024340877639674335 0 -0.00085340825794429076 0.023062827133269698 0 -0.0002550600889644436 0.024360398262019738 0 -0.0013433963686465319 0.024340877639674335 0 -0.00063082623284891638 0.021093597805745899 0 -0.00085340825794429076 0.023062827133269698 0 0.00095733331103123646 0.023640339638040631 0 -0.00085340825794429076 0.023062827133269698 0 0.00095733331103123646 0.023640339638040631 0 -0.0002550600889644436 0.024360398262019738 0 0.00095733331103123646 0.023640339638040631 0 0.00065254463031145051 0.025198488878391285 0 -0.0002550600889644436 0.024360398262019738 0 0.00065254463031145051 0.025198488878391285 0 0.0012166679555672224 0.026288116061053853 0 0.00010673515494456126 0.026524589291628035 0 0.00065254463031145051 0.025198488878391285 0 -0.00066801145999004848 0.025558855288942209 0 0.00010673515494456126 0.026524589291628035 0 0.00065254463031145051 0.025198488878391285 0 -0.0002550600889644436 0.024360398262019738 0 -0.00066801145999004848 0.025558855288942209 0 -0.0002550600889644436 0.024360398262019738 0 -0.0013433963686465319 0.024340877639674335 0 -0.00066801145999004848 0.025558855288942209 0 -0.0026401925217186691 0.023983735837211501 0 -0.0013433963686465319 0.024340877639674335 0 -0.0020170389714115372 0.025865866611602312 0 -0.0013433963686465319 0.024340877639674335 0 -0.0020170389714115372 0.025865866611602312 0 -0.00066801145999004848 0.025558855288942209 0 -0.00066801145999004848 0.025558855288942209 0 -0.0008968431412628761 0.027381662336553529 0 0.00010673515494456126 0.026524589291628035 0 -0.0020170389714115372 0.025865866611602312 0 -0.00066801145999004848 0.025558855288942209 0 -0.0008968431412628761 0.027381662336553529 0 -0.0020170389714115372 0.025865866611602312 0 -0.0008968431412628761 0.027381662336553529 0 -0.0027156266994893857 0.027673120096681394 0 -0.0008968431412628761 0.027381662336553529 0 0.00078204028925160294 0.027299782946690027 0 0.00089423281690314269 0.029049940367712353 0 0.00078204028925160294 0.027299782946690027 0 0.0012166679555672224 0.026288116061053853 0 0.00010673515494456126 0.026524589291628035 0 -0.0008968431412628761 0.027381662336553529 0 0.00078204028925160294 0.027299782946690027 0 0.00010673515494456126 0.026524589291628035 0 0.0051889349859407649 0.0085807509142925391 0 0.0044767904132799602 0.0091408156422032212 0 0.0041860196718961247 0.0085431946736792327 0 0.003835802102810924 0.0095131218589500355 0 0.0044767904132799602 0.0091408156422032212 0 0.0041860196718961247 0.0085431946736792327 0 -0.0026401925217186691 0.023983735837211501 0 -0.0034929669359860778 0.022651445277711835 0 -0.0040066043078381764 0.026229929574696477 0 -0.0026401925217186691 0.023983735837211501 0 -0.0020170389714115372 0.025865866611602312 0 -0.0040066043078381764 0.026229929574696477 0 9.5538758336700095e-05 0.016688492763274915 0 0.00014463186634196837 0.016064766321016055 0 -0.0040066043078381764 0.026229929574696477 0 -0.0027156266994893857 0.027673120096681394 0 -0.0042039813578732804 0.029717145686012685 0 -0.0020170389714115372 0.025865866611602312 0 -0.0040066043078381764 0.026229929574696477 0 -0.0027156266994893857 0.027673120096681394 0 0.0050862158673402654 0.0078583691564386663 0 0.0051889349859407649 0.0085807509142925391 0 0.0041860196718961247 0.0085431946736792327 0 0.00014463186634196837 0.016064766321016055 0 0.00036170600487289207 0.024223541017605269 0 0.0050862158673402654 0.0078583691564386663 0 0.0041860196718961247 0.0085431946736792327 0 0.0044119511300430621 0.0074826499344722297 0 -0.0027156266994893857 0.027673120096681394 0 -0.0027341315008029446 0.02953722388547779 0 -0.0010594658040717203 0.029445480638815625 0 -0.0027156266994893857 0.027673120096681394 0 -0.0042039813578732804 0.029717145686012685 0 -0.0027341315008029446 0.02953722388547779 0 0.00036170600487289207 0.024223541017605269 0 -0.0039805264329636171 0.028284398748590449 0 -0.0034531949453439703 0.029889579910966572 0 -0.0027341315008029446 0.02953722388547779 0 -0.0025853492415268998 0.031216465610734611 0 -0.0027341315008029446 0.02953722388547779 0 -0.0025853492415268998 0.031216465610734611 0 -0.0018214537410608008 0.030429113856865017 0 -0.0027295927521492221 0.032225385204930686 0 -0.0034531949453439703 0.029889579910966572 0 -0.0025853492415268998 0.031216465610734611 0 -0.0022627973094421117 0.032679500345184277 0 -0.0027295927521492221 0.032225385204930686 0 -0.0027253212971818197 0.033122861912617492 0 -0.0038700588814286705 0.035328818911486315 0 0.00036170600487289207 0.024223541017605269 0 -0.0008968431412628761 0.027381662336553529 0 0.00089423281690314269 0.029049940367712353 0 -0.0010594658040717203 0.029445480638815625 0 -0.0008968431412628761 0.027381662336553529 0 -0.0027156266994893857 0.027673120096681394 0 -0.0010594658040717203 0.029445480638815625 0 -0.0027341315008029446 0.02953722388547779 0 -0.0010594658040717203 0.029445480638815625 0 -0.0018214537410608008 0.030429113856865017 0 -0.0010594658040717203 0.029445480638815625 0 -0.00091091691443712509 0.031337314654136278 0 -0.0018214537410608008 0.030429113856865017 0 -0.0025853492415268998 0.031216465610734611 0 -0.00091091691443712509 0.031337314654136278 0 -0.0018214537410608008 0.030429113856865017 0 -0.0049041168106155539 0.036773484133305022 0 -0.0034545687173073822 0.034718116840606293 0 -0.0051522919326686106 0.035291694708936026 0 -0.0046272700066282693 0.034322013548627128 0 -0.0034545687173073822 0.034718116840606293 0 -0.0051522919326686106 0.035291694708936026 0 -0.0010693892245931486 0.032837267321163904 0 -0.0023452191272006328 0.033050684909232214 0 0.00089423281690314269 0.029049940367712353 0 -0.0010594658040717203 0.029445480638815625 0 -0.00091091691443712509 0.031337314654136278 0 -0.0049041168106155539 0.036773484133305022 0 -0.0051522919326686106 0.035291694708936026 0 -0.0063796601090976906 0.03587055601284244 0 -0.0061330472487190939 0.034290888476005865 0 -0.0051522919326686106 0.035291694708936026 0 -0.0063796601090976906 0.03587055601284244 0 -0.0049041168106155539 0.036773484133305022 0 -0.0063796601090976906 0.03587055601284244 0 -0.0072834572667770112 0.037176761311639148 0 -0.0063796601090976906 0.03587055601284244 0 -0.0072834572667770112 0.037176761311639148 0 -0.0083571532300293072 0.035686378968650734 0 -0.012756243195458676 0.037151042211074507 0 -0.013461834647340553 0.044300352094702351 0 -0.0063297097738324835 0.048356132071859757 0 -0.013461834647340553 0.044300352094702351 0 -0.0061330472487190939 0.034290888476005865 0 -0.0063796601090976906 0.03587055601284244 0 -0.0083571532300293072 0.035686378968650734 0 -0.011466985475037897 0.062448027378983008 0 -0.013555331396126366 0.061586904419735092 0 -0.013293806914264968 0.062979209336497241 0 -0.012599937322687754 0.060711371246658596 0 -0.011466985475037897 0.062448027378983008 0 -0.013555331396126366 0.061586904419735092 0 -0.013461834647340553 0.044300352094702351 0 -0.015607072277440511 0.051140770891406742 0 -0.015033387785673941 0.061783441430194347 0 -0.013555331396126366 0.061586904419735092 0 -0.013293806914264968 0.062979209336497241 0 -0.016054587342636786 0.037704074049942665 0 -0.01657663809900542 0.038075632978547276 0 -0.016456754317502542 0.037240139208753485 0 -0.01657663809900542 0.038075632978547276 0 -0.016998082058897603 0.037568199617819396 0 -0.016456754317502542 0.037240139208753485 0 -0.015033387785673941 0.061783441430194347 0 -0.014791209858559638 0.063606276280677582 0 -0.013293806914264968 0.062979209336497241 0 -0.01693201649943139 0.045631462787055058 0 -0.015607072277440511 0.051140770891406742 0 -0.01754394245395945 0.037712063307097705 0 -0.017116747749806181 0.038461491142953455 0 -0.016998082058897603 0.037568199617819396 0 -0.017116747749806181 0.038461491142953455 0 -0.01657663809900542 0.038075632978547276 0 -0.016998082058897603 0.037568199617819396 0 -0.016998082058897603 0.037568199617819396 0 -0.016456754317502542 0.037240139208753485 0 -0.016852780347676712 0.036802900134217421 0 -0.016998082058897603 0.037568199617819396 0 -0.016852780347676712 0.036802900134217421 0 -0.017444946265284669 0.037169685148993659 0 -0.01693201649943139 0.045631462787055058 0 -0.019467631164662078 0.031675146118789424 0 -0.019467631164662078 0.031675146118789424 0 -0.018943546512841657 0.030123088849738546 0 -0.020709455608746475 0.027624922212925389 0 -0.020375097036907756 0.027599411137799297 0 -0.020505700984060706 0.027857430510680511 0 -0.019525202675744133 0.027999103689325427 0 -0.020051531064592603 0.027436239444921146 0 -0.019198712413873359 0.027237962655896134 0 -0.020375097036907756 0.027599411137799297 0 -0.020505700984060706 0.027857430510680511 0 -0.020114483458866968 0.027851580540743583 0 -0.020340455963978214 0.027687709533476094 0 -0.018943546512841657 0.030123088849738546 0 -0.019525202675744133 0.027999103689325427 0 -0.020114175331930988 0.027993246724846009 0 -0.020051531064592603 0.027436239444921146 0 -0.01902717000842389 0.027737563584754595 0 -0.019525202675744133 0.027999103689325427 0 -0.019198712413873359 0.027237962655896134 0 -0.019130042389993128 0.02724003368796319 0 -0.018943546512841657 0.030123088849738546 0 -0.01902717000842389 0.027737563584754595 0 -0.018645952143848264 0.027707644072600877 0 -0.019198712413873359 0.027237962655896134 0 -0.018943546512841657 0.030123088849738546 0 -0.014246887167293243 0.030761717913391332 0 -0.018573652286551213 0.027744155358587482 0 -0.018546948778433266 0.027676468020142061 0 -0.018360519295087755 0.027603953243062959 0 -0.018723283116182741 0.027642679722059121 0 -0.018546948778433266 0.027676468020142061 0 -0.018475046772768514 0.027614365534058421 0 -0.018645952143848264 0.027707644072600877 0 -0.018723283116182741 0.027642679722059121 0 -0.018546948778433266 0.027676468020142061 0 -0.016852780347676712 0.036802900134217421 0 -0.017866492119993225 0.036905960235907566 0 -0.017444946265284669 0.037169685148993659 0 -0.017504755394001616 0.028274131037489783 0 -0.014246887167293243 0.030761717913391332 0 -0.010518137744000735 0.02627617278639658 0 -0.0098417881359686432 0.025499442717779812 0 -0.0099178476256667342 0.024512411070021448 0 0.00065254463031145051 0.025198488878391285 0 0.0012166679555672224 0.026288116061053853 0 0.0024530574183766127 0.026143182670226972 0 -0.015188728024419004 0.026827451664188297 0 -0.0073876725702079742 0.027907322480890558 0 -0.008876306945786408 0.026071873272950963 0 -0.0098417881359686432 0.025499442717779812 0 -0.0099178476256667342 0.024512411070021448 0 0.00095733331103123646 0.023640339638040631 0 0.00065254463031145051 0.025198488878391285 0 0.0024530574183766127 0.026143182670226972 0 -0.0035479846706424362 0.024536970310412021 0 -0.0073876725702079742 0.027907322480890558 0 0.0028235160998794692 0.02633664921984373 0 -0.0073876725702079742 0.027907322480890558 0 -0.018546948778433266 0.027676468020142061 0 -0.018360519295087755 0.027603953243062959 0 -0.018403728878654671 0.027602664402010091 0 -0.009640899149016403 0.027665181174473495 0 -0.0086862657607581426 0.027560029964206444 0 -0.0092021540258930678 0.028346558048811015 0 -0.0073876725702079742 0.027907322480890558 0 -0.014246887167293243 0.030761717913391332 0 -0.0049041168106155539 0.036773484133305022 0 -0.0072834572667770112 0.037176761311639148 0 -0.0062699797945635766 0.038636976837805176 0 0.00089423281690314269 0.029049940367712353 0 0.0025128491013117183 0.026429576253354157 0 0.0023167683392604508 0.026544809621830853 0 -0.0010693892245931486 0.032837267321163904 0 -0.0083676022552550515 0.031272302500471368 0 0.00078204028925160294 0.027299782946690027 0 0.00089423281690314269 0.029049940367712353 0 0.0023167683392604508 0.026544809621830853 0 -0.014246887167293243 0.030761717913391332 0 -0.0083676022552550515 0.031272302500471368 0 0.0023354452083759257 0.026189203414362809 0 0.0025128491013117183 0.026429576253354157 0 0.0023167683392604508 0.026544809621830853 0 -0.0073876725702079742 0.027907322480890558 0 -0.0083676022552550515 0.031272302500471368 0 -0.0073876725702079742 0.027907322480890558 0 -0.0063903937098788869 0.027174572819515228 0 0.0012166679555672224 0.026288116061053853 0 0.0023487064787953995 0.026201945745688144 0 0.0023167683392604508 0.026544809621830853 0 0.00078204028925160294 0.027299782946690027 0 0.0012166679555672224 0.026288116061053853 0 0.0023167683392604508 0.026544809621830853 0 -0.012756243195458676 0.037151042211074507 0 -0.0083676022552550515 0.031272302500471368 0 -0.01754394245395945 0.037712063307097705 0 -0.017924176229430214 0.036993611503234686 0 -0.017444946265284669 0.037169685148993659 0 -0.01754394245395945 0.037712063307097705 0 -0.016998082058897603 0.037568199617819396 0 -0.017444946265284669 0.037169685148993659 0 -0.017866492119993225 0.036905960235907566 0 -0.017924176229430214 0.036993611503234686 0 -0.017444946265284669 0.037169685148993659 0 -0.055217735012162907 0.044391391824053321 0 -0.054651933764126782 0.043091840485128541 0 -0.05535800026104902 0.04341509672021384 0 -0.055217735012162907 0.044391391824053321 0 -0.054997933566361096 0.043497763397352437 0 -0.054651933764126782 0.043091840485128541 0 -0.054999953055874448 0.043494676184756657 0 -0.055422075852983109 0.042229220900072549 0 -0.054999932066780909 0.043494293941710546 0 -0.056277518590309814 0.041489253875814217 0 -0.054999355026372244 0.040514781763655618 0 -0.055422075852983109 0.042229220900072549 0 -0.055934309384633681 0.040318319441623604 0 -0.054651933764126782 0.043091840485128541 0 -0.05535800026104902 0.04341509672021384 0 -0.054780591417785587 0.041185191793494905 0 -0.05535800026104902 0.04341509672021384 0 -0.056143606027852677 0.040966970216721556 0 -0.054780591417785587 0.041185191793494905 0 -0.05535800026104902 0.04341509672021384 0 -0.05664360972018477 0.043249565612006671 0 -0.056143606027852677 0.040966970216721556 0 -0.05664360972018477 0.043249565612006671 0 -0.057659217783638875 0.038046139392785901 0 -0.056143606027852677 0.040966970216721556 0 -0.05535800026104902 0.04341509672021384 0 -0.055984814207923832 0.044696023986038676 0 -0.05664360972018477 0.043249565612006671 0 -0.05535800026104902 0.04341509672021384 0 -0.055984814207923832 0.044696023986038676 0 -0.055689676069107547 0.0450922222909165 0 -0.055217735012162907 0.044391391824053321 0 -0.05535800026104902 0.04341509672021384 0 -0.055689676069107547 0.0450922222909165 0 -0.055689676069107547 0.0450922222909165 0 -0.055812041837146963 0.046255849738758521 0 -0.055538948468551744 0.045956605360394094 0 -0.055689676069107547 0.0450922222909165 0 -0.055986842543551289 0.045596460698153235 0 -0.055812041837146963 0.046255849738758521 0 -0.055984814207923832 0.044696023986038676 0 -0.055986842543551289 0.045596460698153235 0 -0.055475828081598628 0.045270934614593965 0 -0.055984814207923832 0.044696023986038676 0 -0.055689676069107547 0.0450922222909165 0 -0.055986842543551289 0.045596460698153235 0 -0.055986842543551289 0.045596460698153235 0 -0.055940930836446807 0.047035811489105295 0 -0.055749402401557936 0.045943170118807199 0 -0.055986842543551289 0.045596460698153235 0 -0.055812041837146963 0.046255849738758521 0 -0.055940930836446807 0.047035811489105295 0 -0.055812041837146963 0.046255849738758521 0 -0.055715341689807442 0.047367174914542232 0 -0.055940930836446807 0.047035811489105295 0 -0.055812041837146963 0.046255849738758521 0 -0.055715341689807442 0.047367174914542232 0 -0.055538948468551744 0.045956605360394094 0 -0.055217735012162907 0.044391391824053321 0 -0.055689676069107547 0.0450922222909165 0 -0.055538948468551744 0.045956605360394094 0 -0.055217735012162907 0.044391391824053321 0 -0.054997933566361096 0.043497763397352437 0 -0.054999205773726918 0.046508813511924499 0 -0.055217735012162907 0.044391391824053321 0 -0.055538948468551744 0.045956605360394094 0 -0.054999205773726918 0.046508813511924499 0 -0.055715341689807442 0.047367174914542232 0 -0.055538948468551744 0.045956605360394094 0 -0.054999205773726918 0.046508813511924499 0 -0.055715341689807442 0.047367174914542232 0 -0.054999205773726918 0.046508813511924499 0 -0.05499920484180372 0.049524584310340555 0 -0.055715341689807442 0.047367174914542232 0 -0.05499920484180372 0.049524584310340555 0 -0.055966903821267816 0.048695613678592757 0 -0.055715341689807442 0.047367174914542232 0 -0.055966903821267816 0.048695613678592757 0 -0.055940930836446807 0.047035811489105295 0 -0.055966903821267816 0.048695613678592757 0 -0.055630903175299957 0.050621309959715026 0 -0.056275824037586047 0.050215744614766668 0 -0.05499920484180372 0.049524584310340555 0 -0.055630903175299957 0.050621309959715026 0 -0.054999090844328767 0.052536309208739994 0 -0.05499920484180372 0.049524584310340555 0 -0.055966903821267816 0.048695613678592757 0 -0.055630903175299957 0.050621309959715026 0 -0.055630903175299957 0.050621309959715026 0 -0.054999090844328767 0.052536309208739994 0 -0.05569126576252497 0.05191858820227796 0 -0.05162984822619001 0.055676819602177699 0 -0.055001730681238828 0.05499423506770397 0 -0.049925223674791984 0.055002491269134757 0 -0.055000914594009513 0.052540568528207439 0 -0.05503974478009515 0.052465517899276434 0 -0.054708252704087759 0.05333536258983515 0 -0.053264401866988283 0.051921248211995188 0 -0.055630903175299957 0.050621309959715026 0 -0.056275824037586047 0.050215744614766668 0 -0.05569126576252497 0.05191858820227796 0 -0.056538850949085215 0.04742715206552188 0 -0.056830520151598236 0.047227749859388622 0 -0.056135826470601995 0.04721625939269436 0 -0.05667165525393867 0.048492620460299014 0 -0.05503974478009515 0.052465517899276434 0 -0.056538850949085215 0.04742715206552188 0 -0.056830520151598236 0.047227749859388622 0 -0.056866758132808892 0.047250091028708155 0 -0.052872192070781282 0.056338990607778916 0 -0.051376164862347418 0.055652300355969041 0 -0.050241674170115665 0.057148950616271871 0 -0.053322256391292462 0.056128089749494785 0 -0.05162984822619001 0.055676819602177699 0 -0.055001730681238828 0.05499423506770397 0 -0.054708252704087759 0.05333536258983515 0 -0.051485318052436682 0.055584909684666867 0 -0.054999985620454786 0.05254041207203744 0 -0.054999995002250994 0.05461815191774573 0 -0.056572122296245864 0.053307534516450164 0 -0.053322256391292462 0.056128089749494785 0 -0.054996943752319637 0.054627182031775849 0 -0.053517676757953152 0.056212089468635942 0 -0.053322256391292462 0.056128089749494785 0 -0.055001730681238828 0.05499423506770397 0 -0.054996943752319637 0.054627182031775849 0 -0.054998972872210561 0.054619331192039648 0 -0.05503974478009515 0.052465517899276434 0 -0.054708252704087759 0.05333536258983515 0 -0.05503974478009515 0.052465517899276434 0 -0.048365652120231965 0.056394568851653878 0 -0.049925365477818721 0.054999898637393532 0 -0.050241674170115665 0.057148950616271871 0 -0.048365652120231965 0.056394568851653878 0 -0.049925365477818721 0.054999898637393532 0 -0.047104107364547843 0.054999889047527582 0 -0.051376164862347418 0.055652300355969041 0 -0.049925365477818721 0.054999898637393532 0 -0.050241674170115665 0.057148950616271871 0 -0.051485318052436682 0.055584909684666867 0 -0.04992610853132131 0.055000182299237609 0 -0.056538850949085215 0.04742715206552188 0 -0.056135826470601995 0.04721625939269436 0 -0.056162137885324731 0.047942141175546432 0 -0.053264401866988283 0.051921248211995188 0 -0.051229925935460822 0.052651856830554983 0 -0.056135826470601995 0.04721625939269436 0 -0.056162137885324731 0.047942141175546432 0 -0.054834096601150614 0.046884341406086133 0 -0.048365652120231965 0.056394568851653878 0 -0.050241674170115665 0.057148950616271871 0 -0.047977735025857948 0.057880372159067134 0 -0.056162137885324731 0.047942141175546432 0 -0.055577721713920308 0.04725325172583357 0 -0.054834096601150614 0.046884341406086133 0 -0.055966903821267816 0.048695613678592757 0 -0.056275824037586047 0.050215744614766668 0 -0.056162137885324731 0.047942141175546432 0 -0.05667165525393867 0.048492620460299014 0 -0.056045099946227021 0.04837212743256579 0 -0.055966903821267816 0.048695613678592757 0 -0.056162137885324731 0.047942141175546432 0 -0.055940930836446807 0.047035811489105295 0 -0.055940930836446807 0.047035811489105295 0 -0.055577721713920308 0.04725325172583357 0 -0.055749402401557936 0.045943170118807199 0 -0.056162137885324731 0.047942141175546432 0 -0.055940930836446807 0.047035811489105295 0 -0.055577721713920308 0.04725325172583357 0 -0.054375220044659243 0.044780689500226803 0 -0.055511329003924047 0.045882168909090817 0 -0.055577721713920308 0.04725325172583357 0 -0.054538843223974405 0.047623653782535989 0 -0.055749402401557936 0.045943170118807199 0 -0.054665131765914192 0.043129801480699434 0 -0.054906979086368463 0.045069262555560125 0 -0.055749402401557936 0.045943170118807199 0 -0.054665131765914192 0.043129801480699434 0 -0.05229545784749326 0.043526524613326463 0 -0.054906979086368463 0.045069262555560125 0 -0.054665131765914192 0.043129801480699434 0 -0.05257037557047841 0.041198023871074553 0 -0.05229545784749326 0.043526524613326463 0 -0.054538843223974405 0.047623653782535989 0 -0.054834096601150614 0.046884341406086133 0 -0.05241962072219071 0.047200825782418222 0 -0.054375220044659243 0.044780689500226803 0 -0.049201225854415942 0.051590280419028994 0 -0.051229925935460822 0.052651856830554983 0 -0.049201225854415942 0.051590280419028994 0 -0.055577721713920308 0.04725325172583357 0 -0.054538843223974405 0.047623653782535989 0 -0.054834096601150614 0.046884341406086133 0 -0.048365652120231965 0.056394568851653878 0 -0.047977735025857948 0.057880372159067134 0 -0.04554433218744551 0.056715373805677885 0 -0.047977735025857948 0.057880372159067134 0 -0.04554433218744551 0.056715373805677885 0 -0.045352819849377619 0.05882604075806936 0 -0.04554433218744551 0.056715373805677885 0 -0.047104107364547843 0.054999889047527582 0 -0.044282013055951946 0.054999808565974313 0 -0.048365652120231965 0.056394568851653878 0 -0.04554433218744551 0.056715373805677885 0 -0.047104107364547843 0.054999889047527582 0 -0.042954422964228897 0.056141234016049861 0 -0.041459604333687831 0.054999885017468386 0 -0.044282013055951946 0.054999808565974313 0 -0.042954422964228897 0.056141234016049861 0 -0.041459604333687831 0.054999885017468386 0 -0.040640102837870777 0.056387691840946157 0 -0.04554433218744551 0.056715373805677885 0 -0.042954422964228897 0.056141234016049861 0 -0.044282013055951946 0.054999808565974313 0 -0.04554433218744551 0.056715373805677885 0 -0.042846953704755567 0.057689608972387077 0 -0.045352819849377619 0.05882604075806936 0 -0.04554433218744551 0.056715373805677885 0 -0.042954422964228897 0.056141234016049861 0 -0.042846953704755567 0.057689608972387077 0 -0.042954422964228897 0.056141234016049861 0 -0.042846953704755567 0.057689608972387077 0 -0.040640102837870777 0.056387691840946157 0 -0.043646223297530463 0.057625081307624823 0 -0.041097043130802931 0.055775216055143136 0 -0.044527193061342611 0.05630385519346854 0 -0.044242748300468121 0.058807082835503337 0 -0.041002782058104356 0.057281773071082134 0 -0.044527193061342611 0.05630385519346854 0 -0.044242748300468121 0.058807082835503337 0 -0.047283854466592515 0.057850563483286245 0 -0.047037207834515454 0.050056137942972735 0 -0.049201225854415942 0.051590280419028994 0 -0.043646223297530463 0.057625081307624823 0 -0.049201225854415942 0.051590280419028994 0 -0.049443608292411574 0.041762061064176258 0 -0.05257037557047841 0.041198023871074553 0 -0.05229545784749326 0.043526524613326463 0 -0.049443608292411574 0.041762061064176258 0 -0.05229545784749326 0.043526524613326463 0 -0.049284794184911419 0.044277253643318151 0 -0.049284794184911419 0.044277253643318151 0 -0.050360633602252292 0.046620436812398511 0 -0.052627752423782807 0.045279174794987553 0 -0.050360633602252292 0.046620436812398511 0 -0.052627752423782807 0.045279174794987553 0 -0.053787545181504318 0.04611338286510399 0 -0.05229545784749326 0.043526524613326463 0 -0.049284794184911419 0.044277253643318151 0 -0.052627752423782807 0.045279174794987553 0 -0.05229545784749326 0.043526524613326463 0 -0.052627752423782807 0.045279174794987553 0 -0.054906979086368463 0.045069262555560125 0 -0.055986842543551289 0.045596460698153235 0 -0.054906979086368463 0.045069262555560125 0 -0.055749402401557936 0.045943170118807199 0 -0.055986842543551289 0.045596460698153235 0 -0.054906979086368463 0.045069262555560125 0 -0.055475828081598628 0.045270934614593965 0 -0.052627752423782807 0.045279174794987553 0 -0.055475828081598628 0.045270934614593965 0 -0.053787545181504318 0.04611338286510399 0 -0.052627752423782807 0.045279174794987553 0 -0.054906979086368463 0.045069262555560125 0 -0.055475828081598628 0.045270934614593965 0 -0.053787545181504318 0.04611338286510399 0 -0.05664360972018477 0.043249565612006671 0 -0.053991556530713934 0.047393432189464298 0 -0.055984814207923832 0.044696023986038676 0 -0.055475828081598628 0.045270934614593965 0 -0.05664360972018477 0.043249565612006671 0 -0.055475828081598628 0.045270934614593965 0 -0.053787545181504318 0.04611338286510399 0 -0.05664360972018477 0.043249565612006671 0 -0.05664360972018477 0.043249565612006671 0 -0.058211936783648652 0.038221749971290776 0 -0.057659217783638875 0.038046139392785901 0 -0.056202061750345207 0.043232653727658645 0 -0.055729264516646448 0.042829817409642333 0 -0.053787545181504318 0.04611338286510399 0 -0.053991556530713934 0.047393432189464298 0 -0.050785133095296503 0.049514211173072233 0 -0.055729264516646448 0.042829817409642333 0 -0.053669528928213792 0.042169007250078057 0 -0.050360633602252292 0.046620436812398511 0 -0.050785133095296503 0.049514211173072233 0 -0.047793040785739871 0.048478822829370508 0 -0.050360633602252292 0.046620436812398511 0 -0.053787545181504318 0.04611338286510399 0 -0.050785133095296503 0.049514211173072233 0 -0.045241620057750863 0.047842823183257638 0 -0.045454749175047555 0.050097363828099609 0 -0.044159075403782257 0.049053967727699217 0 -0.045241620057750863 0.047842823183257638 0 -0.047793040785739871 0.048478822829370508 0 -0.04743513979325361 0.046323178344957264 0 -0.045241620057750863 0.047842823183257638 0 -0.047793040785739871 0.048478822829370508 0 -0.045454749175047555 0.050097363828099609 0 -0.050360633602252292 0.046620436812398511 0 -0.047793040785739871 0.048478822829370508 0 -0.04743513979325361 0.046323178344957264 0 -0.050785133095296503 0.049514211173072233 0 -0.047793040785739871 0.048478822829370508 0 -0.047192904685457997 0.050922587827681436 0 -0.053669528928213792 0.042169007250078057 0 -0.050404764731464678 0.041761422263152971 0 -0.047793040785739871 0.048478822829370508 0 -0.047192904685457997 0.050922587827681436 0 -0.045454749175047555 0.050097363828099609 0 -0.047192904685457997 0.050922587827681436 0 -0.045454749175047555 0.050097363828099609 0 -0.04335209490808805 0.051879410713111265 0 -0.045454749175047555 0.050097363828099609 0 -0.043611933183844008 0.051112248379198907 0 -0.04335209490808805 0.051879410713111265 0 -0.043611933183844008 0.051112248379198907 0 -0.042315095066455637 0.051251016431540619 0 -0.04335209490808805 0.051879410713111265 0 -0.045454749175047555 0.050097363828099609 0 -0.043611933183844008 0.051112248379198907 0 -0.044159075403782257 0.049053967727699217 0 -0.042315095066455637 0.051251016431540619 0 -0.041365801123393935 0.050884339829203422 0 -0.041144318865466933 0.052126404156593392 0 -0.043611933183844008 0.051112248379198907 0 -0.042315095066455637 0.051251016431540619 0 -0.042394242707681745 0.049631518505353148 0 -0.042315095066455637 0.051251016431540619 0 -0.042394242707681745 0.049631518505353148 0 -0.041365801123393935 0.050884339829203422 0 -0.042394242707681745 0.049631518505353148 0 -0.041079079613834849 0.049058303623567008 0 -0.041365801123393935 0.050884339829203422 0 -0.043611933183844008 0.051112248379198907 0 -0.042298113052305825 0.047190207928991555 0 -0.044159075403782257 0.049053967727699217 0 -0.045241620057750863 0.047842823183257638 0 -0.042298113052305825 0.047190207928991555 0 -0.044159075403782257 0.049053967727699217 0 -0.043492172607603866 0.051477875337564837 0 -0.042669439452259393 0.047358585785874908 0 -0.042298113052305825 0.047190207928991555 0 -0.044518586237194943 0.045719559367225625 0 -0.042815866211453391 0.044977541505878481 0 -0.045241620057750863 0.047842823183257638 0 -0.042298113052305825 0.047190207928991555 0 -0.044518586237194943 0.045719559367225625 0 -0.042669439452259393 0.047358585785874908 0 -0.038332958326799692 0.05090909350851297 0 -0.042394242707681745 0.049631518505353148 0 -0.041624793240317856 0.04777644974915897 0 -0.041079079613834849 0.049058303623567008 0 -0.042298113052305825 0.047190207928991555 0 -0.040833965488169366 0.043950544912662912 0 -0.042815866211453391 0.044977541505878481 0 -0.038332958326799692 0.05090909350851297 0 -0.040956481287582044 0.051764085879406625 0 -0.044518586237194943 0.045719559367225625 0 -0.042815866211453391 0.044977541505878481 0 -0.04360940089959827 0.043096924354341537 0 -0.040833965488169366 0.043950544912662912 0 -0.042815866211453391 0.044977541505878481 0 -0.04360940089959827 0.043096924354341537 0 -0.044518586237194943 0.045719559367225625 0 -0.046321346433593653 0.044384127556684923 0 -0.04360940089959827 0.043096924354341537 0 -0.044518586237194943 0.045719559367225625 0 -0.046321346433593653 0.044384127556684923 0 -0.04743513979325361 0.046323178344957264 0 -0.045241620057750863 0.047842823183257638 0 -0.044518586237194943 0.045719559367225625 0 -0.04743513979325361 0.046323178344957264 0 -0.049284794184911419 0.044277253643318151 0 -0.050360633602252292 0.046620436812398511 0 -0.04743513979325361 0.046323178344957264 0 -0.049284794184911419 0.044277253643318151 0 -0.046321346433593653 0.044384127556684923 0 -0.04743513979325361 0.046323178344957264 0 -0.049284794184911419 0.044277253643318151 0 -0.046321346433593653 0.044384127556684923 0 -0.046425286238226691 0.042363843229436871 0 -0.049443608292411574 0.041762061064176258 0 -0.049284794184911419 0.044277253643318151 0 -0.046425286238226691 0.042363843229436871 0 -0.047037207834515454 0.050056137942972735 0 -0.043832750737862185 0.050946341921106295 0 -0.043832750737862185 0.050946341921106295 0 -0.040956481287582044 0.051764085879406625 0 -0.041286150172777022 0.059491522592111622 0 -0.038742637166222775 0.058424890290291444 0 -0.03840276754715969 0.060123325831482832 0 -0.046321346433593653 0.044384127556684923 0 -0.046425286238226691 0.042363843229436871 0 -0.04360940089959827 0.043096924354341537 0 -0.041002782058104356 0.057281773071082134 0 -0.037926381408223096 0.056874238242095823 0 -0.038742637166222775 0.058424890290291444 0 -0.041286150172777022 0.059491522592111622 0 -0.041002782058104356 0.057281773071082134 0 -0.038742637166222775 0.058424890290291444 0 -0.044242748300468121 0.058807082835503337 0 -0.041286150172777022 0.059491522592111622 0 -0.041002782058104356 0.057281773071082134 0 -0.044527193061342611 0.05630385519346854 0 -0.041002782058104356 0.057281773071082134 0 -0.041493358883893064 0.055136331955170113 0 -0.041002782058104356 0.057281773071082134 0 -0.039105752887936218 0.055969290561568859 0 -0.041493358883893064 0.055136331955170113 0 -0.041002782058104356 0.057281773071082134 0 -0.039105752887936218 0.055969290561568859 0 -0.037926381408223096 0.056874238242095823 0 -0.039105752887936218 0.055969290561568859 0 -0.038638781922107325 0.054997636600653939 0 -0.036647523059774346 0.055995257278422673 0 -0.039105752887936218 0.055969290561568859 0 -0.038638781922107325 0.054997636600653939 0 -0.041493358883893064 0.055136331955170113 0 -0.041459604333687831 0.054999885017468386 0 -0.038637350239274545 0.055000033290187308 0 -0.040640102837870777 0.056387691840946157 0 -0.038638294213880778 0.055000221794197654 0 -0.041097043130802931 0.055775216055143136 0 -0.036045157546193231 0.054999643739942032 0 -0.036647523059774346 0.055995257278422673 0 -0.034494569899649552 0.055868714310812681 0 -0.036045157546193231 0.054999643739942032 0 -0.0334562497021407 0.054999993627017255 0 -0.034494569899649552 0.055868714310812681 0 -0.038638781922107325 0.054997636600653939 0 -0.036045157546193231 0.054999643739942032 0 -0.036647523059774346 0.055995257278422673 0 -0.039105752887936218 0.055969290561568859 0 -0.037926381408223096 0.056874238242095823 0 -0.036647523059774346 0.055995257278422673 0 -0.037926381408223096 0.056874238242095823 0 -0.036647523059774346 0.055995257278422673 0 -0.036304343851564301 0.057604282595332616 0 -0.036647523059774346 0.055995257278422673 0 -0.034923426949449755 0.056472067940244966 0 -0.034494569899649552 0.055868714310812681 0 -0.036647523059774346 0.055995257278422673 0 -0.034923426949449755 0.056472067940244966 0 -0.036304343851564301 0.057604282595332616 0 -0.036304343851564301 0.057604282595332616 0 -0.034726834950700607 0.059046119827163006 0 -0.0338247884420474 0.0566233293190729 0 -0.034923426949449755 0.056472067940244966 0 -0.036304343851564301 0.057604282595332616 0 -0.0338247884420474 0.0566233293190729 0 -0.036304343851564301 0.057604282595332616 0 -0.038742637166222775 0.058424890290291444 0 -0.03685277035282062 0.059207538660365946 0 -0.037926381408223096 0.056874238242095823 0 -0.036304343851564301 0.057604282595332616 0 -0.038742637166222775 0.058424890290291444 0 -0.038742637166222775 0.058424890290291444 0 -0.03840276754715969 0.060123325831482832 0 -0.03685277035282062 0.059207538660365946 0 -0.035624943630528698 0.060852913939651435 0 -0.03840276754715969 0.060123325831482832 0 -0.03685277035282062 0.059207538660365946 0 -0.036304343851564301 0.057604282595332616 0 -0.03685277035282062 0.059207538660365946 0 -0.034726834950700607 0.059046119827163006 0 -0.035624943630528698 0.060852913939651435 0 -0.03685277035282062 0.059207538660365946 0 -0.034726834950700607 0.059046119827163006 0 -0.038332958326799692 0.05090909350851297 0 -0.034372819126435715 0.057780065544100513 0 -0.032741780918667931 0.054359972180669368 0 -0.033590779813818215 0.054781373999192556 0 -0.033044312599731666 0.055255103150141802 0 -0.033590779813818215 0.054781373999192556 0 -0.033044312599731666 0.055255103150141802 0 -0.033936630421370115 0.055753630782828273 0 -0.033590779813818215 0.054781373999192556 0 -0.033936630421370115 0.055753630782828273 0 -0.034294238264288748 0.05483460225704876 0 -0.033590779813818215 0.054781373999192556 0 -0.034294238264288748 0.05483460225704876 0 -0.033777297122871176 0.053750895204233901 0 -0.033936630421370115 0.055753630782828273 0 -0.034206950050624851 0.055651911550757431 0 -0.034294238264288748 0.05483460225704876 0 -0.033936630421370115 0.055753630782828273 0 -0.033816511073202174 0.056309554894720559 0 -0.033882002291498299 0.056067490307910223 0 -0.033936630421370115 0.055753630782828273 0 -0.03403142905331507 0.055865975850976794 0 -0.033882002291498299 0.056067490307910223 0 -0.03403142905331507 0.055865975850976794 0 -0.034096586246430638 0.055947773767856881 0 -0.034206950050624851 0.055651911550757431 0 -0.033936630421370115 0.055753630782828273 0 -0.03403142905331507 0.055865975850976794 0 -0.034206950050624851 0.055651911550757431 0 -0.033044312599731666 0.055255103150141802 0 -0.033936630421370115 0.055753630782828273 0 -0.0338247884420474 0.0566233293190729 0 -0.034372819126435715 0.057780065544100513 0 -0.033741509557727853 0.05644267885824663 0 -0.033936630421370115 0.055753630782828273 0 -0.0338247884420474 0.0566233293190729 0 -0.033816511073202174 0.056309554894720559 0 -0.034923426949449755 0.056472067940244966 0 -0.0338247884420474 0.0566233293190729 0 -0.033816511073202174 0.056309554894720559 0 -0.034923426949449755 0.056472067940244966 0 -0.033816511073202174 0.056309554894720559 0 -0.034494569899649552 0.055868714310812681 0 -0.033753519664565787 0.05597785697709419 0 -0.033816511073202174 0.056309554894720559 0 -0.034494569899649552 0.055868714310812681 0 -0.033795263880230582 0.055950786574779338 0 -0.033581643751772292 0.055793648032700004 0 -0.03438334781670279 0.056175436409166619 0 -0.033581643751772292 0.055793648032700004 0 -0.033571001756209203 0.056094884022939676 0 -0.033571520250447698 0.056890831571098817 0 -0.033753519664565787 0.05597785697709419 0 -0.033816511073202174 0.056309554894720559 0 -0.033882002291498299 0.056067490307910223 0 -0.03414882517138549 0.055819377422982798 0 -0.032582460047045542 0.056461916567986999 0 -0.033882002291498299 0.056067490307910223 0 -0.034056982472059225 0.056016190121658038 0 -0.033795263880230582 0.055950786574779338 0 -0.03403142905331507 0.055865975850976794 0 -0.033882002291498299 0.056067490307910223 0 -0.034096586246430638 0.055947773767856881 0 -0.033882002291498299 0.056067490307910223 0 -0.034096586246430638 0.055947773767856881 0 -0.034056982472059225 0.056016190121658038 0 -0.033753519664565787 0.05597785697709419 0 -0.033795263880230582 0.055950786574779338 0 -0.033581643751772292 0.055793648032700004 0 -0.033753519664565787 0.05597785697709419 0 -0.033882002291498299 0.056067490307910223 0 -0.033795263880230582 0.055950786574779338 0 -0.033581643751772292 0.055793648032700004 0 -0.033571001756209203 0.056094884022939676 0 -0.0334562497021407 0.054999993627017255 0 -0.032356485710652645 0.056147128853010035 0 -0.033453885749825392 0.055000085382714475 0 -0.031307029790449616 0.056203217337983148 0 -0.033453732075467348 0.055000156315318793 0 -0.030762646317219491 0.054999481479415219 0 -0.033581643751772292 0.055793648032700004 0 -0.0334562497021407 0.054999993627017255 0 -0.033792437179992266 0.055660360187511373 0 -0.0334562497021407 0.054999993627017255 0 -0.034494569899649552 0.055868714310812681 0 -0.033792437179992266 0.055660360187511373 0 -0.033753519664565787 0.05597785697709419 0 -0.034494569899649552 0.055868714310812681 0 -0.033792437179992266 0.055660360187511373 0 -0.033753519664565787 0.05597785697709419 0 -0.033581643751772292 0.055793648032700004 0 -0.033792437179992266 0.055660360187511373 0 -0.02807244898426807 0.054999637944915032 0 -0.029327375973357692 0.055803154222128164 0 -0.027775628413688955 0.056018237592107854 0 -0.02807244898426807 0.054999637944915032 0 -0.030762646317219491 0.054999481479415219 0 -0.029327375973357692 0.055803154222128164 0 -0.031307029790449616 0.056203217337983148 0 -0.030762646317219491 0.054999481479415219 0 -0.029327375973357692 0.055803154222128164 0 -0.031307029790449616 0.056203217337983148 0 -0.029327375973357692 0.055803154222128164 0 -0.029363984073439417 0.056812469667439393 0 -0.029327375973357692 0.055803154222128164 0 -0.02896228672533779 0.05689316871045761 0 -0.029363984073439417 0.056812469667439393 0 -0.034056982472059225 0.056016190121658038 0 -0.033795263880230582 0.055950786574779338 0 -0.03438334781670279 0.056175436409166619 0 -0.032356485710652645 0.056147128853010035 0 -0.032582460047045542 0.056461916567986999 0 -0.034056982472059225 0.056016190121658038 0 -0.034230989288631219 0.056013386296988071 0 -0.03438334781670279 0.056175436409166619 0 -0.034230989288631219 0.056013386296988071 0 -0.03438334781670279 0.056175436409166619 0 -0.034328771126898285 0.055859622794317276 0 -0.034096586246430638 0.055947773767856881 0 -0.034056982472059225 0.056016190121658038 0 -0.034230989288631219 0.056013386296988071 0 -0.034096586246430638 0.055947773767856881 0 -0.034230989288631219 0.056013386296988071 0 -0.034328771126898285 0.055859622794317276 0 -0.034575720165263155 0.056067922599502204 0 -0.03438334781670279 0.056175436409166619 0 -0.034799049977129085 0.055489880751638396 0 -0.032031389903581002 0.05654964026105725 0 -0.032582460047045542 0.056461916567986999 0 -0.02896228672533779 0.05689316871045761 0 -0.027775628413688955 0.056018237592107854 0 -0.02670806162696596 0.056855537397786038 0 -0.029327375973357692 0.055803154222128164 0 -0.02896228672533779 0.05689316871045761 0 -0.027775628413688955 0.056018237592107854 0 -0.035630373136917075 0.055318086014891001 0 -0.034799049977129085 0.055489880751638396 0 -0.035218902649353984 0.05445470878635613 0 -0.032031389903581002 0.05654964026105725 0 -0.031217760939600263 0.055992778134367038 0 -0.034575720165263155 0.056067922599502204 0 -0.035630373136917075 0.055318086014891001 0 -0.034799049977129085 0.055489880751638396 0 -0.034096586246430638 0.055947773767856881 0 -0.034206950050624851 0.055651911550757431 0 -0.034328771126898285 0.055859622794317276 0 -0.034206950050624851 0.055651911550757431 0 -0.034328771126898285 0.055859622794317276 0 -0.034799049977129085 0.055489880751638396 0 -0.03438334781670279 0.056175436409166619 0 -0.034328771126898285 0.055859622794317276 0 -0.034799049977129085 0.055489880751638396 0 -0.034206950050624851 0.055651911550757431 0 -0.034799049977129085 0.055489880751638396 0 -0.034294238264288748 0.05483460225704876 0 -0.034294238264288748 0.05483460225704876 0 -0.035218902649353984 0.05445470878635613 0 -0.034669172738282919 0.053799638241823197 0 -0.034799049977129085 0.055489880751638396 0 -0.034294238264288748 0.05483460225704876 0 -0.035218902649353984 0.05445470878635613 0 -0.036079371259547841 0.054364549021198395 0 -0.035630373136917075 0.055318086014891001 0 -0.035218902649353984 0.05445470878635613 0 -0.0358535448005829 0.053796658125987398 0 -0.035218902649353984 0.05445470878635613 0 -0.03551604485242435 0.05337178155111727 0 -0.035218902649353984 0.05445470878635613 0 -0.03551604485242435 0.05337178155111727 0 -0.034669172738282919 0.053799638241823197 0 -0.035427904687544191 0.052752965730791135 0 -0.034661978966909958 0.052700882677497424 0 -0.034669172738282919 0.053799638241823197 0 -0.03551604485242435 0.05337178155111727 0 -0.035427904687544191 0.052752965730791135 0 -0.034669172738282919 0.053799638241823197 0 -0.036144283396558549 0.05235973905209651 0 -0.03551604485242435 0.05337178155111727 0 -0.035427904687544191 0.052752965730791135 0 -0.036578399873169298 0.050882180689057532 0 -0.037063268608817777 0.0501825157479713 0 -0.037669518601061235 0.049418246893567226 0 -0.036578399873169298 0.050882180689057532 0 -0.035427904687544191 0.052752965730791135 0 -0.034661978966909958 0.052700882677497424 0 -0.036631991232959023 0.050870951437826703 0 -0.036341595160432123 0.051020888858883534 0 -0.034661978966909958 0.052700882677497424 0 -0.034669172738282919 0.053799638241823197 0 -0.033777297122871176 0.053750895204233901 0 -0.034294238264288748 0.05483460225704876 0 -0.034669172738282919 0.053799638241823197 0 -0.033777297122871176 0.053750895204233901 0 -0.036341595160432123 0.051020888858883534 0 -0.03652651277665056 0.051111003571796709 0 -0.041624793240317856 0.04777644974915897 0 -0.039740818488400526 0.048386553285806912 0 -0.041079079613834849 0.049058303623567008 0 -0.038332958326799692 0.05090909350851297 0 -0.03652651277665056 0.051111003571796709 0 -0.032741780918667931 0.054359972180669368 0 -0.033590779813818215 0.054781373999192556 0 -0.033777297122871176 0.053750895204233901 0 -0.037669518601061235 0.049418246893567226 0 -0.039740818488400526 0.048386553285806912 0 -0.03956778286006208 0.050108605965374052 0 -0.039740818488400526 0.048386553285806912 0 -0.041079079613834849 0.049058303623567008 0 -0.03956778286006208 0.050108605965374052 0 -0.03956778286006208 0.050108605965374052 0 -0.041365801123393935 0.050884339829203422 0 -0.039727693877729675 0.051501432232447533 0 -0.03956778286006208 0.050108605965374052 0 -0.039727693877729675 0.051501432232447533 0 -0.037990614766380007 0.051212019451826393 0 -0.041079079613834849 0.049058303623567008 0 -0.03956778286006208 0.050108605965374052 0 -0.041365801123393935 0.050884339829203422 0 -0.041365801123393935 0.050884339829203422 0 -0.039727693877729675 0.051501432232447533 0 -0.040979074289444022 0.052538523087060772 0 -0.040727219489204748 0.05439964046567055 0 -0.042275681464801561 0.043151477894498219 0 -0.037107148280085295 0.050876462334134648 0 -0.036722351163163615 0.046128819097932157 0 -0.039727693877729675 0.051501432232447533 0 -0.037990614766380007 0.051212019451826393 0 -0.038949251542333869 0.052817174061996194 0 -0.037228004135416791 0.049149842182380776 0 -0.035910086487895482 0.049230219603545324 0 -0.037292651511254549 0.047744609757184045 0 -0.037228004135416791 0.049149842182380776 0 -0.036878657683204821 0.050001369436750487 0 -0.035910086487895482 0.049230219603545324 0 -0.036923121155052578 0.049872208864665937 0 -0.037107148280085295 0.050876462334134648 0 -0.036878657683204821 0.050001369436750487 0 -0.037063268608817777 0.0501825157479713 0 -0.035910086487895482 0.049230219603545324 0 -0.037063268608817777 0.0501825157479713 0 -0.037669518601061235 0.049418246893567226 0 -0.037990614766380007 0.051212019451826393 0 -0.037669518601061235 0.049418246893567226 0 -0.03956778286006208 0.050108605965374052 0 -0.037990614766380007 0.051212019451826393 0 -0.037072222571473114 0.044308665552566025 0 -0.037021071822488295 0.043288976796147169 0 -0.03654358127588464 0.045001249285016323 0 -0.037072222571473114 0.044308665552566025 0 -0.03690828466433229 0.045699561704015464 0 -0.03654358127588464 0.045001249285016323 0 -0.037072222571473114 0.044308665552566025 0 -0.037021071822488295 0.043288976796147169 0 -0.037491133696830138 0.04296213538313709 0 -0.037072222571473114 0.044308665552566025 0 -0.037571928743150164 0.044447716459576611 0 -0.037491133696830138 0.04296213538313709 0 -0.037890651807234679 0.046323020643191583 0 -0.037571928743150164 0.044447716459576611 0 -0.03690828466433229 0.045699561704015464 0 -0.037072222571473114 0.044308665552566025 0 -0.037571928743150164 0.044447716459576611 0 -0.03690828466433229 0.045699561704015464 0 -0.035910086487895482 0.049230219603545324 0 -0.037292651511254549 0.047744609757184045 0 -0.03690828466433229 0.045699561704015464 0 -0.037890651807234679 0.046323020643191583 0 -0.037292651511254549 0.047744609757184045 0 -0.03690828466433229 0.045699561704015464 0 -0.035910086487895482 0.049230219603545324 0 -0.03690828466433229 0.045699561704015464 0 -0.034500653721357341 0.046057217313381665 0 -0.03644625789708246 0.045633948242463737 0 -0.036722351163163615 0.046128819097932157 0 -0.035333776069486802 0.040089523124773339 0 -0.037891825069088322 0.039377754030793591 0 -0.036697137891187115 0.040707373593996322 0 -0.036722351163163615 0.046128819097932157 0 -0.042275681464801561 0.043151477894498219 0 -0.039727693877729675 0.051501432232447533 0 -0.038949251542333869 0.052817174061996194 0 -0.040979074289444022 0.052538523087060772 0 -0.042275681464801561 0.043151477894498219 0 -0.042274038410817762 0.035784735210215982 0 -0.037891825069088322 0.039377754030793591 0 -0.037130501222253566 0.041764844227019524 0 -0.036697137891187115 0.040707373593996322 0 -0.047787075913996294 0.031643680532557825 0 -0.04712886317268225 0.033023973624720093 0 -0.048397318922294923 0.032856373193325628 0 -0.04712886317268225 0.033023973624720093 0 -0.048194254447459541 0.033494734441423417 0 -0.048397318922294923 0.032856373193325628 0 -0.037130501222253566 0.041764844227019524 0 -0.036697137891187115 0.040707373593996322 0 -0.036798038255475424 0.042050698069789907 0 -0.035333776069486802 0.040089523124773339 0 -0.036697137891187115 0.040707373593996322 0 -0.036798038255475424 0.042050698069789907 0 -0.037021071822488295 0.043288976796147169 0 -0.03654358127588464 0.045001249285016323 0 -0.036798038255475424 0.042050698069789907 0 -0.036722351163163615 0.046128819097932157 0 -0.036207043198953806 0.040728003904245282 0 -0.037021071822488295 0.043288976796147169 0 -0.036798038255475424 0.042050698069789907 0 -0.037282012210913554 0.04205958033054838 0 -0.036798038255475424 0.042050698069789907 0 -0.037282012210913554 0.04205958033054838 0 -0.037056205057883679 0.041089393367834182 0 -0.04712886317268225 0.033023973624720093 0 -0.047020349652814895 0.033916637873988909 0 -0.048194254447459541 0.033494734441423417 0 -0.042274038410817762 0.035784735210215982 0 -0.040962241994708944 0.038155380381570424 0 -0.037130501222253566 0.041764844227019524 0 -0.036798038255475424 0.042050698069789907 0 -0.037056205057883679 0.041089393367834182 0 -0.04712886317268225 0.033023973624720093 0 -0.047020349652814895 0.033916637873988909 0 -0.044890073850054106 0.034026856033304548 0 -0.047020349652814895 0.033916637873988909 0 -0.044890073850054106 0.034026856033304548 0 -0.04647925809388076 0.03543875506790712 0 -0.044890073850054106 0.034026856033304548 0 -0.04647925809388076 0.03543875506790712 0 -0.040630946600374557 0.037883680912295423 0 -0.037282012210913554 0.04205958033054838 0 -0.037056205057883679 0.041089393367834182 0 -0.038102565889056174 0.040987148735012573 0 -0.037056205057883679 0.041089393367834182 0 -0.038102565889056174 0.040987148735012573 0 -0.038945322071805163 0.039135018533765421 0 -0.040962241994708944 0.038155380381570424 0 -0.040631510828780366 0.038118664860073238 0 -0.038102565889056174 0.040987148735012573 0 -0.038945322071805163 0.039135018533765421 0 -0.038484756992434289 0.040067641123832855 0 -0.038102565889056174 0.040987148735012573 0 -0.038391524620503034 0.041467366920803869 0 -0.038484756992434289 0.040067641123832855 0 -0.037282012210913554 0.04205958033054838 0 -0.038102565889056174 0.040987148735012573 0 -0.037491133696830138 0.04296213538313709 0 -0.038102565889056174 0.040987148735012573 0 -0.037491133696830138 0.04296213538313709 0 -0.037994784311767685 0.042863561346133693 0 -0.037021071822488295 0.043288976796147169 0 -0.037282012210913554 0.04205958033054838 0 -0.037491133696830138 0.04296213538313709 0 -0.038449134559050316 0.04466426193859116 0 -0.037571928743150164 0.044447716459576611 0 -0.037994784311767685 0.042863561346133693 0 -0.037571928743150164 0.044447716459576611 0 -0.037491133696830138 0.04296213538313709 0 -0.037994784311767685 0.042863561346133693 0 -0.038659086969559497 0.042815898649797277 0 -0.037994784311767685 0.042863561346133693 0 -0.038391524620503034 0.041467366920803869 0 -0.038102565889056174 0.040987148735012573 0 -0.037994784311767685 0.042863561346133693 0 -0.038391524620503034 0.041467366920803869 0 -0.038947078767707942 0.041242519533483984 0 -0.038659086969559497 0.042815898649797277 0 -0.038391524620503034 0.041467366920803869 0 -0.038391524620503034 0.041467366920803869 0 -0.038660607393427249 0.040132422370124259 0 -0.038484756992434289 0.040067641123832855 0 -0.038947078767707942 0.041242519533483984 0 -0.038391524620503034 0.041467366920803869 0 -0.038660607393427249 0.040132422370124259 0 -0.039251435233634523 0.039983885194642195 0 -0.038660607393427249 0.040132422370124259 0 -0.038847996905673657 0.03862518827356199 0 -0.038660607393427249 0.040132422370124259 0 -0.038513390771329259 0.039205063599961516 0 -0.038847996905673657 0.03862518827356199 0 -0.038660607393427249 0.040132422370124259 0 -0.038484756992434289 0.040067641123832855 0 -0.038513390771329259 0.039205063599961516 0 -0.038945322071805163 0.039135018533765421 0 -0.038513390771329259 0.039205063599961516 0 -0.039047834898469816 0.03861921609889913 0 -0.038945322071805163 0.039135018533765421 0 -0.038484756992434289 0.040067641123832855 0 -0.038513390771329259 0.039205063599961516 0 -0.039047834898469816 0.03861921609889913 0 -0.038402526618389048 0.038539930551306716 0 -0.03821415555710838 0.038662585506396674 0 -0.038513390771329259 0.039205063599961516 0 -0.039047834898469816 0.03861921609889913 0 -0.038402526618389048 0.038539930551306716 0 -0.038513390771329259 0.039205063599961516 0 -0.038402526618389048 0.038539930551306716 0 -0.038847996905673657 0.03862518827356199 0 -0.038402526618389048 0.038539930551306716 0 -0.038847996905673657 0.03862518827356199 0 -0.038559587627521895 0.037398238781311398 0 -0.039160037444015958 0.036722795794093363 0 -0.038847996905673657 0.03862518827356199 0 -0.038559587627521895 0.037398238781311398 0 -0.039160037444015958 0.036722795794093363 0 -0.038559587627521895 0.037398238781311398 0 -0.038737674800842337 0.035266801029395355 0 -0.038402526618389048 0.038539930551306716 0 -0.038559587627521895 0.037398238781311398 0 -0.03821415555710838 0.038662585506396674 0 -0.038559587627521895 0.037398238781311398 0 -0.03821415555710838 0.038662585506396674 0 -0.038364861024628293 0.036347336417818815 0 -0.03821415555710838 0.038662585506396674 0 -0.03777824568160635 0.036741983107358656 0 -0.038364861024628293 0.036347336417818815 0 -0.03848792825867093 0.034560483616804825 0 -0.039416402684124011 0.032953563109480923 0 -0.038642326531124926 0.034200178073807305 0 -0.03777824568160635 0.036741983107358656 0 -0.037933573398887845 0.035992395703990904 0 -0.038364861024628293 0.036347336417818815 0 -0.038534077942054684 0.034589896488790711 0 -0.038808633431751734 0.034675666062631436 0 -0.037933573398887845 0.035992395703990904 0 -0.03848792825867093 0.034560483616804825 0 -0.03723383263850838 0.036422238819624961 0 -0.03777824568160635 0.036741983107358656 0 -0.037933573398887845 0.035992395703990904 0 -0.03723383263850838 0.036422238819624961 0 -0.037933573398887845 0.035992395703990904 0 -0.03848792825867093 0.034560483616804825 0 -0.038364861024628293 0.036347336417818815 0 -0.03848792825867093 0.034560483616804825 0 -0.038737674800842337 0.035266801029395355 0 -0.038364861024628293 0.036347336417818815 0 -0.03848792825867093 0.034560483616804825 0 -0.038737674800842337 0.035266801029395355 0 -0.038639896526498942 0.033993371928419017 0 -0.038737674800842337 0.035266801029395355 0 -0.038639896526498942 0.033993371928419017 0 -0.038761407037892832 0.033509896005042325 0 -0.038559587627521895 0.037398238781311398 0 -0.038737674800842337 0.035266801029395355 0 -0.038364861024628293 0.036347336417818815 0 -0.037318668052072367 0.037048037965397324 0 -0.036882471649352523 0.036907475619586801 0 -0.037988495012679938 0.036397591337416192 0 -0.038062641353596119 0.034682943056665881 0 -0.038808633431751734 0.034675666062631436 0 -0.037318668052072367 0.037048037965397324 0 -0.03723383263850838 0.036422238819624961 0 -0.036882471649352523 0.036907475619586801 0 -0.039939594065769704 0.039244584612326945 0 -0.041852976724877748 0.039559188739199939 0 -0.03777824568160635 0.036741983107358656 0 -0.03723383263850838 0.036422238819624961 0 -0.036882471649352523 0.036907475619586801 0 -0.038439076400943448 0.03879758012955755 0 -0.039939594065769704 0.039244584612326945 0 -0.03821415555710838 0.038662585506396674 0 -0.03777824568160635 0.036741983107358656 0 -0.036882471649352523 0.036907475619586801 0 -0.03821415555710838 0.038662585506396674 0 -0.042387577114189591 0.041668264030877304 0 -0.042116150894470426 0.039089677980974596 0 -0.042387577114189591 0.041668264030877304 0 -0.046127108117845927 0.039943849255044253 0 -0.04727186599355624 0.042587853994802069 0 -0.042387577114189591 0.041668264030877304 0 -0.042116150894470426 0.039089677980974596 0 -0.046127108117845927 0.039943849255044253 0 -0.042116150894470426 0.039089677980974596 0 -0.0468282523065486 0.037705077523539798 0 -0.046127108117845927 0.039943849255044253 0 -0.042116150894470426 0.039089677980974596 0 -0.040630946600374557 0.037883680912295423 0 -0.0468282523065486 0.037705077523539798 0 -0.039047834898469816 0.03861921609889913 0 -0.042116150894470426 0.039089677980974596 0 -0.040630946600374557 0.037883680912295423 0 -0.039047834898469816 0.03861921609889913 0 -0.03821415555710838 0.038662585506396674 0 -0.042116150894470426 0.039089677980974596 0 -0.038945322071805163 0.039135018533765421 0 -0.039047834898469816 0.03861921609889913 0 -0.040630946600374557 0.037883680912295423 0 -0.037056205057883679 0.041089393367834182 0 -0.038945322071805163 0.039135018533765421 0 -0.040630946600374557 0.037883680912295423 0 -0.04647925809388076 0.03543875506790712 0 -0.040630946600374557 0.037883680912295423 0 -0.0468282523065486 0.037705077523539798 0 -0.04647925809388076 0.03543875506790712 0 -0.049206552514961435 0.035929806953188523 0 -0.0468282523065486 0.037705077523539798 0 -0.049206552514961435 0.035929806953188523 0 -0.049871481597975158 0.037089581273832391 0 -0.0468282523065486 0.037705077523539798 0 -0.051501012335318314 0.036275895479088958 0 -0.052461401230817085 0.037514613593217415 0 -0.053444913474264923 0.035958918124677587 0 -0.051501012335318314 0.036275895479088958 0 -0.053444913474264923 0.035958918124677587 0 -0.051505698003888996 0.035242980588866588 0 -0.049206552514961435 0.035929806953188523 0 -0.051501012335318314 0.036275895479088958 0 -0.051505698003888996 0.035242980588866588 0 -0.049206552514961435 0.035929806953188523 0 -0.051501012335318314 0.036275895479088958 0 -0.049871481597975158 0.037089581273832391 0 -0.051501012335318314 0.036275895479088958 0 -0.049871481597975158 0.037089581273832391 0 -0.052461401230817085 0.037514613593217415 0 -0.052461401230817085 0.037514613593217415 0 -0.049235159181042307 0.038565852242028284 0 -0.050717905371336858 0.039504212003307289 0 -0.049871481597975158 0.037089581273832391 0 -0.052461401230817085 0.037514613593217415 0 -0.049235159181042307 0.038565852242028284 0 -0.0468282523065486 0.037705077523539798 0 -0.049235159181042307 0.038565852242028284 0 -0.046127108117845927 0.039943849255044253 0 -0.049871481597975158 0.037089581273832391 0 -0.0468282523065486 0.037705077523539798 0 -0.049235159181042307 0.038565852242028284 0 -0.046127108117845927 0.039943849255044253 0 -0.048728826234297251 0.040301383956468637 0 -0.04727186599355624 0.042587853994802069 0 -0.048728826234297251 0.040301383956468637 0 -0.050193858242419231 0.041134207587746406 0 -0.04727186599355624 0.042587853994802069 0 -0.049235159181042307 0.038565852242028284 0 -0.048728826234297251 0.040301383956468637 0 -0.050717905371336858 0.039504212003307289 0 -0.049235159181042307 0.038565852242028284 0 -0.046127108117845927 0.039943849255044253 0 -0.048728826234297251 0.040301383956468637 0 -0.052461401230817085 0.037514613593217415 0 -0.050717905371336858 0.039504212003307289 0 -0.052521278823775594 0.039891778633892372 0 -0.048728826234297251 0.040301383956468637 0 -0.050717905371336858 0.039504212003307289 0 -0.050193858242419231 0.041134207587746406 0 -0.050717905371336858 0.039504212003307289 0 -0.052521278823775594 0.039891778633892372 0 -0.050193858242419231 0.041134207587746406 0 -0.054256825069597774 0.03584144678140954 0 -0.053502748228842323 0.036769030115229591 0 -0.05594732231756766 0.036095087993876833 0 -0.050193858242419231 0.041134207587746406 0 -0.052185600843988995 0.043385093036469424 0 -0.04727186599355624 0.042587853994802069 0 -0.048643132137070839 0.034923570897886808 0 -0.058026525482179375 0.03497541576127508 0 -0.050696657074487915 0.037346976820595915 0 -0.041852976724877748 0.039559188739199939 0 -0.040133711365934757 0.036663275200849499 0 -0.039549996634182197 0.037258418845608571 0 -0.037988495012679938 0.036397591337416192 0 -0.052521278823775594 0.039891778633892372 0 -0.050193858242419231 0.041134207587746406 0 -0.052185600843988995 0.043385093036469424 0 -0.050696657074487915 0.037346976820595915 0 -0.048643132137070839 0.034923570897886808 0 -0.038062641353596119 0.034682943056665881 0 -0.048643132137070839 0.034923570897886808 0 -0.037318668052072367 0.037048037965397324 0 -0.039549996634182197 0.037258418845608571 0 -0.037988495012679938 0.036397591337416192 0 -0.056403666659532198 0.034702379648650673 0 -0.058026525482179375 0.03497541576127508 0 -0.056183155664647426 0.036191736406972499 0 -0.05703361243018279 0.034566559461123955 0 -0.056205429296486586 0.036265844738976739 0 -0.056183155664647426 0.036191736406972499 0 -0.05703361243018279 0.034566559461123955 0 -0.056775046956458401 0.035340003053188893 0 -0.056183155664647426 0.036191736406972499 0 -0.056205429296486586 0.036265844738976739 0 -0.05594732231756766 0.036095087993876833 0 -0.053502748228842323 0.036769030115229591 0 -0.056205429296486586 0.036265844738976739 0 -0.05594732231756766 0.036095087993876833 0 -0.056183155664647426 0.036191736406972499 0 -0.05594732231756766 0.036095087993876833 0 -0.055352481261744094 0.038013147667750248 0 -0.057130437299791108 0.03646715343785964 0 -0.05594732231756766 0.036095087993876833 0 -0.055352481261744094 0.038013147667750248 0 -0.050696657074487915 0.037346976820595915 0 -0.056491973399380002 0.03705357395655845 0 -0.052521278823775594 0.039891778633892372 0 -0.052185600843988995 0.043385093036469424 0 -0.055352481261744094 0.038013147667750248 0 -0.050696657074487915 0.037346976820595915 0 -0.055719755296297413 0.038340377918517778 0 -0.055352481261744094 0.038013147667750248 0 -0.056148145855549732 0.036440882762465057 0 -0.055102133627444427 0.036564658208687394 0 -0.052461401230817085 0.037514613593217415 0 -0.052521278823775594 0.039891778633892372 0 -0.055352481261744094 0.038013147667750248 0 -0.056148145855549732 0.036440882762465057 0 -0.056312046357815622 0.035874902893569725 0 -0.057046635743553932 0.03514245453195735 0 -0.056183155664647426 0.036191736406972499 0 -0.055352481261744094 0.038013147667750248 0 -0.056148145855549732 0.036440882762465057 0 -0.056183155664647426 0.036191736406972499 0 -0.056148145855549732 0.036440882762465057 0 -0.056775046956458401 0.035340003053188893 0 -0.056312046357815622 0.035874902893569725 0 -0.055102133627444427 0.036564658208687394 0 -0.055705714687814871 0.035644808564709279 0 -0.056148145855549732 0.036440882762465057 0 -0.056312046357815622 0.035874902893569725 0 -0.055102133627444427 0.036564658208687394 0 -0.052461401230817085 0.037514613593217415 0 -0.055102133627444427 0.036564658208687394 0 -0.053444913474264923 0.035958918124677587 0 -0.052461401230817085 0.037514613593217415 0 -0.055352481261744094 0.038013147667750248 0 -0.055102133627444427 0.036564658208687394 0 -0.053444913474264923 0.035958918124677587 0 -0.053960503729562279 0.035238513305642212 0 -0.051505698003888996 0.035242980588866588 0 -0.055102133627444427 0.036564658208687394 0 -0.053444913474264923 0.035958918124677587 0 -0.055705714687814871 0.035644808564709279 0 -0.053444913474264923 0.035958918124677587 0 -0.055705714687814871 0.035644808564709279 0 -0.053960503729562279 0.035238513305642212 0 -0.055705714687814871 0.035644808564709279 0 -0.055394580619010286 0.035114610072521459 0 -0.056828957398599611 0.035293528573584733 0 -0.055705714687814871 0.035644808564709279 0 -0.055394580619010286 0.035114610072521459 0 -0.053960503729562279 0.035238513305642212 0 -0.055394580619010286 0.035114610072521459 0 -0.054141568404336836 0.034826511261988505 0 -0.053960503729562279 0.035238513305642212 0 -0.055394580619010286 0.035114610072521459 0 -0.054320073768002242 0.034446391046588386 0 -0.054141568404336836 0.034826511261988505 0 -0.055394580619010286 0.035114610072521459 0 -0.054320073768002242 0.034446391046588386 0 -0.056647936974752663 0.035196343668694417 0 -0.054320073768002242 0.034446391046588386 0 -0.052823848813216542 0.034586911351659519 0 -0.052186333540378653 0.033877220804158677 0 -0.054320073768002242 0.034446391046588386 0 -0.052823848813216542 0.034586911351659519 0 -0.054141568404336836 0.034826511261988505 0 -0.052823848813216542 0.034586911351659519 0 -0.053960503729562279 0.035238513305642212 0 -0.051505698003888996 0.035242980588866588 0 -0.052823848813216542 0.034586911351659519 0 -0.054141568404336836 0.034826511261988505 0 -0.053960503729562279 0.035238513305642212 0 -0.051505698003888996 0.035242980588866588 0 -0.048909887479712325 0.034539887712935952 0 -0.050942017744569412 0.034177760027536259 0 -0.052823848813216542 0.034586911351659519 0 -0.051505698003888996 0.035242980588866588 0 -0.050942017744569412 0.034177760027536259 0 -0.047020349652814895 0.033916637873988909 0 -0.04647925809388076 0.03543875506790712 0 -0.048909887479712325 0.034539887712935952 0 -0.049206552514961435 0.035929806953188523 0 -0.051505698003888996 0.035242980588866588 0 -0.048909887479712325 0.034539887712935952 0 -0.04647925809388076 0.03543875506790712 0 -0.049206552514961435 0.035929806953188523 0 -0.048909887479712325 0.034539887712935952 0 -0.047020349652814895 0.033916637873988909 0 -0.048909887479712325 0.034539887712935952 0 -0.048194254447459541 0.033494734441423417 0 -0.048909887479712325 0.034539887712935952 0 -0.049571200952896327 0.033676789341784523 0 -0.050942017744569412 0.034177760027536259 0 -0.048909887479712325 0.034539887712935952 0 -0.049571200952896327 0.033676789341784523 0 -0.048194254447459541 0.033494734441423417 0 -0.049571200952896327 0.033676789341784523 0 -0.050472241940761116 0.033464958571383915 0 -0.049224992159897681 0.033232356405234371 0 -0.049571200952896327 0.033676789341784523 0 -0.048194254447459541 0.033494734441423417 0 -0.049224992159897681 0.033232356405234371 0 -0.052823848813216542 0.034586911351659519 0 -0.050942017744569412 0.034177760027536259 0 -0.052186333540378653 0.033877220804158677 0 -0.049571200952896327 0.033676789341784523 0 -0.050942017744569412 0.034177760027536259 0 -0.050472241940761116 0.033464958571383915 0 -0.050942017744569412 0.034177760027536259 0 -0.050472241940761116 0.033464958571383915 0 -0.052186333540378653 0.033877220804158677 0 -0.050472241940761116 0.033464958571383915 0 -0.052186333540378653 0.033877220804158677 0 -0.051356030585940141 0.03324748122361848 0 -0.052186333540378653 0.033877220804158677 0 -0.051356030585940141 0.03324748122361848 0 -0.053025742054291572 0.03335913849805032 0 -0.050472241940761116 0.033464958571383915 0 -0.051356030585940141 0.03324748122361848 0 -0.049917261350886505 0.032824931029128826 0 -0.051356030585940141 0.03324748122361848 0 -0.049917261350886505 0.032824931029128826 0 -0.051299830682951165 0.032629351986853343 0 -0.049917261350886505 0.032824931029128826 0 -0.049986828109828414 0.032049577777951373 0 -0.051299830682951165 0.032629351986853343 0 -0.051356030585940141 0.03324748122361848 0 -0.051299830682951165 0.032629351986853343 0 -0.053025742054291572 0.03335913849805032 0 -0.047787075913996294 0.031643680532557825 0 -0.048397318922294923 0.032856373193325628 0 -0.049073320130687062 0.032285793143725976 0 -0.048194254447459541 0.033494734441423417 0 -0.048397318922294923 0.032856373193325628 0 -0.049224992159897681 0.033232356405234371 0 -0.050472241940761116 0.033464958571383915 0 -0.049224992159897681 0.033232356405234371 0 -0.049917261350886505 0.032824931029128826 0 -0.048397318922294923 0.032856373193325628 0 -0.049224992159897681 0.033232356405234371 0 -0.049917261350886505 0.032824931029128826 0 -0.049917261350886505 0.032824931029128826 0 -0.049073320130687062 0.032285793143725976 0 -0.049986828109828414 0.032049577777951373 0 -0.048397318922294923 0.032856373193325628 0 -0.049917261350886505 0.032824931029128826 0 -0.049073320130687062 0.032285793143725976 0 -0.042275681464801561 0.043151477894498219 0 -0.047496782257886991 0.041445385171260209 0 -0.047787075913996294 0.031643680532557825 0 -0.049073320130687062 0.032285793143725976 0 -0.049986828109828414 0.032049577777951373 0 -0.042315095066455637 0.051251016431540619 0 -0.041144318865466933 0.052126404156593392 0 -0.04335209490808805 0.051879410713111265 0 -0.047787075913996294 0.031643680532557825 0 -0.049986828109828414 0.032049577777951373 0 -0.050641573620051186 0.031286180644405685 0 -0.052076747013300215 0.032375620259088821 0 -0.051299830682951165 0.032629351986853343 0 -0.053025742054291572 0.03335913849805032 0 -0.052076747013300215 0.032375620259088821 0 -0.051299830682951165 0.032629351986853343 0 -0.051068778661403191 0.032098607962177797 0 -0.049986828109828414 0.032049577777951373 0 -0.051068778661403191 0.032098607962177797 0 -0.050641573620051186 0.031286180644405685 0 -0.049986828109828414 0.032049577777951373 0 -0.051299830682951165 0.032629351986853343 0 -0.051068778661403191 0.032098607962177797 0 -0.052076747013300215 0.032375620259088821 0 -0.051068778661403191 0.032098607962177797 0 -0.050641573620051186 0.031286180644405685 0 -0.054145847555162829 0.032461739813430611 0 -0.052076747013300215 0.032375620259088821 0 -0.053025742054291572 0.03335913849805032 0 -0.054145847555162829 0.032461739813430611 0 -0.052076747013300215 0.032375620259088821 0 -0.050641573620051186 0.031286180644405685 0 -0.050404764731464678 0.041761422263152971 0 -0.047496782257886991 0.041445385171260209 0 -0.054145847555162829 0.032461739813430611 0 -0.055733448782594161 0.034406979934921998 0 -0.053025742054291572 0.03335913849805032 0 -0.056913326770004755 0.034750854009360434 0 -0.054145847555162829 0.032461739813430611 0 -0.055733448782594161 0.034406979934921998 0 -0.054320073768002242 0.034446391046588386 0 -0.055733448782594161 0.034406979934921998 0 -0.053025742054291572 0.03335913849805032 0 -0.054320073768002242 0.034446391046588386 0 -0.055733448782594161 0.034406979934921998 0 -0.056647936974752663 0.035196343668694417 0 -0.054320073768002242 0.034446391046588386 0 -0.052186333540378653 0.033877220804158677 0 -0.053025742054291572 0.03335913849805032 0 -0.057731813094999029 0.036112848326009257 0 -0.057484181543281561 0.035723972147270751 0 -0.056647936974752663 0.035196343668694417 0 -0.055733448782594161 0.034406979934921998 0 -0.057731813094999029 0.036112848326009257 0 -0.056647936974752663 0.035196343668694417 0 -0.056913326770004755 0.034750854009360434 0 -0.055733448782594161 0.034406979934921998 0 -0.057731813094999029 0.036112848326009257 0 -0.058211936783648652 0.038221749971290776 0 -0.056913326770004755 0.034750854009360434 0 -0.057731813094999029 0.036112848326009257 0 -0.058211936783648652 0.038221749971290776 0 -0.057731813094999029 0.036112848326009257 0 -0.057659217783638875 0.038046139392785901 0 -0.057659217783638875 0.038046139392785901 0 -0.057759309503454717 0.036147048976468164 0 -0.057274687833205308 0.036512484163364049 0 -0.057731813094999029 0.036112848326009257 0 -0.057659217783638875 0.038046139392785901 0 -0.057759309503454717 0.036147048976468164 0 -0.057731813094999029 0.036112848326009257 0 -0.057759309503454717 0.036147048976468164 0 -0.057484181543281561 0.035723972147270751 0 -0.057759309503454717 0.036147048976468164 0 -0.057572416248334021 0.035429323448552451 0 -0.057484181543281561 0.035723972147270751 0 -0.057759309503454717 0.036147048976468164 0 -0.057762361890504876 0.035200583174325832 0 -0.057274687833205308 0.036512484163364049 0 -0.057762361890504876 0.035200583174325832 0 -0.057447410564743936 0.035162752154991608 0 -0.057274687833205308 0.036512484163364049 0 -0.057759309503454717 0.036147048976468164 0 -0.057762361890504876 0.035200583174325832 0 -0.057572416248334021 0.035429323448552451 0 -0.057762361890504876 0.035200583174325832 0 -0.057572416248334021 0.035429323448552451 0 -0.057604200929398067 0.034987124306061337 0 -0.057572416248334021 0.035429323448552451 0 -0.056828957398599611 0.035293528573584733 0 -0.057604200929398067 0.034987124306061337 0 -0.057572416248334021 0.035429323448552451 0 -0.056647936974752663 0.035196343668694417 0 -0.056828957398599611 0.035293528573584733 0 -0.057572416248334021 0.035429323448552451 0 -0.057484181543281561 0.035723972147270751 0 -0.056647936974752663 0.035196343668694417 0 -0.055394580619010286 0.035114610072521459 0 -0.056647936974752663 0.035196343668694417 0 -0.056828957398599611 0.035293528573584733 0 -0.055705714687814871 0.035644808564709279 0 -0.056828957398599611 0.035293528573584733 0 -0.057018963401846472 0.035289713883245775 0 -0.056828957398599611 0.035293528573584733 0 -0.057604200929398067 0.034987124306061337 0 -0.057018963401846472 0.035289713883245775 0 -0.057604200929398067 0.034987124306061337 0 -0.057018963401846472 0.035289713883245775 0 -0.05774130446348804 0.034289297024418956 0 -0.057018963401846472 0.035289713883245775 0 -0.057046635743553932 0.03514245453195735 0 -0.05774130446348804 0.034289297024418956 0 -0.056312046357815622 0.035874902893569725 0 -0.057018963401846472 0.035289713883245775 0 -0.057046635743553932 0.03514245453195735 0 -0.056312046357815622 0.035874902893569725 0 -0.055705714687814871 0.035644808564709279 0 -0.057018963401846472 0.035289713883245775 0 -0.057046635743553932 0.03514245453195735 0 -0.057252040651960934 0.03417500143850459 0 -0.056775046956458401 0.035340003053188893 0 -0.056148145855549732 0.036440882762465057 0 -0.057046635743553932 0.03514245453195735 0 -0.056775046956458401 0.035340003053188893 0 -0.057046635743553932 0.03514245453195735 0 -0.0577785628196835 0.033428759992486651 0 -0.05774130446348804 0.034289297024418956 0 -0.057046635743553932 0.03514245453195735 0 -0.0577785628196835 0.033428759992486651 0 -0.057252040651960934 0.03417500143850459 0 -0.0577785628196835 0.033428759992486651 0 -0.057252040651960934 0.03417500143850459 0 -0.057551727517687654 0.032767475880038921 0 -0.0577785628196835 0.033428759992486651 0 -0.058190585366617788 0.031883874748983389 0 -0.057551727517687654 0.032767475880038921 0 -0.05703361243018279 0.034566559461123955 0 -0.057252040651960934 0.03417500143850459 0 -0.057551727517687654 0.032767475880038921 0 -0.05703361243018279 0.034566559461123955 0 -0.057252040651960934 0.03417500143850459 0 -0.056775046956458401 0.035340003053188893 0 -0.058240865176397372 0.031200164330454125 0 -0.058037882341235289 0.032781477542982433 0 -0.058190585366617788 0.031883874748983389 0 -0.0577785628196835 0.033428759992486651 0 -0.058037882341235289 0.032781477542982433 0 -0.058190585366617788 0.031883874748983389 0 -0.0577785628196835 0.033428759992486651 0 -0.058037882341235289 0.032781477542982433 0 -0.05774130446348804 0.034289297024418956 0 -0.058037882341235289 0.032781477542982433 0 -0.057864521344409572 0.033595127345186056 0 -0.05774130446348804 0.034289297024418956 0 -0.058240865176397372 0.031200164330454125 0 -0.058037882341235289 0.032781477542982433 0 -0.057597479540690791 0.032316834476083883 0 -0.058037882341235289 0.032781477542982433 0 -0.057864521344409572 0.033595127345186056 0 -0.057597479540690791 0.032316834476083883 0 -0.057864521344409572 0.033595127345186056 0 -0.057797704234158018 0.03445724477801046 0 -0.057608136088356333 0.034064532661756936 0 -0.057864521344409572 0.033595127345186056 0 -0.05774130446348804 0.034289297024418956 0 -0.057797704234158018 0.03445724477801046 0 -0.057604200929398067 0.034987124306061337 0 -0.05774130446348804 0.034289297024418956 0 -0.057797704234158018 0.03445724477801046 0 -0.057762361890504876 0.035200583174325832 0 -0.057604200929398067 0.034987124306061337 0 -0.057797704234158018 0.03445724477801046 0 -0.057762361890504876 0.035200583174325832 0 -0.057797704234158018 0.03445724477801046 0 -0.057608136088356333 0.034064532661756936 0 -0.057762361890504876 0.035200583174325832 0 -0.057608136088356333 0.034064532661756936 0 -0.057447410564743936 0.035162752154991608 0 -0.057608136088356333 0.034064532661756936 0 -0.057011200916973898 0.035198219778520584 0 -0.057447410564743936 0.035162752154991608 0 -0.057608136088356333 0.034064532661756936 0 -0.056645326102072159 0.033626529693771216 0 -0.057011200916973898 0.035198219778520584 0 -0.057597479540690791 0.032316834476083883 0 -0.056224705129269317 0.031577505660257889 0 -0.056645326102072159 0.033626529693771216 0 -0.057608136088356333 0.034064532661756936 0 -0.057597479540690791 0.032316834476083883 0 -0.056645326102072159 0.033626529693771216 0 -0.057864521344409572 0.033595127345186056 0 -0.057608136088356333 0.034064532661756936 0 -0.057597479540690791 0.032316834476083883 0 -0.057597479540690791 0.032316834476083883 0 -0.056648287555358244 0.03008048418119592 0 -0.056224705129269317 0.031577505660257889 0 -0.057597479540690791 0.032316834476083883 0 -0.057598931637958067 0.030532643796259518 0 -0.056648287555358244 0.03008048418119592 0 -0.057598931637958067 0.030532643796259518 0 -0.056648287555358244 0.03008048418119592 0 -0.057210932739200006 0.028211805045130718 0 -0.058240865176397372 0.031200164330454125 0 -0.057598931637958067 0.030532643796259518 0 -0.058178189023516402 0.029514476821465307 0 -0.058240865176397372 0.031200164330454125 0 -0.057597479540690791 0.032316834476083883 0 -0.057598931637958067 0.030532643796259518 0 -0.054999439517071036 0.028600006035075613 0 -0.056648287555358244 0.03008048418119592 0 -0.056064225810430197 0.027667533589984167 0 -0.054999439517071036 0.028600006035075613 0 -0.056648287555358244 0.03008048418119592 0 -0.056224705129269317 0.031577505660257889 0 -0.054999439517071036 0.028600006035075613 0 -0.056224705129269317 0.031577505660257889 0 -0.054999442709634118 0.031578825822926315 0 -0.056224705129269317 0.031577505660257889 0 -0.054999442709634118 0.031578825822926315 0 -0.056645326102072159 0.033626529693771216 0 -0.056645326102072159 0.033626529693771216 0 -0.054999321081817376 0.03455744137307605 0 -0.056044718867322707 0.035266567817109913 0 -0.054999442709634118 0.031578825822926315 0 -0.056645326102072159 0.033626529693771216 0 -0.054999321081817376 0.03455744137307605 0 -0.054999321081817376 0.03455744137307605 0 -0.054999512343819362 0.037536196906692743 0 -0.056044718867322707 0.035266567817109913 0 -0.054999512343819362 0.037536196906692743 0 -0.056601356866331692 0.036625022378595495 0 -0.056044718867322707 0.035266567817109913 0 -0.054999512343819362 0.037536196906692743 0 -0.056601356866331692 0.036625022378595495 0 -0.056072840744622994 0.038637000259214453 0 -0.056645326102072159 0.033626529693771216 0 -0.056044718867322707 0.035266567817109913 0 -0.057011200916973898 0.035198219778520584 0 -0.056601356866331692 0.036625022378595495 0 -0.056044718867322707 0.035266567817109913 0 -0.057011200916973898 0.035198219778520584 0 -0.057011200916973898 0.035198219778520584 0 -0.057447410564743936 0.035162752154991608 0 -0.057274687833205308 0.036512484163364049 0 -0.056601356866331692 0.036625022378595495 0 -0.057011200916973898 0.035198219778520584 0 -0.057274687833205308 0.036512484163364049 0 -0.056601356866331692 0.036625022378595495 0 -0.057274687833205308 0.036512484163364049 0 -0.056708539637524272 0.038167672761155888 0 -0.057659217783638875 0.038046139392785901 0 -0.057274687833205308 0.036512484163364049 0 -0.056720225815002238 0.038221917137208572 0 -0.057274687833205308 0.036512484163364049 0 -0.056708539637524272 0.038167672761155888 0 -0.056720225815002238 0.038221917137208572 0 -0.057659217783638875 0.038046139392785901 0 -0.056720225815002238 0.038221917137208572 0 -0.056143606027852677 0.040966970216721556 0 -0.056720225815002238 0.038221917137208572 0 -0.056143606027852677 0.040966970216721556 0 -0.054780591417785587 0.041185191793494905 0 -0.056708539637524272 0.038167672761155888 0 -0.056720225815002238 0.038221917137208572 0 -0.056993600956791637 0.039534310366195556 0 -0.056763229595604231 0.038565953252844495 0 -0.055934309384633681 0.040318319441623604 0 -0.056277518590309814 0.041489253875814217 0 -0.056993600956791637 0.039534310366195556 0 -0.056072840744622994 0.038637000259214453 0 -0.056277518590309814 0.041489253875814217 0 -0.054999355026372244 0.040514781763655618 0 -0.056072840744622994 0.038637000259214453 0 -0.054999512343819362 0.037536196906692743 0 -0.054999355026372244 0.040514781763655618 0 -0.056072840744622994 0.038637000259214453 0 -0.056708539637524272 0.038167672761155888 0 -0.056993600956791637 0.039534310366195556 0 -0.056072840744622994 0.038637000259214453 0 -0.056601356866331692 0.036625022378595495 0 -0.056708539637524272 0.038167672761155888 0 -0.056072840744622994 0.038637000259214453 0 -0.054999857972034827 0.016681390431761242 0 -0.057583787940554958 0.014833603851743949 0 -0.057810647103529261 0.017286103083473548 0 -0.05500016211660809 0.016681899601233369 0 -0.057541985527936747 0.017632013567798328 0 -0.054999857972034827 0.016681390431761242 0 -0.057583787940554958 0.014833603851743949 0 -0.054999817218502341 0.013593582096601406 0 -0.057583787940554958 0.014833603851743949 0 -0.060093470281292555 0.014955832852853415 0 -0.059309937137152775 0.016812283944277549 0 -0.057583787940554958 0.014833603851743949 0 -0.060093470281292555 0.014955832852853415 0 -0.059055135605153013 0.012338791535928911 0 -0.060093470281292555 0.014955832852853415 0 -0.059309937137152775 0.016812283944277549 0 -0.061021741380203068 0.017663759888838847 0 -0.059971354618362817 0.014918400663315751 0 -0.060997530810311423 0.017467501208499474 0 -0.057583787940554958 0.014833603851743949 0 -0.059309937137152775 0.016812283944277549 0 -0.057810647103529261 0.017286103083473548 0 -0.05893208562102021 0.019427750066374375 0 -0.057791273855407187 0.019649616609115208 0 -0.057224345334796659 0.017993667753537532 0 -0.060274658565129577 0.018373788390854275 0 -0.057541985527936747 0.017632013567798328 0 -0.059309937137152775 0.016812283944277549 0 -0.060345817759326868 0.018417950504364452 0 -0.057810647103529261 0.017286103083473548 0 -0.060345817759326868 0.018417950504364452 0 -0.05893208562102021 0.019427750066374375 0 -0.057224345334796659 0.017993667753537532 0 -0.060345817759326868 0.018417950504364452 0 -0.05893208562102021 0.019427750066374375 0 -0.060593033803787839 0.02018850394246767 0 -0.059309937137152775 0.016812283944277549 0 -0.060345817759326868 0.018417950504364452 0 -0.061021741380203068 0.017663759888838847 0 -0.05893208562102021 0.019427750066374375 0 -0.058842001641713514 0.021058664092637451 0 -0.060593033803787839 0.02018850394246767 0 -0.058842001641713514 0.021058664092637451 0 -0.060029127373560011 0.021539537693830147 0 -0.060593033803787839 0.02018850394246767 0 -0.058842001641713514 0.021058664092637451 0 -0.057791273855407187 0.019649616609115208 0 -0.056692820524532048 0.021048998707892241 0 -0.05893208562102021 0.019427750066374375 0 -0.058842001641713514 0.021058664092637451 0 -0.057791273855407187 0.019649616609115208 0 -0.056692820524532048 0.021048998707892241 0 -0.057224345334796659 0.017993667753537532 0 -0.054999438127149476 0.019661429868567126 0 -0.057791273855407187 0.019649616609115208 0 -0.056692820524532048 0.021048998707892241 0 -0.057224345334796659 0.017993667753537532 0 -0.054999722866745281 0.016682991491991865 0 -0.057224345334796659 0.017993667753537532 0 -0.054999438127149476 0.019661429868567126 0 -0.056692820524532048 0.021048998707892241 0 -0.054999438127149476 0.019661429868567126 0 -0.054999213771785835 0.022641349627406059 0 -0.056692820524532048 0.021048998707892241 0 -0.056516299667015074 0.023144384780992087 0 -0.058040096733634153 0.02366415062873347 0 -0.056692820524532048 0.021048998707892241 0 -0.056516299667015074 0.023144384780992087 0 -0.054999213771785835 0.022641349627406059 0 -0.056516299667015074 0.023144384780992087 0 -0.056459375951777184 0.025236088925011016 0 -0.058040096733634153 0.02366415062873347 0 -0.056516299667015074 0.023144384780992087 0 -0.054999213771785835 0.022641349627406059 0 -0.056459375951777184 0.025236088925011016 0 -0.054999315181223009 0.025620872132984973 0 -0.056459375951777184 0.025236088925011016 0 -0.056064225810430197 0.027667533589984167 0 -0.054999213771785835 0.022641349627406059 0 -0.054999315181223009 0.025620872132984973 0 -0.056459375951777184 0.025236088925011016 0 -0.056459375951777184 0.025236088925011016 0 -0.056064225810430197 0.027667533589984167 0 -0.057210932739200006 0.028211805045130718 0 -0.056648287555358244 0.03008048418119592 0 -0.056064225810430197 0.027667533589984167 0 -0.057210932739200006 0.028211805045130718 0 -0.054999439517071036 0.028600006035075613 0 -0.054999315181223009 0.025620872132984973 0 -0.056064225810430197 0.027667533589984167 0 -0.057598931637958067 0.030532643796259518 0 -0.058178189023516402 0.029514476821465307 0 -0.057210932739200006 0.028211805045130718 0 -0.058178189023516402 0.029514476821465307 0 -0.057210932739200006 0.028211805045130718 0 -0.058107816780267017 0.027057188348725534 0 -0.056459375951777184 0.025236088925011016 0 -0.057210932739200006 0.028211805045130718 0 -0.058107816780267017 0.027057188348725534 0 -0.058178189023516402 0.029514476821465307 0 -0.058107816780267017 0.027057188348725534 0 -0.059259702572425306 0.030202464163778104 0 -0.058107816780267017 0.027057188348725534 0 -0.059454944846753621 0.02535395597759553 0 -0.059259702572425306 0.030202464163778104 0 -0.058107816780267017 0.027057188348725534 0 -0.059454944846753621 0.02535395597759553 0 -0.058040096733634153 0.02366415062873347 0 -0.056459375951777184 0.025236088925011016 0 -0.058107816780267017 0.027057188348725534 0 -0.058040096733634153 0.02366415062873347 0 -0.058842001641713514 0.021058664092637451 0 -0.056692820524532048 0.021048998707892241 0 -0.058040096733634153 0.02366415062873347 0 -0.058842001641713514 0.021058664092637451 0 -0.058040096733634153 0.02366415062873347 0 -0.059390108154993043 0.02282756739370621 0 -0.059454944846753621 0.02535395597759553 0 -0.058040096733634153 0.02366415062873347 0 -0.059390108154993043 0.02282756739370621 0 -0.058842001641713514 0.021058664092637451 0 -0.060029127373560011 0.021539537693830147 0 -0.059390108154993043 0.02282756739370621 0 -0.060029127373560011 0.021539537693830147 0 -0.059390108154993043 0.02282756739370621 0 -0.061154799710376566 0.021894540195911655 0 -0.059454944846753621 0.02535395597759553 0 -0.059390108154993043 0.02282756739370621 0 -0.061174304758180795 0.023687169738985547 0 -0.059390108154993043 0.02282756739370621 0 -0.061154799710376566 0.021894540195911655 0 -0.061174304758180795 0.023687169738985547 0 -0.061154799710376566 0.021894540195911655 0 -0.06283699194358694 0.022857125365008835 0 -0.062830324618104103 0.021088135265314212 0 -0.061154799710376566 0.021894540195911655 0 -0.061174304758180795 0.023687169738985547 0 -0.06283699194358694 0.022857125365008835 0 -0.061174304758180795 0.023687169738985547 0 -0.06283699194358694 0.022857125365008835 0 -0.063337059772291399 0.025458494883655557 0 -0.056987615402164307 0.031750396786308713 0 -0.057329717685161707 0.030813877447492522 0 -0.056753497881741458 0.027126903599523779 0 -0.060123659898965509 0.028370414762743632 0 -0.060944105795979815 0.024542055271918495 0 -0.06283699194358694 0.022857125365008835 0 -0.063337059772291399 0.025458494883655557 0 -0.064997700329755256 0.021893389583295241 0 -0.06283699194358694 0.022857125365008835 0 -0.064997700329755256 0.021893389583295241 0 -0.062830324618104103 0.021088135265314212 0 -0.056987615402164307 0.031750396786308713 0 -0.05727067508473755 0.031731650656973545 0 -0.057329717685161707 0.030813877447492522 0 -0.059454944846753621 0.02535395597759553 0 -0.060900823002131885 0.025914930252163203 0 -0.059259702572425306 0.030202464163778104 0 -0.063337059772291399 0.025458494883655557 0 -0.060900823002131885 0.025914930252163203 0 -0.059259702572425306 0.030202464163778104 0 -0.059454944846753621 0.02535395597759553 0 -0.061174304758180795 0.023687169738985547 0 -0.060900823002131885 0.025914930252163203 0 -0.061174304758180795 0.023687169738985547 0 -0.063337059772291399 0.025458494883655557 0 -0.060900823002131885 0.025914930252163203 0 -0.05727067508473755 0.031731650656973545 0 -0.059259702572425306 0.030202464163778104 0 -0.05735532920316521 0.031964966863200182 0 -0.059259702572425306 0.030202464163778104 0 -0.057900829967257157 0.031714235034270906 0 -0.05735532920316521 0.031964966863200182 0 -0.060123659898965509 0.028370414762743632 0 -0.059397969776004055 0.030025522129069691 0 -0.056987615402164307 0.031750396786308713 0 -0.05727067508473755 0.031731650656973545 0 -0.059259702572425306 0.030202464163778104 0 -0.059259702572425306 0.030202464163778104 0 -0.058190585366617788 0.031883874748983389 0 -0.057900829967257157 0.031714235034270906 0 -0.058190585366617788 0.031883874748983389 0 -0.057900829967257157 0.031714235034270906 0 -0.057551727517687654 0.032767475880038921 0 -0.058240865176397372 0.031200164330454125 0 -0.059259702572425306 0.030202464163778104 0 -0.058190585366617788 0.031883874748983389 0 -0.058240865176397372 0.031200164330454125 0 -0.058178189023516402 0.029514476821465307 0 -0.059259702572425306 0.030202464163778104 0 -0.05703361243018279 0.034566559461123955 0 -0.057551727517687654 0.032767475880038921 0 -0.057410285767104212 0.03310743139142365 0 -0.057551727517687654 0.032767475880038921 0 -0.057486963618893834 0.032521234091728198 0 -0.057410285767104212 0.03310743139142365 0 -0.057900829967257157 0.031714235034270906 0 -0.057551727517687654 0.032767475880038921 0 -0.057486963618893834 0.032521234091728198 0 -0.057900829967257157 0.031714235034270906 0 -0.057486963618893834 0.032521234091728198 0 -0.05735532920316521 0.031964966863200182 0 -0.057486963618893834 0.032521234091728198 0 -0.05735532920316521 0.031964966863200182 0 -0.057737842591412965 0.03218238453630299 0 -0.057486963618893834 0.032521234091728198 0 -0.057410285767104212 0.03310743139142365 0 -0.057737842591412965 0.03218238453630299 0 -0.057410285767104212 0.03310743139142365 0 -0.057737842591412965 0.03218238453630299 0 -0.057608055846803868 0.03307205815497994 0 -0.057737842591412965 0.03218238453630299 0 -0.057554625812983248 0.031613656583753383 0 -0.058051061055297171 0.03106102319266418 0 -0.057737842591412965 0.03218238453630299 0 -0.058051061055297171 0.03106102319266418 0 -0.058792671492099477 0.031345796877085878 0 -0.057554625812983248 0.031613656583753383 0 -0.057329717685161707 0.030813877447492522 0 -0.058051061055297171 0.03106102319266418 0 -0.05727067508473755 0.031731650656973545 0 -0.057554625812983248 0.031613656583753383 0 -0.057329717685161707 0.030813877447492522 0 -0.05727067508473755 0.031731650656973545 0 -0.05735532920316521 0.031964966863200182 0 -0.057554625812983248 0.031613656583753383 0 -0.05735532920316521 0.031964966863200182 0 -0.057737842591412965 0.03218238453630299 0 -0.057554625812983248 0.031613656583753383 0 -0.057298192724129934 0.030726186955879656 0 -0.058999511052370689 0.029878027670337266 0 -0.057329717685161707 0.030813877447492522 0 -0.058860156908783927 0.026718931170903005 0 -0.056753497881741458 0.027126903599523779 0 -0.057329717685161707 0.030813877447492522 0 -0.058860156908783927 0.026718931170903005 0 -0.059914671736548797 0.028697887386840072 0 -0.058860156908783927 0.026718931170903005 0 -0.059914671736548797 0.028697887386840072 0 -0.060645681189135457 0.02531491909327363 0 -0.059914671736548797 0.028697887386840072 0 -0.060645681189135457 0.02531491909327363 0 -0.063722292812302628 0.02728838310029813 0 -0.060645681189135457 0.02531491909327363 0 -0.060511252716049249 0.022832536956196262 0 -0.058499907275605494 0.022671620561852658 0 -0.058860156908783927 0.026718931170903005 0 -0.060645681189135457 0.02531491909327363 0 -0.058499907275605494 0.022671620561852658 0 -0.060511252716049249 0.022832536956196262 0 -0.058499907275605494 0.022671620561852658 0 -0.060083580593092496 0.019865617098006726 0 -0.066350075835477709 0.018920615222777427 0 -0.06400320448915045 0.019288383171586789 0 -0.063829271199607643 0.016992459993441754 0 -0.060944105795979815 0.024542055271918495 0 -0.062793344046947974 0.020723361713322029 0 -0.058860156908783927 0.026718931170903005 0 -0.056753497881741458 0.027126903599523779 0 -0.058499907275605494 0.022671620561852658 0 -0.064997700329755256 0.021893389583295241 0 -0.066350075835477709 0.018920615222777427 0 -0.06400320448915045 0.019288383171586789 0 -0.064997700329755256 0.021893389583295241 0 -0.062830324618104103 0.021088135265314212 0 -0.06400320448915045 0.019288383171586789 0 -0.062830324618104103 0.021088135265314212 0 -0.062086023181183732 0.019563576440416876 0 -0.06400320448915045 0.019288383171586789 0 -0.060029127373560011 0.021539537693830147 0 -0.061154799710376566 0.021894540195911655 0 -0.060593033803787839 0.02018850394246767 0 -0.061154799710376566 0.021894540195911655 0 -0.061654388990912599 0.020673760658163683 0 -0.060593033803787839 0.02018850394246767 0 -0.061154799710376566 0.021894540195911655 0 -0.062830324618104103 0.021088135265314212 0 -0.061654388990912599 0.020673760658163683 0 -0.062830324618104103 0.021088135265314212 0 -0.061654388990912599 0.020673760658163683 0 -0.062086023181183732 0.019563576440416876 0 -0.061654388990912599 0.020673760658163683 0 -0.060593033803787839 0.02018850394246767 0 -0.062086023181183732 0.019563576440416876 0 -0.060345817759326868 0.018417950504364452 0 -0.060593033803787839 0.02018850394246767 0 -0.061329429208962734 0.018754647938057933 0 -0.060593033803787839 0.02018850394246767 0 -0.061329429208962734 0.018754647938057933 0 -0.062086023181183732 0.019563576440416876 0 -0.061329429208962734 0.018754647938057933 0 -0.062086023181183732 0.019563576440416876 0 -0.062516296318321049 0.017970615967252773 0 -0.061329429208962734 0.018754647938057933 0 -0.062516296318321049 0.017970615967252773 0 -0.061021741380203068 0.017663759888838847 0 -0.060345817759326868 0.018417950504364452 0 -0.061329429208962734 0.018754647938057933 0 -0.061021741380203068 0.017663759888838847 0 -0.062516296318321049 0.017970615967252773 0 -0.06400320448915045 0.019288383171586789 0 -0.063829271199607643 0.016992459993441754 0 -0.062086023181183732 0.019563576440416876 0 -0.062516296318321049 0.017970615967252773 0 -0.06400320448915045 0.019288383171586789 0 -0.062516296318321049 0.017970615967252773 0 -0.063829271199607643 0.016992459993441754 0 -0.061862579005719461 0.016494866488453573 0 -0.063829271199607643 0.016992459993441754 0 -0.064102360661016058 0.014825575958631628 0 -0.065699452267235503 0.016229998151906014 0 -0.059830925930781022 0.014788560327582615 0 -0.061021741380203068 0.017663759888838847 0 -0.061862579005719461 0.016494866488453573 0 -0.063829271199607643 0.016992459993441754 0 -0.061862579005719461 0.016494866488453573 0 -0.062249720825555972 0.01509955869729899 0 -0.062516296318321049 0.017970615967252773 0 -0.061021741380203068 0.017663759888838847 0 -0.061862579005719461 0.016494866488453573 0 -0.062249720825555972 0.01509955869729899 0 -0.062861312209147258 0.013545850793727761 0 -0.061194345623090118 0.013220754580017436 0 -0.059830925930781022 0.014788560327582615 0 -0.061862579005719461 0.016494866488453573 0 -0.062249720825555972 0.01509955869729899 0 -0.059830925930781022 0.014788560327582615 0 -0.062249720825555972 0.01509955869729899 0 -0.061194345623090118 0.013220754580017436 0 -0.063829271199607643 0.016992459993441754 0 -0.062249720825555972 0.01509955869729899 0 -0.064102360661016058 0.014825575958631628 0 -0.062249720825555972 0.01509955869729899 0 -0.064102360661016058 0.014825575958631628 0 -0.062861312209147258 0.013545850793727761 0 -0.064102360661016058 0.014825575958631628 0 -0.065967860187001084 0.014303672103192737 0 -0.065699452267235503 0.016229998151906014 0 -0.064102360661016058 0.014825575958631628 0 -0.065967860187001084 0.014303672103192737 0 -0.064297817792985712 0.012478314577929705 0 -0.065967860187001084 0.014303672103192737 0 -0.067664799251716173 0.016192729316398702 0 -0.065699452267235503 0.016229998151906014 0 -0.056948230344501964 0.015440182350754224 0 -0.058905126508150232 0.017656008347090822 0 -0.060159200926136754 0.015277171124354725 0 -0.060988660955851301 0.017919424993218209 0 -0.059693080336441051 0.015824359921173772 0 -0.061664080554203894 0.014895581480104406 0 -0.060988660955851301 0.017919424993218209 0 -0.062793344046947974 0.020723361713322029 0 -0.060988660955851301 0.017919424993218209 0 -0.066350075835477709 0.018920615222777427 0 -0.067664799251716173 0.016192729316398702 0 -0.065699452267235503 0.016229998151906014 0 -0.066350075835477709 0.018920615222777427 0 -0.063829271199607643 0.016992459993441754 0 -0.065699452267235503 0.016229998151906014 0 -0.061596942737862988 0.018612339496970335 0 -0.063780444691221808 0.020527670132999127 0 -0.061993475512554075 0.02202693800092639 0 -0.063390465229667764 0.018311987174119783 0 -0.064722446523387864 0.016467486066448541 0 -0.065308689483937754 0.018743252941588795 0 -0.063390465229667764 0.018311987174119783 0 -0.065308689483937754 0.018743252941588795 0 -0.063780444691221808 0.020527670132999127 0 -0.063390465229667764 0.018311987174119783 0 -0.061596942737862988 0.018612339496970335 0 -0.063780444691221808 0.020527670132999127 0 -0.060988660955851301 0.017919424993218209 0 -0.061407051150364024 0.022114393065828603 0 -0.058472379864584791 0.018345718472206743 0 -0.061596942737862988 0.018612339496970335 0 -0.061993475512554075 0.02202693800092639 0 -0.061596942737862988 0.018612339496970335 0 -0.060159200926136754 0.015277171124354725 0 -0.062488420189363361 0.015883445562262531 0 -0.058472379864584791 0.018345718472206743 0 -0.061596942737862988 0.018612339496970335 0 -0.060159200926136754 0.015277171124354725 0 -0.063390465229667764 0.018311987174119783 0 -0.061596942737862988 0.018612339496970335 0 -0.062488420189363361 0.015883445562262531 0 -0.063390465229667764 0.018311987174119783 0 -0.062488420189363361 0.015883445562262531 0 -0.064722446523387864 0.016467486066448541 0 -0.062488420189363361 0.015883445562262531 0 -0.064722446523387864 0.016467486066448541 0 -0.063896104082334815 0.014095694612012674 0 -0.064722446523387864 0.016467486066448541 0 -0.06622579956341898 0.014656879136760476 0 -0.063896104082334815 0.014095694612012674 0 -0.064722446523387864 0.016467486066448541 0 -0.066957066373885182 0.017062204749443369 0 -0.06622579956341898 0.014656879136760476 0 -0.064722446523387864 0.016467486066448541 0 -0.066957066373885182 0.017062204749443369 0 -0.065308689483937754 0.018743252941588795 0 -0.068911825435504559 0.015155945973595333 0 -0.066957066373885182 0.017062204749443369 0 -0.069454617532428972 0.018284325630409739 0 -0.068911825435504559 0.015155945973595333 0 -0.066957066373885182 0.017062204749443369 0 -0.06622579956341898 0.014656879136760476 0 -0.066957066373885182 0.017062204749443369 0 -0.06708745478829875 0.01922470906170742 0 -0.069454617532428972 0.018284325630409739 0 -0.06708745478829875 0.01922470906170742 0 -0.067920480499056524 0.021115428672116621 0 -0.069454617532428972 0.018284325630409739 0 -0.066957066373885182 0.017062204749443369 0 -0.06708745478829875 0.01922470906170742 0 -0.065308689483937754 0.018743252941588795 0 -0.06708745478829875 0.01922470906170742 0 -0.065308689483937754 0.018743252941588795 0 -0.065796325512813197 0.020794226610143827 0 -0.065308689483937754 0.018743252941588795 0 -0.065796325512813197 0.020794226610143827 0 -0.063780444691221808 0.020527670132999127 0 -0.065796325512813197 0.020794226610143827 0 -0.066289702540142409 0.02234475840870814 0 -0.067920480499056524 0.021115428672116621 0 -0.065796325512813197 0.020794226610143827 0 -0.066289702540142409 0.02234475840870814 0 -0.064383334108439758 0.02238237506613178 0 -0.066289702540142409 0.02234475840870814 0 -0.067920480499056524 0.021115428672116621 0 -0.067363307094205585 0.023367769149002598 0 -0.06708745478829875 0.01922470906170742 0 -0.065796325512813197 0.020794226610143827 0 -0.067920480499056524 0.021115428672116621 0 -0.067363307094205585 0.023367769149002598 0 -0.068353751561275933 0.024153345261306299 0 -0.066026560447274632 0.023835791265477909 0 -0.067920480499056524 0.021115428672116621 0 -0.067363307094205585 0.023367769149002598 0 -0.068910989519264484 0.022504700389569258 0 -0.063523802286251263 0.029722874364878114 0 -0.064038796846471069 0.026567424856219126 0 -0.067363307094205585 0.023367769149002598 0 -0.068353751561275933 0.024153345261306299 0 -0.068910989519264484 0.022504700389569258 0 -0.066289702540142409 0.02234475840870814 0 -0.065976491905175738 0.023980221728444526 0 -0.064383334108439758 0.02238237506613178 0 -0.066289702540142409 0.02234475840870814 0 -0.067363307094205585 0.023367769149002598 0 -0.065976491905175738 0.023980221728444526 0 -0.067625435778925991 0.023982592683870079 0 -0.064038796846471069 0.026567424856219126 0 -0.064038796846471069 0.026567424856219126 0 -0.061941788323796682 0.029960285325237573 0 -0.065530089400728339 0.024794593451566555 0 -0.062283510367786087 0.024130925514762838 0 -0.063844941657237433 0.025301947144473022 0 -0.065976491905175738 0.023980221728444526 0 -0.064383334108439758 0.02238237506613178 0 -0.062283510367786087 0.024130925514762838 0 -0.064038796846471069 0.026567424856219126 0 -0.063063221339077963 0.023552044750637605 0 -0.062283510367786087 0.024130925514762838 0 -0.062161368938488656 0.025877627842707033 0 -0.063844941657237433 0.025301947144473022 0 -0.064383334108439758 0.02238237506613178 0 -0.061993475512554075 0.02202693800092639 0 -0.062283510367786087 0.024130925514762838 0 -0.064383334108439758 0.02238237506613178 0 -0.063780444691221808 0.020527670132999127 0 -0.061993475512554075 0.02202693800092639 0 -0.065796325512813197 0.020794226610143827 0 -0.064383334108439758 0.02238237506613178 0 -0.063780444691221808 0.020527670132999127 0 -0.060511252716049249 0.022832536956196262 0 -0.060083580593092496 0.019865617098006726 0 -0.061993475512554075 0.02202693800092639 0 -0.060511252716049249 0.022832536956196262 0 -0.061993475512554075 0.02202693800092639 0 -0.062283510367786087 0.024130925514762838 0 -0.060645681189135457 0.02531491909327363 0 -0.060511252716049249 0.022832536956196262 0 -0.062283510367786087 0.024130925514762838 0 -0.060645681189135457 0.02531491909327363 0 -0.062283510367786087 0.024130925514762838 0 -0.062161368938488656 0.025877627842707033 0 -0.059249542752575074 0.030704790686149935 0 -0.06003341088145929 0.031233787732843927 0 -0.058792671492099477 0.031345796877085878 0 -0.060827661734667762 0.025270293866671362 0 -0.06136454991113606 0.02965355831661062 0 -0.058999511052370689 0.029878027670337266 0 -0.06136454991113606 0.02965355831661062 0 -0.058051061055297171 0.03106102319266418 0 -0.059249542752575074 0.030704790686149935 0 -0.058792671492099477 0.031345796877085878 0 -0.060690249099319152 0.034684478958175009 0 -0.060752763109927992 0.033731539677699936 0 -0.059982267521956435 0.034153477130030578 0 -0.06136454991113606 0.02965355831661062 0 -0.061941788323796682 0.029960285325237573 0 -0.061721680843649845 0.034316412574974746 0 -0.060690249099319152 0.034684478958175009 0 -0.060752763109927992 0.033731539677699936 0 -0.06136454991113606 0.02965355831661062 0 -0.060619605693224103 0.032597165897619879 0 -0.057609683892465319 0.033363741604927923 0 -0.057446765286988166 0.03363759073077182 0 -0.057344276523576078 0.033884393233847301 0 -0.058542425789666397 0.032526805782762305 0 -0.058572950750165088 0.033524356091442845 0 -0.06003341088145929 0.031233787732843927 0 -0.059345663742633975 0.031946716058475662 0 -0.060787495795157208 0.03173764190793088 0 -0.06003341088145929 0.031233787732843927 0 -0.058792671492099477 0.031345796877085878 0 -0.059345663742633975 0.031946716058475662 0 -0.057678772235964341 0.032323212565733603 0 -0.058542425789666397 0.032526805782762305 0 -0.057737842591412965 0.03218238453630299 0 -0.058792671492099477 0.031345796877085878 0 -0.059345663742633975 0.031946716058475662 0 -0.057737842591412965 0.03218238453630299 0 -0.057609683892465319 0.033363741604927923 0 -0.057608055846803868 0.03307205815497994 0 -0.057410285767104212 0.03310743139142365 0 -0.057608055846803868 0.03307205815497994 0 -0.057529225463284824 0.033376313294466532 0 -0.057608055846803868 0.03307205815497994 0 -0.057529225463284824 0.033376313294466532 0 -0.057581045260755415 0.033419945820691563 0 -0.057609683892465319 0.033363741604927923 0 -0.057608055846803868 0.03307205815497994 0 -0.057581045260755415 0.033419945820691563 0 -0.057609683892465319 0.033363741604927923 0 -0.057581045260755415 0.033419945820691563 0 -0.057446765286988166 0.03363759073077182 0 -0.057464484621880418 0.033584747235830922 0 -0.057581045260755415 0.033419945820691563 0 -0.057446765286988166 0.03363759073077182 0 -0.057464484621880418 0.033584747235830922 0 -0.057581045260755415 0.033419945820691563 0 -0.057535428001605819 0.03357510382685485 0 -0.057464484621880418 0.033584747235830922 0 -0.057535428001605819 0.03357510382685485 0 -0.057413885757719114 0.033588081174866488 0 -0.057529225463284824 0.033376313294466532 0 -0.057581045260755415 0.033419945820691563 0 -0.057636716323072601 0.033594677415580872 0 -0.057581045260755415 0.033419945820691563 0 -0.057636716323072601 0.033594677415580872 0 -0.057535428001605819 0.03357510382685485 0 -0.057636716323072601 0.033594677415580872 0 -0.057535428001605819 0.03357510382685485 0 -0.057506358942998145 0.033600431860675149 0 -0.057535428001605819 0.03357510382685485 0 -0.057506358942998145 0.033600431860675149 0 -0.057413885757719114 0.033588081174866488 0 -0.057635266717989971 0.033790744318693916 0 -0.057636716323072601 0.033594677415580872 0 -0.057506358942998145 0.033600431860675149 0 -0.05703361243018279 0.034566559461123955 0 -0.057635266717989971 0.033790744318693916 0 -0.057636716323072601 0.033594677415580872 0 -0.05703361243018279 0.034566559461123955 0 -0.057529225463284824 0.033376313294466532 0 -0.057636716323072601 0.033594677415580872 0 -0.05703361243018279 0.034566559461123955 0 -0.057410285767104212 0.03310743139142365 0 -0.057529225463284824 0.033376313294466532 0 -0.04156156136985658 0.032346897583502156 0 -0.044287962449030445 0.032254354604330904 0 -0.043033442676490279 0.033548180236469348 0 -0.04156156136985658 0.032346897583502156 0 -0.043033442676490279 0.033548180236469348 0 -0.041434963536390305 0.033583344401370722 0 -0.048643132137070839 0.034923570897886808 0 -0.050339056785130246 0.033187938114353881 0 -0.057291184179236877 0.033397676052252565 0 -0.057368024247050578 0.033547503079185359 0 -0.057239475516321837 0.033565592025409409 0 -0.057291184179236877 0.033397676052252565 0 -0.057635266717989971 0.033790744318693916 0 -0.057506358942998145 0.033600431860675149 0 -0.057291184179236877 0.033397676052252565 0 -0.05692470187619135 0.033592633967327472 0 -0.057239475516321837 0.033565592025409409 0 -0.057291184179236877 0.033397676052252565 0 -0.057506358942998145 0.033600431860675149 0 -0.057368024247050578 0.033547503079185359 0 -0.057413885757719114 0.033588081174866488 0 -0.057239475516321837 0.033565592025409409 0 -0.057296098503844539 0.033635567069789013 0 -0.057506358942998145 0.033600431860675149 0 -0.057368024247050578 0.033547503079185359 0 -0.057413885757719114 0.033588081174866488 0 -0.057368024247050578 0.033547503079185359 0 -0.057413885757719114 0.033588081174866488 0 -0.057239475516321837 0.033565592025409409 0 -0.05692470187619135 0.033592633967327472 0 -0.057239475516321837 0.033565592025409409 0 -0.057296098503844539 0.033635567069789013 0 -0.05692470187619135 0.033592633967327472 0 -0.057296098503844539 0.033635567069789013 0 -0.057137945959815785 0.033749063330390489 0 -0.057464484621880418 0.033584747235830922 0 -0.057296098503844539 0.033635567069789013 0 -0.057446765286988166 0.03363759073077182 0 -0.057464484621880418 0.033584747235830922 0 -0.057413885757719114 0.033588081174866488 0 -0.057296098503844539 0.033635567069789013 0 -0.057446765286988166 0.03363759073077182 0 -0.057137945959815785 0.033749063330390489 0 -0.057344276523576078 0.033884393233847301 0 -0.057296098503844539 0.033635567069789013 0 -0.057446765286988166 0.03363759073077182 0 -0.057137945959815785 0.033749063330390489 0 -0.057137945959815785 0.033749063330390489 0 -0.057344276523576078 0.033884393233847301 0 -0.056581868883871754 0.033895357680691546 0 -0.05692470187619135 0.033592633967327472 0 -0.057137945959815785 0.033749063330390489 0 -0.056581868883871754 0.033895357680691546 0 -0.050339056785130246 0.033187938114353881 0 -0.048843018702408258 0.034330613464826958 0 -0.043033442676490279 0.033548180236469348 0 -0.041872684486740058 0.034767136819405665 0 -0.041434963536390305 0.033583344401370722 0 -0.056209308733523998 0.033656759273180174 0 -0.058572950750165088 0.033524356091442845 0 -0.054880955534410691 0.033833289756071076 0 -0.053275773530704437 0.03406125210165712 0 -0.055367661267494962 0.035523689391274288 0 -0.058327326323904249 0.033326776120141767 0 -0.059752154955537665 0.033108641976120949 0 -0.05906140629348583 0.034160108113778953 0 -0.058572950750165088 0.033524356091442845 0 -0.048843018702408258 0.034330613464826958 0 -0.060619605693224103 0.032597165897619879 0 -0.058572950750165088 0.033524356091442845 0 -0.060752763109927992 0.033731539677699936 0 -0.059752154955537665 0.033108641976120949 0 -0.059982267521956435 0.034153477130030578 0 -0.059752154955537665 0.033108641976120949 0 -0.059982267521956435 0.034153477130030578 0 -0.05906140629348583 0.034160108113778953 0 -0.059636071869858358 0.035058706560754903 0 -0.059982267521956435 0.034153477130030578 0 -0.05906140629348583 0.034160108113778953 0 -0.059636071869858358 0.035058706560754903 0 -0.060690249099319152 0.034684478958175009 0 -0.059982267521956435 0.034153477130030578 0 -0.058219051053129224 0.034876925119139097 0 -0.059636071869858358 0.035058706560754903 0 -0.05906140629348583 0.034160108113778953 0 -0.058327326323904249 0.033326776120141767 0 -0.058279548930326691 0.034146401068106715 0 -0.057493912509200433 0.034168355620684508 0 -0.058327326323904249 0.033326776120141767 0 -0.058279548930326691 0.034146401068106715 0 -0.05906140629348583 0.034160108113778953 0 -0.058219051053129224 0.034876925119139097 0 -0.058279548930326691 0.034146401068106715 0 -0.057493912509200433 0.034168355620684508 0 -0.058219051053129224 0.034876925119139097 0 -0.058279548930326691 0.034146401068106715 0 -0.05906140629348583 0.034160108113778953 0 -0.058219051053129224 0.034876925119139097 0 -0.05709976013241206 0.034608318011302437 0 -0.057493912509200433 0.034168355620684508 0 -0.063523802286251263 0.029722874364878114 0 -0.062286409195426502 0.026483044470015045 0 -0.058327326323904249 0.033326776120141767 0 -0.057493912509200433 0.034168355620684508 0 -0.056606071507831729 0.033765748787574934 0 -0.062286409195426502 0.026483044470015045 0 -0.055356739253914912 0.035016501497830164 0 -0.056619131685802418 0.034561647431186164 0 -0.057493912509200433 0.034168355620684508 0 -0.056606071507831729 0.033765748787574934 0 -0.056619131685802418 0.034561647431186164 0 -0.056606071507831729 0.033765748787574934 0 -0.055738444390961241 0.034250965223396136 0 -0.047678013001899708 0.034807331752071388 0 -0.045046105848278284 0.02329243665257406 0 -0.062286409195426502 0.026483044470015045 0 -0.045046105848278284 0.02329243665257406 0 -0.056595002188022762 0.033849042595770019 0 -0.056606071507831729 0.033765748787574934 0 -0.055738444390961241 0.034250965223396136 0 -0.039621223264918917 0.032937207551162327 0 -0.039774963693869861 0.033119475947466934 0 -0.039994830568079245 0.032192490727091211 0 -0.039621223264918917 0.032937207551162327 0 -0.039774963693869861 0.033119475947466934 0 -0.039702253096341837 0.033366217007862443 0 -0.056595002188022762 0.033849042595770019 0 -0.05578326013881342 0.034282097378175995 0 -0.055367661267494962 0.035523689391274288 0 -0.047678013001899708 0.034807331752071388 0 -0.048843018702408258 0.034330613464826958 0 -0.054880955534410691 0.033833289756071076 0 -0.056606071507831729 0.033765748787574934 0 -0.05578326013881342 0.034282097378175995 0 -0.056209308733523998 0.033656759273180174 0 -0.05674504005731984 0.033690630209819855 0 -0.054880955534410691 0.033833289756071076 0 -0.05578326013881342 0.034282097378175995 0 -0.055367661267494962 0.035523689391274288 0 -0.056595002188022762 0.033849042595770019 0 -0.056606071507831729 0.033765748787574934 0 -0.05578326013881342 0.034282097378175995 0 -0.039621223264918917 0.032937207551162327 0 -0.039511078135469724 0.033361021658918348 0 -0.039702253096341837 0.033366217007862443 0 -0.039511078135469724 0.033361021658918348 0 -0.039702253096341837 0.033366217007862443 0 -0.039863557008963955 0.033684439342494987 0 -0.041872684486740058 0.034767136819405665 0 -0.039863557008963955 0.033684439342494987 0 -0.041434963536390305 0.033583344401370722 0 -0.048843018702408258 0.034330613464826958 0 -0.037401971698103317 0.032669008723361252 0 -0.039774963693869861 0.033119475947466934 0 -0.039702253096341837 0.033366217007862443 0 -0.03964405940000159 0.033599794697770295 0 -0.039863557008963955 0.033684439342494987 0 -0.039510882224184585 0.033686515200076504 0 -0.03964405940000159 0.033599794697770295 0 -0.039702253096341837 0.033366217007862443 0 -0.039863557008963955 0.033684439342494987 0 -0.03964405940000159 0.033599794697770295 0 -0.04156156136985658 0.032346897583502156 0 -0.039416402684124011 0.032953563109480923 0 -0.039863557008963955 0.033684439342494987 0 -0.039416402684124011 0.032953563109480923 0 -0.039863557008963955 0.033684439342494987 0 -0.039510882224184585 0.033686515200076504 0 -0.039416402684124011 0.032953563109480923 0 -0.039510882224184585 0.033686515200076504 0 -0.039212597099355991 0.033589066976308007 0 -0.04156156136985658 0.032346897583502156 0 -0.039863557008963955 0.033684439342494987 0 -0.041434963536390305 0.033583344401370722 0 -0.038586040825370822 0.033847990186925227 0 -0.038738209398868503 0.033514626876026493 0 -0.038639896526498942 0.033993371928419017 0 -0.038738209398868503 0.033514626876026493 0 -0.038639896526498942 0.033993371928419017 0 -0.038761407037892832 0.033509896005042325 0 -0.038586040825370822 0.033847990186925227 0 -0.038551487964748513 0.034121395298612064 0 -0.038642326531124926 0.034200178073807305 0 -0.03848792825867093 0.034560483616804825 0 -0.038639896526498942 0.033993371928419017 0 -0.038551487964748513 0.034121395298612064 0 -0.038586040825370822 0.033847990186925227 0 -0.038639896526498942 0.033993371928419017 0 -0.038551487964748513 0.034121395298612064 0 -0.03848792825867093 0.034560483616804825 0 -0.038551487964748513 0.034121395298612064 0 -0.038642326531124926 0.034200178073807305 0 -0.039416402684124011 0.032953563109480923 0 -0.038642326531124926 0.034200178073807305 0 -0.039041548014554985 0.033718684322426938 0 -0.04017431585151679 0.036986049554037496 0 -0.033355037017347537 0.026852435485743974 0 -0.038642326531124926 0.034200178073807305 0 -0.039041548014554985 0.033718684322426938 0 -0.039132346242604817 0.033777811274428325 0 -0.038586040825370822 0.033847990186925227 0 -0.038642326531124926 0.034200178073807305 0 -0.03837196109429903 0.033331766484625741 0 -0.038642326531124926 0.034200178073807305 0 -0.039132346242604817 0.033777811274428325 0 -0.039442859460863344 0.033565611786546518 0 -0.039416402684124011 0.032953563109480923 0 -0.039041548014554985 0.033718684322426938 0 -0.039212597099355991 0.033589066976308007 0 -0.039041548014554985 0.033718684322426938 0 -0.039212597099355991 0.033589066976308007 0 -0.039132346242604817 0.033777811274428325 0 -0.039510882224184585 0.033686515200076504 0 -0.039132346242604817 0.033777811274428325 0 -0.039419585733092025 0.033666481375343761 0 -0.039510882224184585 0.033686515200076504 0 -0.039212597099355991 0.033589066976308007 0 -0.039132346242604817 0.033777811274428325 0 -0.039132346242604817 0.033777811274428325 0 -0.039419585733092025 0.033666481375343761 0 -0.039442859460863344 0.033565611786546518 0 -0.039510882224184585 0.033686515200076504 0 -0.039419585733092025 0.033666481375343761 0 -0.03964405940000159 0.033599794697770295 0 -0.039419585733092025 0.033666481375343761 0 -0.03964405940000159 0.033599794697770295 0 -0.039442859460863344 0.033565611786546518 0 -0.039774963693869861 0.033119475947466934 0 -0.03964405940000159 0.033599794697770295 0 -0.040093002856458518 0.033445455253613428 0 -0.039801825687277886 0.030708286945762765 0 -0.033355037017347537 0.026852435485743974 0 -0.038586040825370822 0.033847990186925227 0 -0.038738209398868503 0.033514626876026493 0 -0.03837196109429903 0.033331766484625741 0 -0.023944300258069467 0.007679957164699768 0 -0.0238036470016358 0.0076604205362257724 0 -0.023661525817669126 0.0075717337436468054 0 -0.038738209398868503 0.033514626876026493 0 -0.03837196109429903 0.033331766484625741 0 -0.038832040192084749 0.03362463013392309 0 -0.033355037017347537 0.026852435485743974 0 -0.031136509306384518 0.020207474581743889 0 -0.0238036470016358 0.0076604205362257724 0 -0.023661525817669126 0.0075717337436468054 0 -0.023602986254121709 0.0076581555440202575 0 -0.033355037017347537 0.026852435485743974 0 -0.031920158528961087 0.019019161769627438 0 -0.023944300258069467 0.007679957164699768 0 -0.0238036470016358 0.0076604205362257724 0 -0.023936911754493681 0.0077151367402581907 0 -0.039774963693869861 0.033119475947466934 0 -0.040132243092932202 0.032835835582762547 0 -0.039994830568079245 0.032192490727091211 0 -0.039774963693869861 0.033119475947466934 0 -0.040093002856458518 0.033445455253613428 0 -0.040132243092932202 0.032835835582762547 0 -0.0238036470016358 0.0076604205362257724 0 -0.023936911754493681 0.0077151367402581907 0 -0.023829112258004544 0.0077045642219093196 0 -0.031920158528961087 0.019019161769627438 0 -0.040084237415941665 0.019792905456407904 0 -0.040132243092932202 0.032835835582762547 0 -0.040097563580439137 0.032198613920502002 0 -0.039994830568079245 0.032192490727091211 0 -0.023936911754493681 0.0077151367402581907 0 -0.024030375145964355 0.0077528718858253911 0 -0.023829112258004544 0.0077045642219093196 0 -0.040084237415941665 0.019792905456407904 0 -0.040724921519521624 0.015364555129000507 0 -0.040724921519521624 0.015364555129000507 0 -0.045046105848278284 0.02329243665257406 0 -0.042751704175100123 0.020442496450508666 0 -0.042670816207101982 0.020012790503941589 0 -0.042350435031721548 0.020373609423075006 0 -0.040084237415941665 0.019792905456407904 0 -0.045046105848278284 0.02329243665257406 0 -0.023829112258004544 0.0077045642219093196 0 -0.023748792738021152 0.0078337355731860105 0 -0.023602986254121709 0.0076581555440202575 0 -0.0238036470016358 0.0076604205362257724 0 -0.023829112258004544 0.0077045642219093196 0 -0.023602986254121709 0.0076581555440202575 0 -0.029112150936855319 0.0059793636999799582 0 -0.029334759059696316 0.008078392908809592 0 -0.036672639875512725 0.0061286536869121482 0 -0.03670525008399006 0.0062830972707359654 0 -0.035844255539359389 0.0064481020395797404 0 -0.038273147557308929 -0.0062266711049620256 0 -0.040388985290923177 -0.0075104242861990054 0 -0.041197372367609425 -0.0048169388142604609 0 -0.036672639875512725 0.0061286536869121482 0 -0.03670525008399006 0.0062830972707359654 0 -0.037073942234261796 0.0061486816444283939 0 -0.036069065327461576 -0.0004902134930520267 0 -0.050045164454611303 0.0091013876614236735 0 -0.024030375145964355 0.0077528718858253911 0 -0.024048563872592143 0.0077691986108785575 0 -0.023748792738021152 0.0078337355731860105 0 -0.037000743759760833 0.0061338343637769828 0 -0.036672639875512725 0.0061286536869121482 0 -0.037073942234261796 0.0061486816444283939 0 -0.05238007688236257 0.0161159935377444 0 -0.052809421742000678 0.015664878356404711 0 -0.052881315236883761 0.018466964969935409 0 -0.040724921519521624 0.015364555129000507 0 -0.029112150936855319 0.0059793636999799582 0 -0.024030375145964355 0.0077528718858253911 0 -0.023829112258004544 0.0077045642219093196 0 -0.023748792738021152 0.0078337355731860105 0 -0.040724921519521624 0.015364555129000507 0 -0.050045164454611303 0.0091013876614236735 0 -0.070829524965992333 0.024524680409065781 0 -0.073203872760383967 0.022647599009822456 0 -0.070411365598753911 0.022916616222024559 0 -0.062286409195426502 0.026483044470015045 0 -0.050045164454611303 0.0091013876614236735 0 -0.073203872760383967 0.022647599009822456 0 -0.070411365598753911 0.022916616222024559 0 -0.070519279706405966 0.020961656047426013 0 -0.055919969499325893 0.016215183338487541 0 -0.052809421742000678 0.015664878356404711 0 -0.052881315236883761 0.018466964969935409 0 -0.068353751561275933 0.024153345261306299 0 -0.070829524965992333 0.024524680409065781 0 -0.070411365598753911 0.022916616222024559 0 -0.070411365598753911 0.022916616222024559 0 -0.068910989519264484 0.022504700389569258 0 -0.070519279706405966 0.020961656047426013 0 -0.068353751561275933 0.024153345261306299 0 -0.070411365598753911 0.022916616222024559 0 -0.068910989519264484 0.022504700389569258 0 -0.067920480499056524 0.021115428672116621 0 -0.068910989519264484 0.022504700389569258 0 -0.070519279706405966 0.020961656047426013 0 -0.067920480499056524 0.021115428672116621 0 -0.070519279706405966 0.020961656047426013 0 -0.069454617532428972 0.018284325630409739 0 -0.073203872760383967 0.022647599009822456 0 -0.070519279706405966 0.020961656047426013 0 -0.072803993815331994 0.01885674150410847 0 -0.050045164454611303 0.0091013876614236735 0 -0.057824067813904464 0.0068162985095917656 0 -0.070519279706405966 0.020961656047426013 0 -0.072803993815331994 0.01885674150410847 0 -0.069454617532428972 0.018284325630409739 0 -0.068911825435504559 0.015155945973595333 0 -0.069454617532428972 0.018284325630409739 0 -0.072370946432697369 0.014787346692457346 0 -0.057824067813904464 0.0068162985095917656 0 -0.057109895494862221 0.0066107401081677919 0 -0.041197372367609425 -0.0048169388142604609 0 -0.039240558248677636 -0.0021715081625427041 0 -0.042153772845965838 -0.001609125129999279 0 -0.072803993815331994 0.01885674150410847 0 -0.069454617532428972 0.018284325630409739 0 -0.072370946432697369 0.014787346692457346 0 -0.03813719932960722 -0.0042861869593109865 0 -0.035822115589719705 -0.002173128942144296 0 -0.035705544342279245 -0.004907875927848299 0 -0.039240558248677636 -0.0021715081625427041 0 -0.03813719932960722 -0.0042861869593109865 0 -0.035822115589719705 -0.002173128942144296 0 -0.038273147557308929 -0.0062266711049620256 0 -0.03813719932960722 -0.0042861869593109865 0 -0.035705544342279245 -0.004907875927848299 0 -0.036069065327461576 -0.0004902134930520267 0 -0.036669210806696044 0.00043508786667194722 0 -0.038273147557308929 -0.0062266711049620256 0 -0.041197372367609425 -0.0048169388142604609 0 -0.03813719932960722 -0.0042861869593109865 0 -0.041197372367609425 -0.0048169388142604609 0 -0.039240558248677636 -0.0021715081625427041 0 -0.03813719932960722 -0.0042861869593109865 0 -0.040324725732581577 0.00037858449918172607 0 -0.037861779360705054 -9.343376607675364e-05 0 -0.03884906756817802 0.0024689667563051144 0 -0.040324725732581577 0.00037858449918172607 0 -0.041013845823940839 0.0023603034306658296 0 -0.03884906756817802 0.0024689667563051144 0 -0.037861779360705054 -9.343376607675364e-05 0 -0.03884906756817802 0.0024689667563051144 0 -0.034755551366921676 0.0010024667445346575 0 -0.039240558248677636 -0.0021715081625427041 0 -0.037861779360705054 -9.343376607675364e-05 0 -0.035822115589719705 -0.002173128942144296 0 -0.039240558248677636 -0.0021715081625427041 0 -0.040324725732581577 0.00037858449918172607 0 -0.037861779360705054 -9.343376607675364e-05 0 -0.039240558248677636 -0.0021715081625427041 0 -0.040324725732581577 0.00037858449918172607 0 -0.042153772845965838 -0.001609125129999279 0 -0.057109895494862221 0.0066107401081677919 0 -0.057777654015906399 0.0059892470442633331 0 -0.040324725732581577 0.00037858449918172607 0 -0.042153772845965838 -0.001609125129999279 0 -0.043054303734431761 0.0015746290147953411 0 -0.068911825435504559 0.015155945973595333 0 -0.072370946432697369 0.014787346692457346 0 -0.070124378974985024 0.012901683108823402 0 -0.072370946432697369 0.014787346692457346 0 -0.070124378974985024 0.012901683108823402 0 -0.071747145613334132 0.010445531997741085 0 -0.070124378974985024 0.012901683108823402 0 -0.071747145613334132 0.010445531997741085 0 -0.068697844714843304 0.010880533582899504 0 -0.071747145613334132 0.010445531997741085 0 -0.069496000551790796 0.0086730406678391467 0 -0.068697844714843304 0.010880533582899504 0 -0.040324725732581577 0.00037858449918172607 0 -0.043054303734431761 0.0015746290147953411 0 -0.041013845823940839 0.0023603034306658296 0 -0.043054303734431761 0.0015746290147953411 0 -0.043941361589994316 0.0044239087825473965 0 -0.04262541562158885 0.0038132283305727334 0 -0.043054303734431761 0.0015746290147953411 0 -0.04262541562158885 0.0038132283305727334 0 -0.041013845823940839 0.0023603034306658296 0 -0.057777654015906399 0.0059892470442633331 0 -0.05436299105657709 0.0057215716730295955 0 -0.071747145613334132 0.010445531997741085 0 -0.069496000551790796 0.0086730406678391467 0 -0.070862978547660854 0.0062136686596972824 0 -0.058016289108136575 0.0029115034923886027 0 -0.058730471452496456 0.0038050980348200434 0 -0.058770427296347523 0.0032455855617917087 0 -0.069225534253536905 0.0067684250619047086 0 -0.070862978547660854 0.0062136686596972824 0 -0.068777135711173179 0.0052553217339026126 0 -0.069496000551790796 0.0086730406678391467 0 -0.069225534253536905 0.0067684250619047086 0 -0.070862978547660854 0.0062136686596972824 0 -0.05436299105657709 0.0057215716730295955 0 -0.064794749367600227 0.0050063001390979727 0 -0.044599098748863648 0.004420214686697419 0 -0.04262541562158885 0.0038132283305727334 0 -0.042307217749390419 0.0059730306917316987 0 -0.04262541562158885 0.0038132283305727334 0 -0.040310410002027869 0.0037496399675963645 0 -0.042307217749390419 0.0059730306917316987 0 -0.05436299105657709 0.0057215716730295955 0 -0.041534468591466991 0.0023385641018774934 0 -0.040310410002027869 0.0037496399675963645 0 -0.039687722575684876 0.0053850805508063541 0 -0.042307217749390419 0.0059730306917316987 0 -0.04262541562158885 0.0038132283305727334 0 -0.040310410002027869 0.0037496399675963645 0 -0.041013845823940839 0.0023603034306658296 0 -0.040310410002027869 0.0037496399675963645 0 -0.041013845823940839 0.0023603034306658296 0 -0.03884906756817802 0.0024689667563051144 0 -0.03884906756817802 0.0024689667563051144 0 -0.037586186426071866 0.004168817581344522 0 -0.035431791468687093 0.0024466280792636084 0 -0.038542750999197996 0.002557038414449383 0 -0.03488224995162198 0.0036141740003640265 0 -0.040310410002027869 0.0037496399675963645 0 -0.03884906756817802 0.0024689667563051144 0 -0.037586186426071866 0.004168817581344522 0 -0.040310410002027869 0.0037496399675963645 0 -0.039687722575684876 0.0053850805508063541 0 -0.037586186426071866 0.004168817581344522 0 -0.039687722575684876 0.0053850805508063541 0 -0.037586186426071866 0.004168817581344522 0 -0.038289315699706006 0.0060251530471341127 0 -0.037586186426071866 0.004168817581344522 0 -0.038289315699706006 0.0060251530471341127 0 -0.036561500415943748 0.0059900344081439396 0 -0.039687722575684876 0.0053850805508063541 0 -0.038289315699706006 0.0060251530471341127 0 -0.039974967289212557 0.0067128790133744991 0 -0.038289315699706006 0.0060251530471341127 0 -0.039974967289212557 0.0067128790133744991 0 -0.03767206640149387 0.0078824122355185752 0 -0.03687056943762685 0.0069401416779744617 0 -0.037205105869412759 0.0069542787720341965 0 -0.036561500415943748 0.0059900344081439396 0 -0.038289315699706006 0.0060251530471341127 0 -0.03767206640149387 0.0078824122355185752 0 -0.036561500415943748 0.0059900344081439396 0 -0.041771473273438227 0.0011034692287142924 0 -0.038480778460778381 0.0058476920572485755 0 -0.039974967289212557 0.0067128790133744991 0 -0.041825668541628398 0.0084008201738676302 0 -0.042307217749390419 0.0059730306917316987 0 -0.039687722575684876 0.0053850805508063541 0 -0.039974967289212557 0.0067128790133744991 0 -0.042307217749390419 0.0059730306917316987 0 -0.039974967289212557 0.0067128790133744991 0 -0.041825668541628398 0.0084008201738676302 0 -0.03767206640149387 0.0078824122355185752 0 -0.053135386940018105 -0.0085527638257956486 0 -0.050358023615448111 -0.0065023705730604363 0 -0.052705809924074434 -0.006353157104591947 0 -0.047419172775250207 -0.00046456038287682257 0 -0.041771473273438227 0.0011034692287142924 0 -0.053135386940018105 -0.0085527638257956486 0 -0.048636068231047748 -0.0088062054843268105 0 -0.050358023615448111 -0.0065023705730604363 0 -0.038517079889247699 0.0086500738964715371 0 -0.036907258278988796 0.0079948770455305594 0 -0.03618602129575426 0.0097192170993609713 0 -0.03687056943762685 0.0069401416779744617 0 -0.037305903047569346 0.0069492008818768276 0 -0.036907258278988796 0.0079948770455305594 0 -0.040130981546931448 0.0016834914510738255 0 -0.041771473273438227 0.0011034692287142924 0 -0.041771473273438227 0.0011034692287142924 0 -0.044549821905708803 0.001243677254457676 0 -0.037305903047569346 0.0069492008818768276 0 -0.038517079889247699 0.0086500738964715371 0 -0.036907258278988796 0.0079948770455305594 0 -0.04594735742384564 0.00020409366502096191 0 -0.034094614752083918 0.0051631805211356501 0 -0.038075641913236459 -0.00044506859278947133 0 -0.036305134114214196 0.00043888090052288624 0 -0.034904607857921072 -0.00050882919019730542 0 -0.038517079889247699 0.0086500738964715371 0 -0.039727552031997786 0.010323818111245126 0 -0.03618602129575426 0.0097192170993609713 0 -0.052705809924074434 -0.006353157104591947 0 -0.052079870670759094 -0.0042402554756384835 0 -0.054937689641205295 -0.0060528402691205074 0 -0.044549821905708803 0.001243677254457676 0 -0.04594735742384564 0.00020409366502096191 0 -0.050358023615448111 -0.0065023705730604363 0 -0.052705809924074434 -0.006353157104591947 0 -0.052079870670759094 -0.0042402554756384835 0 -0.038075641913236459 -0.00044506859278947133 0 -0.037861041673362496 0.00085842804609105507 0 -0.039613204600121965 0.0010110298945213568 0 -0.038075641913236459 -0.00044506859278947133 0 -0.037861041673362496 0.00085842804609105507 0 -0.036305134114214196 0.00043888090052288624 0 -0.04594735742384564 0.00020409366502096191 0 -0.048544854492341319 -0.0016599508461302222 0 -0.037861041673362496 0.00085842804609105507 0 -0.036305134114214196 0.00043888090052288624 0 -0.03659303817513291 0.0015219826178096477 0 -0.036305134114214196 0.00043888090052288624 0 -0.034693873582638909 0.0010813770465409611 0 -0.03659303817513291 0.0015219826178096477 0 -0.057638007446208381 -0.0038583390482330076 0 -0.057792650628950087 -0.0034629420660572531 0 -0.058399654122578686 -0.0030046247338655226 0 -0.058285824912654764 -0.0030611037574497326 0 -0.057701522477090088 -0.0034153557161975276 0 -0.057253895514638296 -0.0041537694416828629 0 -0.057616001268611119 -0.0051398963155608055 0 -0.057701522477090088 -0.0034153557161975276 0 -0.058285824912654764 -0.0030611037574497326 0 -0.058163636503485071 -0.0033606016063865117 0 -0.057701522477090088 -0.0034153557161975276 0 -0.04594735742384564 0.00020409366502096191 0 -0.06038774148352085 -0.0049192905190287564 0 -0.057253895514638296 -0.0041537694416828629 0 -0.057163753706772277 -0.0038412997742387862 0 -0.057701522477090088 -0.0034153557161975276 0 -0.056556759767432789 -0.004146348666680893 0 -0.057253895514638296 -0.0041537694416828629 0 -0.057163753706772277 -0.0038412997742387862 0 -0.056556759767432789 -0.004146348666680893 0 -0.057163753706772277 -0.0038412997742387862 0 -0.057215560629475117 -0.0034600164476536132 0 -0.057163753706772277 -0.0038412997742387862 0 -0.057215560629475117 -0.0034600164476536132 0 -0.057701522477090088 -0.0034153557161975276 0 -0.052079870670759094 -0.0042402554756384835 0 -0.057253895514638296 -0.0041537694416828629 0 -0.054937689641205295 -0.0060528402691205074 0 -0.057253895514638296 -0.0041537694416828629 0 -0.054937689641205295 -0.0060528402691205074 0 -0.056639954040331293 -0.0053208609552800861 0 -0.056639954040331293 -0.0053208609552800861 0 -0.057616001268611119 -0.0051398963155608055 0 -0.057089678522464334 -0.0079661563451783098 0 -0.057253895514638296 -0.0041537694416828629 0 -0.056639954040331293 -0.0053208609552800861 0 -0.057616001268611119 -0.0051398963155608055 0 -0.057638007446208381 -0.0038583390482330076 0 -0.058137687450328102 -0.0028499273363371273 0 -0.057638007446208381 -0.0038583390482330076 0 -0.053154252926149691 0.0022169596870499275 0 -0.054937689641205295 -0.0060528402691205074 0 -0.056639954040331293 -0.0053208609552800861 0 -0.057089678522464334 -0.0079661563451783098 0 -0.047419172775250207 -0.00046456038287682257 0 -0.053154252926149691 0.0022169596870499275 0 -0.053135386940018105 -0.0085527638257956486 0 -0.054937689641205295 -0.0060528402691205074 0 -0.057089678522464334 -0.0079661563451783098 0 -0.053135386940018105 -0.0085527638257956486 0 -0.052705809924074434 -0.006353157104591947 0 -0.054937689641205295 -0.0060528402691205074 0 -0.041825668541628398 0.0084008201738676302 0 -0.046125266593976352 0.0087287358446211383 0 -0.042307217749390419 0.0059730306917316987 0 -0.05436299105657709 0.0057215716730295955 0 -0.053154252926149691 0.0022169596870499275 0 -0.044599098748863648 0.004420214686697419 0 -0.046125266593976352 0.0087287358446211383 0 -0.042307217749390419 0.0059730306917316987 0 -0.058016289108136575 0.0029115034923886027 0 -0.058320178138335968 0.0044098699500460959 0 -0.058730471452496456 0.0038050980348200434 0 -0.058730471452496456 0.0038050980348200434 0 -0.059521804015353737 0.0035859166149645556 0 -0.059043354909392824 0.0044581349438980204 0 -0.06331428521947792 0.0038324177332660389 0 -0.058855017810503223 0.0014247461685376675 0 -0.058730471452496456 0.0038050980348200434 0 -0.059521804015353737 0.0035859166149645556 0 -0.058770427296347523 0.0032455855617917087 0 -0.06331428521947792 0.0038324177332660389 0 -0.064794749367600227 0.0050063001390979727 0 -0.06104985547661463 0.0022588147170493991 0 -0.060568685750843142 0.0017147600170339609 0 -0.060451834649508727 0.0019614815988137873 0 -0.06104985547661463 0.0022588147170493991 0 -0.061270357134140273 0.0017733232358975374 0 -0.060568685750843142 0.0017147600170339609 0 -0.066774131186124991 0.0045814210608461749 0 -0.064528191023341244 0.0034256880183613815 0 -0.066251871475559568 0.0056406553603860678 0 -0.06331428521947792 0.0038324177332660389 0 -0.062903546965059579 0.0028519573231049204 0 -0.058855017810503223 0.0014247461685376675 0 -0.058793388026865789 -0.00016950276979993851 0 -0.05818756575228512 -0.0016514502153112895 0 -0.057593001165966266 -0.002147340300966877 0 -0.0573121321643002 -0.0015926571842757224 0 -0.056853502424460967 -0.0019064352627283601 0 -0.057376109325936564 0.00079694592378461398 0 -0.055566929934962851 0.00067547874003823997 0 -0.057638007446208381 -0.0038583390482330076 0 -0.058855017810503223 0.0014247461685376675 0 -0.058320178138335968 0.0044098699500460959 0 -0.058730471452496456 0.0038050980348200434 0 -0.059043354909392824 0.0044581349438980204 0 -0.053154252926149691 0.0022169596870499275 0 -0.058855017810503223 0.0014247461685376675 0 -0.05818756575228512 -0.0016514502153112895 0 -0.057981436783322488 -0.0025705852364256315 0 -0.057593001165966266 -0.002147340300966877 0 -0.058485816592030677 -0.0025050938268798223 0 -0.05818756575228512 -0.0016514502153112895 0 -0.057981436783322488 -0.0025705852364256315 0 -0.058485816592030677 -0.0025050938268798223 0 -0.057981436783322488 -0.0025705852364256315 0 -0.058285824912654764 -0.0030611037574497326 0 -0.057593001165966266 -0.002147340300966877 0 -0.057573427245555052 -0.0027419201472448696 0 -0.056972426061102262 -0.0021008937862773101 0 -0.057981436783322488 -0.0025705852364256315 0 -0.057593001165966266 -0.002147340300966877 0 -0.057573427245555052 -0.0027419201472448696 0 -0.057573427245555052 -0.0027419201472448696 0 -0.058025484740954827 -0.0031494920712992749 0 -0.057737429056730981 -0.003397711284722394 0 -0.057981436783322488 -0.0025705852364256315 0 -0.057573427245555052 -0.0027419201472448696 0 -0.058025484740954827 -0.0031494920712992749 0 -0.057573427245555052 -0.0027419201472448696 0 -0.057239210945446532 -0.0030147611292639575 0 -0.057737429056730981 -0.003397711284722394 0 -0.058025484740954827 -0.0031494920712992749 0 -0.058285824912654764 -0.0030611037574497326 0 -0.058163636503485071 -0.0033606016063865117 0 -0.057981436783322488 -0.0025705852364256315 0 -0.058025484740954827 -0.0031494920712992749 0 -0.058285824912654764 -0.0030611037574497326 0 -0.056607330090628065 -0.0027702531007548197 0 -0.056462648601968105 -0.0019766467344559582 0 -0.055906224754639529 -0.0016797922172430242 0 -0.056607330090628065 -0.0027702531007548197 0 -0.057239210945446532 -0.0030147611292639575 0 -0.056972426061102262 -0.0021008937862773101 0 -0.057573427245555052 -0.0027419201472448696 0 -0.057239210945446532 -0.0030147611292639575 0 -0.056972426061102262 -0.0021008937862773101 0 -0.057593001165966266 -0.002147340300966877 0 -0.056972426061102262 -0.0021008937862773101 0 -0.0573121321643002 -0.0015926571842757224 0 -0.056462648601968105 -0.0019766467344559582 0 -0.056416248409469773 -0.0014160427874720495 0 -0.055906224754639529 -0.0016797922172430242 0 -0.056607330090628065 -0.0027702531007548197 0 -0.056972426061102262 -0.0021008937862773101 0 -0.056462648601968105 -0.0019766467344559582 0 -0.056972426061102262 -0.0021008937862773101 0 -0.056462648601968105 -0.0019766467344559582 0 -0.056416248409469773 -0.0014160427874720495 0 -0.059565310138570318 0.0010045118666211566 0 -0.058793388026865789 -0.00016950276979993851 0 -0.056972426061102262 -0.0021008937862773101 0 -0.056416248409469773 -0.0014160427874720495 0 -0.0573121321643002 -0.0015926571842757224 0 -0.059565310138570318 0.0010045118666211566 0 -0.062903546965059579 0.0028519573231049204 0 -0.059834607199405088 0.001641267811185465 0 -0.060568685750843142 0.0017147600170339609 0 -0.060451834649508727 0.0019614815988137873 0 -0.064528191023341244 0.0034256880183613815 0 -0.064142621073585648 0.0057697375625194551 0 -0.066251871475559568 0.0056406553603860678 0 -0.064528191023341244 0.0034256880183613815 0 -0.062611745256142076 0.004290123500873275 0 -0.064142621073585648 0.0057697375625194551 0 -0.062481257332308741 0.0023408417821610024 0 -0.062611745256142076 0.004290123500873275 0 -0.061198042137958486 0.0033546413129786489 0 -0.062481257332308741 0.0023408417821610024 0 -0.064528191023341244 0.0034256880183613815 0 -0.062611745256142076 0.004290123500873275 0 -0.062611745256142076 0.004290123500873275 0 -0.062303830045713958 0.0061149988949695377 0 -0.064142621073585648 0.0057697375625194551 0 -0.062611745256142076 0.004290123500873275 0 -0.062303830045713958 0.0061149988949695377 0 -0.061063760322715564 0.0047816463100073814 0 -0.063702645968167687 0.0086595891192834534 0 -0.060921577395833551 0.0089321713811470766 0 -0.062303830045713958 0.0061149988949695377 0 -0.064138718086905355 0.0079097682878147436 0 -0.061907663465087671 0.0078138263726466508 0 -0.064138718086905355 0.0079097682878147436 0 -0.064142621073585648 0.0057697375625194551 0 -0.06529101905111738 0.0071133617721347644 0 -0.062303830045713958 0.0061149988949695377 0 -0.064138718086905355 0.0079097682878147436 0 -0.064142621073585648 0.0057697375625194551 0 -0.064142621073585648 0.0057697375625194551 0 -0.066251871475559568 0.0056406553603860678 0 -0.06529101905111738 0.0071133617721347644 0 -0.06685067559974732 0.004346987529747607 0 -0.066251871475559568 0.0056406553603860678 0 -0.067503127592499615 0.0066407444438212502 0 -0.066251871475559568 0.0056406553603860678 0 -0.067503127592499615 0.0066407444438212502 0 -0.06529101905111738 0.0071133617721347644 0 -0.06331428521947792 0.0038324177332660389 0 -0.065320997948452961 0.0046617686608575399 0 -0.06685067559974732 0.004346987529747607 0 -0.068777135711173179 0.0052553217339026126 0 -0.067503127592499615 0.0066407444438212502 0 -0.069225534253536905 0.0067684250619047086 0 -0.068777135711173179 0.0052553217339026126 0 -0.067503127592499615 0.0066407444438212502 0 -0.069496000551790796 0.0086730406678391467 0 -0.06679534560549813 0.0084868590720571391 0 -0.068697844714843304 0.010880533582899504 0 -0.069496000551790796 0.0086730406678391467 0 -0.067503127592499615 0.0066407444438212502 0 -0.06679534560549813 0.0084868590720571391 0 -0.069496000551790796 0.0086730406678391467 0 -0.069225534253536905 0.0067684250619047086 0 -0.067503127592499615 0.0066407444438212502 0 -0.063702645968167687 0.0086595891192834534 0 -0.066657107212528446 0.0084533009296361237 0 -0.064138718086905355 0.0079097682878147436 0 -0.06679534560549813 0.0084868590720571391 0 -0.06529101905111738 0.0071133617721347644 0 -0.063099378339285389 0.0093881635501906705 0 -0.06679534560549813 0.0084868590720571391 0 -0.065599685676750757 0.011616021680526232 0 -0.067503127592499615 0.0066407444438212502 0 -0.06679534560549813 0.0084868590720571391 0 -0.06529101905111738 0.0071133617721347644 0 -0.06679534560549813 0.0084868590720571391 0 -0.065599685676750757 0.011616021680526232 0 -0.068697844714843304 0.010880533582899504 0 -0.065599685676750757 0.011616021680526232 0 -0.068697844714843304 0.010880533582899504 0 -0.067816189418513848 0.013080859645029863 0 -0.070124378974985024 0.012901683108823402 0 -0.068697844714843304 0.010880533582899504 0 -0.067816189418513848 0.013080859645029863 0 -0.068911825435504559 0.015155945973595333 0 -0.067816189418513848 0.013080859645029863 0 -0.06622579956341898 0.014656879136760476 0 -0.068911825435504559 0.015155945973595333 0 -0.070124378974985024 0.012901683108823402 0 -0.067816189418513848 0.013080859645029863 0 -0.065599685676750757 0.011616021680526232 0 -0.06622579956341898 0.014656879136760476 0 -0.063896104082334815 0.014095694612012674 0 -0.065599685676750757 0.011616021680526232 0 -0.067816189418513848 0.013080859645029863 0 -0.06622579956341898 0.014656879136760476 0 -0.065599685676750757 0.011616021680526232 0 -0.063896104082334815 0.014095694612012674 0 -0.061421473464677599 0.012520264726608566 0 -0.062488420189363361 0.015883445562262531 0 -0.063896104082334815 0.014095694612012674 0 -0.061421473464677599 0.012520264726608566 0 -0.060159200926136754 0.015277171124354725 0 -0.062488420189363361 0.015883445562262531 0 -0.061421473464677599 0.012520264726608566 0 -0.060159200926136754 0.015277171124354725 0 -0.061421473464677599 0.012520264726608566 0 -0.058242849362531032 0.012828946649543482 0 -0.061421473464677599 0.012520264726608566 0 -0.058242849362531032 0.012828946649543482 0 -0.059655077600925289 0.010055182200889008 0 -0.063099378339285389 0.0093881635501906705 0 -0.061421473464677599 0.012520264726608566 0 -0.059655077600925289 0.010055182200889008 0 -0.063099378339285389 0.0093881635501906705 0 -0.065599685676750757 0.011616021680526232 0 -0.061421473464677599 0.012520264726608566 0 -0.056355026280748663 0.010605371070387254 0 -0.058242849362531032 0.012828946649543482 0 -0.055038382125148548 0.013167476924959259 0 -0.057417959584299863 0.0092426714077597071 0 -0.060921577395833551 0.0089321713811470766 0 -0.056355026280748663 0.010605371070387254 0 -0.058242849362531032 0.012828946649543482 0 -0.059655077600925289 0.010055182200889008 0 -0.056948230344501964 0.015440182350754224 0 -0.060159200926136754 0.015277171124354725 0 -0.058242849362531032 0.012828946649543482 0 -0.056948230344501964 0.015440182350754224 0 -0.058242849362531032 0.012828946649543482 0 -0.055038382125148548 0.013167476924959259 0 -0.061664080554203894 0.014895581480104406 0 -0.059647351046524619 0.012857390711578707 0 -0.064102360661016058 0.014825575958631628 0 -0.062861312209147258 0.013545850793727761 0 -0.064297817792985712 0.012478314577929705 0 -0.062861312209147258 0.013545850793727761 0 -0.064297817792985712 0.012478314577929705 0 -0.062505737046012699 0.012155004972666972 0 -0.062861312209147258 0.013545850793727761 0 -0.061194345623090118 0.013220754580017436 0 -0.062505737046012699 0.012155004972666972 0 -0.061194345623090118 0.013220754580017436 0 -0.062505737046012699 0.012155004972666972 0 -0.061614917989226844 0.011605644152438699 0 -0.062380410371362341 0.010808633719401091 0 -0.062702560721684383 0.010770592337785549 0 -0.060909328031652457 0.0094992198319016688 0 -0.062505737046012699 0.012155004972666972 0 -0.061614917989226844 0.011605644152438699 0 -0.062380410371362341 0.010808633719401091 0 -0.062505737046012699 0.012155004972666972 0 -0.062380410371362341 0.010808633719401091 0 -0.062727037511674799 0.010761974962025545 0 -0.059611199550272838 0.010367614196477085 0 -0.058256925183753354 0.010446932061324181 0 -0.062380410371362341 0.010808633719401091 0 -0.060909328031652457 0.0094992198319016688 0 -0.061135548544955398 0.010722335650948081 0 -0.061614917989226844 0.011605644152438699 0 -0.062380410371362341 0.010808633719401091 0 -0.061135548544955398 0.010722335650948081 0 -0.064297817792985712 0.012478314577929705 0 -0.062505737046012699 0.012155004972666972 0 -0.062727037511674799 0.010761974962025545 0 -0.056355026280748663 0.010605371070387254 0 -0.055038382125148548 0.013167476924959259 0 -0.053205765609373755 0.011030420982548817 0 -0.057417959584299863 0.0092426714077597071 0 -0.058256925183753354 0.010446932061324181 0 -0.059647351046524619 0.012857390711578707 0 -0.058256925183753354 0.010446932061324181 0 -0.059684734668002441 0.0079451833869933278 0 -0.057368825304372831 0.008242478381060455 0 -0.058411334558077406 0.0068318152911248453 0 -0.057368825304372831 0.008242478381060455 0 -0.058411334558077406 0.0068318152911248453 0 -0.057108870594074726 0.0064745164548374165 0 -0.058411334558077406 0.0068318152911248453 0 -0.057108870594074726 0.0064745164548374165 0 -0.057968851211035108 0.0052995398683197154 0 -0.057368825304372831 0.008242478381060455 0 -0.057108870594074726 0.0064745164548374165 0 -0.055321880343630642 0.0060286661560493221 0 -0.062702560721684383 0.010770592337785549 0 -0.060792308161741027 0.0085439860020784658 0 -0.060909328031652457 0.0094992198319016688 0 -0.058256925183753354 0.010446932061324181 0 -0.059041534192141636 0.0069898032778366523 0 -0.057108870594074726 0.0064745164548374165 0 -0.056483775851632209 0.0056147494046693688 0 -0.055321880343630642 0.0060286661560493221 0 -0.056483775851632209 0.0056147494046693688 0 -0.056559871208377167 0.0043538127837973398 0 -0.055321880343630642 0.0060286661560493221 0 -0.057108870594074726 0.0064745164548374165 0 -0.056483775851632209 0.0056147494046693688 0 -0.057968851211035108 0.0052995398683197154 0 -0.056483775851632209 0.0056147494046693688 0 -0.057968851211035108 0.0052995398683197154 0 -0.056559871208377167 0.0043538127837973398 0 -0.058411334558077406 0.0068318152911248453 0 -0.057968851211035108 0.0052995398683197154 0 -0.060056265443889513 0.0061179498196652108 0 -0.060056265443889513 0.0061179498196652108 0 -0.061063760322715564 0.0047816463100073814 0 -0.05945532778700504 0.0037450100367839773 0 -0.057968851211035108 0.0052995398683197154 0 -0.060056265443889513 0.0061179498196652108 0 -0.05945532778700504 0.0037450100367839773 0 -0.059684734668002441 0.0079451833869933278 0 -0.058411334558077406 0.0068318152911248453 0 -0.060056265443889513 0.0061179498196652108 0 -0.059684734668002441 0.0079451833869933278 0 -0.060056265443889513 0.0061179498196652108 0 -0.061907663465087671 0.0078138263726466508 0 -0.062303830045713958 0.0061149988949695377 0 -0.060056265443889513 0.0061179498196652108 0 -0.061907663465087671 0.0078138263726466508 0 -0.062303830045713958 0.0061149988949695377 0 -0.060056265443889513 0.0061179498196652108 0 -0.061063760322715564 0.0047816463100073814 0 -0.061063760322715564 0.0047816463100073814 0 -0.061198042137958486 0.0033546413129786489 0 -0.05945532778700504 0.0037450100367839773 0 -0.062611745256142076 0.004290123500873275 0 -0.061063760322715564 0.0047816463100073814 0 -0.061198042137958486 0.0033546413129786489 0 -0.061198042137958486 0.0033546413129786489 0 -0.05945532778700504 0.0037450100367839773 0 -0.060162302569650286 0.0019982992282594246 0 -0.058018025384388501 0.00029871440352172683 0 -0.056845268774878763 0.00033461155922272982 0 -0.05945532778700504 0.0037450100367839773 0 -0.060162302569650286 0.0019982992282594246 0 -0.057864266814919761 0.0014310973033166213 0 -0.056416248409469773 -0.0014160427874720495 0 -0.055958239458232945 -0.0012994883104521539 0 -0.055906224754639529 -0.0016797922172430242 0 -0.059565310138570318 0.0010045118666211566 0 -0.058018025384388501 0.00029871440352172683 0 -0.062481257332308741 0.0023408417821610024 0 -0.061198042137958486 0.0033546413129786489 0 -0.060162302569650286 0.0019982992282594246 0 -0.055958239458232945 -0.0012994883104521539 0 -0.055906224754639529 -0.0016797922172430242 0 -0.056035317501077167 -0.0012617343821488072 0 -0.055958239458232945 -0.0012994883104521539 0 -0.056035317501077167 -0.0012617343821488072 0 -0.05604934246334678 -0.00077249420326677275 0 -0.056035317501077167 -0.0012617343821488072 0 -0.056012793006115086 -0.001223377817071786 0 -0.05610615064449373 -0.0013252127447938853 0 -0.055906224754639529 -0.0016797922172430242 0 -0.056035317501077167 -0.0012617343821488072 0 -0.05610615064449373 -0.0013252127447938853 0 -0.056607330090628065 -0.0027702531007548197 0 -0.055906224754639529 -0.0016797922172430242 0 -0.055202393385265967 -0.0031359812944216411 0 -0.055878050433041664 -0.001689601090812208 0 -0.055647148483649322 -0.0023561182187650889 0 -0.0557404781545629 -0.00063802966491464019 0 -0.056176387164355121 -0.0022000187900575664 0 -0.055789847466274987 -0.00090464162686973914 0 -0.055701795056559936 -0.00079416053350398342 0 -0.055797339186634175 -0.0012695852036012788 0 -0.055789847466274987 -0.00090464162686973914 0 -0.055873300830992782 -0.0010825687619860091 0 -0.055797339186634175 -0.0012695852036012788 0 -0.055789847466274987 -0.00090464162686973914 0 -0.055873300830992782 -0.0010825687619860091 0 -0.055953679897055554 -0.00098576346500814024 0 -0.056035317501077167 -0.0012617343821488072 0 -0.056012793006115086 -0.001223377817071786 0 -0.055953679897055554 -0.00098576346500814024 0 -0.055873300830992782 -0.0010825687619860091 0 -0.056012793006115086 -0.001223377817071786 0 -0.055907203422286729 -0.0013591526787201708 0 -0.055873300830992782 -0.0010825687619860091 0 -0.056012793006115086 -0.001223377817071786 0 -0.055953679897055554 -0.00098576346500814024 0 -0.056035317501077167 -0.0012617343821488072 0 -0.055953679897055554 -0.00098576346500814024 0 -0.05604934246334678 -0.00077249420326677275 0 -0.055953679897055554 -0.00098576346500814024 0 -0.05569453771091426 -0.00058569197217819943 0 -0.05604934246334678 -0.00077249420326677275 0 -0.05569453771091426 -0.00058569197217819943 0 -0.05604934246334678 -0.00077249420326677275 0 -0.055361656793416404 0.00033144300542356313 0 -0.055789847466274987 -0.00090464162686973914 0 -0.055953679897055554 -0.00098576346500814024 0 -0.05569453771091426 -0.00058569197217819943 0 -0.055789847466274987 -0.00090464162686973914 0 -0.05569453771091426 -0.00058569197217819943 0 -0.055701795056559936 -0.00079416053350398342 0 -0.057864266814919761 0.0014310973033166213 0 -0.05775878221298069 0.0034164164269930527 0 -0.056597555255706117 0.0025368399735009603 0 -0.056845268774878763 0.00033461155922272982 0 -0.055352720563383868 0.00030683062319509548 0 -0.057864266814919761 0.0014310973033166213 0 -0.056597555255706117 0.0025368399735009603 0 -0.055361656793416404 0.00033144300542356313 0 -0.057968851211035108 0.0052995398683197154 0 -0.05945532778700504 0.0037450100367839773 0 -0.05775878221298069 0.0034164164269930527 0 -0.05945532778700504 0.0037450100367839773 0 -0.057864266814919761 0.0014310973033166213 0 -0.05775878221298069 0.0034164164269930527 0 -0.057968851211035108 0.0052995398683197154 0 -0.05775878221298069 0.0034164164269930527 0 -0.056559871208377167 0.0043538127837973398 0 -0.056597555255706117 0.0025368399735009603 0 -0.056559871208377167 0.0043538127837973398 0 -0.054927919987784672 0.0032455818028695668 0 -0.05775878221298069 0.0034164164269930527 0 -0.056597555255706117 0.0025368399735009603 0 -0.056559871208377167 0.0043538127837973398 0 -0.058224327764248879 0.0047000318286607367 0 -0.058703619718291196 0.0046228126214177441 0 -0.058827063937020946 0.0059789908257594339 0 -0.058224327764248879 0.0047000318286607367 0 -0.058703619718291196 0.0046228126214177441 0 -0.057999056292406356 0.0038070068913389518 0 -0.059427871527680906 0.0066082472356768446 0 -0.057683085227165164 0.0061605722892966409 0 -0.058356014195073518 0.0074420586362679035 0 -0.05794561008507141 0.0049034293751455734 0 -0.057950988396041785 0.0046585980290720095 0 -0.057705384619138302 0.0043957030255667995 0 -0.059427871527680906 0.0066082472356768446 0 -0.057705384619138302 0.0043957030255667995 0 -0.057683085227165164 0.0061605722892966409 0 -0.0588119909348086 0.0058290612458871205 0 -0.057703719907444183 0.0044628823715470202 0 -0.058224327764248879 0.0047000318286607367 0 -0.05794561008507141 0.0049034293751455734 0 -0.057950988396041785 0.0046585980290720095 0 -0.058224327764248879 0.0047000318286607367 0 -0.057950988396041785 0.0046585980290720095 0 -0.057999056292406356 0.0038070068913389518 0 -0.057960566446123275 0.0044268740050950215 0 -0.058028316933699427 0.0027701449687938351 0 -0.057950988396041785 0.0046585980290720095 0 -0.057999056292406356 0.0038070068913389518 0 -0.057091784308849799 0.0024360151408651994 0 -0.057950988396041785 0.0046585980290720095 0 -0.058198658012869206 0.0040206484120767546 0 -0.059045325132088565 0.0034403378994309667 0 -0.057950988396041785 0.0046585980290720095 0 -0.058198658012869206 0.0040206484120767546 0 -0.057705384619138302 0.0043957030255667995 0 -0.058198658012869206 0.0040206484120767546 0 -0.05801575238281359 0.0033173829298823658 0 -0.057705384619138302 0.0043957030255667995 0 -0.058198658012869206 0.0040206484120767546 0 -0.059045325132088565 0.0034403378994309667 0 -0.05801575238281359 0.0033173829298823658 0 -0.058703619718291196 0.0046228126214177441 0 -0.057999056292406356 0.0038070068913389518 0 -0.058012771491241059 0.0023080507070014807 0 -0.056597555255706117 0.0025368399735009603 0 -0.054927919987784672 0.0032455818028695668 0 -0.055361656793416404 0.00033144300542356313 0 -0.054927919987784672 0.0032455818028695668 0 -0.055361656793416404 0.00033144300542356313 0 -0.054968633853934745 -0.00018380193401625064 0 -0.056623132572424337 0.0036792231585235343 0 -0.056471098561684654 0.0012257757973242384 0 -0.057999056292406356 0.0038070068913389518 0 -0.058012771491241059 0.0023080507070014807 0 -0.057091784308849799 0.0024360151408651994 0 -0.058012771491241059 0.0023080507070014807 0 -0.057091784308849799 0.0024360151408651994 0 -0.055856527595792925 -0.00066785514617902567 0 -0.055495563879058102 -0.00059929868963275049 0 -0.054968633853934745 -0.00018380193401625064 0 -0.055834939802737238 -0.00096059758931871307 0 -0.058028316933699427 0.0027701449687938351 0 -0.057800079237066981 0.000292931092927765 0 -0.056471098561684654 0.0012257757973242384 0 -0.055959434981049744 -0.00070580040793927375 0 -0.055377157505357266 -0.00033216013412436501 0 -0.055495563879058102 -0.00059929868963275049 0 -0.054968633853934745 -0.00018380193401625064 0 -0.05569453771091426 -0.00058569197217819943 0 -0.055361656793416404 0.00033144300542356313 0 -0.055377157505357266 -0.00033216013412436501 0 -0.055361656793416404 0.00033144300542356313 0 -0.055377157505357266 -0.00033216013412436501 0 -0.054968633853934745 -0.00018380193401625064 0 -0.05569453771091426 -0.00058569197217819943 0 -0.055495563879058102 -0.00059929868963275049 0 -0.055701795056559936 -0.00079416053350398342 0 -0.05569453771091426 -0.00058569197217819943 0 -0.055377157505357266 -0.00033216013412436501 0 -0.055495563879058102 -0.00059929868963275049 0 -0.059045325132088565 0.0034403378994309667 0 -0.058933784690837848 0.0020771712958340995 0 -0.059714430313532088 0.001161623571118446 0 -0.059045325132088565 0.0034403378994309667 0 -0.058587853795590901 0.0028884834002878474 0 -0.058933784690837848 0.0020771712958340995 0 -0.05801575238281359 0.0033173829298823658 0 -0.058587853795590901 0.0028884834002878474 0 -0.058388133856741818 0.002217907504950857 0 -0.059045325132088565 0.0034403378994309667 0 -0.05801575238281359 0.0033173829298823658 0 -0.058587853795590901 0.0028884834002878474 0 -0.05801575238281359 0.0033173829298823658 0 -0.058388133856741818 0.002217907504950857 0 -0.057407549485944058 0.0017339487569961712 0 -0.058388133856741818 0.002217907504950857 0 -0.058933784690837848 0.0020771712958340995 0 -0.058650685005394811 0.0013355305027887275 0 -0.058587853795590901 0.0028884834002878474 0 -0.058388133856741818 0.002217907504950857 0 -0.058933784690837848 0.0020771712958340995 0 -0.058933784690837848 0.0020771712958340995 0 -0.059077046321169481 0.0013571943313646121 0 -0.059714430313532088 0.001161623571118446 0 -0.058933784690837848 0.0020771712958340995 0 -0.059077046321169481 0.0013571943313646121 0 -0.058650685005394811 0.0013355305027887275 0 -0.059077046321169481 0.0013571943313646121 0 -0.058650685005394811 0.0013355305027887275 0 -0.059020523535456934 0.00085472982056101099 0 -0.059077046321169481 0.0013571943313646121 0 -0.059020523535456934 0.00085472982056101099 0 -0.059714430313532088 0.001161623571118446 0 -0.058650685005394811 0.0013355305027887275 0 -0.058228161445866129 0.00053060739796865195 0 -0.057407549485944058 0.0017339487569961712 0 -0.058388133856741818 0.002217907504950857 0 -0.058650685005394811 0.0013355305027887275 0 -0.057407549485944058 0.0017339487569961712 0 -0.058650685005394811 0.0013355305027887275 0 -0.058228161445866129 0.00053060739796865195 0 -0.059020523535456934 0.00085472982056101099 0 -0.058228161445866129 0.00053060739796865195 0 -0.059020523535456934 0.00085472982056101099 0 -0.05931062027875067 -3.3986470852078508e-05 0 -0.059020523535456934 0.00085472982056101099 0 -0.059714430313532088 0.001161623571118446 0 -0.05931062027875067 -3.3986470852078508e-05 0 -0.058012771491241059 0.0023080507070014807 0 -0.055834939802737238 -0.00096059758931871307 0 -0.055856527595792925 -0.00066785514617902567 0 -0.055834939802737238 -0.00096059758931871307 0 -0.055998801667742154 -0.0012206382004561946 0 -0.055787784509841544 -0.0009162703372692883 0 -0.055834939802737238 -0.00096059758931871307 0 -0.055856527595792925 -0.00066785514617902567 0 -0.055626714201775132 -0.002223982642857612 0 -0.055998801667742154 -0.0012206382004561946 0 -0.055701795056559936 -0.00079416053350398342 0 -0.056810894092303346 -0.0017926641797831372 0 -0.055834939802737238 -0.00096059758931871307 0 -0.055998801667742154 -0.0012206382004561946 0 -0.056131756680327383 -0.0016070588145299471 0 -0.055495563879058102 -0.00059929868963275049 0 -0.055701795056559936 -0.00079416053350398342 0 -0.055787784509841544 -0.0009162703372692883 0 -0.055998801667742154 -0.0012206382004561946 0 -0.055701795056559936 -0.00079416053350398342 0 -0.055787784509841544 -0.0009162703372692883 0 -0.055495563879058102 -0.00059929868963275049 0 -0.055834939802737238 -0.00096059758931871307 0 -0.055787784509841544 -0.0009162703372692883 0 -0.054999874710594907 0.0012398156084106866 0 -0.056531952824504579 0.00015434619753354806 0 -0.057407549485944058 0.0017339487569961712 0 -0.058228161445866129 0.00053060739796865195 0 -0.056531952824504579 0.00015434619753354806 0 -0.057407549485944058 0.0017339487569961712 0 -0.05801575238281359 0.0033173829298823658 0 -0.057407549485944058 0.0017339487569961712 0 -0.056629084689553126 0.0033341074790633096 0 -0.054999874710594907 0.0012398156084106866 0 -0.057407549485944058 0.0017339487569961712 0 -0.056629084689553126 0.0033341074790633096 0 -0.054999874710594907 0.0012398156084106866 0 -0.056629084689553126 0.0033341074790633096 0 -0.05499983178951131 0.0043280052463987549 0 -0.056629084689553126 0.0033341074790633096 0 -0.05499983178951131 0.0043280052463987549 0 -0.056391634664642483 0.0054035690346362249 0 -0.05801575238281359 0.0033173829298823658 0 -0.056629084689553126 0.0033341074790633096 0 -0.057705384619138302 0.0043957030255667995 0 -0.056629084689553126 0.0033341074790633096 0 -0.057705384619138302 0.0043957030255667995 0 -0.056391634664642483 0.0054035690346362249 0 -0.057705384619138302 0.0043957030255667995 0 -0.057683085227165164 0.0061605722892966409 0 -0.056391634664642483 0.0054035690346362249 0 -0.057683085227165164 0.0061605722892966409 0 -0.056391634664642483 0.0054035690346362249 0 -0.056796986743036952 0.0069655334314012605 0 -0.057683085227165164 0.0061605722892966409 0 -0.056796986743036952 0.0069655334314012605 0 -0.058356014195073518 0.0074420586362679035 0 -0.05499983178951131 0.0043280052463987549 0 -0.056391634664642483 0.0054035690346362249 0 -0.054999818113522413 0.007416526924660472 0 -0.056391634664642483 0.0054035690346362249 0 -0.054999818113522413 0.007416526924660472 0 -0.056796986743036952 0.0069655334314012605 0 -0.054999818113522413 0.007416526924660472 0 -0.056321178910524482 0.0086438435128327381 0 -0.056796986743036952 0.0069655334314012605 0 -0.056321178910524482 0.0086438435128327381 0 -0.057782776558579642 0.0096798398866065026 0 -0.054999833742971391 0.010504951670568224 0 -0.054999818113522413 0.007416526924660472 0 -0.056321178910524482 0.0086438435128327381 0 -0.054999833742971391 0.010504951670568224 0 -0.056321178910524482 0.0086438435128327381 0 -0.057782776558579642 0.0096798398866065026 0 -0.058356014195073518 0.0074420586362679035 0 -0.056321178910524482 0.0086438435128327381 0 -0.056796986743036952 0.0069655334314012605 0 -0.058356014195073518 0.0074420586362679035 0 -0.057782776558579642 0.0096798398866065026 0 -0.058356014195073518 0.0074420586362679035 0 -0.0591431659068819 0.0087070225689464195 0 -0.059427871527680906 0.0066082472356768446 0 -0.058356014195073518 0.0074420586362679035 0 -0.059194574859143458 0.0077243730205785715 0 -0.059427871527680906 0.0066082472356768446 0 -0.059194574859143458 0.0077243730205785715 0 -0.059846286334556811 0.0081335641823728367 0 -0.059194574859143458 0.0077243730205785715 0 -0.059846286334556811 0.0081335641823728367 0 -0.0591431659068819 0.0087070225689464195 0 -0.058356014195073518 0.0074420586362679035 0 -0.059194574859143458 0.0077243730205785715 0 -0.0591431659068819 0.0087070225689464195 0 -0.0588119909348086 0.0058290612458871205 0 -0.059041534192141636 0.0069898032778366523 0 -0.059427871527680906 0.0066082472356768446 0 -0.059846286334556811 0.0081335641823728367 0 -0.060856363082745953 0.0085401257178173168 0 -0.058224327764248879 0.0047000318286607367 0 -0.05794561008507141 0.0049034293751455734 0 -0.058827063937020946 0.0059789908257594339 0 -0.056559871208377167 0.0043538127837973398 0 -0.054927919987784672 0.0032455818028695668 0 -0.055321880343630642 0.0060286661560493221 0 -0.056623132572424337 0.0036792231585235343 0 -0.059041534192141636 0.0069898032778366523 0 -0.059846286334556811 0.0081335641823728367 0 -0.060856363082745953 0.0085401257178173168 0 -0.060112830223107108 0.0092422422766367373 0 -0.060856363082745953 0.0085401257178173168 0 -0.060112830223107108 0.0092422422766367373 0 -0.060909328031652457 0.0094992198319016688 0 -0.059041534192141636 0.0069898032778366523 0 -0.060189077953386273 0.0093590199327920082 0 -0.059846286334556811 0.0081335641823728367 0 -0.060112830223107108 0.0092422422766367373 0 -0.0591431659068819 0.0087070225689464195 0 -0.060112830223107108 0.0092422422766367373 0 -0.060394178189372594 0.010208273422410683 0 -0.05938128959554969 0.010230031233996151 0 -0.060112830223107108 0.0092422422766367373 0 -0.060394178189372594 0.010208273422410683 0 -0.060909328031652457 0.0094992198319016688 0 -0.060394178189372594 0.010208273422410683 0 -0.060909328031652457 0.0094992198319016688 0 -0.061135548544955398 0.010722335650948081 0 -0.057782776558579642 0.0096798398866065026 0 -0.0591431659068819 0.0087070225689464195 0 -0.05938128959554969 0.010230031233996151 0 -0.060112830223107108 0.0092422422766367373 0 -0.0591431659068819 0.0087070225689464195 0 -0.05938128959554969 0.010230031233996151 0 -0.057782776558579642 0.0096798398866065026 0 -0.05938128959554969 0.010230031233996151 0 -0.058754601747140915 0.012111292090345496 0 -0.057832179402743315 0.0098490978529431842 0 -0.058883116026684924 0.012192338097040815 0 -0.05938128959554969 0.010230031233996151 0 -0.060434606966015415 0.011369684114765098 0 -0.058754601747140915 0.012111292090345496 0 -0.060394178189372594 0.010208273422410683 0 -0.061135548544955398 0.010722335650948081 0 -0.060434606966015415 0.011369684114765098 0 -0.060394178189372594 0.010208273422410683 0 -0.05938128959554969 0.010230031233996151 0 -0.060434606966015415 0.011369684114765098 0 -0.061614917989226844 0.011605644152438699 0 -0.061135548544955398 0.010722335650948081 0 -0.060434606966015415 0.011369684114765098 0 -0.061194345623090118 0.013220754580017436 0 -0.060434606966015415 0.011369684114765098 0 -0.058754601747140915 0.012111292090345496 0 -0.061194345623090118 0.013220754580017436 0 -0.061614917989226844 0.011605644152438699 0 -0.060434606966015415 0.011369684114765098 0 -0.059830925930781022 0.014788560327582615 0 -0.061194345623090118 0.013220754580017436 0 -0.058754601747140915 0.012111292090345496 0 -0.059971354618362817 0.014918400663315751 0 -0.058883116026684924 0.012192338097040815 0 -0.057583787940554958 0.014833603851743949 0 -0.059055135605153013 0.012338791535928911 0 -0.056867658957301399 0.01219838546044673 0 -0.056867658957301399 0.01219838546044673 0 -0.054999817218502341 0.013593582096601406 0 -0.054999833742971391 0.010504951670568224 0 -0.057583787940554958 0.014833603851743949 0 -0.056867658957301399 0.01219838546044673 0 -0.054999817218502341 0.013593582096601406 0 -0.057782776558579642 0.0096798398866065026 0 -0.056867658957301399 0.01219838546044673 0 -0.054999833742971391 0.010504951670568224 0 -0.057782776558579642 0.0096798398866065026 0 -0.059055135605153013 0.012338791535928911 0 -0.056867658957301399 0.01219838546044673 0 -0.021957655872784011 0.0069399887886628913 0 -0.018221865616230331 0.006535339933368676 0 -0.018829638888312298 0.0041806017141883438 0 -0.021957655872784011 0.0069399887886628913 0 -0.018221865616230331 0.006535339933368676 0 -0.020603884581094689 0.0087879621541295805 0 -0.025416769992079619 0.010525268375496112 0 -0.025876006517291664 0.011547234230512106 0 -0.018221865616230331 0.006535339933368676 0 -0.016600182775844869 0.0086127800382088879 0 -0.014763503456973684 0.0062383570732835493 0 -0.018221865616230331 0.006535339933368676 0 -0.016112245931769922 0.0045244783221700243 0 -0.014763503456973684 0.0062383570732835493 0 -0.016112245931769922 0.0045244783221700243 0 -0.018829638888312298 0.0041806017141883438 0 -0.016004630693974748 0.00092979189736653884 0 -0.018221865616230331 0.006535339933368676 0 -0.016112245931769922 0.0045244783221700243 0 -0.018829638888312298 0.0041806017141883438 0 -0.016112245931769922 0.0045244783221700243 0 -0.014763503456973684 0.0062383570732835493 0 -0.014144208596962802 0.0046141258678339299 0 -0.016112245931769922 0.0045244783221700243 0 -0.014144208596962802 0.0046141258678339299 0 -0.014211952065481847 0.0029684968811053503 0 -0.031700081299583405 0.018192409137127982 0 -0.028269244236589313 0.018955890374588412 0 -0.030498891494550168 0.021929068975942975 0 -0.029137766225001686 0.014017039976037426 0 -0.031700081299583405 0.018192409137127982 0 -0.028269244236589313 0.018955890374588412 0 -0.028269244236589313 0.018955890374588412 0 -0.025676036106177691 0.019456183199358785 0 -0.026791761731270645 0.020683819193723758 0 -0.028269244236589313 0.018955890374588412 0 -0.025676036106177691 0.019456183199358785 0 -0.025646280900732017 0.01588167029603756 0 -0.025676036106177691 0.019456183199358785 0 -0.025646280900732017 0.01588167029603756 0 -0.023280609419118418 0.017527483090024127 0 -0.025676036106177691 0.019456183199358785 0 -0.023657516990205584 0.021096975092099211 0 -0.023280609419118418 0.017527483090024127 0 -0.025646280900732017 0.01588167029603756 0 -0.02278848055801113 0.013167828971128425 0 -0.023280609419118418 0.017527483090024127 0 -0.025646280900732017 0.01588167029603756 0 -0.024851884570686097 0.012518873473595269 0 -0.02278848055801113 0.013167828971128425 0 -0.029137766225001686 0.014017039976037426 0 -0.025646280900732017 0.01588167029603756 0 -0.024851884570686097 0.012518873473595269 0 -0.029137766225001686 0.014017039976037426 0 -0.028269244236589313 0.018955890374588412 0 -0.025646280900732017 0.01588167029603756 0 -0.021957655872784011 0.0069399887886628913 0 -0.024896023693066077 0.0099213426882584794 0 -0.020603884581094689 0.0087879621541295805 0 -0.025416769992079619 0.010525268375496112 0 -0.025113071337352168 0.010120062324470665 0 -0.029137766225001686 0.014017039976037426 0 -0.024896023693066077 0.0099213426882584794 0 -0.024851884570686097 0.012518873473595269 0 -0.024896023693066077 0.0099213426882584794 0 -0.024851884570686097 0.012518873473595269 0 -0.023617739233104649 0.010047589436193634 0 -0.024851884570686097 0.012518873473595269 0 -0.023617739233104649 0.010047589436193634 0 -0.02278848055801113 0.013167828971128425 0 -0.023617739233104649 0.010047589436193634 0 -0.023723397756239807 0.0086373826003194164 0 -0.022905285530333028 0.0083330386932274677 0 -0.024896023693066077 0.0099213426882584794 0 -0.023617739233104649 0.010047589436193634 0 -0.023723397756239807 0.0086373826003194164 0 -0.024896023693066077 0.0099213426882584794 0 -0.023447057503986839 0.009318429390353121 0 -0.022370615864812746 0.010315089995554052 0 -0.024896023693066077 0.0099213426882584794 0 -0.023723397756239807 0.0086373826003194164 0 -0.023447057503986839 0.009318429390353121 0 -0.023447057503986839 0.009318429390353121 0 -0.023103301031574201 0.0085388877691110424 0 -0.022370615864812746 0.010315089995554052 0 -0.023103301031574201 0.0085388877691110424 0 -0.022370615864812746 0.010315089995554052 0 -0.023893453546726517 0.0083715312719893666 0 -0.022104674894780883 0.010419206691883915 0 -0.02071327015842872 0.01104312175548689 0 -0.024896023693066077 0.0099213426882584794 0 -0.022370615864812746 0.010315089995554052 0 -0.020603884581094689 0.0087879621541295805 0 -0.022370615864812746 0.010315089995554052 0 -0.020603884581094689 0.0087879621541295805 0 -0.018571952058208351 0.010347751757417931 0 -0.020603884581094689 0.0087879621541295805 0 -0.016600182775844869 0.0086127800382088879 0 -0.018571952058208351 0.010347751757417931 0 -0.018221865616230331 0.006535339933368676 0 -0.020603884581094689 0.0087879621541295805 0 -0.016600182775844869 0.0086127800382088879 0 -0.016600182775844869 0.0086127800382088879 0 -0.018571952058208351 0.010347751757417931 0 -0.014909237794589554 0.011237834627578509 0 -0.01798495573734803 0.013544338739735307 0 -0.014909237794589554 0.011237834627578509 0 -0.014437262277446829 0.015221916482945705 0 -0.018571952058208351 0.010347751757417931 0 -0.01798495573734803 0.013544338739735307 0 -0.014909237794589554 0.011237834627578509 0 -0.022370615864812746 0.010315089995554052 0 -0.018571952058208351 0.010347751757417931 0 -0.01798495573734803 0.013544338739735307 0 -0.014909237794589554 0.011237834627578509 0 -0.010471193589626206 0.011613995962974515 0 -0.014437262277446829 0.015221916482945705 0 -0.010471193589626206 0.011613995962974515 0 -0.0086269541868849789 0.014968707757788278 0 -0.014437262277446829 0.015221916482945705 0 -0.010471193589626206 0.011613995962974515 0 -0.012135852987226204 0.0084441487789013274 0 -0.0072076472707921762 0.0086364991109920634 0 -0.016600182775844869 0.0086127800382088879 0 -0.014909237794589554 0.011237834627578509 0 -0.012135852987226204 0.0084441487789013274 0 -0.014909237794589554 0.011237834627578509 0 -0.010471193589626206 0.011613995962974515 0 -0.012135852987226204 0.0084441487789013274 0 -0.0028827536225481806 0.010670800241693678 0 -0.0064409345166401115 0.011987955975616481 0 -0.0036511039346161884 0.014652043869987242 0 -0.0064409345166401115 0.011987955975616481 0 -0.0036511039346161884 0.014652043869987242 0 -0.0086269541868849789 0.014968707757788278 0 -0.010471193589626206 0.011613995962974515 0 -0.0064409345166401115 0.011987955975616481 0 -0.0086269541868849789 0.014968707757788278 0 -0.010471193589626206 0.011613995962974515 0 -0.0064409345166401115 0.011987955975616481 0 -0.0072076472707921762 0.0086364991109920634 0 -0.0028827536225481806 0.010670800241693678 0 -0.0046895413569493141 0.0070344709773806869 0 -0.0072076472707921762 0.0086364991109920634 0 -0.0028827536225481806 0.010670800241693678 0 -0.0064409345166401115 0.011987955975616481 0 -0.0072076472707921762 0.0086364991109920634 0 -0.0046895413569493141 0.0070344709773806869 0 -0.0072076472707921762 0.0086364991109920634 0 -0.0068511322820359599 0.0062796931622005935 0 -0.0072076472707921762 0.0086364991109920634 0 -0.0068511322820359599 0.0062796931622005935 0 -0.0093684032903297403 0.0065039354480999926 0 -0.0082277301298827824 0.0044317658201351124 0 -0.0068511322820359599 0.0062796931622005935 0 -0.0049188207286129841 0.0049771393347625478 0 -0.0082277301298827824 0.0044317658201351124 0 -0.0068511322820359599 0.0062796931622005935 0 -0.0093684032903297403 0.0065039354480999926 0 -0.0022788852225037229 0.0070188686422986745 0 -0.0046895413569493141 0.0070344709773806869 0 -0.0049188207286129841 0.0049771393347625478 0 -0.0022788852225037229 0.0070188686422986745 0 -0.0049188207286129841 0.0049771393347625478 0 -0.0033141166934554695 0.0039430360842510554 0 -0.0046895413569493141 0.0070344709773806869 0 -0.0068511322820359599 0.0062796931622005935 0 -0.0049188207286129841 0.0049771393347625478 0 -0.012135852987226204 0.0084441487789013274 0 -0.014763503456973684 0.0062383570732835493 0 -0.01161045688434484 0.004697896297103551 0 -0.016600182775844869 0.0086127800382088879 0 -0.012135852987226204 0.0084441487789013274 0 -0.014763503456973684 0.0062383570732835493 0 -0.012135852987226204 0.0084441487789013274 0 -0.0093684032903297403 0.0065039354480999926 0 -0.01161045688434484 0.004697896297103551 0 -0.012135852987226204 0.0084441487789013274 0 -0.0072076472707921762 0.0086364991109920634 0 -0.0093684032903297403 0.0065039354480999926 0 -0.0082277301298827824 0.0044317658201351124 0 -0.0093684032903297403 0.0065039354480999926 0 -0.01161045688434484 0.004697896297103551 0 -0.0082277301298827824 0.0044317658201351124 0 -0.01161045688434484 0.004697896297103551 0 -0.010212490932001703 0.0029255832909238664 0 -0.014763503456973684 0.0062383570732835493 0 -0.01161045688434484 0.004697896297103551 0 -0.014144208596962802 0.0046141258678339299 0 -0.01161045688434484 0.004697896297103551 0 -0.014144208596962802 0.0046141258678339299 0 -0.014211952065481847 0.0029684968811053503 0 -0.012363659750372954 0.0017395028564675945 0 -0.010212490932001703 0.0029255832909238664 0 -0.014211952065481847 0.0029684968811053503 0 -0.01161045688434484 0.004697896297103551 0 -0.010212490932001703 0.0029255832909238664 0 -0.014211952065481847 0.0029684968811053503 0 -0.012363659750372954 0.0017395028564675945 0 -0.010212490932001703 0.0029255832909238664 0 -0.0092745438872481444 0.0010654134299363626 0 -0.010212490932001703 0.0029255832909238664 0 -0.0092745438872481444 0.0010654134299363626 0 -0.0058675371202234821 0.0026826989085594376 0 -0.0082277301298827824 0.0044317658201351124 0 -0.010212490932001703 0.0029255832909238664 0 -0.0058675371202234821 0.0026826989085594376 0 -0.0092745438872481444 0.0010654134299363626 0 -0.0061365708867323916 0.00037755290798125466 0 -0.010139134973708051 -0.0015740575997296486 0 -0.012363659750372954 0.0017395028564675945 0 -0.010966231101718489 -0.00021309096996053115 0 -0.012804144666690732 0.00036032123354264321 0 -0.012363659750372954 0.0017395028564675945 0 -0.0092745438872481444 0.0010654134299363626 0 -0.010966231101718489 -0.00021309096996053115 0 -0.0033141166934554695 0.0039430360842510554 0 -0.0058675371202234821 0.0026826989085594376 0 -0.0029915277911421981 0.002341303485308509 0 -0.0049188207286129841 0.0049771393347625478 0 -0.0033141166934554695 0.0039430360842510554 0 -0.0058675371202234821 0.0026826989085594376 0 -0.0082277301298827824 0.0044317658201351124 0 -0.0049188207286129841 0.0049771393347625478 0 -0.0058675371202234821 0.0026826989085594376 0 -0.0092745438872481444 0.0010654134299363626 0 -0.0058675371202234821 0.0026826989085594376 0 -0.0061365708867323916 0.00037755290798125466 0 0.0032218943904103207 0.012290878793329577 0 0.002647025136353399 0.013840093443377851 0 0.0015139594349300551 0.012236178911951062 0 -0.0011303557123712401 0.013104936215656419 0 0.002647025136353399 0.013840093443377851 0 0.0015139594349300551 0.012236178911951062 0 -0.0037857405015019521 0.0057246955064682086 0 -0.0002135042705398476 0.0082044211034513256 0 -0.0058675371202234821 0.0026826989085594376 0 -0.0061365708867323916 0.00037755290798125466 0 -0.0029915277911421981 0.002341303485308509 0 0.0032218943904103207 0.012290878793329577 0 0.0015139594349300551 0.012236178911951062 0 0.0024325231771967046 0.010958898590752639 0 0.0015139594349300551 0.012236178911951062 0 0.00017468337892718419 0.011164501650996706 0 0.0024325231771967046 0.010958898590752639 0 -0.0011303557123712401 0.013104936215656419 0 0.00017468337892718419 0.011164501650996706 0 -0.0020285999360221004 0.011377249576016048 0 -0.0011303557123712401 0.013104936215656419 0 0.0015139594349300551 0.012236178911951062 0 0.00017468337892718419 0.011164501650996706 0 0.0013448231013438628 0.010191533767429308 0 0.00017468337892718419 0.011164501650996706 0 -0.001172113498999364 0.0097625600213734082 0 0.00017468337892718419 0.011164501650996706 0 -0.0020285999360221004 0.011377249576016048 0 -0.001172113498999364 0.0097625600213734082 0 0.0013448231013438628 0.010191533767429308 0 0.00017468337892718419 0.011164501650996706 0 0.0024325231771967046 0.010958898590752639 0 0.002643626814157769 0.010191238110766479 0 0.0013448231013438628 0.010191533767429308 0 0.0024325231771967046 0.010958898590752639 0 -0.015270208684910452 0.015249117824104359 0 -0.01604972959878773 0.015198325257911663 0 -0.016039423857674127 0.016423419862106603 0 -0.0092745438872481444 0.0010654134299363626 0 -0.010139134973708051 -0.0015740575997296486 0 -0.010966231101718489 -0.00021309096996053115 0 -0.0093590910270076374 0.015943217995621727 0 -0.0084494478404203554 0.01192913219470476 0 -0.0091206131554674337 0.016516043163937535 0 -0.0078005508442450964 0.016618868924971254 0 -0.0081915557210696741 0.016052212606614307 0 -0.0093590910270076374 0.015943217995621727 0 -0.0083555016675165 0.02250722316286128 0 -0.0084494478404203554 0.01192913219470476 0 -0.0048040807496561181 0.014659658727919137 0 -0.0081915557210696741 0.016052212606614307 0 -0.0084776634125404322 0.015426683872050673 0 -0.0063246587877046241 0.01513542782490828 0 -0.0078005508442450964 0.016618868924971254 0 -0.0081915557210696741 0.016052212606614307 0 -0.0063246587877046241 0.01513542782490828 0 -0.0080694871351764449 0.020501762781352413 0 -0.0048040807496561181 0.014659658727919137 0 -0.0076807161038966549 0.032546866659869021 0 -0.0083754671027910736 0.032695072381793429 0 -0.0083739630790630563 0.031911442062598959 0 -0.0091206131554674337 0.016516043163937535 0 -0.0081915557210696741 0.016052212606614307 0 -0.0084776634125404322 0.015426683872050673 0 -0.0089701341096377896 0.023140227367337122 0 -0.0073321638791723825 0.020353906698297713 0 -0.010676409140280136 0.021003977601146986 0 -0.0080694871351764449 0.020501762781352413 0 -0.0083555016675165 0.02250722316286128 0 -0.0093590910270076374 0.015943217995621727 0 -0.0080694871351764449 0.020501762781352413 0 -0.0083555016675165 0.02250722316286128 0 -0.0078178286453153157 0.029146335009847351 0 -0.0083859593305500284 0.032731752921461736 0 -0.01023014708746792 0.031918885785823622 0 -0.0099050974120280227 0.033080643041339799 0 -0.0093590910270076374 0.015943217995621727 0 -0.012196275831953192 0.022377960665156398 0 -0.0076305644144159879 0.020213874530748847 0 -0.0084687554499589344 0.019171528682607096 0 -0.012039346473400067 0.0198881638206665 0 -0.0083555016675165 0.02250722316286128 0 -0.012196275831953192 0.022377960665156398 0 -0.010828426610781551 -0.0016512526071947125 0 -0.010966231101718489 -0.00021309096996053115 0 -0.012804144666690732 0.00036032123354264321 0 -0.0093590910270076374 0.015943217995621727 0 -0.013669420426840278 0.0070576649461466237 0 -0.010828426610781551 -0.0016512526071947125 0 -0.010139134973708051 -0.0015740575997296486 0 -0.010966231101718489 -0.00021309096996053115 0 -0.0011303557123712401 0.013104936215656419 0 -0.005285311123522784 0.011579159239758637 0 -0.0020285999360221004 0.011377249576016048 0 -0.0037857405015019521 0.0057246955064682086 0 -0.0084494478404203554 0.01192913219470476 0 -0.005285311123522784 0.011579159239758637 0 -0.0020285999360221004 0.011377249576016048 0 -0.0044012735446097399 0.011025480758146749 0 0.00067380379792947732 0.01338382256734982 0 -0.0020586774770125623 0.017671942384369178 0 -0.0010033438370250984 0.01753042886739084 0 0.00067380379792947732 0.01338382256734982 0 -0.0010033438370250984 0.01753042886739084 0 0.0015427582048193323 0.015012743410011156 0 -0.0048040807496561181 0.014659658727919137 0 0.00032521816488881165 0.012317536345863198 0 -0.0019607404420516014 0.021565012517215897 0 -0.0080694871351764449 0.020501762781352413 0 -0.0020285999360221004 0.011377249576016048 0 -0.0044012735446097399 0.011025480758146749 0 -0.001172113498999364 0.0097625600213734082 0 -0.005013137571199121 0.027710156376752282 0 -0.0076807161038966549 0.032546866659869021 0 -0.0075848013768949436 0.029240218288307394 0 -0.0076807161038966549 0.032546866659869021 0 -0.0075848013768949436 0.029240218288307394 0 -0.0082063916703007545 0.031129337861434889 0 -0.0075848013768949436 0.029240218288307394 0 -0.0082063916703007545 0.031129337861434889 0 -0.0087993059744664523 0.030108417811187841 0 -0.0076807161038966549 0.032546866659869021 0 -0.0082063916703007545 0.031129337861434889 0 -0.0083739630790630563 0.031911442062598959 0 -0.0083754671027910736 0.032695072381793429 0 -0.009230915541440135 0.031274879101965525 0 -0.01023014708746792 0.031918885785823622 0 -0.0082063916703007545 0.031129337861434889 0 -0.0083739630790630563 0.031911442062598959 0 -0.009230915541440135 0.031274879101965525 0 -0.0083754671027910736 0.032695072381793429 0 -0.0083739630790630563 0.031911442062598959 0 -0.009230915541440135 0.031274879101965525 0 -0.0082063916703007545 0.031129337861434889 0 -0.009230915541440135 0.031274879101965525 0 -0.0087993059744664523 0.030108417811187841 0 -0.009230915541440135 0.031274879101965525 0 -0.0087993059744664523 0.030108417811187841 0 -0.010120770295645825 0.029941383602781143 0 -0.0090623198238949532 0.028713636097444695 0 -0.0075848013768949436 0.029240218288307394 0 -0.0087993059744664523 0.030108417811187841 0 -0.0090623198238949532 0.028713636097444695 0 -0.0087993059744664523 0.030108417811187841 0 -0.010120770295645825 0.029941383602781143 0 -0.011929424999993001 0.031120641555799741 0 -0.01023014708746792 0.031918885785823622 0 -0.013511294367021649 0.032921809562096643 0 -0.010578267986602595 0.028445962410195483 0 -0.010120770295645825 0.029941383602781143 0 -0.011625342873124091 0.029852482940028926 0 -0.010120770295645825 0.029941383602781143 0 -0.011625342873124091 0.029852482940028926 0 -0.010674706485628101 0.030859473357703164 0 -0.011625342873124091 0.029852482940028926 0 -0.011929424999993001 0.031120641555799741 0 -0.013426294476900734 0.030014157275325977 0 -0.012168133485561311 0.028674072567063696 0 -0.011625342873124091 0.029852482940028926 0 -0.013426294476900734 0.030014157275325977 0 -0.011625342873124091 0.029852482940028926 0 -0.011929424999993001 0.031120641555799741 0 -0.010674706485628101 0.030859473357703164 0 -0.011929424999993001 0.031120641555799741 0 -0.01023014708746792 0.031918885785823622 0 -0.010674706485628101 0.030859473357703164 0 -0.009230915541440135 0.031274879101965525 0 -0.01023014708746792 0.031918885785823622 0 -0.010674706485628101 0.030859473357703164 0 -0.009230915541440135 0.031274879101965525 0 -0.010120770295645825 0.029941383602781143 0 -0.010674706485628101 0.030859473357703164 0 -0.015467811122929503 0.030707813129292473 0 -0.013511294367021649 0.032921809562096643 0 -0.017190151855439696 0.032524289135950665 0 -0.01552822144846 0.029292392636234049 0 -0.015467811122929503 0.030707813129292473 0 -0.016342784548350718 0.029786120687007745 0 -0.01552822144846 0.029292392636234049 0 -0.016093594114311237 0.028991164708117387 0 -0.016342784548350718 0.029786120687007745 0 -0.01552822144846 0.029292392636234049 0 -0.015467811122929503 0.030707813129292473 0 -0.014650261372856088 0.029741720040133139 0 -0.015467811122929503 0.030707813129292473 0 -0.014650261372856088 0.029741720040133139 0 -0.013426294476900734 0.030014157275325977 0 -0.014684677369913086 0.028718208774181655 0 -0.014650261372856088 0.029741720040133139 0 -0.013426294476900734 0.030014157275325977 0 -0.011929424999993001 0.031120641555799741 0 -0.013426294476900734 0.030014157275325977 0 -0.013511294367021649 0.032921809562096643 0 -0.015467811122929503 0.030707813129292473 0 -0.013426294476900734 0.030014157275325977 0 -0.013511294367021649 0.032921809562096643 0 -0.014898046891280955 0.029232294226865546 0 -0.01916036266542194 0.029870310892932735 0 -0.016792950638027569 0.025473464374743647 0 -0.019154323182143728 0.026984393509620189 0 -0.02054740607721155 0.025221523330593677 0 -0.016792950638027569 0.025473464374743647 0 -0.019154323182143728 0.026984393509620189 0 -0.013027791719067972 0.025729936823353637 0 -0.018351377897160761 0.01569727968375513 0 -0.01699247798247364 0.015992277338608751 0 -0.01604972959878773 0.015198325257911663 0 -0.022698428513011286 0.023827720001235668 0 -0.012196275831953192 0.022377960665156398 0 -0.014898046891280955 0.029232294226865546 0 -0.012196275831953192 0.022377960665156398 0 -0.01699247798247364 0.015992277338608751 0 -0.01604972959878773 0.015198325257911663 0 -0.016039423857674127 0.016423419862106603 0 -0.01023014708746792 0.031918885785823622 0 -0.013511294367021649 0.032921809562096643 0 -0.0099050974120280227 0.033080643041339799 0 -0.01699247798247364 0.015992277338608751 0 -0.016039423857674127 0.016423419862106603 0 -0.017536161735458102 0.016638025090974024 0 -0.016039423857674127 0.016423419862106603 0 -0.017536161735458102 0.016638025090974024 0 -0.016767972708871318 0.017546202279446733 0 -0.013669420426840278 0.0070576649461466237 0 -0.019352487836665686 0.011422830792330965 0 -0.012363659750372954 0.0017395028564675945 0 -0.012804144666690732 0.00036032123354264321 0 -0.014485851534101779 0.0021502375051897951 0 -0.024497746867267977 0.020500989729734655 0 -0.019352487836665686 0.011422830792330965 0 -0.018351377897160761 0.01569727968375513 0 -0.01699247798247364 0.015992277338608751 0 -0.017536161735458102 0.016638025090974024 0 -0.029784242691658649 0.02705913736635715 0 -0.031775223626979029 0.024575987578215299 0 -0.029672462849609796 0.024973377534967672 0 -0.022698428513011286 0.023827720001235668 0 -0.024497746867267977 0.020500989729734655 0 -0.031775223626979029 0.024575987578215299 0 -0.029672462849609796 0.024973377534967672 0 -0.030498891494550168 0.021929068975942975 0 -0.031700081299583405 0.018192409137127982 0 -0.030498891494550168 0.021929068975942975 0 -0.0337732172722729 0.021974381309255431 0 -0.031775223626979029 0.024575987578215299 0 -0.030498891494550168 0.021929068975942975 0 -0.0337732172722729 0.021974381309255431 0 -0.025876006517291664 0.011547234230512106 0 -0.019352487836665686 0.011422830792330965 0 -0.016112245931769922 0.0045244783221700243 0 -0.014211952065481847 0.0029684968811053503 0 -0.016004630693974748 0.00092979189736653884 0 -0.016947241573167768 0.0034476763585203313 0 -0.019352487836665686 0.011422830792330965 0 -0.012363659750372954 0.0017395028564675945 0 -0.014211952065481847 0.0029684968811053503 0 -0.014485851534101779 0.0021502375051897951 0 -0.025584455691200318 0.02230341381027106 0 -0.027792125686532963 0.022665961571869259 0 -0.026071405696599399 0.024227131245936836 0 -0.025584455691200318 0.02230341381027106 0 -0.023877381905595043 0.024369325025648821 0 -0.023480633302528933 0.023397937028431223 0 -0.025584455691200318 0.02230341381027106 0 -0.023657516990205584 0.021096975092099211 0 -0.023480633302528933 0.023397937028431223 0 -0.025676036106177691 0.019456183199358785 0 -0.025584455691200318 0.02230341381027106 0 -0.023657516990205584 0.021096975092099211 0 -0.025676036106177691 0.019456183199358785 0 -0.025584455691200318 0.02230341381027106 0 -0.026791761731270645 0.020683819193723758 0 -0.028269244236589313 0.018955890374588412 0 -0.026791761731270645 0.020683819193723758 0 -0.027792125686532963 0.022665961571869259 0 -0.028269244236589313 0.018955890374588412 0 -0.030498891494550168 0.021929068975942975 0 -0.027792125686532963 0.022665961571869259 0 -0.025584455691200318 0.02230341381027106 0 -0.026791761731270645 0.020683819193723758 0 -0.027792125686532963 0.022665961571869259 0 -0.027792125686532963 0.022665961571869259 0 -0.027673350919937251 0.025055204523045358 0 -0.026071405696599399 0.024227131245936836 0 -0.029672462849609796 0.024973377534967672 0 -0.030498891494550168 0.021929068975942975 0 -0.027792125686532963 0.022665961571869259 0 -0.029672462849609796 0.024973377534967672 0 -0.027792125686532963 0.022665961571869259 0 -0.027673350919937251 0.025055204523045358 0 -0.029784242691658649 0.02705913736635715 0 -0.029672462849609796 0.024973377534967672 0 -0.027673350919937251 0.025055204523045358 0 -0.027673350919937251 0.025055204523045358 0 -0.026071405696599399 0.024227131245936836 0 -0.025140544772736181 0.026173517757293104 0 -0.025584455691200318 0.02230341381027106 0 -0.026071405696599399 0.024227131245936836 0 -0.023877381905595043 0.024369325025648821 0 -0.026071405696599399 0.024227131245936836 0 -0.023877381905595043 0.024369325025648821 0 -0.025140544772736181 0.026173517757293104 0 -0.01916036266542194 0.029870310892932735 0 -0.022313167269844641 0.030616060241048272 0 -0.023780391458152902 0.030880061714039671 0 -0.023096891748079114 0.030381527077557882 0 -0.023911263180339246 0.030399509698318342 0 -0.023780391458152902 0.030880061714039671 0 -0.023911263180339246 0.030399509698318342 0 -0.024304437750785959 0.03068356970464978 0 -0.022861001905320148 0.030656487091935487 0 -0.023780391458152902 0.030880061714039671 0 -0.023096891748079114 0.030381527077557882 0 -0.029784242691658649 0.02705913736635715 0 -0.027673350919937251 0.025055204523045358 0 -0.025140544772736181 0.026173517757293104 0 -0.022698428513011286 0.023827720001235668 0 -0.025359881966413835 0.029138569996719051 0 -0.022698428513011286 0.023827720001235668 0 -0.01916036266542194 0.029870310892932735 0 -0.019706431615674046 0.029033737396979748 0 -0.017190151855439696 0.032524289135950665 0 -0.017453169277367175 0.030321527432556533 0 -0.019608505895905841 0.029142243720497254 0 -0.018271926678050141 0.030839435070009052 0 -0.019618036741845781 0.030111872667165751 0 -0.01931415219378926 0.029531169339321702 0 -0.01916036266542194 0.029870310892932735 0 -0.015467811122929503 0.030707813129292473 0 -0.017190151855439696 0.032524289135950665 0 -0.017453169277367175 0.030321527432556533 0 -0.015467811122929503 0.030707813129292473 0 -0.017453169277367175 0.030321527432556533 0 -0.016342784548350718 0.029786120687007745 0 -0.016987123183905242 0.02912055941784596 0 -0.018422910902698812 0.029182804455314137 0 -0.017453169277367175 0.030321527432556533 0 -0.016987123183905242 0.02912055941784596 0 -0.017453169277367175 0.030321527432556533 0 -0.016342784548350718 0.029786120687007745 0 -0.018271926678050141 0.030839435070009052 0 -0.020122842250813469 0.030719476329729004 0 -0.019618036741845781 0.030111872667165751 0 -0.020122842250813469 0.030719476329729004 0 -0.019618036741845781 0.030111872667165751 0 -0.02045489832037398 0.029751113863071183 0 -0.019608505895905841 0.029142243720497254 0 -0.019618036741845781 0.030111872667165751 0 -0.02045489832037398 0.029751113863071183 0 -0.02045489832037398 0.029751113863071183 0 -0.021613588814350999 0.029570876544274351 0 -0.022135669695787907 0.030705152112522203 0 -0.020122842250813469 0.030719476329729004 0 -0.02045489832037398 0.029751113863071183 0 -0.022135669695787907 0.030705152112522203 0 -0.022313167269844641 0.030616060241048272 0 -0.023274914993844712 0.030565685278524102 0 -0.020860083688432174 0.029018059858119765 0 -0.02045489832037398 0.029751113863071183 0 -0.021613588814350999 0.029570876544274351 0 -0.023780391458152902 0.030880061714039671 0 -0.024304437750785959 0.03068356970464978 0 -0.024610367810152259 0.030941498414536493 0 -0.023911263180339246 0.030399509698318342 0 -0.024304437750785959 0.03068356970464978 0 -0.024479156691197931 0.030503910261682195 0 -0.024304437750785959 0.03068356970464978 0 -0.024531063421026053 0.030737503476890457 0 -0.024479156691197931 0.030503910261682195 0 -0.024304437750785959 0.03068356970464978 0 -0.024531063421026053 0.030737503476890457 0 -0.024610367810152259 0.030941498414536493 0 -0.02465762943263991 0.030807591034280213 0 -0.024625923898092487 0.030859887226178259 0 -0.024610367810152259 0.030941498414536493 0 -0.024479156691197931 0.030503910261682195 0 -0.024844952858862682 0.030347749577660815 0 -0.02465762943263991 0.030807591034280213 0 -0.024531063421026053 0.030737503476890457 0 -0.02465762943263991 0.030807591034280213 0 -0.024610367810152259 0.030941498414536493 0 -0.024531063421026053 0.030737503476890457 0 -0.024479156691197931 0.030503910261682195 0 -0.02465762943263991 0.030807591034280213 0 -0.022537846168251875 0.028848386805059131 0 -0.022135669695787907 0.030705152112522203 0 -0.024844952858862682 0.030347749577660815 0 -0.022537846168251875 0.028848386805059131 0 -0.021613588814350999 0.029570876544274351 0 -0.022135669695787907 0.030705152112522203 0 -0.023274914993844712 0.030565685278524102 0 -0.024750979429677133 0.03039206752882392 0 -0.024446886676134479 0.028835106555907496 0 -0.022537846168251875 0.028848386805059131 0 -0.024844952858862682 0.030347749577660815 0 -0.024446886676134479 0.028835106555907496 0 -0.024844952858862682 0.030347749577660815 0 -0.025695521925733912 0.030349864965653846 0 -0.024446886676134479 0.028835106555907496 0 -0.02614597845620659 0.030153465623289882 0 -0.025695521925733912 0.030349864965653846 0 -0.024844952858862682 0.030347749577660815 0 -0.025695521925733912 0.030349864965653846 0 -0.025544358209580318 0.030813902584452334 0 -0.023232440349340352 0.030531361630991124 0 -0.022711937341645672 0.03081823412609461 0 -0.022947520379991915 0.031367136217600448 0 -0.024446886676134479 0.028835106555907496 0 -0.02614597845620659 0.030153465623289882 0 -0.027165057385078933 0.030096352754395862 0 -0.025987162606402953 0.029040109642897896 0 -0.025200229939108403 0.030771672504663006 0 -0.023285718380004414 0.029822973644723565 0 -0.025200229939108403 0.030771672504663006 0 -0.022711937341645672 0.03081823412609461 0 -0.022113781588784416 0.030788960687136019 0 -0.022947520379991915 0.031367136217600448 0 -0.02614597845620659 0.030153465623289882 0 -0.025695521925733912 0.030349864965653846 0 -0.026772428878419317 0.031128744922298536 0 -0.02614597845620659 0.030153465623289882 0 -0.02782887873221317 0.030509740351596745 0 -0.026772428878419317 0.031128744922298536 0 -0.02614597845620659 0.030153465623289882 0 -0.027165057385078933 0.030096352754395862 0 -0.02782887873221317 0.030509740351596745 0 -0.025200229939108403 0.030771672504663006 0 -0.026159033496607184 0.03107664156102613 0 -0.027399136735882831 0.030236761921386864 0 -0.02782887873221317 0.030509740351596745 0 -0.028799177222404486 0.029621416501154376 0 -0.02782887873221317 0.030509740351596745 0 -0.026772428878419317 0.031128744922298536 0 -0.028508621505455148 0.031247430103142067 0 -0.026772428878419317 0.031128744922298536 0 -0.028508621505455148 0.031247430103142067 0 -0.028294868948746058 0.032188580206294282 0 -0.026772428878419317 0.031128744922298536 0 -0.02572420791058256 0.031230526936672505 0 -0.025544358209580318 0.030813902584452334 0 -0.025695521925733912 0.030349864965653846 0 -0.026772428878419317 0.031128744922298536 0 -0.025544358209580318 0.030813902584452334 0 -0.02572420791058256 0.031230526936672505 0 -0.026762263189266524 0.031990623168264301 0 -0.025127824559390423 0.031237548793203573 0 -0.026772428878419317 0.031128744922298536 0 -0.02572420791058256 0.031230526936672505 0 -0.026762263189266524 0.031990623168264301 0 -0.026772428878419317 0.031128744922298536 0 -0.026762263189266524 0.031990623168264301 0 -0.028294868948746058 0.032188580206294282 0 -0.024844952858862682 0.030347749577660815 0 -0.025032972632790244 0.030946093536065821 0 -0.02465762943263991 0.030807591034280213 0 -0.024844952858862682 0.030347749577660815 0 -0.025544358209580318 0.030813902584452334 0 -0.025032972632790244 0.030946093536065821 0 -0.02572420791058256 0.031230526936672505 0 -0.025544358209580318 0.030813902584452334 0 -0.025032972632790244 0.030946093536065821 0 -0.025032972632790244 0.030946093536065821 0 -0.024625923898092487 0.030859887226178259 0 -0.025127824559390423 0.031237548793203573 0 -0.02572420791058256 0.031230526936672505 0 -0.025032972632790244 0.030946093536065821 0 -0.025127824559390423 0.031237548793203573 0 -0.025032972632790244 0.030946093536065821 0 -0.02465762943263991 0.030807591034280213 0 -0.024625923898092487 0.030859887226178259 0 -0.024625923898092487 0.030859887226178259 0 -0.024361998142075229 0.030358697486027039 0 -0.024610367810152259 0.030941498414536493 0 -0.022672984468695329 0.01144193683765359 0 -0.023463357305192899 0.011106915823292988 0 -0.02391787170947509 0.011327754714623221 0 -0.024361998142075229 0.030358697486027039 0 -0.025255641030675825 0.031939063231693918 0 -0.02111668192833718 0.025425628876219054 0 -0.024013698219955464 0.021579218206918663 0 -0.023842862163045639 0.017744302539458544 0 -0.025127824559390423 0.031237548793203573 0 -0.024361998142075229 0.030358697486027039 0 -0.025255641030675825 0.031939063231693918 0 -0.024625923898092487 0.030859887226178259 0 -0.025127824559390423 0.031237548793203573 0 -0.024361998142075229 0.030358697486027039 0 -0.024013698219955464 0.021579218206918663 0 -0.025904564915682715 0.023506073094893366 0 -0.022672984468695329 0.01144193683765359 0 -0.022168946332679004 0.010991626376786336 0 -0.021598109865333597 0.011663087159824535 0 -0.026762263189266524 0.031990623168264301 0 -0.025255641030675825 0.031939063231693918 0 -0.0300508245969929 0.034566782133040319 0 -0.026762263189266524 0.031990623168264301 0 -0.025127824559390423 0.031237548793203573 0 -0.025255641030675825 0.031939063231693918 0 -0.022672984468695329 0.01144193683765359 0 -0.022168946332679004 0.010991626376786336 0 -0.022625958946785849 0.011032797506108917 0 -0.022168946332679004 0.010991626376786336 0 -0.022625958946785849 0.011032797506108917 0 -0.022656681426289411 0.010647276039209952 0 -0.022168946332679004 0.010991626376786336 0 -0.022656681426289411 0.010647276039209952 0 -0.022153406657421326 0.010250819702032328 0 -0.022672984468695329 0.01144193683765359 0 -0.022949431805462356 0.01098046040395901 0 -0.023463357305192899 0.011106915823292988 0 -0.022949431805462356 0.01098046040395901 0 -0.02329361658676642 0.010624866157489787 0 -0.023463357305192899 0.011106915823292988 0 -0.022672984468695329 0.01144193683765359 0 -0.022625958946785849 0.011032797506108917 0 -0.022949431805462356 0.01098046040395901 0 -0.022625958946785849 0.011032797506108917 0 -0.022656681426289411 0.010647276039209952 0 -0.022949431805462356 0.01098046040395901 0 -0.022656681426289411 0.010647276039209952 0 -0.022949431805462356 0.01098046040395901 0 -0.02329361658676642 0.010624866157489787 0 -0.02111668192833718 0.025425628876219054 0 -0.021875835894890724 0.020510362503931356 0 -0.018870648360912869 0.016930897106880251 0 -0.023842862163045639 0.017744302539458544 0 -0.021184425999826353 0.013546750954255461 0 -0.02329361658676642 0.010624866157489787 0 -0.02391787170947509 0.011327754714623221 0 -0.023636913050455281 0.0098709482183207634 0 -0.02329361658676642 0.010624866157489787 0 -0.023463357305192899 0.011106915823292988 0 -0.02391787170947509 0.011327754714623221 0 -0.02111668192833718 0.025425628876219054 0 -0.021875835894890724 0.020510362503931356 0 -0.021958699418598626 0.023168099137370848 0 -0.02111668192833718 0.025425628876219054 0 -0.021958699418598626 0.023168099137370848 0 -0.021481112297548111 0.024885980741565086 0 -0.021875835894890724 0.020510362503931356 0 -0.023657516990205584 0.021096975092099211 0 -0.021958699418598626 0.023168099137370848 0 -0.023657516990205584 0.021096975092099211 0 -0.023480633302528933 0.023397937028431223 0 -0.021958699418598626 0.023168099137370848 0 -0.021958699418598626 0.023168099137370848 0 -0.022394541508901102 0.024314297167581506 0 -0.021481112297548111 0.024885980741565086 0 -0.023480633302528933 0.023397937028431223 0 -0.021958699418598626 0.023168099137370848 0 -0.022394541508901102 0.024314297167581506 0 -0.025359881966413835 0.029138569996719051 0 -0.022667874686337332 0.028241483033961831 0 -0.022394541508901102 0.024314297167581506 0 -0.021210167097400666 0.025244003030880126 0 -0.021481112297548111 0.024885980741565086 0 -0.023877381905595043 0.024369325025648821 0 -0.025140544772736181 0.026173517757293104 0 -0.021210167097400666 0.025244003030880126 0 -0.023877381905595043 0.024369325025648821 0 -0.022394541508901102 0.024314297167581506 0 -0.021210167097400666 0.025244003030880126 0 -0.023877381905595043 0.024369325025648821 0 -0.023480633302528933 0.023397937028431223 0 -0.022394541508901102 0.024314297167581506 0 -0.024088967940514187 0.029891246049808601 0 -0.022667874686337332 0.028241483033961831 0 -0.024361998142075229 0.030358697486027039 0 -0.02111668192833718 0.025425628876219054 0 -0.021210167097400666 0.025244003030880126 0 -0.02111668192833718 0.025425628876219054 0 -0.021210167097400666 0.025244003030880126 0 -0.021481112297548111 0.024885980741565086 0 -0.038832040192084749 0.03362463013392309 0 -0.038680325860792675 0.033144767291725268 0 -0.037624382941457639 0.033006476095102516 0 -0.031136509306384518 0.020207474581743889 0 -0.028327549655950329 0.019373080595975051 0 -0.038832040192084749 0.03362463013392309 0 -0.037624382941457639 0.033006476095102516 0 -0.036628082686924086 0.034020535850406118 0 -0.038738209398868503 0.033514626876026493 0 -0.038832040192084749 0.03362463013392309 0 -0.038680325860792675 0.033144767291725268 0 -0.038738209398868503 0.033514626876026493 0 -0.038680325860792675 0.033144767291725268 0 -0.038761407037892832 0.033509896005042325 0 -0.039158418701788336 0.034777780794703103 0 -0.038761407037892832 0.033509896005042325 0 -0.038709733690495393 0.032028579616645902 0 -0.038680325860792675 0.033144767291725268 0 -0.038761407037892832 0.033509896005042325 0 -0.038709733690495393 0.032028579616645902 0 -0.038680325860792675 0.033144767291725268 0 -0.038709733690495393 0.032028579616645902 0 -0.037624382941457639 0.033006476095102516 0 -0.038709733690495393 0.032028579616645902 0 -0.03541694048789977 0.030619729328743742 0 -0.037624382941457639 0.033006476095102516 0 -0.035845067003152105 0.026551769700862649 0 -0.038709733690495393 0.032028579616645902 0 -0.03541694048789977 0.030619729328743742 0 -0.03541694048789977 0.030619729328743742 0 -0.035132199009630279 0.032370902473949123 0 -0.037624382941457639 0.033006476095102516 0 -0.035132199009630279 0.032370902473949123 0 -0.036106227061231323 0.03320151899187776 0 -0.037624382941457639 0.033006476095102516 0 -0.038832040192084749 0.03362463013392309 0 -0.036628082686924086 0.034020535850406118 0 -0.036469876339549838 0.034478314219292927 0 -0.035132199009630279 0.032370902473949123 0 -0.036106227061231323 0.03320151899187776 0 -0.035112559504811451 0.033509724429148333 0 -0.036106227061231323 0.03320151899187776 0 -0.037624382941457639 0.033006476095102516 0 -0.036628082686924086 0.034020535850406118 0 -0.028694038240001021 0.026567068433090323 0 -0.028327549655950329 0.019373080595975051 0 -0.036628082686924086 0.034020535850406118 0 -0.035112559504811451 0.033509724429148333 0 -0.036143367617756481 0.0350694586837298 0 -0.036106227061231323 0.03320151899187776 0 -0.036628082686924086 0.034020535850406118 0 -0.035112559504811451 0.033509724429148333 0 -0.035112559504811451 0.033509724429148333 0 -0.032996866483903597 0.033259704268414576 0 -0.036143367617756481 0.0350694586837298 0 -0.032996866483903597 0.033259704268414576 0 -0.032723474156843235 0.030884271518306999 0 -0.030370417759189847 0.031753370294978919 0 -0.035132199009630279 0.032370902473949123 0 -0.035112559504811451 0.033509724429148333 0 -0.032996866483903597 0.033259704268414576 0 -0.035132199009630279 0.032370902473949123 0 -0.032996866483903597 0.033259704268414576 0 -0.032723474156843235 0.030884271518306999 0 -0.03541694048789977 0.030619729328743742 0 -0.035132199009630279 0.032370902473949123 0 -0.032723474156843235 0.030884271518306999 0 -0.03249460588052263 0.027992473589616738 0 -0.03541694048789977 0.030619729328743742 0 -0.032723474156843235 0.030884271518306999 0 -0.03249460588052263 0.027992473589616738 0 -0.032723474156843235 0.030884271518306999 0 -0.030468268385897113 0.029442635437070597 0 -0.032723474156843235 0.030884271518306999 0 -0.030917335481890532 0.030683187092954874 0 -0.030370417759189847 0.031753370294978919 0 -0.032723474156843235 0.030884271518306999 0 -0.030917335481890532 0.030683187092954874 0 -0.030468268385897113 0.029442635437070597 0 -0.030917335481890532 0.030683187092954874 0 -0.029501264846816394 0.030598466706799447 0 -0.030370417759189847 0.031753370294978919 0 -0.028866996019023785 0.027104847680127782 0 -0.027399136735882831 0.030236761921386864 0 -0.028799177222404486 0.029621416501154376 0 -0.030917335481890532 0.030683187092954874 0 -0.030468268385897113 0.029442635437070597 0 -0.029501264846816394 0.030598466706799447 0 -0.028866996019023785 0.027104847680127782 0 -0.030468268385897113 0.029442635437070597 0 -0.028799177222404486 0.029621416501154376 0 -0.02782887873221317 0.030509740351596745 0 -0.029501264846816394 0.030598466706799447 0 -0.028508621505455148 0.031247430103142067 0 -0.02782887873221317 0.030509740351596745 0 -0.028799177222404486 0.029621416501154376 0 -0.029501264846816394 0.030598466706799447 0 -0.030468268385897113 0.029442635437070597 0 -0.028799177222404486 0.029621416501154376 0 -0.029501264846816394 0.030598466706799447 0 -0.030370417759189847 0.031753370294978919 0 -0.028294868948746058 0.032188580206294282 0 -0.0300508245969929 0.034566782133040319 0 -0.028508621505455148 0.031247430103142067 0 -0.030370417759189847 0.031753370294978919 0 -0.028294868948746058 0.032188580206294282 0 -0.032996866483903597 0.033259704268414576 0 -0.030370417759189847 0.031753370294978919 0 -0.0300508245969929 0.034566782133040319 0 -0.029501264846816394 0.030598466706799447 0 -0.028508621505455148 0.031247430103142067 0 -0.030370417759189847 0.031753370294978919 0 -0.026762263189266524 0.031990623168264301 0 -0.028294868948746058 0.032188580206294282 0 -0.0300508245969929 0.034566782133040319 0 -0.022168946332679004 0.010991626376786336 0 -0.021598109865333597 0.011663087159824535 0 -0.02151249480332457 0.010507033854876034 0 -0.022168946332679004 0.010991626376786336 0 -0.02151249480332457 0.010507033854876034 0 -0.022153406657421326 0.010250819702032328 0 -0.021598109865333597 0.011663087159824535 0 -0.02151249480332457 0.010507033854876034 0 -0.02093206449626811 0.011383213478949765 0 -0.02151249480332457 0.010507033854876034 0 -0.020722769157711454 0.010604821664107028 0 -0.02093206449626811 0.011383213478949765 0 -0.032996866483903597 0.033259704268414576 0 -0.0300508245969929 0.034566782133040319 0 -0.036143367617756481 0.0350694586837298 0 -0.020722769157711454 0.010604821664107028 0 -0.02093206449626811 0.011383213478949765 0 -0.020430902427978553 0.011942002723935405 0 -0.021598109865333597 0.011663087159824535 0 -0.02093206449626811 0.011383213478949765 0 -0.020430902427978553 0.011942002723935405 0 -0.025904564915682715 0.023506073094893366 0 -0.028327549655950329 0.019373080595975051 0 -0.021338230144477031 0.0072442999874283449 0 -0.028327549655950329 0.019373080595975051 0 -0.023368053767143543 0.0075714980166955862 0 -0.023364689422554381 0.0076339059518742251 0 -0.023495379848850324 0.0076004406925430741 0 -0.023099820957798639 0.0076375991473970131 0 -0.023368053767143543 0.0075714980166955862 0 -0.023364689422554381 0.0076339059518742251 0 -0.023099820957798639 0.0076375991473970131 0 -0.023364689422554381 0.0076339059518742251 0 -0.02328047237517299 0.007748897482176882 0 -0.023364689422554381 0.0076339059518742251 0 -0.023602986254121709 0.0076581555440202575 0 -0.023495379848850324 0.0076004406925430741 0 -0.023364689422554381 0.0076339059518742251 0 -0.023602986254121709 0.0076581555440202575 0 -0.02328047237517299 0.007748897482176882 0 -0.023661525817669126 0.0075717337436468054 0 -0.023602986254121709 0.0076581555440202575 0 -0.023495379848850324 0.0076004406925430741 0 -0.023661525817669126 0.0075717337436468054 0 -0.023368053767143543 0.0075714980166955862 0 -0.023495379848850324 0.0076004406925430741 0 -0.02328047237517299 0.007748897482176882 0 -0.02282425157078187 0.0079384369294878635 0 -0.023303488972680975 0.0080154426617965978 0 -0.023748792738021152 0.0078337355731860105 0 -0.02328047237517299 0.007748897482176882 0 -0.023303488972680975 0.0080154426617965978 0 -0.023748792738021152 0.0078337355731860105 0 -0.023602986254121709 0.0076581555440202575 0 -0.02328047237517299 0.007748897482176882 0 -0.023099820957798639 0.0076375991473970131 0 -0.02328047237517299 0.007748897482176882 0 -0.022649346717873595 0.0077675829672833189 0 -0.02328047237517299 0.007748897482176882 0 -0.022649346717873595 0.0077675829672833189 0 -0.02282425157078187 0.0079384369294878635 0 -0.021338230144477031 0.0072442999874283449 0 -0.021917278427850483 0.0089721357178910721 0 -0.02151249480332457 0.010507033854876034 0 -0.020722769157711454 0.010604821664107028 0 -0.021155405302140148 0.0092961509653276767 0 -0.02151249480332457 0.010507033854876034 0 -0.021897147000446444 0.0093616731549943152 0 -0.022153406657421326 0.010250819702032328 0 -0.02151249480332457 0.010507033854876034 0 -0.021155405302140148 0.0092961509653276767 0 -0.021897147000446444 0.0093616731549943152 0 -0.021155405302140148 0.0092961509653276767 0 -0.021897147000446444 0.0093616731549943152 0 -0.0219401465728833 0.0081154936802912345 0 -0.021897147000446444 0.0093616731549943152 0 -0.0219401465728833 0.0081154936802912345 0 -0.022305288019508318 0.00881585840380039 0 -0.0219401465728833 0.0081154936802912345 0 -0.022112985828027086 0.0077476281566060002 0 -0.021965508179396402 0.0079162169207538154 0 -0.029516073168526297 0.0033770400877570807 0 -0.024475065695036047 0.0042054995968978494 0 -0.0219401465728833 0.0081154936802912345 0 -0.022699105906396164 0.0081702202017551705 0 -0.021965508179396402 0.0079162169207538154 0 -0.022649346717873595 0.0077675829672833189 0 -0.0219401465728833 0.0081154936802912345 0 -0.02282425157078187 0.0079384369294878635 0 -0.0219401465728833 0.0081154936802912345 0 -0.02282425157078187 0.0079384369294878635 0 -0.022699105906396164 0.0081702202017551705 0 -0.021917278427850483 0.0089721357178910721 0 -0.021948008388115205 0.0080223151718553324 0 -0.02282425157078187 0.0079384369294878635 0 -0.022699105906396164 0.0081702202017551705 0 -0.023303488972680975 0.0080154426617965978 0 -0.032603277457617548 -0.0032303094279530903 0 -0.035822115589719705 -0.002173128942144296 0 -0.032663570966318174 -0.00073679608110128201 0 -0.029516073168526297 0.0033770400877570807 0 -0.030095706256846391 -0.0011854139459167199 0 -0.032603277457617548 -0.0032303094279530903 0 -0.035822115589719705 -0.002173128942144296 0 -0.035705544342279245 -0.004907875927848299 0 -0.029516073168526297 0.0033770400877570807 0 -0.036669210806696044 0.00043508786667194722 0 -0.03670525008399006 0.0062830972707359654 0 -0.035844255539359389 0.0064481020395797404 0 -0.035861120630966886 0.006616683243298044 0 -0.034668087210145256 0.0070577542309805995 0 -0.035844255539359389 0.0064481020395797404 0 -0.035861120630966886 0.006616683243298044 0 -0.029516073168526297 0.0033770400877570807 0 -0.029334759059696316 0.008078392908809592 0 -0.021184425999826353 0.013546750954255461 0 -0.021471435316668775 0.0099472068214510826 0 -0.02278848055801113 0.013167828971128425 0 -0.018870648360912869 0.016930897106880251 0 -0.019689037244819071 0.011161989757024119 0 -0.02278848055801113 0.013167828971128425 0 -0.023280609419118418 0.017527483090024127 0 -0.018870648360912869 0.016930897106880251 0 -0.021875835894890724 0.020510362503931356 0 -0.023280609419118418 0.017527483090024127 0 -0.018870648360912869 0.016930897106880251 0 -0.021875835894890724 0.020510362503931356 0 -0.023657516990205584 0.021096975092099211 0 -0.023280609419118418 0.017527483090024127 0 -0.022656681426289411 0.010647276039209952 0 -0.02329361658676642 0.010624866157489787 0 -0.022710443666252064 0.009688844639464296 0 -0.02329361658676642 0.010624866157489787 0 -0.023636913050455281 0.0098709482183207634 0 -0.022710443666252064 0.009688844639464296 0 -0.021897147000446444 0.0093616731549943152 0 -0.022710443666252064 0.009688844639464296 0 -0.022153406657421326 0.010250819702032328 0 -0.022656681426289411 0.010647276039209952 0 -0.022710443666252064 0.009688844639464296 0 -0.022153406657421326 0.010250819702032328 0 -0.021897147000446444 0.0093616731549943152 0 -0.022710443666252064 0.009688844639464296 0 -0.022305288019508318 0.00881585840380039 0 -0.022710443666252064 0.009688844639464296 0 -0.022305288019508318 0.00881585840380039 0 -0.023082767595939226 0.0084936500928069064 0 -0.023636913050455281 0.0098709482183207634 0 -0.022710443666252064 0.009688844639464296 0 -0.023082767595939226 0.0084936500928069064 0 -0.022305288019508318 0.00881585840380039 0 -0.02233293368634371 0.0081334316675537241 0 -0.023082767595939226 0.0084936500928069064 0 -0.0219401465728833 0.0081154936802912345 0 -0.022305288019508318 0.00881585840380039 0 -0.02233293368634371 0.0081334316675537241 0 -0.0219401465728833 0.0081154936802912345 0 -0.02233293368634371 0.0081334316675537241 0 -0.022112985828027086 0.0077476281566060002 0 -0.02233293368634371 0.0081334316675537241 0 -0.023082767595939226 0.0084936500928069064 0 -0.022137784183342463 0.0077240900862091538 0 -0.02233293368634371 0.0081334316675537241 0 -0.022137784183342463 0.0077240900862091538 0 -0.022112985828027086 0.0077476281566060002 0 -0.019689037244819071 0.011161989757024119 0 -0.021982242272599387 0.009845399806396149 0 -0.022137784183342463 0.0077240900862091538 0 -0.021982242272599387 0.009845399806396149 0 -0.022905285530333028 0.0083330386932274677 0 -0.022137784183342463 0.0077240900862091538 0 -0.021471435316668775 0.0099472068214510826 0 -0.021990707582519115 0.0080227238923589878 0 -0.02278848055801113 0.013167828971128425 0 -0.019689037244819071 0.011161989757024119 0 -0.021982242272599387 0.009845399806396149 0 -0.023617739233104649 0.010047589436193634 0 -0.02278848055801113 0.013167828971128425 0 -0.021982242272599387 0.009845399806396149 0 -0.023617739233104649 0.010047589436193634 0 -0.021982242272599387 0.009845399806396149 0 -0.022905285530333028 0.0083330386932274677 0 -0.022905285530333028 0.0083330386932274677 0 -0.023020265333099199 0.0070893550717310407 0 -0.023333656696780492 0.0072525957908626633 0 -0.023020265333099199 0.0070893550717310407 0 -0.023454827337825265 0.0063704522625382251 0 -0.023349903761360903 0.0060765580422556132 0 -0.023020265333099199 0.0070893550717310407 0 -0.023454827337825265 0.0063704522625382251 0 -0.023333656696780492 0.0072525957908626633 0 -0.023020265333099199 0.0070893550717310407 0 -0.022871962660238658 0.0067417190372448445 0 -0.023349903761360903 0.0060765580422556132 0 -0.023020265333099199 0.0070893550717310407 0 -0.022871962660238658 0.0067417190372448445 0 -0.022137784183342463 0.0077240900862091538 0 -0.022905285530333028 0.0083330386932274677 0 -0.023020265333099199 0.0070893550717310407 0 -0.022137784183342463 0.0077240900862091538 0 -0.022137784183342463 0.0077240900862091538 0 -0.022112985828027086 0.0077476281566060002 0 -0.022484478201990635 0.0070489916967450801 0 -0.022871962660238658 0.0067417190372448445 0 -0.022137784183342463 0.0077240900862091538 0 -0.022484478201990635 0.0070489916967450801 0 -0.022112985828027086 0.0077476281566060002 0 -0.02184354497747169 0.0071055802978857189 0 -0.022484478201990635 0.0070489916967450801 0 -0.02184354497747169 0.0071055802978857189 0 -0.022484478201990635 0.0070489916967450801 0 -0.023169601070904419 0.0054301843487403788 0 -0.02394715790617304 0.0045477247487245402 0 -0.02317401161196465 0.0053254144547256049 0 -0.022871962660238658 0.0067417190372448445 0 -0.022484478201990635 0.0070489916967450801 0 -0.023169601070904419 0.0054301843487403788 0 -0.023169601070904419 0.0054301843487403788 0 -0.02396566197598125 0.0057434355135190206 0 -0.023710130032964332 0.0055271438062158909 0 -0.023169601070904419 0.0054301843487403788 0 -0.02396566197598125 0.0057434355135190206 0 -0.025813038675704985 0.0047645328946065973 0 -0.025560977275142994 0.0021332356009290021 0 -0.023169601070904419 0.0054301843487403788 0 -0.025813038675704985 0.0047645328946065973 0 -0.025187696562440545 0.0066320084263405557 0 -0.02396566197598125 0.0057434355135190206 0 -0.025813038675704985 0.0047645328946065973 0 -0.026478312190659731 0.0050256858072335077 0 -0.024594477778644829 0.0050283888172530126 0 -0.025187696562440545 0.0066320084263405557 0 -0.02396566197598125 0.0057434355135190206 0 -0.024369506926288493 0.0049761494962982569 0 -0.02396566197598125 0.0057434355135190206 0 -0.023710130032964332 0.0055271438062158909 0 -0.024369506926288493 0.0049761494962982569 0 -0.023710130032964332 0.0055271438062158909 0 -0.024075043249524572 0.0052020834912097922 0 -0.024369506926288493 0.0049761494962982569 0 -0.023710130032964332 0.0055271438062158909 0 -0.024075043249524572 0.0052020834912097922 0 -0.023871919445148829 0.0054449383400253402 0 -0.024075043249524572 0.0052020834912097922 0 -0.023871919445148829 0.0054449383400253402 0 -0.024088793136029359 0.0051498930852440063 0 -0.023710130032964332 0.0055271438062158909 0 -0.023871919445148829 0.0054449383400253402 0 -0.023586627899364689 0.0058817609434720095 0 -0.023871919445148829 0.0054449383400253402 0 -0.024088793136029359 0.0051498930852440063 0 -0.023827140281782216 0.0054403177634046443 0 -0.023871919445148829 0.0054449383400253402 0 -0.023827140281782216 0.0054403177634046443 0 -0.023665667620488457 0.0058132033485285648 0 -0.023871919445148829 0.0054449383400253402 0 -0.023586627899364689 0.0058817609434720095 0 -0.023665667620488457 0.0058132033485285648 0 -0.023586627899364689 0.0058817609434720095 0 -0.023454827337825265 0.0063704522625382251 0 -0.023349903761360903 0.0060765580422556132 0 -0.023586627899364689 0.0058817609434720095 0 -0.023454827337825265 0.0063704522625382251 0 -0.023665667620488457 0.0058132033485285648 0 -0.023169601070904419 0.0054301843487403788 0 -0.023710130032964332 0.0055271438062158909 0 -0.023349903761360903 0.0060765580422556132 0 -0.022871962660238658 0.0067417190372448445 0 -0.023169601070904419 0.0054301843487403788 0 -0.023349903761360903 0.0060765580422556132 0 -0.023710130032964332 0.0055271438062158909 0 -0.023586627899364689 0.0058817609434720095 0 -0.023349903761360903 0.0060765580422556132 0 -0.035822115589719705 -0.002173128942144296 0 -0.034755551366921676 0.0010024667445346575 0 -0.032663570966318174 -0.00073679608110128201 0 -0.037861779360705054 -9.343376607675364e-05 0 -0.035822115589719705 -0.002173128942144296 0 -0.034755551366921676 0.0010024667445346575 0 -0.034755551366921676 0.0010024667445346575 0 -0.032663570966318174 -0.00073679608110128201 0 -0.031785209338251984 0.0012430350170684157 0 -0.032603277457617548 -0.0032303094279530903 0 -0.032663570966318174 -0.00073679608110128201 0 -0.030547601403108835 -0.0015888652436252145 0 -0.032663570966318174 -0.00073679608110128201 0 -0.03054553025020379 0.0003225985970925243 0 -0.030547601403108835 -0.0015888652436252145 0 -0.032663570966318174 -0.00073679608110128201 0 -0.031785209338251984 0.0012430350170684157 0 -0.03054553025020379 0.0003225985970925243 0 -0.034755551366921676 0.0010024667445346575 0 -0.031785209338251984 0.0012430350170684157 0 -0.031635723726873434 0.0034591592608396969 0 -0.031785209338251984 0.0012430350170684157 0 -0.029505111648296091 0.0018507527453616331 0 -0.031635723726873434 0.0034591592608396969 0 -0.029505111648296091 0.0018507527453616331 0 -0.02886271220566454 0.0038118468895939721 0 -0.031635723726873434 0.0034591592608396969 0 -0.029505111648296091 0.0018507527453616331 0 -0.027527936272509424 0.0024853251284443398 0 -0.02886271220566454 0.0038118468895939721 0 -0.029505111648296091 0.0018507527453616331 0 -0.03054553025020379 0.0003225985970925243 0 -0.028310711612279403 0.00065151515609112394 0 -0.029505111648296091 0.0018507527453616331 0 -0.028310711612279403 0.00065151515609112394 0 -0.027527936272509424 0.0024853251284443398 0 -0.031785209338251984 0.0012430350170684157 0 -0.029505111648296091 0.0018507527453616331 0 -0.03054553025020379 0.0003225985970925243 0 -0.03054553025020379 0.0003225985970925243 0 -0.030547601403108835 -0.0015888652436252145 0 -0.028310711612279403 0.00065151515609112394 0 -0.028789783141565928 -0.00030485199107620301 0 -0.028597649080678227 -0.00016317230473229433 0 -0.028378137012513582 -7.0708268357165972e-05 0 -0.028597649080678227 -0.00016317230473229433 0 -0.028378137012513582 -7.0708268357165972e-05 0 -0.028310711612279403 0.00065151515609112394 0 -0.030095706256846391 -0.0011854139459167199 0 -0.02832643176525711 0.00059418397188624843 0 -0.022112985828027086 0.0077476281566060002 0 -0.02184354497747169 0.0071055802978857189 0 -0.021965508179396402 0.0079162169207538154 0 -0.02394715790617304 0.0045477247487245402 0 -0.024475065695036047 0.0042054995968978494 0 -0.025560977275142994 0.0021332356009290021 0 -0.028378137012513582 -7.0708268357165972e-05 0 -0.028310711612279403 0.00065151515609112394 0 -0.025560977275142994 0.0021332356009290021 0 -0.027527936272509424 0.0024853251284443398 0 -0.025813038675704985 0.0047645328946065973 0 -0.025560977275142994 0.0021332356009290021 0 -0.028310711612279403 0.00065151515609112394 0 -0.027527936272509424 0.0024853251284443398 0 -0.027527936272509424 0.0024853251284443398 0 -0.025813038675704985 0.0047645328946065973 0 -0.02886271220566454 0.0038118468895939721 0 -0.026478312190659731 0.0050256858072335077 0 -0.030502319124961406 0.0045565769821519575 0 -0.025187696562440545 0.0066320084263405557 0 -0.025813038675704985 0.0047645328946065973 0 -0.029516747252804305 0.006315382259579368 0 -0.027569060614355125 0.0034853138411704912 0 -0.03154170351027228 0.0028416834390413872 0 -0.031304919415740186 0.0057068846966118799 0 -0.029516747252804305 0.006315382259579368 0 -0.02886271220566454 0.0038118468895939721 0 -0.031635723726873434 0.0034591592608396969 0 -0.025813038675704985 0.0047645328946065973 0 -0.029516747252804305 0.006315382259579368 0 -0.02886271220566454 0.0038118468895939721 0 -0.034755551366921676 0.0010024667445346575 0 -0.031635723726873434 0.0034591592608396969 0 -0.034397417409303209 0.0048121685132025971 0 -0.030502319124961406 0.0045565769821519575 0 -0.03488224995162198 0.0036141740003640265 0 -0.029516747252804305 0.006315382259579368 0 -0.031635723726873434 0.0034591592608396969 0 -0.034397417409303209 0.0048121685132025971 0 -0.03154170351027228 0.0028416834390413872 0 -0.035431791468687093 0.0024466280792636084 0 -0.034575107056139143 0.0049697042741319968 0 -0.03154170351027228 0.0028416834390413872 0 -0.034575107056139143 0.0049697042741319968 0 -0.031304919415740186 0.0057068846966118799 0 -0.037586186426071866 0.004168817581344522 0 -0.036561500415943748 0.0059900344081439396 0 -0.034575107056139143 0.0049697042741319968 0 -0.037586186426071866 0.004168817581344522 0 -0.035431791468687093 0.0024466280792636084 0 -0.034575107056139143 0.0049697042741319968 0 -0.03884906756817802 0.0024689667563051144 0 -0.034755551366921676 0.0010024667445346575 0 -0.034397417409303209 0.0048121685132025971 0 -0.036907258278988796 0.0079948770455305594 0 -0.035358904926695633 0.0078154015478532814 0 -0.03618602129575426 0.0097192170993609713 0 -0.035358904926695633 0.0078154015478532814 0 -0.035486574899079616 0.0065124778928464895 0 -0.03381389787401886 0.0067473475504089631 0 -0.03687056943762685 0.0069401416779744617 0 -0.036907258278988796 0.0079948770455305594 0 -0.035358904926695633 0.0078154015478532814 0 -0.03687056943762685 0.0069401416779744617 0 -0.035358904926695633 0.0078154015478532814 0 -0.035486574899079616 0.0065124778928464895 0 -0.03687056943762685 0.0069401416779744617 0 -0.036561500415943748 0.0059900344081439396 0 -0.035486574899079616 0.0065124778928464895 0 -0.036561500415943748 0.0059900344081439396 0 -0.035486574899079616 0.0065124778928464895 0 -0.034575107056139143 0.0049697042741319968 0 -0.035486574899079616 0.0065124778928464895 0 -0.03381389787401886 0.0067473475504089631 0 -0.034575107056139143 0.0049697042741319968 0 -0.03381389787401886 0.0067473475504089631 0 -0.034575107056139143 0.0049697042741319968 0 -0.031304919415740186 0.0057068846966118799 0 -0.035358904926695633 0.0078154015478532814 0 -0.032316383057382873 0.0089666232857505308 0 -0.03618602129575426 0.0097192170993609713 0 -0.03381389787401886 0.0067473475504089631 0 -0.031304919415740186 0.0057068846966118799 0 -0.032316383057382873 0.0089666232857505308 0 -0.035358904926695633 0.0078154015478532814 0 -0.03381389787401886 0.0067473475504089631 0 -0.032316383057382873 0.0089666232857505308 0 -0.028121197741080919 0.0045459559637835417 0 -0.032271403286043797 0.0045544431653125718 0 -0.031304919415740186 0.0057068846966118799 0 -0.027902371875780867 0.0074735242933966564 0 -0.032316383057382873 0.0089666232857505308 0 -0.027569060614355125 0.0034853138411704912 0 -0.031304919415740186 0.0057068846966118799 0 -0.027902371875780867 0.0074735242933966564 0 -0.028139383414540385 0.0015451649376282913 0 -0.028666868336207709 0.0027839087797372837 0 -0.031446485319332237 0.00020535198902235286 0 -0.028666868336207709 0.0027839087797372837 0 -0.031271961974791311 0.0025787338707245087 0 -0.031446485319332237 0.00020535198902235286 0 -0.032271403286043797 0.0045544431653125718 0 -0.034094614752083918 0.0051631805211356501 0 -0.031446485319332237 0.00020535198902235286 0 -0.033017466167586114 0.00099888542025589663 0 -0.034904607857921072 -0.00050882919019730542 0 -0.031271961974791311 0.0025787338707245087 0 -0.031446485319332237 0.00020535198902235286 0 -0.033017466167586114 0.00099888542025589663 0 -0.031271961974791311 0.0025787338707245087 0 -0.033249338955034582 0.0020547950639312456 0 -0.033017466167586114 0.00099888542025589663 0 -0.033017466167586114 0.00099888542025589663 0 -0.034693873582638909 0.0010813770465409611 0 -0.034904607857921072 -0.00050882919019730542 0 -0.036305134114214196 0.00043888090052288624 0 -0.034693873582638909 0.0010813770465409611 0 -0.034904607857921072 -0.00050882919019730542 0 -0.033249338955034582 0.0020547950639312456 0 -0.033017466167586114 0.00099888542025589663 0 -0.034693873582638909 0.0010813770465409611 0 -0.024863283178533813 0.0045573713025372619 0 -0.024784761758186023 0.0045619808345097471 0 -0.024415272252460485 0.004891481770564309 0 -0.024863283178533813 0.0045573713025372619 0 -0.024784761758186023 0.0045619808345097471 0 -0.025456042077535421 0.0041159517475843734 0 -0.024863283178533813 0.0045573713025372619 0 -0.025137758125622325 0.004454834326774351 0 -0.025456042077535421 0.0041159517475843734 0 -0.024784761758186023 0.0045619808345097471 0 -0.024239701662087849 0.0049549194525155497 0 -0.024415272252460485 0.004891481770564309 0 -0.024784761758186023 0.0045619808345097471 0 -0.024239701662087849 0.0049549194525155497 0 -0.024497514361432906 0.0047813077855060841 0 -0.024239701662087849 0.0049549194525155497 0 -0.024088793136029359 0.0051498930852440063 0 -0.024415272252460485 0.004891481770564309 0 -0.024075043249524572 0.0052020834912097922 0 -0.024088793136029359 0.0051498930852440063 0 -0.024415272252460485 0.004891481770564309 0 -0.024075043249524572 0.0052020834912097922 0 -0.024415272252460485 0.004891481770564309 0 -0.024369506926288493 0.0049761494962982569 0 -0.024863283178533813 0.0045573713025372619 0 -0.024415272252460485 0.004891481770564309 0 -0.024369506926288493 0.0049761494962982569 0 -0.024863283178533813 0.0045573713025372619 0 -0.024369506926288493 0.0049761494962982569 0 -0.025137758125622325 0.004454834326774351 0 -0.024369506926288493 0.0049761494962982569 0 -0.026200531789987668 0.0051657937221692325 0 -0.025137758125622325 0.004454834326774351 0 -0.027569060614355125 0.0034853138411704912 0 -0.024369506926288493 0.0049761494962982569 0 -0.026200531789987668 0.0051657937221692325 0 -0.027569060614355125 0.0034853138411704912 0 -0.027902371875780867 0.0074735242933966564 0 -0.026200531789987668 0.0051657937221692325 0 -0.028121197741080919 0.0045459559637835417 0 -0.025593211335025918 0.0044611243119078055 0 -0.027902371875780867 0.0074735242933966564 0 -0.026200531789987668 0.0051657937221692325 0 -0.025137758125622325 0.004454834326774351 0 -0.028139383414540385 0.0015451649376282913 0 -0.025137758125622325 0.004454834326774351 0 -0.026519156291483933 0.0034259130412525487 0 -0.026519156291483933 0.0034259130412525487 0 -0.025984945154225839 0.0040922822742638911 0 -0.025456042077535421 0.0041159517475843734 0 -0.025137758125622325 0.004454834326774351 0 -0.026519156291483933 0.0034259130412525487 0 -0.025456042077535421 0.0041159517475843734 0 -0.028139383414540385 0.0015451649376282913 0 -0.028666868336207709 0.0027839087797372837 0 -0.026519156291483933 0.0034259130412525487 0 -0.028666868336207709 0.0027839087797372837 0 -0.026519156291483933 0.0034259130412525487 0 -0.026863867943709031 0.0041922798611779607 0 -0.026519156291483933 0.0034259130412525487 0 -0.025984945154225839 0.0040922822742638911 0 -0.026863867943709031 0.0041922798611779607 0 -0.025984945154225839 0.0040922822742638911 0 -0.025557164619188104 0.0045701444370539147 0 -0.026863867943709031 0.0041922798611779607 0 -0.025984945154225839 0.0040922822742638911 0 -0.025160088935101341 0.0044213790960571054 0 -0.025557164619188104 0.0045701444370539147 0 -0.025984945154225839 0.0040922822742638911 0 -0.025160088935101341 0.0044213790960571054 0 -0.025456042077535421 0.0041159517475843734 0 -0.024784761758186023 0.0045619808345097471 0 -0.025160088935101341 0.0044213790960571054 0 -0.025456042077535421 0.0041159517475843734 0 -0.025160088935101341 0.0044213790960571054 0 -0.024497514361432906 0.0047813077855060841 0 -0.024799278267516139 0.0047680253899485235 0 -0.024497514361432906 0.0047813077855060841 0 -0.024799278267516139 0.0047680253899485235 0 -0.024301110828789909 0.0049750568639191015 0 -0.024784761758186023 0.0045619808345097471 0 -0.025160088935101341 0.0044213790960571054 0 -0.024497514361432906 0.0047813077855060841 0 -0.025160088935101341 0.0044213790960571054 0 -0.024799278267516139 0.0047680253899485235 0 -0.025557164619188104 0.0045701444370539147 0 -0.024799278267516139 0.0047680253899485235 0 -0.024434393367425349 0.0050963674426385344 0 -0.024301110828789909 0.0049750568639191015 0 -0.024434393367425349 0.0050963674426385344 0 -0.024301110828789909 0.0049750568639191015 0 -0.023998941672162703 0.0051989708012871224 0 -0.023904178292072861 0.0052176371770019337 0 -0.023495390167788434 0.0054709088994645341 0 -0.023632161818221309 0.0054207076150663072 0 -0.024434393367425349 0.0050963674426385344 0 -0.023495390167788434 0.0054709088994645341 0 -0.023998941672162703 0.0051989708012871224 0 -0.024139448018046107 0.005171089959167912 0 -0.023582486394638578 0.0053635762509966637 0 -0.023495390167788434 0.0054709088994645341 0 -0.023755655402203105 0.005255008844863112 0 -0.023998941672162703 0.0051989708012871224 0 -0.023299856238116645 0.0054843407775389081 0 -0.023755655402203105 0.005255008844863112 0 -0.023467374399796733 0.0053837386020773826 0 -0.023495390167788434 0.0054709088994645341 0 -0.023299856238116645 0.0054843407775389081 0 -0.023755655402203105 0.005255008844863112 0 -0.023755655402203105 0.005255008844863112 0 -0.024301110828789909 0.0049750568639191015 0 -0.023989889276177394 0.0051017255134410168 0 -0.024497514361432906 0.0047813077855060841 0 -0.024301110828789909 0.0049750568639191015 0 -0.023989889276177394 0.0051017255134410168 0 -0.023755655402203105 0.005255008844863112 0 -0.024301110828789909 0.0049750568639191015 0 -0.023998941672162703 0.0051989708012871224 0 -0.022162885911560171 0.006235562193620512 0 -0.02284900173900746 0.0057293756217957842 0 -0.021973151211337111 0.0059927637723855738 0 -0.021469664944575972 0.0063426985108152572 0 -0.022162885911560171 0.006235562193620512 0 -0.021973151211337111 0.0059927637723855738 0 -0.023495390167788434 0.0054709088994645341 0 -0.02284900173900746 0.0057293756217957842 0 -0.023632161818221309 0.0054207076150663072 0 -0.022836102627754814 0.0056607307008906477 0 -0.02301993190649735 0.0058414527241988611 0 -0.022162885911560171 0.006235562193620512 0 -0.02284900173900746 0.0057293756217957842 0 -0.022441388854072129 0.0063232786966227637 0 -0.023495390167788434 0.0054709088994645341 0 -0.023299856238116645 0.0054843407775389081 0 -0.02284900173900746 0.0057293756217957842 0 -0.023299856238116645 0.0054843407775389081 0 -0.02284900173900746 0.0057293756217957842 0 -0.022931772647221717 0.0056086868806743042 0 -0.02284900173900746 0.0057293756217957842 0 -0.022489438294466636 0.0058020582841364562 0 -0.022931772647221717 0.0056086868806743042 0 -0.021973151211337111 0.0059927637723855738 0 -0.022360886620178072 0.005867015961553276 0 -0.021837345145638752 0.0061042633477998882 0 -0.02284900173900746 0.0057293756217957842 0 -0.021973151211337111 0.0059927637723855738 0 -0.022489438294466636 0.0058020582841364562 0 -0.021973151211337111 0.0059927637723855738 0 -0.022489438294466636 0.0058020582841364562 0 -0.022360886620178072 0.005867015961553276 0 -0.022360886620178072 0.005867015961553276 0 -0.022732977532709864 0.0057962533039823787 0 -0.022353093856982462 0.0059525394149602959 0 -0.022489438294466636 0.0058020582841364562 0 -0.022360886620178072 0.005867015961553276 0 -0.022931772647221717 0.0056086868806743042 0 -0.022360886620178072 0.005867015961553276 0 -0.022931772647221717 0.0056086868806743042 0 -0.022732977532709864 0.0057962533039823787 0 -0.022931772647221717 0.0056086868806743042 0 -0.023131398366238155 0.0056518693641339837 0 -0.023394630479203229 0.0054744103134924593 0 -0.022931772647221717 0.0056086868806743042 0 -0.023131398366238155 0.0056518693641339837 0 -0.022732977532709864 0.0057962533039823787 0 -0.023299856238116645 0.0054843407775389081 0 -0.022931772647221717 0.0056086868806743042 0 -0.023467374399796733 0.0053837386020773826 0 -0.022931772647221717 0.0056086868806743042 0 -0.023467374399796733 0.0053837386020773826 0 -0.023394630479203229 0.0054744103134924593 0 -0.023131398366238155 0.0056518693641339837 0 -0.023473806933590937 0.0056251929203479014 0 -0.02312814804185867 0.0057969630429496512 0 -0.023131398366238155 0.0056518693641339837 0 -0.023394630479203229 0.0054744103134924593 0 -0.023473806933590937 0.0056251929203479014 0 -0.023131398366238155 0.0056518693641339837 0 -0.022732977532709864 0.0057962533039823787 0 -0.02312814804185867 0.0057969630429496512 0 -0.022732977532709864 0.0057962533039823787 0 -0.022666609037715221 0.0059187264388446516 0 -0.02312814804185867 0.0057969630429496512 0 -0.022732977532709864 0.0057962533039823787 0 -0.022666609037715221 0.0059187264388446516 0 -0.022353093856982462 0.0059525394149602959 0 -0.024239701662087849 0.0049549194525155497 0 -0.023989889276177394 0.0051017255134410168 0 -0.023950528608428202 0.0051900711577332493 0 -0.024239701662087849 0.0049549194525155497 0 -0.024497514361432906 0.0047813077855060841 0 -0.023989889276177394 0.0051017255134410168 0 -0.023989889276177394 0.0051017255134410168 0 -0.023467374399796733 0.0053837386020773826 0 -0.02368679207935747 0.0053551630190437662 0 -0.023755655402203105 0.005255008844863112 0 -0.023989889276177394 0.0051017255134410168 0 -0.023467374399796733 0.0053837386020773826 0 -0.023467374399796733 0.0053837386020773826 0 -0.02368679207935747 0.0053551630190437662 0 -0.023394630479203229 0.0054744103134924593 0 -0.02368679207935747 0.0053551630190437662 0 -0.023394630479203229 0.0054744103134924593 0 -0.023473806933590937 0.0056251929203479014 0 -0.02368679207935747 0.0053551630190437662 0 -0.023690685186642302 0.0055067837652999028 0 -0.023473806933590937 0.0056251929203479014 0 -0.023950528608428202 0.0051900711577332493 0 -0.023827140281782216 0.0054403177634046443 0 -0.023690685186642302 0.0055067837652999028 0 -0.02368679207935747 0.0053551630190437662 0 -0.023950528608428202 0.0051900711577332493 0 -0.023690685186642302 0.0055067837652999028 0 -0.023989889276177394 0.0051017255134410168 0 -0.02368679207935747 0.0053551630190437662 0 -0.023950528608428202 0.0051900711577332493 0 -0.024239701662087849 0.0049549194525155497 0 -0.024088793136029359 0.0051498930852440063 0 -0.023950528608428202 0.0051900711577332493 0 -0.024088793136029359 0.0051498930852440063 0 -0.023950528608428202 0.0051900711577332493 0 -0.023827140281782216 0.0054403177634046443 0 -0.023827140281782216 0.0054403177634046443 0 -0.023626961256014111 0.0057708976859054449 0 -0.023690685186642302 0.0055067837652999028 0 -0.023827140281782216 0.0054403177634046443 0 -0.023665667620488457 0.0058132033485285648 0 -0.023626961256014111 0.0057708976859054449 0 -0.023665667620488457 0.0058132033485285648 0 -0.02357935897976841 0.0061432917730778374 0 -0.023626961256014111 0.0057708976859054449 0 -0.023454827337825265 0.0063704522625382251 0 -0.02357935897976841 0.0061432917730778374 0 -0.023485792375723558 0.00672128914802325 0 -0.023454827337825265 0.0063704522625382251 0 -0.023665667620488457 0.0058132033485285648 0 -0.02357935897976841 0.0061432917730778374 0 -0.023538288270917401 0.0064016770325466344 0 -0.023525752366768817 0.0059486777726679742 0 -0.02347072861754659 0.0062042677815533874 0 -0.02357935897976841 0.0061432917730778374 0 -0.023538288270917401 0.0064016770325466344 0 -0.023525752366768817 0.0059486777726679742 0 -0.02357935897976841 0.0061432917730778374 0 -0.023538288270917401 0.0064016770325466344 0 -0.023485792375723558 0.00672128914802325 0 -0.02357935897976841 0.0061432917730778374 0 -0.023525752366768817 0.0059486777726679742 0 -0.023626961256014111 0.0057708976859054449 0 -0.023525752366768817 0.0059486777726679742 0 -0.023626961256014111 0.0057708976859054449 0 -0.023473806933590937 0.0056251929203479014 0 -0.023626961256014111 0.0057708976859054449 0 -0.023690685186642302 0.0055067837652999028 0 -0.023473806933590937 0.0056251929203479014 0 -0.023473806933590937 0.0056251929203479014 0 -0.02338279773799759 0.0058797619042115076 0 -0.02312814804185867 0.0057969630429496512 0 -0.02338279773799759 0.0058797619042115076 0 -0.02312814804185867 0.0057969630429496512 0 -0.023303647526920546 0.0060199923259730784 0 -0.023525752366768817 0.0059486777726679742 0 -0.023473806933590937 0.0056251929203479014 0 -0.02338279773799759 0.0058797619042115076 0 -0.02312814804185867 0.0057969630429496512 0 -0.022982305380702686 0.0059305734758077393 0 -0.023303647526920546 0.0060199923259730784 0 -0.022666609037715221 0.0059187264388446516 0 -0.02312814804185867 0.0057969630429496512 0 -0.022982305380702686 0.0059305734758077393 0 -0.022982305380702686 0.0059305734758077393 0 -0.023303647526920546 0.0060199923259730784 0 -0.023173342437403811 0.006020841178595162 0 -0.023303647526920546 0.0060199923259730784 0 -0.023173342437403811 0.006020841178595162 0 -0.023446794349098278 0.006400441347128168 0 -0.023525752366768817 0.0059486777726679742 0 -0.02338279773799759 0.0058797619042115076 0 -0.02347072861754659 0.0062042677815533874 0 -0.02338279773799759 0.0058797619042115076 0 -0.023303647526920546 0.0060199923259730784 0 -0.02347072861754659 0.0062042677815533874 0 -0.023303647526920546 0.0060199923259730784 0 -0.02347072861754659 0.0062042677815533874 0 -0.023446794349098278 0.006400441347128168 0 -0.023538288270917401 0.0064016770325466344 0 -0.02347072861754659 0.0062042677815533874 0 -0.023487276229263478 0.0068488469018332864 0 -0.02347072861754659 0.0062042677815533874 0 -0.023487276229263478 0.0068488469018332864 0 -0.023446794349098278 0.006400441347128168 0 -0.023487276229263478 0.0068488469018332864 0 -0.023446794349098278 0.006400441347128168 0 -0.023459010687204063 0.0070784971434892973 0 -0.023173342437403811 0.006020841178595162 0 -0.023446794349098278 0.006400441347128168 0 -0.023237723305626869 0.0061216323727815375 0 -0.023446794349098278 0.006400441347128168 0 -0.023539089520906099 0.0067363234991088252 0 -0.023237723305626869 0.0061216323727815375 0 -0.023446794349098278 0.006400441347128168 0 -0.023539089520906099 0.0067363234991088252 0 -0.023459010687204063 0.0070784971434892973 0 -0.025016415630793289 0.0073268824811034434 0 -0.0192620670389856 0.0085073276706745769 0 -0.023893453546726517 0.0083715312719893666 0 -0.02365629030206956 0.0074528341976026775 0 -0.02454865088405744 0.0078295726445576416 0 -0.023539089520906099 0.0067363234991088252 0 -0.023242297321059424 0.0060635053042425516 0 -0.023237723305626869 0.0061216323727815375 0 -0.023539089520906099 0.0067363234991088252 0 -0.02365629030206956 0.0074528341976026775 0 -0.023242297321059424 0.0060635053042425516 0 -0.023539089520906099 0.0067363234991088252 0 -0.02365629030206956 0.0074528341976026775 0 -0.023386864975035851 0.0075973885269592732 0 -0.023103301031574201 0.0085388877691110424 0 -0.023893453546726517 0.0083715312719893666 0 -0.02365629030206956 0.0074528341976026775 0 -0.02071327015842872 0.01104312175548689 0 -0.0192620670389856 0.0085073276706745769 0 -0.023487276229263478 0.0068488469018332864 0 -0.023459010687204063 0.0070784971434892973 0 -0.023401194997033921 0.0079553494698313531 0 -0.023539089520906099 0.0067363234991088252 0 -0.023459010687204063 0.0070784971434892973 0 -0.023386864975035851 0.0075973885269592732 0 -0.023459010687204063 0.0070784971434892973 0 -0.023386864975035851 0.0075973885269592732 0 -0.023401194997033921 0.0079553494698313531 0 -0.023103301031574201 0.0085388877691110424 0 -0.023386864975035851 0.0075973885269592732 0 -0.023401194997033921 0.0079553494698313531 0 -0.023103301031574201 0.0085388877691110424 0 -0.02365629030206956 0.0074528341976026775 0 -0.023386864975035851 0.0075973885269592732 0 -0.023447057503986839 0.009318429390353121 0 -0.023103301031574201 0.0085388877691110424 0 -0.023401194997033921 0.0079553494698313531 0 -0.023723397756239807 0.0086373826003194164 0 -0.023401194997033921 0.0079553494698313531 0 -0.023541113367229159 0.0072783576146098431 0 -0.023723397756239807 0.0086373826003194164 0 -0.023447057503986839 0.009318429390353121 0 -0.023401194997033921 0.0079553494698313531 0 -0.023487276229263478 0.0068488469018332864 0 -0.023401194997033921 0.0079553494698313531 0 -0.023541113367229159 0.0072783576146098431 0 -0.023723397756239807 0.0086373826003194164 0 -0.023333656696780492 0.0072525957908626633 0 -0.023541113367229159 0.0072783576146098431 0 -0.023723397756239807 0.0086373826003194164 0 -0.022905285530333028 0.0083330386932274677 0 -0.023333656696780492 0.0072525957908626633 0 -0.023333656696780492 0.0072525957908626633 0 -0.023485792375723558 0.00672128914802325 0 -0.023541113367229159 0.0072783576146098431 0 -0.023454827337825265 0.0063704522625382251 0 -0.023333656696780492 0.0072525957908626633 0 -0.023485792375723558 0.00672128914802325 0 -0.023538288270917401 0.0064016770325466344 0 -0.023485792375723558 0.00672128914802325 0 -0.023541113367229159 0.0072783576146098431 0 -0.023538288270917401 0.0064016770325466344 0 -0.023487276229263478 0.0068488469018332864 0 -0.023541113367229159 0.0072783576146098431 0 -0.013382001837464059 0.00820426300183048 0 -0.01397288384865145 0.007004466444043094 0 -0.015266054929520911 0.0072865567157266243 0 -0.019520253746258463 0.0040625585560121243 0 -0.021921276971434454 0.0048025087898410507 0 -0.020753509708654753 0.0050117458601190009 0 -0.016348617508283311 0.0046177148479384289 0 -0.018730735464605418 0.005943877960052359 0 -0.013382001837464059 0.00820426300183048 0 -0.01397288384865145 0.007004466444043094 0 -0.01290881109430124 0.0062223523603034741 0 -0.016348617508283311 0.0046177148479384289 0 -0.0082908929861644776 0.0066515312170621803 0 -0.0082908929861644776 0.0066515312170621803 0 -0.01112098805977531 0.011398345616728672 0 -0.01397288384865145 0.007004466444043094 0 -0.01290881109430124 0.0062223523603034741 0 -0.01503584358994426 0.0062693399472353575 0 -0.01397288384865145 0.007004466444043094 0 -0.01503584358994426 0.0062693399472353575 0 -0.015266054929520911 0.0072865567157266243 0 -0.01503584358994426 0.0062693399472353575 0 -0.017244883909524146 0.0063508880185765551 0 -0.015266054929520911 0.0072865567157266243 0 -0.023242297321059424 0.0060635053042425516 0 -0.022798363286068685 0.0056646339462508993 0 -0.021921276971434454 0.0048025087898410507 0 -0.01112098805977531 0.011398345616728672 0 -0.0192620670389856 0.0085073276706745769 0 -0.0192620670389856 0.0085073276706745769 0 -0.018730735464605418 0.005943877960052359 0 -0.023242297321059424 0.0060635053042425516 0 -0.023237723305626869 0.0061216323727815375 0 -0.022798363286068685 0.0056646339462508993 0 -0.023173342437403811 0.006020841178595162 0 -0.023237723305626869 0.0061216323727815375 0 -0.022701673281370686 0.0057440637865647133 0 -0.023237723305626869 0.0061216323727815375 0 -0.022798363286068685 0.0056646339462508993 0 -0.022701673281370686 0.0057440637865647133 0 -0.022798363286068685 0.0056646339462508993 0 -0.021921276971434454 0.0048025087898410507 0 -0.022701673281370686 0.0057440637865647133 0 -0.021912089066226926 0.0057010937089841309 0 -0.022701673281370686 0.0057440637865647133 0 -0.022422014381925856 0.0059713211248851664 0 -0.021921276971434454 0.0048025087898410507 0 -0.021912089066226926 0.0057010937089841309 0 -0.022701673281370686 0.0057440637865647133 0 -0.022982305380702686 0.0059305734758077393 0 -0.022701673281370686 0.0057440637865647133 0 -0.022422014381925856 0.0059713211248851664 0 -0.022982305380702686 0.0059305734758077393 0 -0.023173342437403811 0.006020841178595162 0 -0.022701673281370686 0.0057440637865647133 0 -0.022666609037715221 0.0059187264388446516 0 -0.022982305380702686 0.0059305734758077393 0 -0.022422014381925856 0.0059713211248851664 0 -0.021912089066226926 0.0057010937089841309 0 -0.022422014381925856 0.0059713211248851664 0 -0.021706604611540302 0.0063261410870904056 0 -0.021063355956439184 0.0059941492362616281 0 -0.020371995265190644 0.0067814992049520925 0 -0.021706604611540302 0.0063261410870904056 0 -0.021912089066226926 0.0057010937089841309 0 -0.021063355956439184 0.0059941492362616281 0 -0.021706604611540302 0.0063261410870904056 0 -0.021063355956439184 0.0059941492362616281 0 -0.020027644733110674 0.0055804130272561168 0 -0.020371995265190644 0.0067814992049520925 0 -0.021912089066226926 0.0057010937089841309 0 -0.021063355956439184 0.0059941492362616281 0 -0.020753509708654753 0.0050117458601190009 0 -0.021921276971434454 0.0048025087898410507 0 -0.021912089066226926 0.0057010937089841309 0 -0.020753509708654753 0.0050117458601190009 0 -0.021063355956439184 0.0059941492362616281 0 -0.020753509708654753 0.0050117458601190009 0 -0.020027644733110674 0.0055804130272561168 0 -0.017080414656202862 0.0052384250139216239 0 -0.019099245137823392 0.0028224382606091827 0 -0.019442269172439072 0.0042555887403093488 0 -0.016348617508283311 0.0046177148479384289 0 -0.017254314963560329 0.0044564028528709821 0 -0.019520253746258463 0.0040625585560121243 0 -0.020753509708654753 0.0050117458601190009 0 -0.019442269172439072 0.0042555887403093488 0 -0.020753509708654753 0.0050117458601190009 0 -0.019442269172439072 0.0042555887403093488 0 -0.020027644733110674 0.0055804130272561168 0 -0.017080414656202862 0.0052384250139216239 0 -0.019442269172439072 0.0042555887403093488 0 -0.020027644733110674 0.0055804130272561168 0 -0.017080414656202862 0.0052384250139216239 0 -0.020027644733110674 0.0055804130272561168 0 -0.020371995265190644 0.0067814992049520925 0 -0.017080414656202862 0.0052384250139216239 0 -0.016217041986665504 0.007105188632390581 0 -0.017683779207730555 0.0070217127022358002 0 -0.017244113130876374 0.0052106115050814528 0 -0.018912012731756387 0.0067298939921813855 0 -0.017683779207730555 0.0070217127022358002 0 -0.017688553212891475 0.0071096127718083754 0 -0.018070484208112095 0.0065686274622562468 0 -0.016217041986665504 0.007105188632390581 0 -0.017683779207730555 0.0070217127022358002 0 -0.017184023114425184 0.0073025461560768633 0 -0.016910898906751331 0.007920701528571196 0 -0.017184023114425184 0.0073025461560768633 0 -0.017688553212891475 0.0071096127718083754 0 -0.017683779207730555 0.0070217127022358002 0 -0.017184023114425184 0.0073025461560768633 0 -0.017688553212891475 0.0071096127718083754 0 -0.018912012731756387 0.0067298939921813855 0 -0.019778163910254956 0.0065999577598222772 0 -0.020371995265190644 0.0067814992049520925 0 -0.021445316984901066 0.0065817162852729472 0 -0.021706604611540302 0.0063261410870904056 0 -0.017688553212891475 0.0071096127718083754 0 -0.018070484208112095 0.0065686274622562468 0 -0.018220256390356657 0.0062397910953647809 0 -0.018070484208112095 0.0065686274622562468 0 -0.018220256390356657 0.0062397910953647809 0 -0.018621772927117013 0.0061134682557188293 0 -0.019778163910254956 0.0065999577598222772 0 -0.020381927694661784 0.0061909618961984427 0 -0.017314374666860213 0.0057599317968281133 0 -0.016925630342405899 0.004320883913421736 0 -0.018220256390356657 0.0062397910953647809 0 -0.016910898906751331 0.007920701528571196 0 -0.017688553212891475 0.0071096127718083754 0 -0.018220256390356657 0.0062397910953647809 0 -0.016766503266057751 0.0059823769939233449 0 -0.017905358795988157 0.0062309706519214532 0 -0.022666609037715221 0.0059187264388446516 0 -0.022422014381925856 0.0059713211248851664 0 -0.022183222217145852 0.0061233736412899574 0 -0.022666609037715221 0.0059187264388446516 0 -0.022183222217145852 0.0061233736412899574 0 -0.022353093856982462 0.0059525394149602959 0 -0.021445316984901066 0.0065817162852729472 0 -0.021706604611540302 0.0063261410870904056 0 -0.021768140293224367 0.0063315980393056958 0 -0.022422014381925856 0.0059713211248851664 0 -0.022183222217145852 0.0061233736412899574 0 -0.021706604611540302 0.0063261410870904056 0 -0.022183222217145852 0.0061233736412899574 0 -0.021706604611540302 0.0063261410870904056 0 -0.021768140293224367 0.0063315980393056958 0 -0.021768140293224367 0.0063315980393056958 0 -0.021837345145638752 0.0061042633477998882 0 -0.021627323987708429 0.0062529183133396031 0 -0.021445316984901066 0.0065817162852729472 0 -0.021768140293224367 0.0063315980393056958 0 -0.021627323987708429 0.0062529183133396031 0 -0.022183222217145852 0.0061233736412899574 0 -0.021837345145638752 0.0061042633477998882 0 -0.022353093856982462 0.0059525394149602959 0 -0.022183222217145852 0.0061233736412899574 0 -0.021768140293224367 0.0063315980393056958 0 -0.021837345145638752 0.0061042633477998882 0 -0.022360886620178072 0.005867015961553276 0 -0.021837345145638752 0.0061042633477998882 0 -0.022353093856982462 0.0059525394149602959 0 -0.021973151211337111 0.0059927637723855738 0 -0.021837345145638752 0.0061042633477998882 0 -0.020849776631278769 0.0062194741686927802 0 -0.020381927694661784 0.0061909618961984427 0 -0.020840442731292472 0.0063223303037579538 0 -0.021837345145638752 0.0061042633477998882 0 -0.021627323987708429 0.0062529183133396031 0 -0.020849776631278769 0.0062194741686927802 0 -0.019099673594390673 0.0059101959545725261 0 -0.020849776631278769 0.0062194741686927802 0 -0.019212763300841568 0.0062606079227739975 0 -0.020849776631278769 0.0062194741686927802 0 -0.019212763300841568 0.0062606079227739975 0 -0.019406859988502206 0.0067316006069880275 0 -0.021469664944575972 0.0063426985108152572 0 -0.021973151211337111 0.0059927637723855738 0 -0.020849776631278769 0.0062194741686927802 0 -0.017314374666860213 0.0057599317968281133 0 -0.018220256390356657 0.0062397910953647809 0 -0.018049009729113212 0.0063016909598388919 0 -0.018220256390356657 0.0062397910953647809 0 -0.018049009729113212 0.0063016909598388919 0 -0.018621772927117013 0.0061134682557188293 0 -0.018070484208112095 0.0065686274622562468 0 -0.019099673594390673 0.0059101959545725261 0 -0.018621772927117013 0.0061134682557188293 0 -0.019099673594390673 0.0059101959545725261 0 -0.018621772927117013 0.0061134682557188293 0 -0.019212763300841568 0.0062606079227739975 0 -0.019212763300841568 0.0062606079227739975 0 -0.018550275364220787 0.0065534405984240983 0 -0.019406859988502206 0.0067316006069880275 0 -0.018621772927117013 0.0061134682557188293 0 -0.019212763300841568 0.0062606079227739975 0 -0.018550275364220787 0.0065534405984240983 0 -0.018049009729113212 0.0063016909598388919 0 -0.018621772927117013 0.0061134682557188293 0 -0.018550275364220787 0.0065534405984240983 0 -0.018049009729113212 0.0063016909598388919 0 -0.018550275364220787 0.0065534405984240983 0 -0.01796464549693037 0.0066583193066528986 0 -0.018550275364220787 0.0065534405984240983 0 -0.01796464549693037 0.0066583193066528986 0 -0.018216825067285971 0.0068124690097631875 0 -0.018549840610574908 0.0070148704950790518 0 -0.018216825067285971 0.0068124690097631875 0 -0.017917845529832489 0.006910700027765922 0 -0.018550275364220787 0.0065534405984240983 0 -0.018549840610574908 0.0070148704950790518 0 -0.018216825067285971 0.0068124690097631875 0 -0.018549840610574908 0.0070148704950790518 0 -0.019406859988502206 0.0067316006069880275 0 -0.019342633472363802 0.0071654796468749119 0 -0.018550275364220787 0.0065534405984240983 0 -0.018549840610574908 0.0070148704950790518 0 -0.019406859988502206 0.0067316006069880275 0 -0.018549840610574908 0.0070148704950790518 0 -0.019342633472363802 0.0071654796468749119 0 -0.018721084958545475 0.0073544918721540906 0 -0.018549840610574908 0.0070148704950790518 0 -0.018721084958545475 0.0073544918721540906 0 -0.018214966556921109 0.0073810541952495081 0 -0.021469664944575972 0.0063426985108152572 0 -0.02054379020493553 0.0068135528122403415 0 -0.021560698380846639 0.0066448994761906192 0 -0.021469664944575972 0.0063426985108152572 0 -0.020849776631278769 0.0062194741686927802 0 -0.02054379020493553 0.0068135528122403415 0 -0.019406859988502206 0.0067316006069880275 0 -0.019342633472363802 0.0071654796468749119 0 -0.02054379020493553 0.0068135528122403415 0 -0.020849776631278769 0.0062194741686927802 0 -0.019406859988502206 0.0067316006069880275 0 -0.02054379020493553 0.0068135528122403415 0 -0.019342633472363802 0.0071654796468749119 0 -0.02054379020493553 0.0068135528122403415 0 -0.020114343049266611 0.0072828073620110319 0 -0.02054379020493553 0.0068135528122403415 0 -0.020901085191064213 0.0070065570317429634 0 -0.020114343049266611 0.0072828073620110319 0 -0.02054379020493553 0.0068135528122403415 0 -0.020901085191064213 0.0070065570317429634 0 -0.021560698380846639 0.0066448994761906192 0 -0.020901085191064213 0.0070065570317429634 0 -0.020826300131011718 0.0073626609825356154 0 -0.020114343049266611 0.0072828073620110319 0 -0.020826300131011718 0.0073626609825356154 0 -0.020114343049266611 0.0072828073620110319 0 -0.02007437342452768 0.0076857342341650073 0 -0.020114343049266611 0.0072828073620110319 0 -0.02007437342452768 0.0076857342341650073 0 -0.019078504595622093 0.0075814336322886132 0 -0.019342633472363802 0.0071654796468749119 0 -0.020114343049266611 0.0072828073620110319 0 -0.019078504595622093 0.0075814336322886132 0 -0.02007437342452768 0.0076857342341650073 0 -0.019196658422969533 0.0078834023014954912 0 -0.02027558937967586 0.008258804840355476 0 -0.02007437342452768 0.0076857342341650073 0 -0.019078504595622093 0.0075814336322886132 0 -0.019196658422969533 0.0078834023014954912 0 -0.020826300131011718 0.0073626609825356154 0 -0.02007437342452768 0.0076857342341650073 0 -0.021192842229903232 0.0077631100824528763 0 -0.02007437342452768 0.0076857342341650073 0 -0.02027558937967586 0.008258804840355476 0 -0.021192842229903232 0.0077631100824528763 0 -0.01857653898518705 0.0075927171905093302 0 -0.018721084958545475 0.0073544918721540906 0 -0.018214966556921109 0.0073810541952495081 0 -0.01857653898518705 0.0075927171905093302 0 -0.018721084958545475 0.0073544918721540906 0 -0.019078504595622093 0.0075814336322886132 0 -0.019342633472363802 0.0071654796468749119 0 -0.018721084958545475 0.0073544918721540906 0 -0.019078504595622093 0.0075814336322886132 0 -0.019196658422969533 0.0078834023014954912 0 -0.018649805121951673 0.0077752012012683403 0 -0.018393726870950585 0.007984294207640668 0 -0.019078504595622093 0.0075814336322886132 0 -0.019196658422969533 0.0078834023014954912 0 -0.018649805121951673 0.0077752012012683403 0 -0.018649805121951673 0.0077752012012683403 0 -0.018393726870950585 0.007984294207640668 0 -0.018321709238069431 0.0078271836993827927 0 -0.01857653898518705 0.0075927171905093302 0 -0.018649805121951673 0.0077752012012683403 0 -0.018321709238069431 0.0078271836993827927 0 -0.01857653898518705 0.0075927171905093302 0 -0.019078504595622093 0.0075814336322886132 0 -0.018649805121951673 0.0077752012012683403 0 -0.018393726870950585 0.007984294207640668 0 -0.018321709238069431 0.0078271836993827927 0 -0.018146702942753539 0.0079908510915989352 0 -0.018393726870950585 0.007984294207640668 0 -0.018427575703084238 0.0080799678548494382 0 -0.018829843902356733 0.0081676828773461305 0 -0.018393726870950585 0.007984294207640668 0 -0.017960497469791951 0.0078776315016239346 0 -0.018427575703084238 0.0080799678548494382 0 -0.018393726870950585 0.007984294207640668 0 -0.017960497469791951 0.0078776315016239346 0 -0.018146702942753539 0.0079908510915989352 0 -0.016245694346389471 0.010089286315784065 0 -0.015800705936132257 0.011269936521136715 0 -0.017960497469791951 0.0078776315016239346 0 -0.017048337649994624 0.0079985222560780087 0 -0.017005733713045888 0.0067805136767577065 0 -0.017960497469791951 0.0078776315016239346 0 -0.018427575703084238 0.0080799678548494382 0 -0.018555667881181525 0.0083969602240896776 0 -0.017960497469791951 0.0078776315016239346 0 -0.018555667881181525 0.0083969602240896776 0 -0.017941345489560473 0.0090960240766975453 0 -0.017941345489560473 0.0090960240766975453 0 -0.016295889347061273 0.0083681637565011409 0 -0.017048337649994624 0.0079985222560780087 0 -0.017960497469791951 0.0078776315016239346 0 -0.017941345489560473 0.0090960240766975453 0 -0.017048337649994624 0.0079985222560780087 0 -0.018829843902356733 0.0081676828773461305 0 -0.01955289088169386 0.0085553079488880548 0 -0.019221245034661768 0.009170799994134898 0 -0.023316507946002044 0.017908976284747087 0 -0.0077263293211695732 -0.013586706704627529 0 -0.018555667881181525 0.0083969602240896776 0 -0.018829843902356733 0.0081676828773461305 0 -0.019004290635353131 0.0085789813532302049 0 -0.018427575703084238 0.0080799678548494382 0 -0.018555667881181525 0.0083969602240896776 0 -0.018829843902356733 0.0081676828773461305 0 -0.019196658422969533 0.0078834023014954912 0 -0.018829843902356733 0.0081676828773461305 0 -0.01955289088169386 0.0085553079488880548 0 -0.019196658422969533 0.0078834023014954912 0 -0.018393726870950585 0.007984294207640668 0 -0.018829843902356733 0.0081676828773461305 0 -0.019196658422969533 0.0078834023014954912 0 -0.02027558937967586 0.008258804840355476 0 -0.01955289088169386 0.0085553079488880548 0 -0.02027558937967586 0.008258804840355476 0 -0.01955289088169386 0.0085553079488880548 0 -0.02042219187621944 0.0094004826821394716 0 -0.02027558937967586 0.008258804840355476 0 -0.02042219187621944 0.0094004826821394716 0 -0.021089960683260328 0.0087214805943492714 0 -0.01955289088169386 0.0085553079488880548 0 -0.019221245034661768 0.009170799994134898 0 -0.02042219187621944 0.0094004826821394716 0 0.0049778870041741656 -0.039746337224285382 0 -0.00052631924284214887 -0.039470920787506178 0 0.0032620899221717276 -0.034995262434500948 0 -0.0077263293211695732 -0.013586706704627529 0 -0.010360261081530656 -0.015267491627084712 0 -0.00052631924284214887 -0.039470920787506178 0 0.0032620899221717276 -0.034995262434500948 0 -0.0019619496201019552 -0.034312188811124571 0 0.003252090841521517 -0.030557779911406131 0 0.0025957946733639824 -0.028887949289877864 0 0.0031755882726106975 -0.028639974160148799 0 -0.0077263293211695732 -0.013586706704627529 0 0.0052254955557966614 -0.036977496943039034 0 0.003252090841521517 -0.030557779911406131 0 0.0031755882726106975 -0.028639974160148799 0 0.0049471186791153312 -0.029347109051317488 0 0.0031755882726106975 -0.028639974160148799 0 0.0049471186791153312 -0.029347109051317488 0 0.0054581995299271156 -0.02741499978677378 0 0.0049471186791153312 -0.029347109051317488 0 0.0065659634923604104 -0.028117783662194466 0 0.0070300486427341598 -0.029327288776444211 0 0.0049471186791153312 -0.029347109051317488 0 0.0065659634923604104 -0.028117783662194466 0 0.0054581995299271156 -0.02741499978677378 0 0.0049471186791153312 -0.029347109051317488 0 0.0070300486427341598 -0.029327288776444211 0 0.0063493796680551421 -0.030941635072104415 0 -0.0077263293211695732 -0.013586706704627529 0 -0.0062853144338712186 -0.010107581828531463 0 -0.018555667881181525 0.0083969602240896776 0 -0.019004290635353131 0.0085789813532302049 0 -0.017941345489560473 0.0090960240766975453 0 0.003252090841521517 -0.030557779911406131 0 0.0049471186791153312 -0.029347109051317488 0 0.0063493796680551421 -0.030941635072104415 0 -0.019147410732566345 -0.015133138419370275 0 -0.014308815754759294 -0.014960666865071302 0 -0.02337938560849696 0.010133967051611709 0 -0.021766731563438446 0.0097342017556246267 0 -0.022727051814409347 0.0086364586248711579 0 -0.014709420561784554 -0.04047088836837117 0 -0.010371053816929286 -0.036779482000249775 0 -0.018047134121172533 -0.035438386655625535 0 -0.014709420561784554 -0.04047088836837117 0 -0.010371053816929286 -0.036779482000249775 0 -0.0065705012833964498 -0.039668473571814127 0 -0.0065705012833964498 -0.039668473571814127 0 -0.0019619496201019552 -0.034312188811124571 0 -0.0065231485495678117 -0.033759214312376218 0 -0.010371053816929286 -0.036779482000249775 0 -0.0065705012833964498 -0.039668473571814127 0 -0.0065231485495678117 -0.033759214312376218 0 -0.00052631924284214887 -0.039470920787506178 0 -0.0065705012833964498 -0.039668473571814127 0 -0.0019619496201019552 -0.034312188811124571 0 -0.02042219187621944 0.0094004826821394716 0 -0.021766731563438446 0.0097342017556246267 0 -0.021089960683260328 0.0087214805943492714 0 -0.010360261081530656 -0.015267491627084712 0 -0.014308815754759294 -0.014960666865071302 0 -0.021089960683260328 0.0087214805943492714 0 -0.021876918740169192 0.0081492450058113335 0 -0.022727051814409347 0.0086364586248711579 0 -0.021766731563438446 0.0097342017556246267 0 -0.021089960683260328 0.0087214805943492714 0 -0.022727051814409347 0.0086364586248711579 0 -0.02027558937967586 0.008258804840355476 0 -0.021089960683260328 0.0087214805943492714 0 -0.021192842229903232 0.0077631100824528763 0 -0.021089960683260328 0.0087214805943492714 0 -0.021876918740169192 0.0081492450058113335 0 -0.021192842229903232 0.0077631100824528763 0 -0.022727051814409347 0.0086364586248711579 0 -0.023922292139771387 0.0070949220766865764 0 -0.022438332325518513 0.0073768337680716013 0 -0.022727051814409347 0.0086364586248711579 0 -0.023922292139771387 0.0070949220766865764 0 -0.024851881576946497 0.0088650578137389486 0 -0.02337938560849696 0.010133967051611709 0 -0.022727051814409347 0.0086364586248711579 0 -0.024851881576946497 0.0088650578137389486 0 -0.021876918740169192 0.0081492450058113335 0 -0.022727051814409347 0.0086364586248711579 0 -0.022438332325518513 0.0073768337680716013 0 -0.022438332325518513 0.0073768337680716013 0 -0.021859765963202146 0.006981423449921983 0 -0.022869280415077436 0.0066241679208000129 0 -0.023922292139771387 0.0070949220766865764 0 -0.022438332325518513 0.0073768337680716013 0 -0.022869280415077436 0.0066241679208000129 0 -0.023922292139771387 0.0070949220766865764 0 -0.023734018448875519 0.0056720354037506646 0 -0.024712770524381662 0.0059767355170215223 0 -0.023895984568213891 0.0071009419091594243 0 -0.023338096203030918 0.0062099546381371587 0 -0.021876918740169192 0.0081492450058113335 0 -0.022438332325518513 0.0073768337680716013 0 -0.021192842229903232 0.0077631100824528763 0 -0.022438332325518513 0.0073768337680716013 0 -0.021192842229903232 0.0077631100824528763 0 -0.021859765963202146 0.006981423449921983 0 -0.020901085191064213 0.0070065570317429634 0 -0.020826300131011718 0.0073626609825356154 0 -0.021859765963202146 0.006981423449921983 0 -0.020826300131011718 0.0073626609825356154 0 -0.021192842229903232 0.0077631100824528763 0 -0.021859765963202146 0.006981423449921983 0 -0.020901085191064213 0.0070065570317429634 0 -0.021859765963202146 0.006981423449921983 0 -0.021560698380846639 0.0066448994761906192 0 -0.021859765963202146 0.006981423449921983 0 -0.022136693829461901 0.0065819999214396276 0 -0.022869280415077436 0.0066241679208000129 0 -0.021859765963202146 0.006981423449921983 0 -0.022136693829461901 0.0065819999214396276 0 -0.021560698380846639 0.0066448994761906192 0 -0.022162885911560171 0.006235562193620512 0 -0.022136693829461901 0.0065819999214396276 0 -0.022441388854072129 0.0063232786966227637 0 -0.022162885911560171 0.006235562193620512 0 -0.022136693829461901 0.0065819999214396276 0 -0.021560698380846639 0.0066448994761906192 0 -0.021469664944575972 0.0063426985108152572 0 -0.022162885911560171 0.006235562193620512 0 -0.021560698380846639 0.0066448994761906192 0 -0.022136693829461901 0.0065819999214396276 0 -0.022869280415077436 0.0066241679208000129 0 -0.022441388854072129 0.0063232786966227637 0 -0.023338096203030918 0.0062099546381371587 0 -0.02301993190649735 0.0058414527241988611 0 -0.023904178292072861 0.0052176371770019337 0 -0.023734018448875519 0.0056720354037506646 0 -0.023632161818221309 0.0054207076150663072 0 -0.023904178292072861 0.0052176371770019337 0 -0.023734018448875519 0.0056720354037506646 0 -0.024654413537681535 0.0052462265007269249 0 -0.024139448018046107 0.005171089959167912 0 -0.024948965091081399 0.0051731947273509146 0 -0.024799278267516139 0.0047680253899485235 0 -0.024434393367425349 0.0050963674426385344 0 -0.025209928261475126 0.0050764810637992973 0 -0.024799278267516139 0.0047680253899485235 0 -0.025209928261475126 0.0050764810637992973 0 -0.025557164619188104 0.0045701444370539147 0 -0.024654413537681535 0.0052462265007269249 0 -0.024712770524381662 0.0059767355170215223 0 -0.026051798630909135 0.005639077454627028 0 -0.023734018448875519 0.0056720354037506646 0 -0.024654413537681535 0.0052462265007269249 0 -0.024712770524381662 0.0059767355170215223 0 -0.025209928261475126 0.0050764810637992973 0 -0.026263204793117351 0.0048582572230588253 0 -0.026339789881982354 0.0056387966102697824 0 -0.024948965091081399 0.0051731947273509146 0 -0.026237101507286358 0.0056645239913228921 0 -0.026263204793117351 0.0048582572230588253 0 -0.025557164619188104 0.0045701444370539147 0 -0.026863867943709031 0.0041922798611779607 0 -0.025209928261475126 0.0050764810637992973 0 -0.026263204793117351 0.0048582572230588253 0 -0.025557164619188104 0.0045701444370539147 0 -0.026863867943709031 0.0041922798611779607 0 -0.027654861543916033 0.0050099446182450165 0 -0.02927204594959899 0.0039619888520866725 0 -0.028666868336207709 0.0027839087797372837 0 -0.026863867943709031 0.0041922798611779607 0 -0.02927204594959899 0.0039619888520866725 0 -0.027654861543916033 0.0050099446182450165 0 -0.02927204594959899 0.0039619888520866725 0 -0.029500081585415242 0.0053199629463404055 0 -0.026263204793117351 0.0048582572230588253 0 -0.027654861543916033 0.0050099446182450165 0 -0.026339789881982354 0.0056387966102697824 0 -0.026263204793117351 0.0048582572230588253 0 -0.026863867943709031 0.0041922798611779607 0 -0.027654861543916033 0.0050099446182450165 0 -0.027654861543916033 0.0050099446182450165 0 -0.027798211457755084 0.0064524080371082442 0 -0.026339789881982354 0.0056387966102697824 0 -0.027654587969623595 0.0064567095789561796 0 -0.026237101507286358 0.0056645239913228921 0 -0.027654861543916033 0.0050099446182450165 0 -0.027798211457755084 0.0064524080371082442 0 -0.029500081585415242 0.0053199629463404055 0 -0.027798211457755084 0.0064524080371082442 0 -0.029500081585415242 0.0053199629463404055 0 -0.029527929519878988 0.0065880650896329501 0 -0.027798211457755084 0.0064524080371082442 0 -0.029527929519878988 0.0065880650896329501 0 -0.027946744633804477 0.0076733892133165321 0 -0.027798211457755084 0.0064524080371082442 0 -0.025896562161086996 0.0071533177183011869 0 -0.026051798630909135 0.005639077454627028 0 -0.027798211457755084 0.0064524080371082442 0 -0.025896562161086996 0.0071533177183011869 0 -0.027946744633804477 0.0076733892133165321 0 -0.023922292139771387 0.0070949220766865764 0 -0.025896562161086996 0.0071533177183011869 0 -0.024712770524381662 0.0059767355170215223 0 -0.025896562161086996 0.0071533177183011869 0 -0.024712770524381662 0.0059767355170215223 0 -0.026051798630909135 0.005639077454627028 0 -0.034704768914664674 0.0036872279530954961 0 -0.03486195831096487 0.0024186067913843381 0 -0.036712879491021623 0.0026844855983429315 0 -0.034704768914664674 0.0036872279530954961 0 -0.03486195831096487 0.0024186067913843381 0 -0.033123911388534023 0.0030919279125949856 0 -0.034693873582638909 0.0010813770465409611 0 -0.03486195831096487 0.0024186067913843381 0 -0.03659303817513291 0.0015219826178096477 0 -0.033249338955034582 0.0020547950639312456 0 -0.034693873582638909 0.0010813770465409611 0 -0.03486195831096487 0.0024186067913843381 0 -0.031271961974791311 0.0025787338707245087 0 -0.033249338955034582 0.0020547950639312456 0 -0.033123911388534023 0.0030919279125949856 0 -0.031271961974791311 0.0025787338707245087 0 -0.033123911388534023 0.0030919279125949856 0 -0.031741036991365233 0.0042700975150785341 0 -0.033249338955034582 0.0020547950639312456 0 -0.03486195831096487 0.0024186067913843381 0 -0.033123911388534023 0.0030919279125949856 0 -0.034704768914664674 0.0036872279530954961 0 -0.033123911388534023 0.0030919279125949856 0 -0.031741036991365233 0.0042700975150785341 0 -0.031271961974791311 0.0025787338707245087 0 -0.031741036991365233 0.0042700975150785341 0 -0.02927204594959899 0.0039619888520866725 0 -0.028666868336207709 0.0027839087797372837 0 -0.031271961974791311 0.0025787338707245087 0 -0.02927204594959899 0.0039619888520866725 0 -0.031741036991365233 0.0042700975150785341 0 -0.02927204594959899 0.0039619888520866725 0 -0.029500081585415242 0.0053199629463404055 0 -0.029527929519878988 0.0065880650896329501 0 -0.031625636082679515 0.0060573244537277656 0 -0.03042729122102765 0.0077473623223354975 0 -0.029500081585415242 0.0053199629463404055 0 -0.029527929519878988 0.0065880650896329501 0 -0.031625636082679515 0.0060573244537277656 0 -0.031741036991365233 0.0042700975150785341 0 -0.031625636082679515 0.0060573244537277656 0 -0.033450748312044171 0.0050843720131372267 0 -0.031741036991365233 0.0042700975150785341 0 -0.029500081585415242 0.0053199629463404055 0 -0.031625636082679515 0.0060573244537277656 0 -0.034704768914664674 0.0036872279530954961 0 -0.031741036991365233 0.0042700975150785341 0 -0.033450748312044171 0.0050843720131372267 0 -0.031625636082679515 0.0060573244537277656 0 -0.033450748312044171 0.0050843720131372267 0 -0.033641597455761459 0.0063327893399084479 0 -0.033450748312044171 0.0050843720131372267 0 -0.033641597455761459 0.0063327893399084479 0 -0.035600148070467345 0.0053468559972811398 0 -0.034704768914664674 0.0036872279530954961 0 -0.033450748312044171 0.0050843720131372267 0 -0.035600148070467345 0.0053468559972811398 0 -0.034704768914664674 0.0036872279530954961 0 -0.035600148070467345 0.0053468559972811398 0 -0.036963630562153037 0.0037839256786093003 0 -0.035600148070467345 0.0053468559972811398 0 -0.035044324671468757 0.0076338945410279243 0 -0.037415532257987577 0.0061671849272106859 0 -0.033641597455761459 0.0063327893399084479 0 -0.035600148070467345 0.0053468559972811398 0 -0.035044324671468757 0.0076338945410279243 0 -0.033641597455761459 0.0063327893399084479 0 -0.035044324671468757 0.0076338945410279243 0 -0.032603157111518129 0.0076017915104661772 0 -0.031625636082679515 0.0060573244537277656 0 -0.033641597455761459 0.0063327893399084479 0 -0.032603157111518129 0.0076017915104661772 0 -0.035044324671468757 0.0076338945410279243 0 -0.032603157111518129 0.0076017915104661772 0 -0.034174684125901238 0.0097690946705832771 0 -0.032603157111518129 0.0076017915104661772 0 -0.031760651820147354 0.0093597713175560485 0 -0.034174684125901238 0.0097690946705832771 0 -0.032603157111518129 0.0076017915104661772 0 -0.03042729122102765 0.0077473623223354975 0 -0.031760651820147354 0.0093597713175560485 0 -0.031625636082679515 0.0060573244537277656 0 -0.032603157111518129 0.0076017915104661772 0 -0.03042729122102765 0.0077473623223354975 0 -0.03042729122102765 0.0077473623223354975 0 -0.031760651820147354 0.0093597713175560485 0 -0.028698517367750028 0.0093325770480357662 0 -0.030251906086520661 0.011303372407711468 0 -0.031760651820147354 0.0093597713175560485 0 -0.028698517367750028 0.0093325770480357662 0 -0.035935394294283871 -0.013475765288808202 0 -0.040286103928570009 -0.010539786852913107 0 -0.030251906086520661 0.011303372407711468 0 -0.031760651820147354 0.0093597713175560485 0 -0.03270567691863948 0.011402970255417949 0 -0.031005862690933101 0.018015740886140219 0 -0.040286103928570009 -0.010539786852913107 0 -0.031760651820147354 0.0093597713175560485 0 -0.034174684125901238 0.0097690946705832771 0 -0.033537819195225575 0.011539726676593498 0 -0.034174684125901238 0.0097690946705832771 0 -0.033537819195225575 0.011539726676593498 0 -0.035994114057337323 0.011698823392451086 0 -0.034174684125901238 0.0097690946705832771 0 -0.035994114057337323 0.011698823392451086 0 -0.036478739455758698 0.0099638540102813603 0 -0.035044324671468757 0.0076338945410279243 0 -0.034174684125901238 0.0097690946705832771 0 -0.036478739455758698 0.0099638540102813603 0 -0.023922292139771387 0.0070949220766865764 0 -0.025896562161086996 0.0071533177183011869 0 -0.024851881576946497 0.0088650578137389486 0 -0.024851881576946497 0.0088650578137389486 0 -0.026698739040834349 0.0085544567309213965 0 -0.026588390598918217 0.0098190634399402555 0 -0.025896562161086996 0.0071533177183011869 0 -0.024851881576946497 0.0088650578137389486 0 -0.026698739040834349 0.0085544567309213965 0 -0.025896562161086996 0.0071533177183011869 0 -0.027946744633804477 0.0076733892133165321 0 -0.026698739040834349 0.0085544567309213965 0 -0.029527929519878988 0.0065880650896329501 0 -0.03042729122102765 0.0077473623223354975 0 -0.027946744633804477 0.0076733892133165321 0 -0.03042729122102765 0.0077473623223354975 0 -0.027946744633804477 0.0076733892133165321 0 -0.028698517367750028 0.0093325770480357662 0 -0.027946744633804477 0.0076733892133165321 0 -0.026698739040834349 0.0085544567309213965 0 -0.028698517367750028 0.0093325770480357662 0 -0.026698739040834349 0.0085544567309213965 0 -0.028698517367750028 0.0093325770480357662 0 -0.026588390598918217 0.0098190634399402555 0 -0.028698517367750028 0.0093325770480357662 0 -0.027652301699929657 0.01101911431750309 0 -0.026588390598918217 0.0098190634399402555 0 -0.030251906086520661 0.011303372407711468 0 -0.028698517367750028 0.0093325770480357662 0 -0.027652301699929657 0.01101911431750309 0 -0.041811591696028827 -0.037669150284052974 0 -0.034706993583931339 -0.039079539645636804 0 -0.039277842404261076 -0.034530166180511253 0 -0.035935394294283871 -0.013475765288808202 0 -0.031153267280387704 -0.013993834419157259 0 -0.031153267280387704 -0.013993834419157259 0 -0.025144033769387179 -0.014859322437319418 0 -0.027652301699929657 0.01101911431750309 0 -0.026588390598918217 0.0098190634399402555 0 -0.025339603973754843 0.010570520107547162 0 -0.024892166355578532 -0.0403860562301551 0 -0.023422515672544567 -0.033763804333679641 0 -0.030057179640815005 -0.035126626389328404 0 -0.034706993583931339 -0.039079539645636804 0 -0.024892166355578532 -0.0403860562301551 0 -0.030057179640815005 -0.035126626389328404 0 -0.024851881576946497 0.0088650578137389486 0 -0.026588390598918217 0.0098190634399402555 0 -0.025339603973754843 0.010570520107547162 0 -0.02337938560849696 0.010133967051611709 0 -0.024851881576946497 0.0088650578137389486 0 -0.025339603973754843 0.010570520107547162 0 -0.024892166355578532 -0.0403860562301551 0 -0.023422515672544567 -0.033763804333679641 0 -0.018047134121172533 -0.035438386655625535 0 -0.014709420561784554 -0.04047088836837117 0 -0.024892166355578532 -0.0403860562301551 0 -0.018047134121172533 -0.035438386655625535 0 -0.019147410732566345 -0.015133138419370275 0 -0.025144033769387179 -0.014859322437319418 0 -0.023422515672544567 -0.033763804333679641 0 -0.018047134121172533 -0.035438386655625535 0 -0.017598001768176868 -0.028282019048876669 0 -0.029676124942027714 -0.030883367585641697 0 -0.01708922472581588 -0.030035567774574591 0 -0.023422515672544567 -0.033763804333679641 0 -0.026563895528279514 -0.029543789054167664 0 -0.017598001768176868 -0.028282019048876669 0 -0.030802812832731421 -0.031980493525238941 0 -0.029529057000462631 -0.028852188015613216 0 -0.025626265117753951 -0.031532184869630768 0 -0.020940325486347361 -0.028539975063348128 0 -0.01708922472581588 -0.030035567774574591 0 -0.032785139784262111 -0.029921349225372675 0 -0.030802812832731421 -0.031980493525238941 0 -0.035240598209841059 -0.032114088794650025 0 -0.029676124942027714 -0.030883367585641697 0 -0.034283168631956254 -0.031867369847898272 0 -0.032785139784262111 -0.029921349225372675 0 -0.030802812832731421 -0.031980493525238941 0 -0.029529057000462631 -0.028852188015613216 0 -0.023422515672544567 -0.033763804333679641 0 -0.026563895528279514 -0.029543789054167664 0 -0.030057179640815005 -0.035126626389328404 0 -0.026563895528279514 -0.029543789054167664 0 -0.030057179640815005 -0.035126626389328404 0 -0.035240598209841059 -0.032114088794650025 0 -0.034706993583931339 -0.039079539645636804 0 -0.030057179640815005 -0.035126626389328404 0 -0.035240598209841059 -0.032114088794650025 0 -0.034706993583931339 -0.039079539645636804 0 -0.039277842404261076 -0.034530166180511253 0 -0.035240598209841059 -0.032114088794650025 0 -0.040175932422751741 -0.031311107343968123 0 -0.035240598209841059 -0.032114088794650025 0 -0.038170572525439567 -0.028694142458633144 0 -0.039277842404261076 -0.034530166180511253 0 -0.040175932422751741 -0.031311107343968123 0 -0.035240598209841059 -0.032114088794650025 0 -0.032785139784262111 -0.029921349225372675 0 -0.035240598209841059 -0.032114088794650025 0 -0.03484431777169477 -0.028365537902761761 0 -0.035240598209841059 -0.032114088794650025 0 -0.03484431777169477 -0.028365537902761761 0 -0.038170572525439567 -0.028694142458633144 0 -0.032785139784262111 -0.029921349225372675 0 -0.03484431777169477 -0.028365537902761761 0 -0.032598738676946203 -0.028405677912919806 0 -0.03484431777169477 -0.028365537902761761 0 -0.035975895472852827 -0.026643649852714141 0 -0.038170572525439567 -0.028694142458633144 0 -0.03484431777169477 -0.028365537902761761 0 -0.035975895472852827 -0.026643649852714141 0 -0.033235491520186226 -0.026414821303104824 0 -0.03484431777169477 -0.028365537902761761 0 -0.033235491520186226 -0.026414821303104824 0 -0.032598738676946203 -0.028405677912919806 0 -0.035975895472852827 -0.026643649852714141 0 -0.038170572525439567 -0.028694142458633144 0 -0.039518554866457847 -0.025588511259765245 0 -0.038170572525439567 -0.028694142458633144 0 -0.039518554866457847 -0.025588511259765245 0 -0.042014258281253818 -0.027537471958884605 0 -0.039518554866457847 -0.025588511259765245 0 -0.037305767847379212 -0.02377330515402297 0 -0.040456204686176923 -0.021662739358467964 0 -0.035975895472852827 -0.026643649852714141 0 -0.039518554866457847 -0.025588511259765245 0 -0.037305767847379212 -0.02377330515402297 0 -0.038534489983972874 -0.023333734067618288 0 -0.028520131598029737 -0.026921018349894323 0 -0.034517632540254292 -0.024172701388607842 0 -0.033255022223627265 -0.026689923601451046 0 -0.032825797588318398 -0.021959834297995955 0 -0.037305767847379212 -0.02377330515402297 0 -0.034517632540254292 -0.024172701388607842 0 -0.033255022223627265 -0.026689923601451046 0 -0.035975895472852827 -0.026643649852714141 0 -0.037305767847379212 -0.02377330515402297 0 -0.033235491520186226 -0.026414821303104824 0 -0.028520131598029737 -0.026921018349894323 0 -0.023965426328925541 -0.022239630766622324 0 -0.015973136549230611 -0.02609910451446806 0 -0.013107016250796903 -0.024502617348582889 0 -0.015695988752526396 -0.022814381308105914 0 -0.013107016250796903 -0.024502617348582889 0 -0.010890401076457508 -0.026732053117497812 0 -0.010667646915767097 -0.024369030131106056 0 -0.013209612319503065 -0.02791929325046771 0 -0.010563239292290262 -0.029532888787092433 0 -0.010890401076457508 -0.026732053117497812 0 -0.013107016250796903 -0.024502617348582889 0 -0.013209612319503065 -0.02791929325046771 0 -0.010890401076457508 -0.026732053117497812 0 -0.015973136549230611 -0.02609910451446806 0 -0.013107016250796903 -0.024502617348582889 0 -0.013209612319503065 -0.02791929325046771 0 -0.033235491520186226 -0.026414821303104824 0 -0.029529057000462631 -0.028852188015613216 0 -0.032598738676946203 -0.028405677912919806 0 -0.032785139784262111 -0.029921349225372675 0 -0.029529057000462631 -0.028852188015613216 0 -0.032598738676946203 -0.028405677912919806 0 -0.028520131598029737 -0.026921018349894323 0 -0.020940325486347361 -0.028539975063348128 0 -0.051538609309053456 -0.02750272877052036 0 -0.050392481071319328 -0.027998861090119849 0 -0.051628528238589912 -0.026605008100475468 0 -0.052234158188695548 -0.027461797989334746 0 -0.051823666935042492 -0.027859804406115796 0 -0.052616335735328292 -0.027921152636973739 0 -0.052234158188695548 -0.027461797989334746 0 -0.051823666935042492 -0.027859804406115796 0 -0.051538609309053456 -0.02750272877052036 0 -0.051538609309053456 -0.02750272877052036 0 -0.051239701811736774 -0.027968416048812301 0 -0.050392481071319328 -0.027998861090119849 0 -0.051823666935042492 -0.027859804406115796 0 -0.051538609309053456 -0.02750272877052036 0 -0.051239701811736774 -0.027968416048812301 0 -0.051239701811736774 -0.027968416048812301 0 -0.051551728040261709 -0.028457422351040269 0 -0.050392481071319328 -0.027998861090119849 0 -0.051823666935042492 -0.027859804406115796 0 -0.051239701811736774 -0.027968416048812301 0 -0.051551728040261709 -0.028457422351040269 0 -0.051823666935042492 -0.027859804406115796 0 -0.051551728040261709 -0.028457422351040269 0 -0.052616335735328292 -0.027921152636973739 0 -0.051551728040261709 -0.028457422351040269 0 -0.051525399842075478 -0.02957618981106212 0 -0.052593731285643992 -0.028617589642082442 0 -0.051551728040261709 -0.028457422351040269 0 -0.051525399842075478 -0.02957618981106212 0 -0.050392481071319328 -0.027998861090119849 0 -0.040286103928570009 -0.010539786852913107 0 -0.04995213637316942 -0.034094558891340276 0 -0.049002532643921855 -0.029835666661887021 0 -0.051525399842075478 -0.02957618981106212 0 -0.050392481071319328 -0.027998861090119849 0 -0.047589698978133421 -0.036700066575377652 0 -0.049515183012095065 -0.032190339862779083 0 -0.045005275590845169 -0.032227842699188859 0 -0.040286103928570009 -0.010539786852913107 0 -0.043943266241074724 -0.0088330692982251883 0 -0.049515183012095065 -0.032190339862779083 0 -0.045005275590845169 -0.032227842699188859 0 -0.048218824077895919 -0.029963597502197955 0 -0.045005275590845169 -0.032227842699188859 0 -0.04560011272149863 -0.028865647985851853 0 -0.048928710387977588 -0.030228487032214018 0 -0.045470342752672928 -0.032009642305663957 0 -0.048396663322831733 -0.030196778546029153 0 -0.045005275590845169 -0.032227842699188859 0 -0.042938609037704079 -0.03021260673377853 0 -0.04560011272149863 -0.028865647985851853 0 -0.041811591696028827 -0.037669150284052974 0 -0.047589698978133421 -0.036700066575377652 0 -0.045005275590845169 -0.032227842699188859 0 -0.041811591696028827 -0.037669150284052974 0 -0.039277842404261076 -0.034530166180511253 0 -0.045005275590845169 -0.032227842699188859 0 -0.040175932422751741 -0.031311107343968123 0 -0.045005275590845169 -0.032227842699188859 0 -0.042938609037704079 -0.03021260673377853 0 -0.040175932422751741 -0.031311107343968123 0 -0.038170572525439567 -0.028694142458633144 0 -0.042938609037704079 -0.03021260673377853 0 -0.039277842404261076 -0.034530166180511253 0 -0.040175932422751741 -0.031311107343968123 0 -0.045005275590845169 -0.032227842699188859 0 -0.042014258281253818 -0.027537471958884605 0 -0.043384044845331732 -0.025007028999191102 0 -0.04560011272149863 -0.028865647985851853 0 -0.038170572525439567 -0.028694142458633144 0 -0.042938609037704079 -0.03021260673377853 0 -0.042014258281253818 -0.027537471958884605 0 -0.042938609037704079 -0.03021260673377853 0 -0.042014258281253818 -0.027537471958884605 0 -0.04560011272149863 -0.028865647985851853 0 -0.039518554866457847 -0.025588511259765245 0 -0.042014258281253818 -0.027537471958884605 0 -0.043384044845331732 -0.025007028999191102 0 -0.039518554866457847 -0.025588511259765245 0 -0.043384044845331732 -0.025007028999191102 0 -0.040456204686176923 -0.021662739358467964 0 -0.048665034808590392 -0.026861668120099522 0 -0.047752057735509168 -0.023655662324019625 0 -0.043384044845331732 -0.025007028999191102 0 -0.048705729509134557 -0.027025392898785212 0 -0.04584611815696038 -0.02091207506608047 0 -0.043384044845331732 -0.025007028999191102 0 -0.04560011272149863 -0.028865647985851853 0 -0.048705729509134557 -0.027025392898785212 0 -0.04560011272149863 -0.028865647985851853 0 -0.048928710387977588 -0.030228487032214018 0 -0.048705729509134557 -0.027025392898785212 0 -0.049515183012095065 -0.032190339862779083 0 -0.048218824077895919 -0.029963597502197955 0 -0.051400496891159886 -0.027730531599805101 0 -0.048928710387977588 -0.030228487032214018 0 -0.050338408688463482 -0.027738276370241365 0 -0.051451650422224389 -0.028507559438080324 0 -0.048396663322831733 -0.030196778546029153 0 -0.051521666095628006 -0.027206891304994232 0 -0.048928710387977588 -0.030228487032214018 0 -0.048705729509134557 -0.027025392898785212 0 -0.050338408688463482 -0.027738276370241365 0 -0.048705729509134557 -0.027025392898785212 0 -0.050310301615641005 -0.026798094733401591 0 -0.049349887852699038 -0.026253927535660613 0 -0.048705729509134557 -0.027025392898785212 0 -0.050310301615641005 -0.026798094733401591 0 -0.050338408688463482 -0.027738276370241365 0 -0.050310301615641005 -0.026798094733401591 0 -0.050338408688463482 -0.027738276370241365 0 -0.050928771009201235 -0.027391092992312984 0 -0.051598387931340257 -0.028006262829746088 0 -0.051390090714951063 -0.028354514010743265 0 -0.053489487705181166 -0.027441260126477414 0 -0.051598387931340257 -0.028006262829746088 0 -0.051484681151443577 -0.027053677310309984 0 -0.053489487705181166 -0.027441260126477414 0 -0.050338408688463482 -0.027738276370241365 0 -0.050928771009201235 -0.027391092992312984 0 -0.051598387931340257 -0.028006262829746088 0 -0.050928771009201235 -0.027391092992312984 0 -0.051598387931340257 -0.028006262829746088 0 -0.051484681151443577 -0.027053677310309984 0 -0.050310301615641005 -0.026798094733401591 0 -0.050928771009201235 -0.027391092992312984 0 -0.051484681151443577 -0.027053677310309984 0 -0.04995213637316942 -0.034094558891340276 0 -0.051521666095628006 -0.027206891304994232 0 -0.051628528238589912 -0.026605008100475468 0 -0.051998065167243666 -0.027137667222894801 0 -0.052574726912360814 -0.026990412856636562 0 -0.051384077069637345 -0.027758862081397825 0 -0.051521666095628006 -0.027206891304994232 0 -0.050338408688463482 -0.027738276370241365 0 -0.051598387931340257 -0.028006262829746088 0 -0.051451650422224389 -0.028507559438080324 0 -0.051538609309053456 -0.02750272877052036 0 -0.051628528238589912 -0.026605008100475468 0 -0.051998065167243666 -0.027137667222894801 0 -0.052234158188695548 -0.027461797989334746 0 -0.051538609309053456 -0.02750272877052036 0 -0.051998065167243666 -0.027137667222894801 0 -0.052234158188695548 -0.027461797989334746 0 -0.051998065167243666 -0.027137667222894801 0 -0.052574726912360814 -0.026990412856636562 0 -0.051557500240106684 -0.026205273834439814 0 -0.051900011218480556 -0.02527065351713367 0 -0.05316200625014969 -0.025872987690304307 0 -0.051484681151443577 -0.027053677310309984 0 -0.051557500240106684 -0.026205273834439814 0 -0.053489487705181166 -0.027441260126477414 0 -0.050310301615641005 -0.026798094733401591 0 -0.051484681151443577 -0.027053677310309984 0 -0.051557500240106684 -0.026205273834439814 0 -0.050310301615641005 -0.026798094733401591 0 -0.051557500240106684 -0.026205273834439814 0 -0.049349887852699038 -0.026253927535660613 0 -0.051557500240106684 -0.026205273834439814 0 -0.050083764924166725 -0.025363568590314866 0 -0.051900011218480556 -0.02527065351713367 0 -0.051557500240106684 -0.026205273834439814 0 -0.050083764924166725 -0.025363568590314866 0 -0.049349887852699038 -0.026253927535660613 0 -0.047752057735509168 -0.023655662324019625 0 -0.044742852924774819 -0.020721458275602345 0 -0.050083764924166725 -0.025363568590314866 0 -0.049349887852699038 -0.026253927535660613 0 -0.048850059040506294 -0.024826737615135774 0 -0.043384044845331732 -0.025007028999191102 0 -0.04584611815696038 -0.02091207506608047 0 -0.040456204686176923 -0.021662739358467964 0 -0.04584611815696038 -0.02091207506608047 0 -0.040456204686176923 -0.021662739358467964 0 -0.041736424731193426 -0.018828141535236251 0 -0.040456204686176923 -0.021662739358467964 0 -0.041736424731193426 -0.018828141535236251 0 -0.039358086723669763 -0.019179542105806319 0 -0.04584611815696038 -0.02091207506608047 0 -0.041736424731193426 -0.018828141535236251 0 -0.043521940059523964 -0.015787768829906661 0 -0.044742852924774819 -0.020721458275602345 0 -0.03894813685410025 -0.016934725150397515 0 -0.041736424731193426 -0.018828141535236251 0 -0.043521940059523964 -0.015787768829906661 0 -0.03911414442700762 -0.017257292199636717 0 -0.041088248628800179 -0.01668943531463063 0 -0.039641711355297489 -0.015748110314605924 0 -0.03911414442700762 -0.017257292199636717 0 -0.041088248628800179 -0.01668943531463063 0 -0.039641711355297489 -0.015748110314605924 0 -0.040016259781981915 -0.014212374213191775 0 -0.044742852924774819 -0.020721458275602345 0 -0.040565201588002101 -0.020911233661973741 0 -0.039641711355297489 -0.015748110314605924 0 -0.040016259781981915 -0.014212374213191775 0 -0.039021200796596482 -0.01445337464912827 0 -0.045319485696055817 -0.026408822418533349 0 -0.04385650939578277 -0.022806071445654504 0 -0.04598653538897788 -0.023750930656699629 0 -0.040016259781981915 -0.014212374213191775 0 -0.039803970075951919 -0.013718823249474488 0 -0.039021200796596482 -0.01445337464912827 0 -0.040565201588002101 -0.020911233661973741 0 -0.038263836104445267 -0.023123245219843006 0 -0.040565201588002101 -0.020911233661973741 0 -0.041915026113141379 -0.025303287262963936 0 -0.040756329120377799 -0.02252056834740632 0 -0.040151830179278952 -0.024710171808042646 0 -0.041577108806353368 -0.024709811980978356 0 -0.041915026113141379 -0.025303287262963936 0 -0.038263836104445267 -0.023123245219843006 0 -0.04385650939578277 -0.022806071445654504 0 -0.044060783783607484 -0.022066700253471662 0 -0.04598653538897788 -0.023750930656699629 0 -0.044060783783607484 -0.022066700253471662 0 -0.047585243280949173 -0.022092876809363594 0 -0.04598653538897788 -0.023750930656699629 0 -0.041915026113141379 -0.025303287262963936 0 -0.047836886396975177 -0.02682250760441619 0 -0.047585243280949173 -0.022092876809363594 0 -0.04598653538897788 -0.023750930656699629 0 -0.049117695606556287 -0.025380442786080624 0 -0.044742852924774819 -0.020721458275602345 0 -0.050153720523642982 -0.025324147688299572 0 -0.050083764924166725 -0.025363568590314866 0 -0.048850059040506294 -0.024826737615135774 0 -0.05060003202611129 -0.024402620200945618 0 -0.045319485696055817 -0.026408822418533349 0 -0.04598653538897788 -0.023750930656699629 0 -0.049117695606556287 -0.025380442786080624 0 -0.050083764924166725 -0.025363568590314866 0 -0.05060003202611129 -0.024402620200945618 0 -0.051900011218480556 -0.02527065351713367 0 -0.047836886396975177 -0.02682250760441619 0 -0.053479063162442747 -0.028110485334849791 0 -0.047585243280949173 -0.022092876809363594 0 -0.049117695606556287 -0.025380442786080624 0 -0.051116711871819105 -0.022124256572576839 0 -0.049117695606556287 -0.025380442786080624 0 -0.051116711871819105 -0.022124256572576839 0 -0.052923579924665946 -0.024321306831528874 0 -0.053479063162442747 -0.028110485334849791 0 -0.053191117000204201 -0.024816664576521909 0 -0.050153720523642982 -0.025324147688299572 0 -0.053191117000204201 -0.024816664576521909 0 -0.052882996802774009 -0.024023561769584215 0 -0.051900011218480556 -0.02527065351713367 0 -0.053966551664441975 -0.025526706213760863 0 -0.05060003202611129 -0.024402620200945618 0 -0.052882996802774009 -0.024023561769584215 0 -0.051900011218480556 -0.02527065351713367 0 -0.015475285535590128 -0.019329807446581825 0 -0.015695988752526396 -0.022814381308105914 0 -0.013861413416605267 -0.021390216759697898 0 -0.024222873420455718 -0.018273503117293078 0 -0.023965426328925541 -0.022239630766622324 0 -0.015475285535590128 -0.019329807446581825 0 -0.013162188121410363 -0.018948534186273198 0 -0.013861413416605267 -0.021390216759697898 0 -0.012917054223398705 -0.01939580529193688 0 -0.0112562157474786 -0.022182616474733099 0 -0.010644175485050068 -0.019989238632499601 0 -0.013162188121410363 -0.018948534186273198 0 -0.0112562157474786 -0.022182616474733099 0 -0.013861413416605267 -0.021390216759697898 0 -0.012382056824548029 -0.01970246943453664 0 -0.011578294221393753 -0.021727349250335874 0 -0.013107016250796903 -0.024502617348582889 0 -0.0112562157474786 -0.022182616474733099 0 -0.010667646915767097 -0.024369030131106056 0 -0.013107016250796903 -0.024502617348582889 0 -0.0112562157474786 -0.022182616474733099 0 -0.013861413416605267 -0.021390216759697898 0 -0.013107016250796903 -0.024502617348582889 0 -0.015695988752526396 -0.022814381308105914 0 -0.013861413416605267 -0.021390216759697898 0 -0.032825797588318398 -0.021959834297995955 0 -0.036942023771013015 -0.020961522521225004 0 -0.035126358497766831 -0.018796826638920367 0 -0.034517632540254292 -0.024172701388607842 0 -0.032825797588318398 -0.021959834297995955 0 -0.036942023771013015 -0.020961522521225004 0 -0.037305767847379212 -0.02377330515402297 0 -0.034517632540254292 -0.024172701388607842 0 -0.036942023771013015 -0.020961522521225004 0 -0.040456204686176923 -0.021662739358467964 0 -0.036942023771013015 -0.020961522521225004 0 -0.039358086723669763 -0.019179542105806319 0 -0.037305767847379212 -0.02377330515402297 0 -0.040456204686176923 -0.021662739358467964 0 -0.036942023771013015 -0.020961522521225004 0 -0.041736424731193426 -0.018828141535236251 0 -0.039358086723669763 -0.019179542105806319 0 -0.03911414442700762 -0.017257292199636717 0 -0.036942023771013015 -0.020961522521225004 0 -0.039358086723669763 -0.019179542105806319 0 -0.037862737060918576 -0.0178587224417237 0 -0.039358086723669763 -0.019179542105806319 0 -0.037862737060918576 -0.0178587224417237 0 -0.03911414442700762 -0.017257292199636717 0 -0.03243088522635152 -0.017332371406464962 0 -0.032825797588318398 -0.021959834297995955 0 -0.035126358497766831 -0.018796826638920367 0 -0.036942023771013015 -0.020961522521225004 0 -0.037862737060918576 -0.0178587224417237 0 -0.035126358497766831 -0.018796826638920367 0 -0.037862737060918576 -0.0178587224417237 0 -0.035126358497766831 -0.018796826638920367 0 -0.035221999657153918 -0.016155073410495251 0 -0.03243088522635152 -0.017332371406464962 0 -0.035126358497766831 -0.018796826638920367 0 -0.035221999657153918 -0.016155073410495251 0 -0.035221999657153918 -0.016155073410495251 0 -0.033620263205806321 -0.014845299489359452 0 -0.034789031833601908 -0.012953738861885144 0 -0.035221999657153918 -0.016155073410495251 0 -0.037281288822883382 -0.014167805792015313 0 -0.034789031833601908 -0.012953738861885144 0 -0.03243088522635152 -0.017332371406464962 0 -0.035221999657153918 -0.016155073410495251 0 -0.033620263205806321 -0.014845299489359452 0 -0.033620263205806321 -0.014845299489359452 0 -0.034789031833601908 -0.012953738861885144 0 -0.032023138896804193 -0.012980144503813284 0 -0.037862737060918576 -0.0178587224417237 0 -0.035221999657153918 -0.016155073410495251 0 -0.037281288822883382 -0.014167805792015313 0 -0.037862737060918576 -0.0178587224417237 0 -0.03911414442700762 -0.017257292199636717 0 -0.038138209578351435 -0.015533302396860561 0 -0.037882530241560408 -0.01796556529971392 0 -0.037733603230470633 -0.013874024592607165 0 -0.039641711355297489 -0.015748110314605924 0 -0.03911414442700762 -0.017257292199636717 0 -0.038138209578351435 -0.015533302396860561 0 -0.039641711355297489 -0.015748110314605924 0 -0.038138209578351435 -0.015533302396860561 0 -0.039021200796596482 -0.01445337464912827 0 -0.038138209578351435 -0.015533302396860561 0 -0.038039070817596755 -0.013722334999231579 0 -0.039021200796596482 -0.01445337464912827 0 -0.039803970075951919 -0.013718823249474488 0 -0.038039070817596755 -0.013722334999231579 0 -0.039021200796596482 -0.01445337464912827 0 -0.037733603230470633 -0.013874024592607165 0 -0.032178294501643674 -0.018330268434084456 0 -0.038263836104445267 -0.023123245219843006 0 -0.032178294501643674 -0.018330268434084456 0 -0.032178294501643674 -0.018330268434084456 0 -0.022966574275960668 -0.018019218954651556 0 -0.036909464176599599 -0.010610902617958943 0 -0.034789031833601908 -0.012953738861885144 0 -0.033481716268649826 -0.010600138265953024 0 -0.037281288822883382 -0.014167805792015313 0 -0.036909464176599599 -0.010610902617958943 0 -0.034789031833601908 -0.012953738861885144 0 -0.034789031833601908 -0.012953738861885144 0 -0.033481716268649826 -0.010600138265953024 0 -0.032023138896804193 -0.012980144503813284 0 -0.019129269070913377 -0.018037670041501593 0 -0.020030485109780252 -0.018037930256049193 0 -0.019901605689822074 -0.016719437133740075 0 -0.022966574275960668 -0.018019218954651556 0 -0.019908289945446269 -0.015011453101147586 0 -0.022966574275960668 -0.018019218954651556 0 -0.016074293778580377 -0.019120486431349802 0 -0.016074293778580377 -0.019120486431349802 0 -0.019908289945446269 -0.015011453101147586 0 -0.01453997754666885 -0.014652536126250499 0 -0.014714714361968839 -0.016485939083290265 0 -0.011872255697210517 -0.016784619625190858 0 -0.024222873420455718 -0.018273503117293078 0 -0.019908289945446269 -0.015011453101147586 0 -0.03243088522635152 -0.017332371406464962 0 -0.033620263205806321 -0.014845299489359452 0 -0.032023138896804193 -0.012980144503813284 0 -0.015475285535590128 -0.019329807446581825 0 -0.013162188121410363 -0.018948534186273198 0 -0.015185945123588045 -0.015665155428575564 0 -0.012382056824548029 -0.01970246943453664 0 -0.019908289945446269 -0.015011453101147586 0 -0.012917054223398705 -0.01939580529193688 0 -0.014714714361968839 -0.016485939083290265 0 -0.011872255697210517 -0.016784619625190858 0 -0.012917054223398705 -0.01939580529193688 0 -0.011872255697210517 -0.016784619625190858 0 -0.010644175485050068 -0.019989238632499601 0 -0.016074293778580377 -0.019120486431349802 0 -0.0093036908399549822 -0.018863552582360842 0 -0.01453997754666885 -0.014652536126250499 0 -0.011872255697210517 -0.016784619625190858 0 -0.0099912274073769326 -0.014611830453027686 0 -0.011872255697210517 -0.016784619625190858 0 -0.0099912274073769326 -0.014611830453027686 0 -0.0086129296997234893 -0.018838406801028731 0 -0.0099912274073769326 -0.014611830453027686 0 -0.0058111618127281387 -0.018036073620604338 0 -0.0052685074176054654 -0.014581938733155921 0 -0.0093036908399549822 -0.018863552582360842 0 -0.0039880834728769103 -0.018662254088679036 0 -0.0086129296997234893 -0.018838406801028731 0 -0.0056128484993053403 -0.020625010686840729 0 -0.0058111618127281387 -0.018036073620604338 0 -0.0099912274073769326 -0.014611830453027686 0 -0.0086129296997234893 -0.018838406801028731 0 -0.0058111618127281387 -0.018036073620604338 0 -0.011872255697210517 -0.016784619625190858 0 -0.0086129296997234893 -0.018838406801028731 0 -0.010644175485050068 -0.019989238632499601 0 -0.0086129296997234893 -0.018838406801028731 0 -0.010644175485050068 -0.019989238632499601 0 -0.0084582447058843546 -0.022523431382415599 0 -0.0086129296997234893 -0.018838406801028731 0 -0.0084582447058843546 -0.022523431382415599 0 -0.0056128484993053403 -0.020625010686840729 0 -0.0084582447058843546 -0.022523431382415599 0 -0.0048493589293302983 -0.02332859541995088 0 -0.0056128484993053403 -0.020625010686840729 0 -0.0084582447058843546 -0.022523431382415599 0 -0.0048493589293302983 -0.02332859541995088 0 -0.0067312351320247248 -0.024771846920077157 0 -0.0112562157474786 -0.022182616474733099 0 -0.010644175485050068 -0.019989238632499601 0 -0.0084582447058843546 -0.022523431382415599 0 -0.0112562157474786 -0.022182616474733099 0 -0.0084582447058843546 -0.022523431382415599 0 -0.010667646915767097 -0.024369030131106056 0 -0.0014893280308916207 -0.022420529124402427 0 -0.0048493589293302983 -0.02332859541995088 0 -0.0027182201650925936 -0.024345969938855162 0 -0.0014893280308916207 -0.022420529124402427 0 -0.0048493589293302983 -0.02332859541995088 0 -0.0056128484993053403 -0.020625010686840729 0 -0.0014893280308916207 -0.022420529124402427 0 -0.0031714592990976188 -0.018425816399583374 0 -0.00018144558600041705 -0.01916202689062144 0 -0.0014893280308916207 -0.022420529124402427 0 -0.0056128484993053403 -0.020625010686840729 0 -0.0031714592990976188 -0.018425816399583374 0 -0.0031714592990976188 -0.018425816399583374 0 -0.00021928690627953136 -0.014697081434406198 0 -0.00018144558600041705 -0.01916202689062144 0 -0.0056128484993053403 -0.020625010686840729 0 -0.0031714592990976188 -0.018425816399583374 0 -0.0058111618127281387 -0.018036073620604338 0 -0.0031714592990976188 -0.018425816399583374 0 -0.0058111618127281387 -0.018036073620604338 0 -0.0052685074176054654 -0.014581938733155921 0 -0.0039880834728769103 -0.018662254088679036 0 0.0014467292807680587 -0.018267708654073313 0 -0.0031714592990976188 -0.018425816399583374 0 -0.0052685074176054654 -0.014581938733155921 0 -0.00021928690627953136 -0.014697081434406198 0 -0.00021928690627953136 -0.014697081434406198 0 0.002448745809584674 -0.017873469815571898 0 0.0053690821927436204 -0.015402036323433555 0 0.0014467292807680587 -0.018267708654073313 0 0.0065143098696185744 -0.01786837249421044 0 0.002448745809584674 -0.017873469815571898 0 0.0053409905642042088 -0.0193896950032027 0 0.0015349131703662469 -0.021442354762605545 0 0.002448745809584674 -0.017873469815571898 0 0.0053690821927436204 -0.015402036323433555 0 0.0053409905642042088 -0.0193896950032027 0 -0.00021928690627953136 -0.014697081434406198 0 0.002448745809584674 -0.017873469815571898 0 -0.00018144558600041705 -0.01916202689062144 0 0.002448745809584674 -0.017873469815571898 0 -0.00018144558600041705 -0.01916202689062144 0 0.0015349131703662469 -0.021442354762605545 0 0.0053690821927436204 -0.015402036323433555 0 0.0084514329052767165 -0.018693584845520059 0 0.010246987914821941 -0.017695700273436046 0 0.0084514329052767165 -0.018693584845520059 0 0.010246987914821941 -0.017695700273436046 0 0.01067193130816071 -0.018899178466693235 0 0.0065143098696185744 -0.01786837249421044 0 0.0098727310705112245 -0.017713469944986876 0 0.0053409905642042088 -0.0193896950032027 0 0.0084514329052767165 -0.018693584845520059 0 0.0079187775113620067 -0.020888052308750796 0 0.0053690821927436204 -0.015402036323433555 0 0.0053409905642042088 -0.0193896950032027 0 0.0084514329052767165 -0.018693584845520059 0 0.0084514329052767165 -0.018693584845520059 0 0.0095786676542106812 -0.019968295392544525 0 0.01067193130816071 -0.018899178466693235 0 0.0084514329052767165 -0.018693584845520059 0 0.0095786676542106812 -0.019968295392544525 0 0.0079187775113620067 -0.020888052308750796 0 0.0079187775113620067 -0.020888052308750796 0 0.0060093972988854031 -0.02207367812480425 0 0.0094722373031029192 -0.02172844946438755 0 0.0048520797757298541 -0.021951920187285912 0 0.0081909738502760933 -0.02101660436038141 0 0.0095696565058616418 -0.021390389702672027 0 0.0079187775113620067 -0.020888052308750796 0 0.0094722373031029192 -0.02172844946438755 0 0.0082522133279141832 -0.021036758185550113 0 0.0081909738502760933 -0.02101660436038141 0 0.0095696565058616418 -0.021390389702672027 0 0.0095786676542106812 -0.019968295392544525 0 0.0079187775113620067 -0.020888052308750796 0 0.0053409905642042088 -0.0193896950032027 0 0.0079187775113620067 -0.020888052308750796 0 0.0060093972988854031 -0.02207367812480425 0 0.0039254535674447637 -0.021843023758599093 0 0.0046966572968596635 -0.023313149120369667 0 0.0024975559860907397 -0.023799727160265027 0 0.0046966572968596635 -0.023313149120369667 0 0.006562048344506027 -0.022120444312779042 0 0.0053211830706199519 -0.025340044066368354 0 0.0081909738502760933 -0.02101660436038141 0 0.00573191985067922 -0.023437237041494318 0 0.0077325426674144113 -0.018909159952349829 0 0.0064685390833805869 -0.021695886828642146 0 0.0086891107277729616 -0.020260508449009153 0 0.0039254535674447637 -0.021843023758599093 0 0.0046966572968596635 -0.023313149120369667 0 0.006562048344506027 -0.022120444312779042 0 -0.0014893280308916207 -0.022420529124402427 0 -0.00018144558600041705 -0.01916202689062144 0 0.0015349131703662469 -0.021442354762605545 0 0.0048520797757298541 -0.021951920187285912 0 0.0018222335772237052 -0.021503638794386083 0 0.0053409905642042088 -0.0193896950032027 0 0.0060093972988854031 -0.02207367812480425 0 0.0015349131703662469 -0.021442354762605545 0 0.0039254535674447637 -0.021843023758599093 0 0.0015349131703662469 -0.021442354762605545 0 0.0024975559860907397 -0.023799727160265027 0 -0.0014893280308916207 -0.022420529124402427 0 0.0015349131703662469 -0.021442354762605545 0 0.0024975559860907397 -0.023799727160265027 0 -0.0014893280308916207 -0.022420529124402427 0 0.0024975559860907397 -0.023799727160265027 0 -0.00041764124047200224 -0.025483551709432558 0 0.0024975559860907397 -0.023799727160265027 0 -0.00041764124047200224 -0.025483551709432558 0 0.0025521485525659771 -0.02705949701915741 0 -0.00041764124047200224 -0.025483551709432558 0 0.0025521485525659771 -0.02705949701915741 0 0.0011231468107570826 -0.029150724449639037 0 -0.00041764124047200224 -0.025483551709432558 0 0.0011231468107570826 -0.029150724449639037 0 -0.0030104447430220858 -0.029106177349197484 0 0.0064685390833805869 -0.021695886828642146 0 0.0083386171579349147 -0.021614297674454237 0 0.0083215651125908858 -0.0230808616810378 0 0.0064685390833805869 -0.021695886828642146 0 0.0083386171579349147 -0.021614297674454237 0 0.0086891107277729616 -0.020260508449009153 0 0.0046966572968596635 -0.023313149120369667 0 0.0024975559860907397 -0.023799727160265027 0 0.0053211830706199519 -0.025340044066368354 0 0.0024975559860907397 -0.023799727160265027 0 0.0025521485525659771 -0.02705949701915741 0 0.0053211830706199519 -0.025340044066368354 0 0.0025521485525659771 -0.02705949701915741 0 0.0053211830706199519 -0.025340044066368354 0 0.0037611894668295722 -0.028236128079816989 0 0.00573191985067922 -0.023437237041494318 0 0.0043417004408946242 -0.026427272622687424 0 0.0064685390833805869 -0.021695886828642146 0 0.0048658783831030837 -0.024576425097788204 0 0.0083215651125908858 -0.0230808616810378 0 0.0048658783831030837 -0.024576425097788204 0 0.0076999662750988447 -0.02622454650195034 0 0.0083215651125908858 -0.0230808616810378 0 0.0031755882726106975 -0.028639974160148799 0 0.0048658783831030837 -0.024576425097788204 0 0.0054581995299271156 -0.02741499978677378 0 0.0031755882726106975 -0.028639974160148799 0 0.0037611894668295722 -0.028236128079816989 0 0.0025789974636065425 -0.028783575810470891 0 0.0032598223182986239 -0.028530085912835297 0 0.0043417004408946242 -0.026427272622687424 0 0.0065659634923604104 -0.028117783662194466 0 0.0054581995299271156 -0.02741499978677378 0 0.0076999662750988447 -0.02622454650195034 0 0.0048658783831030837 -0.024576425097788204 0 0.0054581995299271156 -0.02741499978677378 0 0.0076999662750988447 -0.02622454650195034 0 0.0025521485525659771 -0.02705949701915741 0 0.0037611894668295722 -0.028236128079816989 0 0.0025789974636065425 -0.028783575810470891 0 0.0025521485525659771 -0.02705949701915741 0 0.0011231468107570826 -0.029150724449639037 0 0.0025789974636065425 -0.028783575810470891 0 0.0025957946733639824 -0.028887949289877864 0 0.0011231468107570826 -0.029150724449639037 0 0.0025789974636065425 -0.028783575810470891 0 0.0025957946733639824 -0.028887949289877864 0 0.0031755882726106975 -0.028639974160148799 0 0.0025789974636065425 -0.028783575810470891 0 0.0052254955557966614 -0.036977496943039034 0 0.00033852012454141557 -0.027035777458670907 0 0.0032620899221717276 -0.034995262434500948 0 0.0011231468107570826 -0.029150724449639037 0 -0.0019619496201019552 -0.034312188811124571 0 -0.0019619496201019552 -0.034312188811124571 0 -0.0030104447430220858 -0.029106177349197484 0 -0.0065231485495678117 -0.033759214312376218 0 0.0011231468107570826 -0.029150724449639037 0 -0.0019619496201019552 -0.034312188811124571 0 -0.0030104447430220858 -0.029106177349197484 0 -0.0030104447430220858 -0.029106177349197484 0 -0.0070028302522545886 -0.028964115313348648 0 -0.0065231485495678117 -0.033759214312376218 0 -0.0030104447430220858 -0.029106177349197484 0 -0.0070028302522545886 -0.028964115313348648 0 -0.0041383765109750921 -0.026215389699773155 0 -0.010371053816929286 -0.036779482000249775 0 -0.0065231485495678117 -0.033759214312376218 0 -0.011937000241655355 -0.032340519776027456 0 -0.010371053816929286 -0.036779482000249775 0 -0.011937000241655355 -0.032340519776027456 0 -0.018047134121172533 -0.035438386655625535 0 -0.0070028302522545886 -0.028964115313348648 0 -0.0065231485495678117 -0.033759214312376218 0 -0.011937000241655355 -0.032340519776027456 0 -0.011937000241655355 -0.032340519776027456 0 -0.018047134121172533 -0.035438386655625535 0 -0.017598001768176868 -0.028282019048876669 0 -0.012605095561212006 -0.031795135350711254 0 -0.01708922472581588 -0.030035567774574591 0 -0.0070028302522545886 -0.028964115313348648 0 -0.011937000241655355 -0.032340519776027456 0 -0.016395960585948329 -0.029083453944236098 0 -0.0070028302522545886 -0.028964115313348648 0 -0.010563239292290262 -0.029532888787092433 0 -0.0087706548426014445 -0.027665784481944518 0 -0.0057329598758275235 -0.028685372837437124 0 -0.01708922472581588 -0.030035567774574591 0 -0.0070028302522545886 -0.028964115313348648 0 -0.0087706548426014445 -0.027665784481944518 0 -0.0068981533630885807 -0.026809762876922459 0 -0.0087706548426014445 -0.027665784481944518 0 -0.0068981533630885807 -0.026809762876922459 0 -0.0087669184939244693 -0.025917474632446941 0 -0.010563239292290262 -0.029532888787092433 0 -0.0087706548426014445 -0.027665784481944518 0 -0.010890401076457508 -0.026732053117497812 0 -0.0087706548426014445 -0.027665784481944518 0 -0.010890401076457508 -0.026732053117497812 0 -0.0087669184939244693 -0.025917474632446941 0 -0.0084582447058843546 -0.022523431382415599 0 -0.010667646915767097 -0.024369030131106056 0 -0.0087669184939244693 -0.025917474632446941 0 -0.010890401076457508 -0.026732053117497812 0 -0.010667646915767097 -0.024369030131106056 0 -0.0087669184939244693 -0.025917474632446941 0 -0.0084582447058843546 -0.022523431382415599 0 -0.0087669184939244693 -0.025917474632446941 0 -0.0067312351320247248 -0.024771846920077157 0 -0.0068981533630885807 -0.026809762876922459 0 -0.0087669184939244693 -0.025917474632446941 0 -0.0067312351320247248 -0.024771846920077157 0 -0.0048493589293302983 -0.02332859541995088 0 -0.0067312351320247248 -0.024771846920077157 0 -0.0041383765109750921 -0.026215389699773155 0 -0.0048493589293302983 -0.02332859541995088 0 -0.0027182201650925936 -0.024345969938855162 0 -0.0041383765109750921 -0.026215389699773155 0 -0.0068981533630885807 -0.026809762876922459 0 -0.0067312351320247248 -0.024771846920077157 0 -0.0041383765109750921 -0.026215389699773155 0 -0.00041764124047200224 -0.025483551709432558 0 -0.0027182201650925936 -0.024345969938855162 0 -0.0041383765109750921 -0.026215389699773155 0 -0.0014893280308916207 -0.022420529124402427 0 -0.00041764124047200224 -0.025483551709432558 0 -0.0027182201650925936 -0.024345969938855162 0 -0.00041764124047200224 -0.025483551709432558 0 -0.0030104447430220858 -0.029106177349197484 0 -0.0041383765109750921 -0.026215389699773155 0 -0.0070028302522545886 -0.028964115313348648 0 -0.0068981533630885807 -0.026809762876922459 0 -0.0041383765109750921 -0.026215389699773155 0 -0.055538524963741231 -0.011307547304630797 0 -0.054999113320207467 -0.012262937708258028 0 -0.055408777839053333 -0.009670504162017023 0 -0.05646915404691058 -0.012516299033218587 0 -0.055538524963741231 -0.011307547304630797 0 -0.055408777839053333 -0.009670504162017023 0 -0.055784784030982602 -0.013017020638434171 0 -0.055054506906327606 -0.010860056932846335 0 -0.054999113320207467 -0.012262937708258028 0 -0.055832302696385193 -0.013886504520096132 0 -0.05499914510518155 -0.015462516826902641 0 -0.055538524963741231 -0.011307547304630797 0 -0.054999113320207467 -0.012262937708258028 0 -0.055832302696385193 -0.013886504520096132 0 -0.05646915404691058 -0.012516299033218587 0 -0.055832302696385193 -0.013886504520096132 0 -0.056354992212741838 -0.014380725856767414 0 -0.05646915404691058 -0.012516299033218587 0 -0.055538524963741231 -0.011307547304630797 0 -0.055832302696385193 -0.013886504520096132 0 -0.055784784030982602 -0.013017020638434171 0 -0.056342040472110319 -0.014204652991610308 0 -0.055262256439704463 -0.013501346284112486 0 -0.056220205215534308 -0.013408293516943672 0 -0.056354992212741838 -0.014380725856767414 0 -0.056489708358003168 -0.013959488645655806 0 -0.056220205215534308 -0.013408293516943672 0 -0.056599694595388023 -0.013548289618113414 0 -0.056489708358003168 -0.013959488645655806 0 -0.056220205215534308 -0.013408293516943672 0 -0.056354992212741838 -0.014380725856767414 0 -0.056220205215534308 -0.013408293516943672 0 -0.056452523255395931 -0.0127828471044092 0 -0.056599694595388023 -0.013548289618113414 0 -0.055262256439704463 -0.013501346284112486 0 -0.056220205215534308 -0.013408293516943672 0 -0.055780258863822797 -0.012921276571280624 0 -0.055527791736607844 -0.01354041569345147 0 -0.057291621769854952 -0.01052346055299661 0 -0.055780258863822797 -0.012921276571280624 0 -0.056079217353517209 -0.012165253997108473 0 -0.055221724506096491 -0.012446685434322202 0 -0.055780258863822797 -0.012921276571280624 0 -0.056145684837426754 -0.012745993401181592 0 -0.055994697329502727 -0.012399951922954606 0 -0.056220205215534308 -0.013408293516943672 0 -0.055780258863822797 -0.012921276571280624 0 -0.056145684837426754 -0.012745993401181592 0 -0.056145684837426754 -0.012745993401181592 0 -0.056405537787997395 -0.012282831481263216 0 -0.056452523255395931 -0.0127828471044092 0 -0.056226631676852032 -0.011102757650587412 0 -0.056439425976216068 -0.01294628577866028 0 -0.056220205215534308 -0.013408293516943672 0 -0.056145684837426754 -0.012745993401181592 0 -0.056452523255395931 -0.0127828471044092 0 -0.056145684837426754 -0.012745993401181592 0 -0.056405537787997395 -0.012282831481263216 0 -0.055994697329502727 -0.012399951922954606 0 -0.056226631676852032 -0.011102757650587412 0 -0.057291621769854952 -0.01052346055299661 0 -0.058036713104929576 -0.0096567019629920248 0 -0.056530082264200213 -0.010122854138170431 0 -0.057089241315472022 -0.0086072003196952605 0 -0.057291621769854952 -0.01052346055299661 0 -0.058881706113663682 -0.0070952208587985203 0 -0.059822762528910139 -0.0081148782416688662 0 -0.057660691743076489 -0.0087959111054935757 0 -0.058337485001009742 -0.0068071824404042393 0 -0.059822762528910139 -0.0081148782416688662 0 -0.058337485001009742 -0.0068071824404042393 0 -0.060430922725717165 -0.0064780629814908067 0 -0.057291621769854952 -0.01052346055299661 0 -0.05654590362360222 -0.010589994355062688 0 -0.057660691743076489 -0.0087959111054935757 0 -0.056267966969757541 -0.00811549618461886 0 -0.058337485001009742 -0.0068071824404042393 0 -0.055262256439704463 -0.013501346284112486 0 -0.055780258863822797 -0.012921276571280624 0 -0.055221724506096491 -0.012446685434322202 0 -0.055262256439704463 -0.013501346284112486 0 -0.055221724506096491 -0.012446685434322202 0 -0.054402742358984034 -0.012689699209464994 0 -0.057660691743076489 -0.0087959111054935757 0 -0.055492230969596434 -0.0094994970637466754 0 -0.056267966969757541 -0.00811549618461886 0 -0.054999113320207467 -0.012262937708258028 0 -0.055408777839053333 -0.009670504162017023 0 -0.0550000389348686 -0.0090623759581100055 0 -0.05654590362360222 -0.010589994355062688 0 -0.055054506906327606 -0.010860056932846335 0 -0.055492230969596434 -0.0094994970637466754 0 -0.05499997078731083 -0.0090615073011631898 0 -0.056267966969757541 -0.00811549618461886 0 -0.055054506906327606 -0.010860056932846335 0 -0.054999308378257984 -0.0090634494543270182 0 -0.05499997078731083 -0.0090615073011631898 0 -0.056267966969757541 -0.00811549618461886 0 -0.054999973290670426 -0.0066572969243001703 0 -0.056567509730264837 -0.0056244481845260444 0 -0.054999973290670426 -0.0066572969243001703 0 -0.054999968765890493 -0.0042529354196900026 0 -0.056267966969757541 -0.00811549618461886 0 -0.056567509730264837 -0.0056244481845260444 0 -0.054999973290670426 -0.0066572969243001703 0 -0.056567509730264837 -0.0056244481845260444 0 -0.058091175331685473 -0.0046425622414989513 0 -0.058337485001009742 -0.0068071824404042393 0 -0.056267966969757541 -0.00811549618461886 0 -0.056567509730264837 -0.0056244481845260444 0 -0.058337485001009742 -0.0068071824404042393 0 -0.056567509730264837 -0.0056244481845260444 0 -0.056899006978757841 -0.0035137512342159603 0 -0.058091175331685473 -0.0046425622414989513 0 -0.056899006978757841 -0.0035137512342159603 0 -0.058091175331685473 -0.0046425622414989513 0 -0.058919578809655641 -0.003048941879571452 0 -0.056567509730264837 -0.0056244481845260444 0 -0.056899006978757841 -0.0035137512342159603 0 -0.054999968765890493 -0.0042529354196900026 0 -0.056899006978757841 -0.0035137512342159603 0 -0.054999994288382384 -0.0018487622646638725 0 -0.057769818220660012 -0.0016761974995051598 0 -0.056899006978757841 -0.0035137512342159603 0 -0.054999968765890493 -0.0042529354196900026 0 -0.054999994288382384 -0.0018487622646638725 0 -0.056899006978757841 -0.0035137512342159603 0 -0.057769818220660012 -0.0016761974995051598 0 -0.058919578809655641 -0.003048941879571452 0 -0.058228161445866129 0.00053060739796865195 0 -0.056531952824504579 0.00015434619753354806 0 -0.057517420233960961 -0.0013209736085103118 0 -0.054999874710594907 0.0012398156084106866 0 -0.056531952824504579 0.00015434619753354806 0 -0.054999872463108002 -0.0018480798767994246 0 -0.054999824577270685 -0.0018486082454634313 0 -0.058021072541657961 -0.0014080712178139783 0 -0.056531952824504579 0.00015434619753354806 0 -0.054999872463108002 -0.0018480798767994246 0 -0.057517420233960961 -0.0013209736085103118 0 -0.059714430313532088 0.001161623571118446 0 -0.060036672555749009 -0.0010320793605377895 0 -0.05931062027875067 -3.3986470852078508e-05 0 -0.055834939802737238 -0.00096059758931871307 0 -0.055626714201775132 -0.002223982642857612 0 -0.056131756680327383 -0.0016070588145299471 0 -0.058426735224418082 -0.0019655536084030967 0 -0.056461425632874276 -0.0032897481983893148 0 -0.055626714201775132 -0.002223982642857612 0 -0.056131756680327383 -0.0016070588145299471 0 -0.05674712645491687 -0.0020028382566059885 0 -0.057800079237066981 0.000292931092927765 0 -0.058426735224418082 -0.0019655536084030967 0 -0.057517420233960961 -0.0013209736085103118 0 -0.060036672555749009 -0.0010320793605377895 0 -0.05931062027875067 -3.3986470852078508e-05 0 -0.058228161445866129 0.00053060739796865195 0 -0.057517420233960961 -0.0013209736085103118 0 -0.05931062027875067 -3.3986470852078508e-05 0 -0.058021072541657961 -0.0014080712178139783 0 -0.058426735224418082 -0.0019655536084030967 0 -0.058919578809655641 -0.003048941879571452 0 -0.060764788698791483 -0.0031355584519027761 0 -0.059692839145952477 -0.0041371771383377004 0 -0.057769818220660012 -0.0016761974995051598 0 -0.060499646977638717 -0.0014474509873282715 0 -0.058919578809655641 -0.003048941879571452 0 -0.058426735224418082 -0.0019655536084030967 0 -0.058826414543184331 -0.0038556211517103097 0 -0.056830487883226109 -0.0034956308046539108 0 -0.057010237548061497 -0.0047121679903874289 0 -0.057668306494078531 -0.0046506572696178713 0 -0.060499646977638717 -0.0014474509873282715 0 -0.058919578809655641 -0.003048941879571452 0 -0.060764788698791483 -0.0031355584519027761 0 -0.056830487883226109 -0.0034956308046539108 0 -0.057668306494078531 -0.0046506572696178713 0 -0.058140763486975985 -0.0033771206295586452 0 -0.057487130942710817 -0.0067020321522495169 0 -0.056328554423574775 -0.0059276806422998637 0 -0.060764788698791483 -0.0031355584519027761 0 -0.06102913628545345 -0.0048463721057488106 0 -0.059692839145952477 -0.0041371771383377004 0 -0.057010237548061497 -0.0047121679903874289 0 -0.05720076068695959 -0.0059479689524238859 0 -0.057668306494078531 -0.0046506572696178713 0 -0.06102913628545345 -0.0048463721057488106 0 -0.059692839145952477 -0.0041371771383377004 0 -0.059351724844143014 -0.0055779450432308728 0 -0.058826414543184331 -0.0038556211517103097 0 -0.057487130942710817 -0.0067020321522495169 0 -0.058091175331685473 -0.0046425622414989513 0 -0.058919578809655641 -0.003048941879571452 0 -0.059692839145952477 -0.0041371771383377004 0 -0.058091175331685473 -0.0046425622414989513 0 -0.059692839145952477 -0.0041371771383377004 0 -0.059351724844143014 -0.0055779450432308728 0 -0.058337485001009742 -0.0068071824404042393 0 -0.059351724844143014 -0.0055779450432308728 0 -0.060430922725717165 -0.0064780629814908067 0 -0.058091175331685473 -0.0046425622414989513 0 -0.058337485001009742 -0.0068071824404042393 0 -0.059351724844143014 -0.0055779450432308728 0 -0.058036713104929576 -0.0096567019629920248 0 -0.057651134442353862 -0.0070902613771095932 0 -0.057089241315472022 -0.0086072003196952605 0 -0.06102913628545345 -0.0048463721057488106 0 -0.059351724844143014 -0.0055779450432308728 0 -0.060430922725717165 -0.0064780629814908067 0 -0.056226631676852032 -0.011102757650587412 0 -0.057487130942710817 -0.0067020321522495169 0 -0.057487130942710817 -0.0067020321522495169 0 -0.058881706113663682 -0.0070952208587985203 0 -0.054967114763791777 -0.011432998545826597 0 -0.056226331019342574 -0.0095570566727832748 0 -0.058058628670827908 -0.010491885713173188 0 -0.054967114763791777 -0.011432998545826597 0 -0.0545138054836182 -0.0085824196468351818 0 -0.056226331019342574 -0.0095570566727832748 0 -0.056226331019342574 -0.0095570566727832748 0 -0.058058628670827908 -0.010491885713173188 0 -0.057367496604162078 -0.008817502173259089 0 -0.058058628670827908 -0.010491885713173188 0 -0.058923388350114562 -0.0090927455188333558 0 -0.058110944076922397 -0.011681514022589656 0 -0.05634686038202473 -0.006800512107194458 0 -0.057176236981896708 -0.011163300087057199 0 -0.058058628670827908 -0.010491885713173188 0 -0.057367496604162078 -0.008817502173259089 0 -0.058923388350114562 -0.0090927455188333558 0 -0.057367496604162078 -0.008817502173259089 0 -0.056166876109006329 -0.0078554677685555244 0 -0.057509109647323281 -0.0067391571631038013 0 -0.057367496604162078 -0.008817502173259089 0 -0.057509109647323281 -0.0067391571631038013 0 -0.058923388350114562 -0.0090927455188333558 0 -0.056772650516933192 -0.0041912119469430546 0 -0.05634686038202473 -0.006800512107194458 0 -0.0545138054836182 -0.0085824196468351818 0 -0.056166876109006329 -0.0078554677685555244 0 -0.055183569428651796 -0.0066869943896522097 0 -0.0545138054836182 -0.0085824196468351818 0 -0.056226331019342574 -0.0095570566727832748 0 -0.056166876109006329 -0.0078554677685555244 0 -0.056226331019342574 -0.0095570566727832748 0 -0.057367496604162078 -0.008817502173259089 0 -0.056166876109006329 -0.0078554677685555244 0 -0.055183569428651796 -0.0066869943896522097 0 -0.056360062044288811 -0.0060343574172949926 0 -0.055902627430941113 -0.0047462931732391743 0 -0.056328554423574775 -0.0059276806422998637 0 -0.056461425632874276 -0.0032897481983893148 0 -0.056772650516933192 -0.0041912119469430546 0 -0.056176387164355121 -0.0022000187900575664 0 -0.056166876109006329 -0.0078554677685555244 0 -0.056360062044288811 -0.0060343574172949926 0 -0.057509109647323281 -0.0067391571631038013 0 -0.056360062044288811 -0.0060343574172949926 0 -0.057509109647323281 -0.0067391571631038013 0 -0.05601834828159899 -0.0044032408515047722 0 -0.056166876109006329 -0.0078554677685555244 0 -0.055183569428651796 -0.0066869943896522097 0 -0.056360062044288811 -0.0060343574172949926 0 -0.055870011990879251 -0.0017182698336888572 0 -0.056025909403608964 -0.0014194273224062378 0 -0.056190568016591121 -0.0016637606824303766 0 -0.055870011990879251 -0.0017182698336888572 0 -0.055907203422286729 -0.0013591526787201708 0 -0.055717764134714687 -0.0013681220586364224 0 -0.055870011990879251 -0.0017182698336888572 0 -0.056025909403608964 -0.0014194273224062378 0 -0.055907203422286729 -0.0013591526787201708 0 -0.056012793006115086 -0.001223377817071786 0 -0.056025909403608964 -0.0014194273224062378 0 -0.055907203422286729 -0.0013591526787201708 0 -0.055873300830992782 -0.0010825687619860091 0 -0.055907203422286729 -0.0013591526787201708 0 -0.055717764134714687 -0.0013681220586364224 0 -0.055981597653130211 -0.00095954353743290708 0 -0.056176387164355121 -0.0022000187900575664 0 -0.055998801667742154 -0.0012206382004561946 0 -0.056131756680327383 -0.0016070588145299471 0 -0.056810894092303346 -0.0017926641797831372 0 -0.056131756680327383 -0.0016070588145299471 0 -0.056810894092303346 -0.0017926641797831372 0 -0.05674712645491687 -0.0020028382566059885 0 -0.056176387164355121 -0.0022000187900575664 0 -0.056461425632874276 -0.0032897481983893148 0 -0.056360062044288811 -0.0060343574172949926 0 -0.05601834828159899 -0.0044032408515047722 0 -0.055902627430941113 -0.0047462931732391743 0 -0.056607330090628065 -0.0027702531007548197 0 -0.055202393385265967 -0.0031359812944216411 0 -0.056158898120798155 -0.0040904031137243653 0 -0.055202393385265967 -0.0031359812944216411 0 -0.054638541907795622 -0.0044955421940555181 0 -0.056158898120798155 -0.0040904031137243653 0 -0.056025909403608964 -0.0014194273224062378 0 -0.05610615064449373 -0.0013252127447938853 0 -0.056190568016591121 -0.0016637606824303766 0 -0.055647148483649322 -0.0023561182187650889 0 -0.055367308970445658 -0.0026001028924352056 0 -0.056012793006115086 -0.001223377817071786 0 -0.056025909403608964 -0.0014194273224062378 0 -0.05610615064449373 -0.0013252127447938853 0 -0.054638541907795622 -0.0044955421940555181 0 -0.055415855708868894 -0.005061150649385583 0 -0.056158898120798155 -0.0040904031137243653 0 -0.055415855708868894 -0.005061150649385583 0 -0.056384576778630707 -0.0050341950374301909 0 -0.056158898120798155 -0.0040904031137243653 0 -0.055415855708868894 -0.005061150649385583 0 -0.054056857978035035 -0.0060543725160980069 0 -0.055489138613113796 -0.0060525752704220772 0 -0.055415855708868894 -0.005061150649385583 0 -0.055489138613113796 -0.0060525752704220772 0 -0.056384576778630707 -0.0050341950374301909 0 -0.054638541907795622 -0.0044955421940555181 0 -0.055415855708868894 -0.005061150649385583 0 -0.054056857978035035 -0.0060543725160980069 0 -0.055367308970445658 -0.0026001028924352056 0 -0.05634686038202473 -0.006800512107194458 0 -0.055870011990879251 -0.0017182698336888572 0 -0.056190568016591121 -0.0016637606824303766 0 -0.056098673991613494 -0.0021719437312109971 0 -0.056245823653179254 -0.0092058883313159302 0 -0.056516947023652259 -0.0096671608652221849 0 -0.056079906389412931 -0.0097406269283473613 0 -0.05634686038202473 -0.006800512107194458 0 -0.055652157004168486 -0.0086925921421973588 0 -0.054056857978035035 -0.0060543725160980069 0 -0.055489138613113796 -0.0060525752704220772 0 -0.054909666262039025 -0.0075759223300760096 0 -0.055489138613113796 -0.0060525752704220772 0 -0.054909666262039025 -0.0075759223300760096 0 -0.056571123892714487 -0.0078985487062507142 0 -0.05643018192909189 -0.0095498636926574249 0 -0.054909666262039025 -0.0075759223300760096 0 -0.056571123892714487 -0.0078985487062507142 0 -0.05643018192909189 -0.0095498636926574249 0 -0.056486080595542484 -0.0098442272038551451 0 -0.056516947023652259 -0.0096671608652221849 0 -0.056364923153965844 -0.009463653011612316 0 -0.055652157004168486 -0.0086925921421973588 0 -0.05643018192909189 -0.0095498636926574249 0 -0.056535373885184155 -0.0103887698410623 0 -0.056704207598905425 -0.010260454409849648 0 -0.05643018192909189 -0.0095498636926574249 0 -0.056535373885184155 -0.0103887698410623 0 -0.056486080595542484 -0.0098442272038551451 0 -0.05643018192909189 -0.0095498636926574249 0 -0.056704207598905425 -0.010260454409849648 0 -0.056923516760693377 -0.0095572651867373137 0 -0.056535373885184155 -0.0103887698410623 0 -0.056486080595542484 -0.0098442272038551451 0 -0.056079906389412931 -0.0097406269283473613 0 -0.056486080595542484 -0.0098442272038551451 0 -0.056516947023652259 -0.0096671608652221849 0 -0.056079906389412931 -0.0097406269283473613 0 -0.058058628670827908 -0.010491885713173188 0 -0.058110944076922397 -0.011681514022589656 0 -0.057067051396731676 -0.012021294332004157 0 -0.056226631676852032 -0.011102757650587412 0 -0.057648990270731039 -0.010674135365778072 0 -0.056016396803963177 -0.011456640974003533 0 -0.058058628670827908 -0.010491885713173188 0 -0.057067051396731676 -0.012021294332004157 0 -0.057067051396731676 -0.012021294332004157 0 -0.056452523255395931 -0.0127828471044092 0 -0.057255323644344457 -0.013289806390580697 0 -0.056016396803963177 -0.011456640974003533 0 -0.057067051396731676 -0.012021294332004157 0 -0.056452523255395931 -0.0127828471044092 0 -0.058110944076922397 -0.011681514022589656 0 -0.057067051396731676 -0.012021294332004157 0 -0.057255323644344457 -0.013289806390580697 0 -0.056535373885184155 -0.0103887698410623 0 -0.056079906389412931 -0.0097406269283473613 0 -0.055849853188538391 -0.010899015365086379 0 -0.057176236981896708 -0.011163300087057199 0 -0.056619475058504475 -0.011972032074449229 0 -0.056535373885184155 -0.0103887698410623 0 -0.055849853188538391 -0.010899015365086379 0 -0.05660414709864444 -0.011599322248660697 0 -0.056452523255395931 -0.0127828471044092 0 -0.057255323644344457 -0.013289806390580697 0 -0.056599694595388023 -0.013548289618113414 0 -0.056489708358003168 -0.013959488645655806 0 -0.056599694595388023 -0.013548289618113414 0 -0.0564843415777442 -0.013686796666959445 0 -0.057255323644344457 -0.013289806390580697 0 -0.056599694595388023 -0.013548289618113414 0 -0.0564843415777442 -0.013686796666959445 0 -0.0564843415777442 -0.013686796666959445 0 -0.056779160640878644 -0.013066923167706438 0 -0.05660414709864444 -0.011599322248660697 0 -0.055849853188538391 -0.010899015365086379 0 -0.0564843415777442 -0.013686796666959445 0 -0.05660414709864444 -0.011599322248660697 0 -0.056619475058504475 -0.011972032074449229 0 -0.056457128603648363 -0.013515343719890579 0 -0.056779160640878644 -0.013066923167706438 0 -0.057793048493775756 -0.012006594567039506 0 -0.058031217336319614 -0.0095749937858392673 0 -0.056779160640878644 -0.013066923167706438 0 -0.056866101823667525 -0.011183521499543034 0 -0.05660414709864444 -0.011599322248660697 0 -0.056721312329979956 -0.012733299396562816 0 -0.057455278000075272 -0.010155294325042894 0 -0.057793048493775756 -0.012006594567039506 0 -0.058208727358092668 -0.010861124302245746 0 -0.058031217336319614 -0.0095749937858392673 0 -0.059143023057748982 -0.0112043052828605 0 -0.057783033124435286 -0.0081638154458766876 0 -0.05958390779030661 -0.01026949631672457 0 -0.058208727358092668 -0.010861124302245746 0 -0.059143023057748982 -0.0112043052828605 0 -0.057783033124435286 -0.0081638154458766876 0 -0.058208727358092668 -0.010861124302245746 0 -0.057783033124435286 -0.0081638154458766876 0 -0.058031217336319614 -0.0095749937858392673 0 -0.056866101823667525 -0.011183521499543034 0 -0.056704207598905425 -0.010260454409849648 0 -0.05671039570530044 -0.010764582686298763 0 -0.057783033124435286 -0.0081638154458766876 0 -0.058031217336319614 -0.0095749937858392673 0 -0.05512395750867212 -0.0032803774541802699 0 -0.056866101823667525 -0.011183521499543034 0 -0.056704207598905425 -0.010260454409849648 0 -0.057088295957361014 -0.01008455137523657 0 -0.056535373885184155 -0.0103887698410623 0 -0.056704207598905425 -0.010260454409849648 0 -0.05671039570530044 -0.010764582686298763 0 -0.057455278000075272 -0.010155294325042894 0 -0.056654871903701672 -0.007039074346314996 0 -0.056535373885184155 -0.0103887698410623 0 -0.05660414709864444 -0.011599322248660697 0 -0.05671039570530044 -0.010764582686298763 0 -0.056866101823667525 -0.011183521499543034 0 -0.05660414709864444 -0.011599322248660697 0 -0.05671039570530044 -0.010764582686298763 0 -0.061471879714837301 -0.0094228630417592177 0 -0.061976614915883403 -0.010110687773942768 0 -0.062204743959107182 -0.0098294324115236805 0 -0.057037602092230993 -0.0057292164906662555 0 -0.056054743697421035 -0.0047541684023753254 0 -0.053755970692553126 -0.0013975644423018492 0 -0.048846517275550595 0.00096734084694725584 0 -0.049717196858257082 0.00012498516257576864 0 -0.051690689035316449 -0.0012418567219623887 0 -0.05512395750867212 -0.0032803774541802699 0 -0.048880453606887364 -0.00029825966766257902 0 -0.053755970692553126 -0.0013975644423018492 0 -0.051247200780208758 -0.00077561611208068026 0 -0.049717196858257082 0.00012498516257576864 0 -0.051247200780208758 -0.00077561611208068026 0 -0.049717196858257082 0.00012498516257576864 0 -0.049756140594442853 -0.00035924244038680348 0 -0.051247200780208758 -0.00077561611208068026 0 -0.051690689035316449 -0.0012418567219623887 0 -0.049756140594442853 -0.00035924244038680348 0 -0.053755970692553126 -0.0013975644423018492 0 -0.051690689035316449 -0.0012418567219623887 0 -0.05512395750867212 -0.0032803774541802699 0 -0.053755970692553126 -0.0013975644423018492 0 -0.051247200780208758 -0.00077561611208068026 0 -0.051690689035316449 -0.0012418567219623887 0 -0.057783033124435286 -0.0081638154458766876 0 -0.053755970692553126 -0.0013975644423018492 0 -0.05512395750867212 -0.0032803774541802699 0 -0.056704207598905425 -0.010260454409849648 0 -0.057088295957361014 -0.01008455137523657 0 -0.056923516760693377 -0.0095572651867373137 0 -0.05712695607519553 -0.0075822350170601021 0 -0.057037602092230993 -0.0057292164906662555 0 -0.061471879714837301 -0.0094228630417592177 0 -0.06034210401643151 -0.0099000803866232494 0 -0.061501446765543727 -0.010422041792802096 0 -0.057783033124435286 -0.0081638154458766876 0 -0.061471879714837301 -0.0094228630417592177 0 -0.06034210401643151 -0.0099000803866232494 0 -0.057783033124435286 -0.0081638154458766876 0 -0.06034210401643151 -0.0099000803866232494 0 -0.05958390779030661 -0.01026949631672457 0 -0.059143023057748982 -0.0112043052828605 0 -0.05958390779030661 -0.01026949631672457 0 -0.060560598098317174 -0.011244410155741104 0 -0.06034210401643151 -0.0099000803866232494 0 -0.05958390779030661 -0.01026949631672457 0 -0.060560598098317174 -0.011244410155741104 0 -0.06034210401643151 -0.0099000803866232494 0 -0.060560598098317174 -0.011244410155741104 0 -0.061501446765543727 -0.010422041792802096 0 -0.061501446765543727 -0.010422041792802096 0 -0.062100422965032265 -0.010741707761296427 0 -0.061741147268601852 -0.011586981242125973 0 -0.060560598098317174 -0.011244410155741104 0 -0.061501446765543727 -0.010422041792802096 0 -0.061741147268601852 -0.011586981242125973 0 -0.061471879714837301 -0.0094228630417592177 0 -0.061501446765543727 -0.010422041792802096 0 -0.061976614915883403 -0.010110687773942768 0 -0.061501446765543727 -0.010422041792802096 0 -0.061976614915883403 -0.010110687773942768 0 -0.062100422965032265 -0.010741707761296427 0 -0.062100422965032265 -0.010741707761296427 0 -0.062361650307990311 -0.010290305105410588 0 -0.06249023462130749 -0.011112096209436749 0 -0.062361650307990311 -0.010290305105410588 0 -0.062742867110706382 -0.010284415870096592 0 -0.06249023462130749 -0.011112096209436749 0 -0.062361650307990311 -0.010290305105410588 0 -0.062742867110706382 -0.010284415870096592 0 -0.062558332692310481 -0.0099289936935872472 0 -0.061976614915883403 -0.010110687773942768 0 -0.062100422965032265 -0.010741707761296427 0 -0.062361650307990311 -0.010290305105410588 0 -0.061976614915883403 -0.010110687773942768 0 -0.062361650307990311 -0.010290305105410588 0 -0.062204743959107182 -0.0098294324115236805 0 -0.062742867110706382 -0.010284415870096592 0 -0.062985311895864621 -0.010837313034599727 0 -0.06249023462130749 -0.011112096209436749 0 -0.063091911441965673 -0.0097270946341026059 0 -0.063453481873907661 -0.011086565234122941 0 -0.062985311895864621 -0.010837313034599727 0 -0.062742867110706382 -0.010284415870096592 0 -0.063091911441965673 -0.0097270946341026059 0 -0.062985311895864621 -0.010837313034599727 0 -0.062742867110706382 -0.010284415870096592 0 -0.062558332692310481 -0.0099289936935872472 0 -0.062769488929871289 -0.0098377390586667397 0 -0.062558332692310481 -0.0099289936935872472 0 -0.062693948769808674 -0.0094582851647618208 0 -0.062204743959107182 -0.0098294324115236805 0 -0.053771405945375987 6.2507553148851352e-05 0 -0.056054743697421035 -0.0047541684023753254 0 -0.062769488929871289 -0.0098377390586667397 0 -0.062693948769808674 -0.0094582851647618208 0 -0.063091911441965673 -0.0097270946341026059 0 -0.049462649423846039 0.002943303480046516 0 -0.050720883862837962 -0.00099730156619602314 0 -0.062742867110706382 -0.010284415870096592 0 -0.062769488929871289 -0.0098377390586667397 0 -0.063091911441965673 -0.0097270946341026059 0 -0.053771405945375987 6.2507553148851352e-05 0 -0.050720883862837962 -0.00099730156619602314 0 -0.062558332692310481 -0.0099289936935872472 0 -0.062769488929871289 -0.0098377390586667397 0 -0.062693948769808674 -0.0094582851647618208 0 -0.050575610778977112 0.0013199781040414366 0 -0.049031950105250542 0.0015854809530976362 0 -0.048717276183487652 0.0025779884912839122 0 -0.046404606343099696 0.0089962735760137306 0 -0.045959284791609122 0.0076086464041684584 0 -0.046481061457441838 0.0062142327722685825 0 -0.05783799127002958 -0.00032975200754304431 0 -0.058301459779107279 -0.00012699004948986238 0 -0.058494168746272591 -0.0010489605032826602 0 -0.046404606343099696 0.0089962735760137306 0 -0.045959284791609122 0.0076086464041684584 0 -0.045573808091389195 0.0080820507015503338 0 -0.046404606343099696 0.0089962735760137306 0 -0.045573808091389195 0.0080820507015503338 0 -0.04512665568401366 0.0083413916402656583 0 -0.045573808091389195 0.0080820507015503338 0 -0.04512665568401366 0.0083413916402656583 0 -0.045388297426168608 0.007474775213344065 0 -0.045959284791609122 0.0076086464041684584 0 -0.045573808091389195 0.0080820507015503338 0 -0.045388297426168608 0.007474775213344065 0 -0.053771405945375987 6.2507553148851352e-05 0 -0.049462649423846039 0.002943303480046516 0 -0.050575610778977112 0.0013199781040414366 0 -0.048846517275550595 0.00096734084694725584 0 -0.049031950105250542 0.0015854809530976362 0 -0.062361650307990311 -0.010290305105410588 0 -0.062558332692310481 -0.0099289936935872472 0 -0.062204743959107182 -0.0098294324115236805 0 -0.048846517275550595 0.00096734084694725584 0 -0.049031950105250542 0.0015854809530976362 0 -0.048926387894725108 0.0010096836143384229 0 -0.048846517275550595 0.00096734084694725584 0 -0.049717196858257082 0.00012498516257576864 0 -0.048926387894725108 0.0010096836143384229 0 -0.049717196858257082 0.00012498516257576864 0 -0.048926387894725108 0.0010096836143384229 0 -0.049756140594442853 -0.00035924244038680348 0 -0.048965546171807046 0.0010827737961418623 0 -0.048926387894725108 0.0010096836143384229 0 -0.048559274537684015 0.0024313213382827869 0 -0.048965546171807046 0.0010827737961418623 0 -0.048926387894725108 0.0010096836143384229 0 -0.049756140594442853 -0.00035924244038680348 0 -0.048926387894725108 0.0010096836143384229 0 -0.048717276183487652 0.0025779884912839122 0 -0.048559274537684015 0.0024313213382827869 0 -0.049031950105250542 0.0015854809530976362 0 -0.048926387894725108 0.0010096836143384229 0 -0.048717276183487652 0.0025779884912839122 0 -0.048717276183487652 0.0025779884912839122 0 -0.048559274537684015 0.0024313213382827869 0 -0.048495067487096803 0.0041444055714703427 0 -0.048965546171807046 0.0010827737961418623 0 -0.048559274537684015 0.0024313213382827869 0 -0.047996742818157606 0.0041584911370661937 0 -0.048559274537684015 0.0024313213382827869 0 -0.047996742818157606 0.0041584911370661937 0 -0.048495067487096803 0.0041444055714703427 0 -0.05157929170975542 -0.00099278385291754357 0 -0.048898318586330709 0.0028626775333800373 0 -0.046481061457441838 0.0062142327722685825 0 -0.04535767524944203 0.0057838115347092307 0 -0.044981683086694077 0.0070013989656631604 0 -0.045388297426168608 0.007474775213344065 0 -0.046481061457441838 0.0062142327722685825 0 -0.044981683086694077 0.0070013989656631604 0 -0.04512665568401366 0.0083413916402656583 0 -0.045388297426168608 0.007474775213344065 0 -0.044981683086694077 0.0070013989656631604 0 -0.045959284791609122 0.0076086464041684584 0 -0.045388297426168608 0.007474775213344065 0 -0.046481061457441838 0.0062142327722685825 0 -0.046481061457441838 0.0062142327722685825 0 -0.047121607835178325 0.0047606142968875231 0 -0.048495067487096803 0.0041444055714703427 0 -0.046404606343099696 0.0089962735760137306 0 -0.046481061457441838 0.0062142327722685825 0 -0.048495067487096803 0.0041444055714703427 0 -0.050575610778977112 0.0013199781040414366 0 -0.048717276183487652 0.0025779884912839122 0 -0.048495067487096803 0.0041444055714703427 0 -0.053771405945375987 6.2507553148851352e-05 0 -0.047407810986529332 0.0062615415318439957 0 -0.047996742818157606 0.0041584911370661937 0 -0.047121607835178325 0.0047606142968875231 0 -0.046151150331611941 0.0046272504206316296 0 -0.047996742818157606 0.0041584911370661937 0 -0.047121607835178325 0.0047606142968875231 0 -0.048495067487096803 0.0041444055714703427 0 -0.047121607835178325 0.0047606142968875231 0 -0.04535767524944203 0.0057838115347092307 0 -0.046151150331611941 0.0046272504206316296 0 -0.046481061457441838 0.0062142327722685825 0 -0.047121607835178325 0.0047606142968875231 0 -0.04535767524944203 0.0057838115347092307 0 -0.047996742818157606 0.0041584911370661937 0 -0.046151150331611941 0.0046272504206316296 0 -0.047012724145703025 0.0039329987093982164 0 -0.046151150331611941 0.0046272504206316296 0 -0.044659440307217899 0.0042074212666071533 0 -0.047012724145703025 0.0039329987093982164 0 -0.058739847445757741 -0.0070543266619429567 0 -0.057949252944987005 -0.0076095057853220712 0 -0.058044144738926808 -0.0064084564578142803 0 -0.048822198513931464 0.0042080146103365638 0 -0.047996742818157606 0.0041584911370661937 0 -0.047012724145703025 0.0039329987093982164 0 -0.05157929170975542 -0.00099278385291754357 0 -0.053066721724108194 -0.0016561785561574802 0 -0.058237851566170076 -0.0088871469365486202 0 -0.058739847445757741 -0.0070543266619429567 0 -0.057949252944987005 -0.0076095057853220712 0 -0.057949252944987005 -0.0076095057853220712 0 -0.05736454928128739 -0.0078572142833219904 0 -0.057180550066200153 -0.0070269377959279906 0 -0.05736454928128739 -0.0078572142833219904 0 -0.05770814804937921 -0.0084651257149266253 0 -0.057222122399298275 -0.0086762163793433142 0 -0.057949252944987005 -0.0076095057853220712 0 -0.05736454928128739 -0.0078572142833219904 0 -0.05770814804937921 -0.0084651257149266253 0 -0.058237851566170076 -0.0088871469365486202 0 -0.05770814804937921 -0.0084651257149266253 0 -0.057425057956645091 -0.0091438801342614943 0 -0.056654871903701672 -0.007039074346314996 0 -0.05157929170975542 -0.00099278385291754357 0 -0.058237851566170076 -0.0088871469365486202 0 -0.057949252944987005 -0.0076095057853220712 0 -0.05770814804937921 -0.0084651257149266253 0 -0.057088295957361014 -0.01008455137523657 0 -0.058237851566170076 -0.0088871469365486202 0 -0.057425057956645091 -0.0091438801342614943 0 -0.05770814804937921 -0.0084651257149266253 0 -0.057425057956645091 -0.0091438801342614943 0 -0.057222122399298275 -0.0086762163793433142 0 -0.051690689035316449 -0.0012418567219623887 0 -0.048880453606887364 -0.00029825966766257902 0 -0.049756140594442853 -0.00035924244038680348 0 -0.05157929170975542 -0.00099278385291754357 0 -0.051017284584663265 -0.00083017764386336625 0 -0.05643018192909189 -0.0095498636926574249 0 -0.056923516760693377 -0.0095572651867373137 0 -0.056571123892714487 -0.0078985487062507142 0 -0.056923516760693377 -0.0095572651867373137 0 -0.057222122399298275 -0.0086762163793433142 0 -0.056571123892714487 -0.0078985487062507142 0 -0.057088295957361014 -0.01008455137523657 0 -0.057425057956645091 -0.0091438801342614943 0 -0.056923516760693377 -0.0095572651867373137 0 -0.057425057956645091 -0.0091438801342614943 0 -0.056923516760693377 -0.0095572651867373137 0 -0.057222122399298275 -0.0086762163793433142 0 -0.05736454928128739 -0.0078572142833219904 0 -0.057222122399298275 -0.0086762163793433142 0 -0.056571123892714487 -0.0078985487062507142 0 -0.05736454928128739 -0.0078572142833219904 0 -0.056571123892714487 -0.0078985487062507142 0 -0.057180550066200153 -0.0070269377959279906 0 -0.055489138613113796 -0.0060525752704220772 0 -0.056571123892714487 -0.0078985487062507142 0 -0.056586726796031966 -0.0063239392077946953 0 -0.056586726796031966 -0.0063239392077946953 0 -0.057180550066200153 -0.0070269377959279906 0 -0.05721494342351572 -0.0057777348480000292 0 -0.056571123892714487 -0.0078985487062507142 0 -0.056586726796031966 -0.0063239392077946953 0 -0.057180550066200153 -0.0070269377959279906 0 -0.057949252944987005 -0.0076095057853220712 0 -0.057180550066200153 -0.0070269377959279906 0 -0.058044144738926808 -0.0064084564578142803 0 -0.057180550066200153 -0.0070269377959279906 0 -0.05721494342351572 -0.0057777348480000292 0 -0.058044144738926808 -0.0064084564578142803 0 -0.05721494342351572 -0.0057777348480000292 0 -0.057885485730880294 -0.0053104506778055864 0 -0.058044144738926808 -0.0064084564578142803 0 -0.05721494342351572 -0.0057777348480000292 0 -0.056384576778630707 -0.0050341950374301909 0 -0.057172755589514471 -0.0046849065054101269 0 -0.05721494342351572 -0.0057777348480000292 0 -0.057172755589514471 -0.0046849065054101269 0 -0.057885485730880294 -0.0053104506778055864 0 -0.056586726796031966 -0.0063239392077946953 0 -0.05721494342351572 -0.0057777348480000292 0 -0.056384576778630707 -0.0050341950374301909 0 -0.055489138613113796 -0.0060525752704220772 0 -0.056586726796031966 -0.0063239392077946953 0 -0.056384576778630707 -0.0050341950374301909 0 -0.056384576778630707 -0.0050341950374301909 0 -0.056158898120798155 -0.0040904031137243653 0 -0.057172755589514471 -0.0046849065054101269 0 -0.056158898120798155 -0.0040904031137243653 0 -0.057172755589514471 -0.0046849065054101269 0 -0.057222274033352678 -0.0036916154100245669 0 -0.057172755589514471 -0.0046849065054101269 0 -0.057222274033352678 -0.0036916154100245669 0 -0.05799265629825312 -0.0043279616117449368 0 -0.056607330090628065 -0.0027702531007548197 0 -0.057239210945446532 -0.0030147611292639575 0 -0.057222274033352678 -0.0036916154100245669 0 -0.057239210945446532 -0.0030147611292639575 0 -0.057222274033352678 -0.0036916154100245669 0 -0.057737429056730981 -0.003397711284722394 0 -0.056607330090628065 -0.0027702531007548197 0 -0.056158898120798155 -0.0040904031137243653 0 -0.057222274033352678 -0.0036916154100245669 0 -0.058148922927544693 -0.0036103704385673707 0 -0.058377676357961782 -0.00409322534329836 0 -0.058242200091636477 -0.0036051486911434449 0 -0.058148922927544693 -0.0036103704385673707 0 -0.058163636503485071 -0.0033606016063865117 0 -0.058242200091636477 -0.0036051486911434449 0 -0.058025484740954827 -0.0031494920712992749 0 -0.058148922927544693 -0.0036103704385673707 0 -0.058163636503485071 -0.0033606016063865117 0 -0.058025484740954827 -0.0031494920712992749 0 -0.058148922927544693 -0.0036103704385673707 0 -0.057737429056730981 -0.003397711284722394 0 -0.057222274033352678 -0.0036916154100245669 0 -0.057737429056730981 -0.003397711284722394 0 -0.05799265629825312 -0.0043279616117449368 0 -0.058148922927544693 -0.0036103704385673707 0 -0.057737429056730981 -0.003397711284722394 0 -0.05799265629825312 -0.0043279616117449368 0 -0.058148922927544693 -0.0036103704385673707 0 -0.05799265629825312 -0.0043279616117449368 0 -0.058377676357961782 -0.00409322534329836 0 -0.05799265629825312 -0.0043279616117449368 0 -0.058377676357961782 -0.00409322534329836 0 -0.058869920017355221 -0.0052661811934702121 0 -0.057172755589514471 -0.0046849065054101269 0 -0.05799265629825312 -0.0043279616117449368 0 -0.057885485730880294 -0.0053104506778055864 0 -0.05799265629825312 -0.0043279616117449368 0 -0.058869920017355221 -0.0052661811934702121 0 -0.057885485730880294 -0.0053104506778055864 0 -0.058869920017355221 -0.0052661811934702121 0 -0.057885485730880294 -0.0053104506778055864 0 -0.058044144738926808 -0.0064084564578142803 0 -0.044659440307217899 0.0042074212666071533 0 -0.047012724145703025 0.0039329987093982164 0 -0.044010092895127334 0.0028915951157769413 0 -0.053066721724108194 -0.0016561785561574802 0 -0.051446418862855593 -0.0011501280838385427 0 -0.058739847445757741 -0.0070543266619429567 0 -0.058869920017355221 -0.0052661811934702121 0 -0.058044144738926808 -0.0064084564578142803 0 -0.044010092895127334 0.0028915951157769413 0 -0.042465881821180454 0.0043051032863258573 0 -0.040848691100740422 0.0032993647843479975 0 -0.044659440307217899 0.0042074212666071533 0 -0.044010092895127334 0.0028915951157769413 0 -0.042465881821180454 0.0043051032863258573 0 -0.040848691100740422 0.0032993647843479975 0 -0.038660673243784714 0.0043698257267566357 0 -0.040292262033979093 0.0055263868987772864 0 -0.042465881821180454 0.0043051032863258573 0 -0.040848691100740422 0.0032993647843479975 0 -0.040292262033979093 0.0055263868987772864 0 -0.051446418862855593 -0.0011501280838385427 0 -0.050016642487651509 -0.00086718820970897194 0 -0.044010092895127334 0.0028915951157769413 0 -0.040848691100740422 0.0032993647843479975 0 -0.041545210725481299 0.0019765908543180315 0 -0.058377676357961782 -0.00409322534329836 0 -0.058869920017355221 -0.0052661811934702121 0 -0.058465448650836381 -0.0038077938230974507 0 -0.058377676357961782 -0.00409322534329836 0 -0.058465448650836381 -0.0038077938230974507 0 -0.058242200091636477 -0.0036051486911434449 0 -0.040848691100740422 0.0032993647843479975 0 -0.041545210725481299 0.0019765908543180315 0 -0.039826023388653646 0.0021844087768552998 0 -0.040848691100740422 0.0032993647843479975 0 -0.039826023388653646 0.0021844087768552998 0 -0.038760377040309935 0.0029136187502601016 0 -0.041545210725481299 0.0019765908543180315 0 -0.039826023388653646 0.0021844087768552998 0 -0.039613204600121965 0.0010110298945213568 0 -0.058465448650836381 -0.0038077938230974507 0 -0.057215560629475117 -0.0034600164476536132 0 -0.057701522477090088 -0.0034153557161975276 0 -0.039826023388653646 0.0021844087768552998 0 -0.039613204600121965 0.0010110298945213568 0 -0.03835923442774896 0.0017980101101602774 0 -0.050016642487651509 -0.00086718820970897194 0 -0.048544854492341319 -0.0016599508461302222 0 -0.058465448650836381 -0.0038077938230974507 0 -0.057701522477090088 -0.0034153557161975276 0 -0.058242200091636477 -0.0036051486911434449 0 -0.058163636503485071 -0.0033606016063865117 0 -0.057701522477090088 -0.0034153557161975276 0 -0.058242200091636477 -0.0036051486911434449 0 -0.03659303817513291 0.0015219826178096477 0 -0.03835923442774896 0.0017980101101602774 0 -0.036712879491021623 0.0026844855983429315 0 -0.03486195831096487 0.0024186067913843381 0 -0.03659303817513291 0.0015219826178096477 0 -0.036712879491021623 0.0026844855983429315 0 -0.037861041673362496 0.00085842804609105507 0 -0.039613204600121965 0.0010110298945213568 0 -0.03835923442774896 0.0017980101101602774 0 -0.037861041673362496 0.00085842804609105507 0 -0.03659303817513291 0.0015219826178096477 0 -0.03835923442774896 0.0017980101101602774 0 -0.039826023388653646 0.0021844087768552998 0 -0.03835923442774896 0.0017980101101602774 0 -0.038760377040309935 0.0029136187502601016 0 -0.03835923442774896 0.0017980101101602774 0 -0.038760377040309935 0.0029136187502601016 0 -0.036712879491021623 0.0026844855983429315 0 -0.034704768914664674 0.0036872279530954961 0 -0.036712879491021623 0.0026844855983429315 0 -0.036963630562153037 0.0037839256786093003 0 -0.038760377040309935 0.0029136187502601016 0 -0.036712879491021623 0.0026844855983429315 0 -0.036963630562153037 0.0037839256786093003 0 -0.035600148070467345 0.0053468559972811398 0 -0.036963630562153037 0.0037839256786093003 0 -0.038660673243784714 0.0043698257267566357 0 -0.040848691100740422 0.0032993647843479975 0 -0.038760377040309935 0.0029136187502601016 0 -0.038660673243784714 0.0043698257267566357 0 -0.038760377040309935 0.0029136187502601016 0 -0.036963630562153037 0.0037839256786093003 0 -0.038660673243784714 0.0043698257267566357 0 -0.038660673243784714 0.0043698257267566357 0 -0.037415532257987577 0.0061671849272106859 0 -0.040292262033979093 0.0055263868987772864 0 -0.035600148070467345 0.0053468559972811398 0 -0.038660673243784714 0.0043698257267566357 0 -0.037415532257987577 0.0061671849272106859 0 -0.035044324671468757 0.0076338945410279243 0 -0.037415532257987577 0.0061671849272106859 0 -0.037860501821333034 0.0080335923340269406 0 -0.035190405422650679 0.0075848684843334143 0 -0.038033982938445197 0.0077340622065121996 0 -0.035044324671468757 0.0076338945410279243 0 -0.037875279950298955 0.0075153198854525025 0 -0.036478739455758698 0.0099638540102813603 0 -0.038033982938445197 0.0077340622065121996 0 -0.040104873058539138 0.0082578456144757496 0 -0.037860501821333034 0.0080335923340269406 0 -0.040292262033979093 0.0055263868987772864 0 -0.041120011857586972 0.008049698211508487 0 -0.037875279950298955 0.0075153198854525025 0 -0.040857604018304489 0.0075446127287357194 0 -0.038191819889402512 0.0091818206745206792 0 -0.037415532257987577 0.0061671849272106859 0 -0.037860501821333034 0.0080335923340269406 0 -0.040292262033979093 0.0055263868987772864 0 -0.042465881821180454 0.0043051032863258573 0 -0.040292262033979093 0.0055263868987772864 0 -0.043465296076580291 0.005482746583173638 0 -0.044659440307217899 0.0042074212666071533 0 -0.042465881821180454 0.0043051032863258573 0 -0.043465296076580291 0.005482746583173638 0 -0.046151150331611941 0.0046272504206316296 0 -0.044659440307217899 0.0042074212666071533 0 -0.043465296076580291 0.005482746583173638 0 -0.04535767524944203 0.0057838115347092307 0 -0.046151150331611941 0.0046272504206316296 0 -0.043465296076580291 0.005482746583173638 0 -0.043465296076580291 0.005482746583173638 0 -0.044176509161585803 0.0070171170295354668 0 -0.041120011857586972 0.008049698211508487 0 -0.04512665568401366 0.0083413916402656583 0 -0.044176509161585803 0.0070171170295354668 0 -0.041120011857586972 0.008049698211508487 0 -0.04535767524944203 0.0057838115347092307 0 -0.043465296076580291 0.005482746583173638 0 -0.044176509161585803 0.0070171170295354668 0 -0.04512665568401366 0.0083413916402656583 0 -0.044176509161585803 0.0070171170295354668 0 -0.044981683086694077 0.0070013989656631604 0 -0.04535767524944203 0.0057838115347092307 0 -0.044176509161585803 0.0070171170295354668 0 -0.044981683086694077 0.0070013989656631604 0 -0.040292262033979093 0.0055263868987772864 0 -0.043465296076580291 0.005482746583173638 0 -0.041120011857586972 0.008049698211508487 0 -0.040857604018304489 0.0075446127287357194 0 -0.042414014261297192 0.0084236385796553469 0 -0.041172572774986677 0.009675474290744222 0 -0.040857604018304489 0.0075446127287357194 0 -0.041172572774986677 0.009675474290744222 0 -0.039822331516347849 0.0093002126502682442 0 -0.042414014261297192 0.0084236385796553469 0 -0.044062854834150345 0.0089297370896518919 0 -0.041172572774986677 0.009675474290744222 0 -0.044151947018018133 0.007747425380854306 0 -0.040857604018304489 0.0075446127287357194 0 -0.042414014261297192 0.0084236385796553469 0 -0.049462649423846039 0.002943303480046516 0 -0.040104873058539138 0.0082578456144757496 0 -0.044151947018018133 0.007747425380854306 0 -0.042414014261297192 0.0084236385796553469 0 -0.044062854834150345 0.0089297370896518919 0 -0.050720883862837962 -0.00099730156619602314 0 -0.041017796245894474 0.0049949320545039947 0 -0.044062854834150345 0.0089297370896518919 0 -0.041172572774986677 0.009675474290744222 0 -0.042101914155399829 0.011722003673741904 0 -0.0432818491584437 -0.0023342384098492051 0 -0.043253418154806121 -0.0015086303939309779 0 -0.042766935507563886 -0.0015715924843458979 0 -0.050720883862837962 -0.00099730156619602314 0 -0.051797671526077345 -0.0078041432907105029 0 -0.041172572774986677 0.009675474290744222 0 -0.039093044426269395 0.010786195759686437 0 -0.039822331516347849 0.0093002126502682442 0 -0.041172572774986677 0.009675474290744222 0 -0.039093044426269395 0.010786195759686437 0 -0.042101914155399829 0.011722003673741904 0 -0.039905661354968661 0.011386679381873797 0 -0.041017796245894474 0.0049949320545039947 0 -0.039548110707651539 0.010270954200250612 0 -0.037429807588369272 0.011045682383057512 0 -0.038833283827697823 0.011859137112300459 0 -0.035994114057337323 0.011698823392451086 0 -0.037429807588369272 0.011045682383057512 0 -0.036478739455758698 0.0099638540102813603 0 -0.039093044426269395 0.010786195759686437 0 -0.036478739455758698 0.0099638540102813603 0 -0.038191819889402512 0.0091818206745206792 0 -0.039905661354968661 0.011386679381873797 0 -0.036420347932319491 0.0097089651271763198 0 -0.039548110707651539 0.010270954200250612 0 -0.037429807588369272 0.011045682383057512 0 -0.036478739455758698 0.0099638540102813603 0 -0.037875279950298955 0.0075153198854525025 0 -0.036478739455758698 0.0099638540102813603 0 -0.038191819889402512 0.0091818206745206792 0 -0.040857604018304489 0.0075446127287357194 0 -0.039822331516347849 0.0093002126502682442 0 -0.038191819889402512 0.0091818206745206792 0 -0.039093044426269395 0.010786195759686437 0 -0.039822331516347849 0.0093002126502682442 0 -0.038191819889402512 0.0091818206745206792 0 -0.053517110516414855 -0.028173807899070001 0 -0.054398320216609876 -0.027658395888663867 0 -0.05416581403716493 -0.028393088738119528 0 -0.053517110516414855 -0.028173807899070001 0 -0.054398320216609876 -0.027658395888663867 0 -0.053576592497718067 -0.027367319945879123 0 -0.053517110516414855 -0.028173807899070001 0 -0.052616335735328292 -0.027921152636973739 0 -0.053576592497718067 -0.027367319945879123 0 -0.052616335735328292 -0.027921152636973739 0 -0.053576592497718067 -0.027367319945879123 0 -0.052869576811463863 -0.02737633364403114 0 -0.052234158188695548 -0.027461797989334746 0 -0.052616335735328292 -0.027921152636973739 0 -0.052869576811463863 -0.02737633364403114 0 -0.051551728040261709 -0.028457422351040269 0 -0.052616335735328292 -0.027921152636973739 0 -0.052593731285643992 -0.028617589642082442 0 -0.053517110516414855 -0.028173807899070001 0 -0.052616335735328292 -0.027921152636973739 0 -0.052593731285643992 -0.028617589642082442 0 -0.053517110516414855 -0.028173807899070001 0 -0.052593731285643992 -0.028617589642082442 0 -0.053632147764471498 -0.029061829860186454 0 -0.035994114057337323 0.011698823392451086 0 -0.037429807588369272 0.011045682383057512 0 -0.038833283827697823 0.011859137112300459 0 -0.043943266241074724 -0.0088330692982251883 0 -0.046268588817479701 -0.0080237730227410552 0 -0.051525399842075478 -0.02957618981106212 0 -0.052593731285643992 -0.028617589642082442 0 -0.053632147764471498 -0.029061829860186454 0 -0.053632147764471498 -0.029061829860186454 0 -0.05416581403716493 -0.028393088738119528 0 -0.055055256075991071 -0.028661979531839316 0 -0.046268588817479701 -0.0080237730227410552 0 -0.048590431131130728 -0.014356891894932822 0 -0.039548110707651539 0.010270954200250612 0 -0.038833283827697823 0.011859137112300459 0 -0.042410490383812491 0.011918006996975882 0 -0.053517110516414855 -0.028173807899070001 0 -0.053632147764471498 -0.029061829860186454 0 -0.05416581403716493 -0.028393088738119528 0 -0.039548110707651539 0.010270954200250612 0 -0.042410490383812491 0.011918006996975882 0 -0.043060078995619006 0.010991501191046416 0 -0.048590431131130728 -0.014356891894932822 0 -0.041017796245894474 0.0049949320545039947 0 -0.048590431131130728 -0.014356891894932822 0 -0.052099438941122005 -0.017479350091460268 0 -0.036423633537830055 -0.0015984271212241029 0 -0.039848740184123592 -0.0064566234384651209 0 -0.049539973090665594 -6.2755774837288398e-05 0 -0.055023380944502313 -0.028221190660003597 0 -0.05565151075606499 -0.028108109813548332 0 -0.05521015151130422 -0.027684010406567976 0 -0.049753441075462541 -0.00287782999067314 0 -0.039848740184123592 -0.0064566234384651209 0 -0.049539973090665594 -6.2755774837288398e-05 0 -0.051797671526077345 -0.0078041432907105029 0 -0.041017796245894474 0.0049949320545039947 0 -0.051797671526077345 -0.0078041432907105029 0 -0.052099438941122005 -0.017479350091460268 0 -0.05565151075606499 -0.028108109813548332 0 -0.05521015151130422 -0.027684010406567976 0 -0.055748800880260914 -0.027158899840728262 0 -0.052099438941122005 -0.017479350091460268 0 -0.05665396632248676 -0.026757197112233441 0 -0.054398320216609876 -0.027658395888663867 0 -0.05521015151130422 -0.027684010406567976 0 -0.055065780882551339 -0.027294578064198251 0 -0.057563124643647746 -0.032941166389827525 0 -0.048590431131130728 -0.014356891894932822 0 -0.054398320216609876 -0.027658395888663867 0 -0.05416581403716493 -0.028393088738119528 0 -0.055055256075991071 -0.028661979531839316 0 -0.054398320216609876 -0.027658395888663867 0 -0.055023380944502313 -0.028221190660003597 0 -0.05521015151130422 -0.027684010406567976 0 -0.055065780882551339 -0.027294578064198251 0 -0.055748800880260914 -0.027158899840728262 0 -0.054844037685712971 -0.026686836292258931 0 -0.054398320216609876 -0.027658395888663867 0 -0.055065780882551339 -0.027294578064198251 0 -0.054844037685712971 -0.026686836292258931 0 -0.05521015151130422 -0.027684010406567976 0 -0.055065780882551339 -0.027294578064198251 0 -0.055748800880260914 -0.027158899840728262 0 -0.055748800880260914 -0.027158899840728262 0 -0.054844037685712971 -0.026686836292258931 0 -0.055957349338361752 -0.025990516987990427 0 -0.056554537240656295 -0.022739752306665473 0 -0.055957349338361752 -0.025990516987990427 0 -0.055554384402981084 -0.023410638369156619 0 -0.05665396632248676 -0.026757197112233441 0 -0.055845354657630207 -0.025085213878179784 0 -0.054844037685712971 -0.026686836292258931 0 -0.055084003566433622 -0.026312109489477552 0 -0.055957349338361752 -0.025990516987990427 0 -0.054844037685712971 -0.026686836292258931 0 -0.053558766849639991 -0.026131592398735276 0 -0.055084003566433622 -0.026312109489477552 0 -0.054844037685712971 -0.026686836292258931 0 -0.053460849937146421 -0.026763863446187641 0 -0.053558766849639991 -0.026131592398735276 0 -0.054844037685712971 -0.026686836292258931 0 -0.053576592497718067 -0.027367319945879123 0 -0.053460849937146421 -0.026763863446187641 0 -0.054398320216609876 -0.027658395888663867 0 -0.054844037685712971 -0.026686836292258931 0 -0.053576592497718067 -0.027367319945879123 0 -0.051628528238589912 -0.026605008100475468 0 -0.052574726912360814 -0.026990412856636562 0 -0.053558766849639991 -0.026131592398735276 0 -0.052234158188695548 -0.027461797989334746 0 -0.052574726912360814 -0.026990412856636562 0 -0.052869576811463863 -0.02737633364403114 0 -0.052574726912360814 -0.026990412856636562 0 -0.052869576811463863 -0.02737633364403114 0 -0.053460849937146421 -0.026763863446187641 0 -0.053576592497718067 -0.027367319945879123 0 -0.052869576811463863 -0.02737633364403114 0 -0.053460849937146421 -0.026763863446187641 0 -0.051521666095628006 -0.027206891304994232 0 -0.053487734765108971 -0.026849286393717382 0 -0.052574726912360814 -0.026990412856636562 0 -0.053460849937146421 -0.026763863446187641 0 -0.053558766849639991 -0.026131592398735276 0 -0.051557500240106684 -0.026205273834439814 0 -0.053489487705181166 -0.027441260126477414 0 -0.05365759031649725 -0.026362277442770535 0 -0.053487734765108971 -0.026849286393717382 0 -0.054933812848691803 -0.026301717164287017 0 -0.053489487705181166 -0.027441260126477414 0 -0.05365759031649725 -0.026362277442770535 0 -0.055084003566433622 -0.026312109489477552 0 -0.054267933337135636 -0.026075929425314059 0 -0.054822712610750939 -0.026290699723017365 0 -0.055084003566433622 -0.026312109489477552 0 -0.05365759031649725 -0.026362277442770535 0 -0.054267933337135636 -0.026075929425314059 0 -0.055084003566433622 -0.026312109489477552 0 -0.051557500240106684 -0.026205273834439814 0 -0.05365759031649725 -0.026362277442770535 0 -0.05316200625014969 -0.025872987690304307 0 -0.05365759031649725 -0.026362277442770535 0 -0.054267933337135636 -0.026075929425314059 0 -0.05316200625014969 -0.025872987690304307 0 -0.054267933337135636 -0.026075929425314059 0 -0.05316200625014969 -0.025872987690304307 0 -0.053966551664441975 -0.025526706213760863 0 -0.051900011218480556 -0.02527065351713367 0 -0.05316200625014969 -0.025872987690304307 0 -0.053966551664441975 -0.025526706213760863 0 -0.054096213153132969 -0.025652056466612831 0 -0.054378012032800384 -0.025924745444592025 0 -0.053966551664441975 -0.025526706213760863 0 -0.053191117000204201 -0.024816664576521909 0 -0.053899458643898383 -0.025454331605151179 0 -0.054822712610750939 -0.026290699723017365 0 -0.054856911053699955 -0.026388434216967831 0 -0.055306986870004064 -0.026834944243277901 0 -0.054378012032800384 -0.025924745444592025 0 -0.054822712610750939 -0.026290699723017365 0 -0.054856911053699955 -0.026388434216967831 0 -0.054267933337135636 -0.026075929425314059 0 -0.053966551664441975 -0.025526706213760863 0 -0.054822712610750939 -0.026290699723017365 0 -0.054378012032800384 -0.025924745444592025 0 -0.053966551664441975 -0.025526706213760863 0 -0.054822712610750939 -0.026290699723017365 0 -0.057095817714235844 -0.028822452208852697 0 -0.05648031165454203 -0.028868489942477777 0 -0.054856911053699955 -0.026388434216967831 0 -0.054543381854494331 -0.026113141817944299 0 -0.055494972385702952 -0.026886409341518348 0 -0.053684674850894371 -0.026142234278804532 0 -0.054041825427853581 -0.026566037101986358 0 -0.054543381854494331 -0.026113141817944299 0 -0.054096213153132969 -0.025652056466612831 0 -0.054378012032800384 -0.025924745444592025 0 -0.054856911053699955 -0.026388434216967831 0 -0.053191117000204201 -0.024816664576521909 0 -0.055040280607924333 -0.026613971065802756 0 -0.054041825427853581 -0.026566037101986358 0 -0.054856911053699955 -0.026388434216967831 0 -0.054543381854494331 -0.026113141817944299 0 -0.053479063162442747 -0.028110485334849791 0 -0.057095817714235844 -0.028822452208852697 0 -0.05648031165454203 -0.028868489942477777 0 -0.05593315905272473 -0.029414415791310738 0 -0.055791505357963241 -0.027745658237470848 0 -0.055494972385702952 -0.026886409341518348 0 -0.056025561238980351 -0.029558990584959397 0 -0.054856911053699955 -0.026388434216967831 0 -0.055494972385702952 -0.026886409341518348 0 -0.055306986870004064 -0.026834944243277901 0 -0.055791505357963241 -0.027745658237470848 0 -0.055494972385702952 -0.026886409341518348 0 -0.055306986870004064 -0.026834944243277901 0 -0.055791505357963241 -0.027745658237470848 0 -0.055306986870004064 -0.026834944243277901 0 -0.055513602492947171 -0.0268052512339041 0 -0.054822712610750939 -0.026290699723017365 0 -0.055306986870004064 -0.026834944243277901 0 -0.055513602492947171 -0.0268052512339041 0 -0.055791505357963241 -0.027745658237470848 0 -0.055513602492947171 -0.0268052512339041 0 -0.05563428227128344 -0.02759595360793668 0 -0.055513602492947171 -0.0268052512339041 0 -0.05573484766098856 -0.026684465864950269 0 -0.05563428227128344 -0.02759595360793668 0 -0.054822712610750939 -0.026290699723017365 0 -0.055513602492947171 -0.0268052512339041 0 -0.055084003566433622 -0.026312109489477552 0 -0.055513602492947171 -0.0268052512339041 0 -0.05573484766098856 -0.026684465864950269 0 -0.055084003566433622 -0.026312109489477552 0 -0.05573484766098856 -0.026684465864950269 0 -0.055084003566433622 -0.026312109489477552 0 -0.055957349338361752 -0.025990516987990427 0 -0.05573484766098856 -0.026684465864950269 0 -0.055957349338361752 -0.025990516987990427 0 -0.05516943265531675 -0.025935795940497049 0 -0.05516943265531675 -0.025935795940497049 0 -0.054083086666668799 -0.026536658021055645 0 -0.054157474340048674 -0.024602664825956379 0 -0.05516943265531675 -0.025935795940497049 0 -0.055026305212461255 -0.027239993537452743 0 -0.054083086666668799 -0.026536658021055645 0 -0.055026305212461255 -0.027239993537452743 0 -0.053942076252199544 -0.028488835650963655 0 -0.054083086666668799 -0.026536658021055645 0 -0.05573484766098856 -0.026684465864950269 0 -0.05516943265531675 -0.025935795940497049 0 -0.055026305212461255 -0.027239993537452743 0 -0.05573484766098856 -0.026684465864950269 0 -0.055026305212461255 -0.027239993537452743 0 -0.05563428227128344 -0.02759595360793668 0 -0.055026305212461255 -0.027239993537452743 0 -0.05563428227128344 -0.02759595360793668 0 -0.054958609027284618 -0.028897757353778867 0 -0.055026305212461255 -0.027239993537452743 0 -0.054958609027284618 -0.028897757353778867 0 -0.053942076252199544 -0.028488835650963655 0 -0.054958609027284618 -0.028897757353778867 0 -0.056025561238980351 -0.029558990584959397 0 -0.05520969205977222 -0.031371031208095666 0 -0.054958609027284618 -0.028897757353778867 0 -0.053751154019042548 -0.030749028069421553 0 -0.05520969205977222 -0.031371031208095666 0 -0.055791505357963241 -0.027745658237470848 0 -0.05563428227128344 -0.02759595360793668 0 -0.056025561238980351 -0.029558990584959397 0 -0.05563428227128344 -0.02759595360793668 0 -0.054958609027284618 -0.028897757353778867 0 -0.056025561238980351 -0.029558990584959397 0 -0.053942076252199544 -0.028488835650963655 0 -0.053623412131994994 -0.029639585455914101 0 -0.053751154019042548 -0.030749028069421553 0 -0.054958609027284618 -0.028897757353778867 0 -0.053942076252199544 -0.028488835650963655 0 -0.053751154019042548 -0.030749028069421553 0 -0.053566773445495465 -0.028376219072552031 0 -0.053753962507080803 -0.029169282801852096 0 -0.053942076252199544 -0.028488835650963655 0 -0.052945417517001277 -0.027476130261271391 0 -0.053623412131994994 -0.029639585455914101 0 -0.053942076252199544 -0.028488835650963655 0 -0.052945417517001277 -0.027476130261271391 0 -0.054083086666668799 -0.026536658021055645 0 -0.052945417517001277 -0.027476130261271391 0 -0.054083086666668799 -0.026536658021055645 0 -0.053121328277302503 -0.025204593726105735 0 -0.054790708834071736 -0.028052945975064452 0 -0.055082097878629464 -0.027393318969996399 0 -0.054573676513782005 -0.027574780173378187 0 -0.053566773445495465 -0.028376219072552031 0 -0.055704899821502174 -0.023782858911843972 0 -0.055704899821502174 -0.023782858911843972 0 -0.056970720853816485 -0.023533938395541559 0 -0.057525927352509373 -0.019150106774820746 0 -0.056749271522260086 -0.021003012441805111 0 -0.058692655827338597 -0.019450657246149392 0 -0.057525927352509373 -0.019150106774820746 0 -0.058692655827338597 -0.019450657246149392 0 -0.059193737402025881 -0.019590603674712458 0 -0.056749271522260086 -0.021003012441805111 0 -0.058144240972268994 -0.021043451047346392 0 -0.058692655827338597 -0.019450657246149392 0 -0.056749271522260086 -0.021003012441805111 0 -0.058144240972268994 -0.021043451047346392 0 -0.05677677898932567 -0.021534147536680495 0 -0.056749271522260086 -0.021003012441805111 0 -0.056185529265696338 -0.021383626311565315 0 -0.0561627379778354 -0.021829876273482686 0 -0.056749271522260086 -0.021003012441805111 0 -0.0561627379778354 -0.021829876273482686 0 -0.05677677898932567 -0.021534147536680495 0 -0.055704899821502174 -0.023782858911843972 0 -0.055165401345996214 -0.02303726335631694 0 -0.056670052755898065 -0.021005505720718489 0 -0.056749271522260086 -0.021003012441805111 0 -0.056185529265696338 -0.021383626311565315 0 -0.054083086666668799 -0.026536658021055645 0 -0.053121328277302503 -0.025204593726105735 0 -0.054157474340048674 -0.024602664825956379 0 -0.055704899821502174 -0.023782858911843972 0 -0.057200599099457586 -0.019696785635575618 0 -0.05516943265531675 -0.025935795940497049 0 -0.054157474340048674 -0.024602664825956379 0 -0.055554384402981084 -0.023410638369156619 0 -0.055165401345996214 -0.02303726335631694 0 -0.055713590223814301 -0.023219782079548071 0 -0.055957349338361752 -0.025990516987990427 0 -0.05516943265531675 -0.025935795940497049 0 -0.055554384402981084 -0.023410638369156619 0 -0.056554537240656295 -0.022739752306665473 0 -0.055554384402981084 -0.023410638369156619 0 -0.05580053878522595 -0.022562129356847666 0 -0.055554384402981084 -0.023410638369156619 0 -0.05580053878522595 -0.022562129356847666 0 -0.055775065156626419 -0.022342503659411303 0 -0.056554537240656295 -0.022739752306665473 0 -0.05580053878522595 -0.022562129356847666 0 -0.055983590715925458 -0.0222482666647589 0 -0.056185529265696338 -0.021383626311565315 0 -0.055554384402981084 -0.023410638369156619 0 -0.055775065156626419 -0.022342503659411303 0 -0.056185529265696338 -0.021383626311565315 0 -0.055775065156626419 -0.022342503659411303 0 -0.0561627379778354 -0.021829876273482686 0 -0.055775065156626419 -0.022342503659411303 0 -0.0561627379778354 -0.021829876273482686 0 -0.055831985662091813 -0.022266768970895332 0 -0.05580053878522595 -0.022562129356847666 0 -0.055775065156626419 -0.022342503659411303 0 -0.055831985662091813 -0.022266768970895332 0 -0.056016010303692278 -0.022163174619768342 0 -0.055920346129631093 -0.022174815703439096 0 -0.056286305314452098 -0.022328572990672511 0 -0.0561627379778354 -0.021829876273482686 0 -0.056016010303692278 -0.022163174619768342 0 -0.056286305314452098 -0.022328572990672511 0 -0.060650493189260669 -0.013841912450346614 0 -0.059061244373619405 -0.018352794496568823 0 -0.0561627379778354 -0.021829876273482686 0 -0.056016010303692278 -0.022163174619768342 0 -0.055831985662091813 -0.022266768970895332 0 -0.055920346129631093 -0.022174815703439096 0 -0.055875998019640535 -0.022071648807637539 0 -0.056286305314452098 -0.022328572990672511 0 -0.064053287663916894 -0.012903348443360442 0 -0.062350835204067541 -0.013484028784934349 0 -0.061750233815556277 -0.013078308207654193 0 -0.056016010303692278 -0.022163174619768342 0 -0.055831985662091813 -0.022266768970895332 0 -0.055920346129631093 -0.022174815703439096 0 -0.056224445979053572 -0.021825325569778641 0 -0.056554537240656295 -0.022739752306665473 0 -0.055983590715925458 -0.0222482666647589 0 -0.055831985662091813 -0.022266768970895332 0 -0.055920346129631093 -0.022174815703439096 0 -0.055983590715925458 -0.0222482666647589 0 -0.05580053878522595 -0.022562129356847666 0 -0.055831985662091813 -0.022266768970895332 0 -0.055983590715925458 -0.0222482666647589 0 -0.055920346129631093 -0.022174815703439096 0 -0.055983590715925458 -0.0222482666647589 0 -0.055875998019640535 -0.022071648807637539 0 -0.056224445979053572 -0.021825325569778641 0 -0.055983590715925458 -0.0222482666647589 0 -0.055875998019640535 -0.022071648807637539 0 -0.051356578885706272 -0.012306799941231359 0 -0.051213905454275462 -0.010440291492984442 0 -0.059014187364494486 -0.0095206783246179882 0 -0.051797671526077345 -0.0078041432907105029 0 -0.060650493189260669 -0.013841912450346614 0 -0.052099438941122005 -0.017479350091460268 0 -0.060650493189260669 -0.013841912450346614 0 -0.063453481873907661 -0.011086565234122941 0 -0.062967554257799124 -0.011522239285501076 0 -0.062985311895864621 -0.010837313034599727 0 -0.062967554257799124 -0.011522239285501076 0 -0.062985311895864621 -0.010837313034599727 0 -0.06249023462130749 -0.011112096209436749 0 -0.060650493189260669 -0.013841912450346614 0 -0.063005761364980289 -0.012464598410325912 0 -0.062967554257799124 -0.011522239285501076 0 -0.06249023462130749 -0.011112096209436749 0 -0.061750233815556277 -0.013078308207654193 0 -0.062100422965032265 -0.010741707761296427 0 -0.06249023462130749 -0.011112096209436749 0 -0.061741147268601852 -0.011586981242125973 0 -0.06249023462130749 -0.011112096209436749 0 -0.061741147268601852 -0.011586981242125973 0 -0.061750233815556277 -0.013078308207654193 0 -0.061741147268601852 -0.011586981242125973 0 -0.060926089651624618 -0.012365723386097477 0 -0.061750233815556277 -0.013078308207654193 0 -0.060560598098317174 -0.011244410155741104 0 -0.061741147268601852 -0.011586981242125973 0 -0.060926089651624618 -0.012365723386097477 0 -0.060339368454584735 -0.013523671377299916 0 -0.060926089651624618 -0.012365723386097477 0 -0.061750233815556277 -0.013078308207654193 0 -0.060560598098317174 -0.011244410155741104 0 -0.059935442197818996 -0.012262071961090144 0 -0.060926089651624618 -0.012365723386097477 0 -0.059143023057748982 -0.0112043052828605 0 -0.060560598098317174 -0.011244410155741104 0 -0.059935442197818996 -0.012262071961090144 0 -0.059935442197818996 -0.012262071961090144 0 -0.060339368454584735 -0.013523671377299916 0 -0.060926089651624618 -0.012365723386097477 0 -0.060339368454584735 -0.013523671377299916 0 -0.060599203690128278 -0.015367479219198125 0 -0.061750233815556277 -0.013078308207654193 0 -0.058144240972268994 -0.021043451047346392 0 -0.05677677898932567 -0.021534147536680495 0 -0.056286305314452098 -0.022328572990672511 0 -0.059249081881617108 -0.018169563755193248 0 -0.059061244373619405 -0.018352794496568823 0 -0.060599203690128278 -0.015367479219198125 0 -0.062350835204067541 -0.013484028784934349 0 -0.061750233815556277 -0.013078308207654193 0 -0.0561627379778354 -0.021829876273482686 0 -0.05677677898932567 -0.021534147536680495 0 -0.056286305314452098 -0.022328572990672511 0 -0.0579769193162184 -0.015190404080144458 0 -0.057652354962625774 -0.016954382316751653 0 -0.058899445636663793 -0.01826481461715233 0 -0.0579769193162184 -0.015190404080144458 0 -0.059360052916877522 -0.01498070710478803 0 -0.058899445636663793 -0.01826481461715233 0 -0.060599203690128278 -0.015367479219198125 0 -0.059360052916877522 -0.01498070710478803 0 -0.058899445636663793 -0.01826481461715233 0 -0.0579769193162184 -0.015190404080144458 0 -0.059360052916877522 -0.01498070710478803 0 -0.058770453013564559 -0.012823373312232593 0 -0.060339368454584735 -0.013523671377299916 0 -0.060599203690128278 -0.015367479219198125 0 -0.059360052916877522 -0.01498070710478803 0 -0.060339368454584735 -0.013523671377299916 0 -0.059360052916877522 -0.01498070710478803 0 -0.058770453013564559 -0.012823373312232593 0 -0.059935442197818996 -0.012262071961090144 0 -0.060339368454584735 -0.013523671377299916 0 -0.058770453013564559 -0.012823373312232593 0 -0.059143023057748982 -0.0112043052828605 0 -0.059935442197818996 -0.012262071961090144 0 -0.058770453013564559 -0.012823373312232593 0 -0.058208727358092668 -0.010861124302245746 0 -0.059143023057748982 -0.0112043052828605 0 -0.058770453013564559 -0.012823373312232593 0 -0.057793048493775756 -0.012006594567039506 0 -0.058208727358092668 -0.010861124302245746 0 -0.058770453013564559 -0.012823373312232593 0 -0.056779160640878644 -0.013066923167706438 0 -0.057793048493775756 -0.012006594567039506 0 -0.05744883065770743 -0.013641577471422323 0 -0.057793048493775756 -0.012006594567039506 0 -0.058770453013564559 -0.012823373312232593 0 -0.05744883065770743 -0.013641577471422323 0 -0.0579769193162184 -0.015190404080144458 0 -0.058770453013564559 -0.012823373312232593 0 -0.05744883065770743 -0.013641577471422323 0 -0.0564843415777442 -0.013686796666959445 0 -0.056779160640878644 -0.013066923167706438 0 -0.056941237230289911 -0.014944185613704026 0 -0.056779160640878644 -0.013066923167706438 0 -0.05744883065770743 -0.013641577471422323 0 -0.056941237230289911 -0.014944185613704026 0 -0.0579769193162184 -0.015190404080144458 0 -0.05744883065770743 -0.013641577471422323 0 -0.056941237230289911 -0.014944185613704026 0 -0.0564843415777442 -0.013686796666959445 0 -0.056941237230289911 -0.014944185613704026 0 -0.05650869134670472 -0.015091598440202634 0 -0.056489708358003168 -0.013959488645655806 0 -0.0564843415777442 -0.013686796666959445 0 -0.05650869134670472 -0.015091598440202634 0 -0.056941237230289911 -0.014944185613704026 0 -0.05650869134670472 -0.015091598440202634 0 -0.056850015281964074 -0.017389685507707996 0 -0.0579769193162184 -0.015190404080144458 0 -0.056941237230289911 -0.014944185613704026 0 -0.057652354962625774 -0.016954382316751653 0 -0.056941237230289911 -0.014944185613704026 0 -0.057652354962625774 -0.016954382316751653 0 -0.056850015281964074 -0.017389685507707996 0 -0.057652354962625774 -0.016954382316751653 0 -0.056850015281964074 -0.017389685507707996 0 -0.058074800895056136 -0.018981699616792129 0 -0.056850015281964074 -0.017389685507707996 0 -0.058074800895056136 -0.018981699616792129 0 -0.056274508861978254 -0.020364365648924104 0 -0.058074800895056136 -0.018981699616792129 0 -0.058356460651871882 -0.021181264225205311 0 -0.056274508861978254 -0.020364365648924104 0 -0.058074800895056136 -0.018981699616792129 0 -0.059193737402025881 -0.019590603674712458 0 -0.058356460651871882 -0.021181264225205311 0 -0.058074800895056136 -0.018981699616792129 0 -0.058899445636663793 -0.01826481461715233 0 -0.059193737402025881 -0.019590603674712458 0 -0.057652354962625774 -0.016954382316751653 0 -0.058074800895056136 -0.018981699616792129 0 -0.058899445636663793 -0.01826481461715233 0 -0.058144240972268994 -0.021043451047346392 0 -0.058899445636663793 -0.01826481461715233 0 -0.058692655827338597 -0.019450657246149392 0 -0.059249081881617108 -0.018169563755193248 0 -0.058675370160453058 -0.018390482765227829 0 -0.058899445636663793 -0.01826481461715233 0 -0.058692655827338597 -0.019450657246149392 0 -0.059193737402025881 -0.019590603674712458 0 -0.056970720853816485 -0.023533938395541559 0 -0.056350608058073411 -0.024292683177583763 0 -0.054573676513782005 -0.027574780173378187 0 -0.054284168473599903 -0.028120956364380282 0 -0.054726824069124463 -0.027411628372970325 0 -0.054790708834071736 -0.028052945975064452 0 -0.054573676513782005 -0.027574780173378187 0 -0.054284168473599903 -0.028120956364380282 0 -0.054790708834071736 -0.028052945975064452 0 -0.054284168473599903 -0.028120956364380282 0 -0.053623412131994994 -0.029639585455914101 0 -0.054284168473599903 -0.028120956364380282 0 -0.053654405982663224 -0.030321955763942806 0 -0.054471785177339874 -0.028606743423123686 0 -0.054284168473599903 -0.028120956364380282 0 -0.053654405982663224 -0.030321955763942806 0 -0.053623412131994994 -0.029639585455914101 0 -0.055138878820478743 -0.027352374468349476 0 -0.05443262025666435 -0.029754369560530913 0 -0.053843675568280402 -0.030728342243468491 0 -0.054471785177339874 -0.028606743423123686 0 -0.055138878820478743 -0.027352374468349476 0 -0.053843675568280402 -0.030728342243468491 0 -0.053654405982663224 -0.030321955763942806 0 -0.054471785177339874 -0.028606743423123686 0 -0.053843675568280402 -0.030728342243468491 0 -0.054284168473599903 -0.028120956364380282 0 -0.054471785177339874 -0.028606743423123686 0 -0.055139132754764481 -0.026876486927292779 0 -0.054471785177339874 -0.028606743423123686 0 -0.055139132754764481 -0.026876486927292779 0 -0.055138878820478743 -0.027352374468349476 0 -0.055139132754764481 -0.026876486927292779 0 -0.055979937604107445 -0.024381065705069139 0 -0.055138878820478743 -0.027352374468349476 0 -0.055139132754764481 -0.026876486927292779 0 -0.054726824069124463 -0.027411628372970325 0 -0.055979937604107445 -0.024381065705069139 0 -0.054284168473599903 -0.028120956364380282 0 -0.055139132754764481 -0.026876486927292779 0 -0.054726824069124463 -0.027411628372970325 0 -0.058356460651871882 -0.021181264225205311 0 -0.055979937604107445 -0.024381065705069139 0 -0.056274508861978254 -0.020364365648924104 0 -0.056350608058073411 -0.024292683177583763 0 -0.05577445147008761 -0.024463814256163629 0 -0.055304318154207555 -0.02346540345482237 0 -0.055979937604107445 -0.024381065705069139 0 -0.056274508861978254 -0.020364365648924104 0 -0.055304318154207555 -0.02346540345482237 0 -0.055979937604107445 -0.024381065705069139 0 -0.055138878820478743 -0.027352374468349476 0 -0.055304318154207555 -0.02346540345482237 0 -0.055138878820478743 -0.027352374468349476 0 -0.055244360854240546 -0.026679820364311817 0 -0.055138878820478743 -0.027352374468349476 0 -0.055244360854240546 -0.026679820364311817 0 -0.05443262025666435 -0.029754369560530913 0 -0.055244360854240546 -0.026679820364311817 0 -0.055312415319224664 -0.027238096335102116 0 -0.054998664580422081 -0.02506414983153335 0 -0.055304318154207555 -0.02346540345482237 0 -0.055244360854240546 -0.026679820364311817 0 -0.054998664580422081 -0.02506414983153335 0 -0.055312415319224664 -0.027238096335102116 0 -0.054998664580422081 -0.02506414983153335 0 -0.054999000176366497 -0.028263658399610585 0 -0.055244360854240546 -0.026679820364311817 0 -0.055312415319224664 -0.027238096335102116 0 -0.055734514716335795 -0.029045358251031439 0 -0.055304318154207555 -0.02346540345482237 0 -0.054998449665970402 -0.021863610306779586 0 -0.05520554289933139 -0.020349517004054581 0 -0.055304318154207555 -0.02346540345482237 0 -0.054998664580422081 -0.02506414983153335 0 -0.054998449665970402 -0.021863610306779586 0 -0.054998449665970402 -0.021863610306779586 0 -0.054998495433852518 -0.018662779269788092 0 -0.05520554289933139 -0.020349517004054581 0 -0.054998495433852518 -0.018662779269788092 0 -0.05520554289933139 -0.020349517004054581 0 -0.055636389218417133 -0.016966605044567065 0 -0.05520554289933139 -0.020349517004054581 0 -0.055698208515896068 -0.019428022956708303 0 -0.055636389218417133 -0.016966605044567065 0 -0.055304318154207555 -0.02346540345482237 0 -0.05520554289933139 -0.020349517004054581 0 -0.055698208515896068 -0.019428022956708303 0 -0.055304318154207555 -0.02346540345482237 0 -0.055698208515896068 -0.019428022956708303 0 -0.056274508861978254 -0.020364365648924104 0 -0.056850015281964074 -0.017389685507707996 0 -0.056274508861978254 -0.020364365648924104 0 -0.056170951922488811 -0.016914768353539045 0 -0.055698208515896068 -0.019428022956708303 0 -0.056274508861978254 -0.020364365648924104 0 -0.056170951922488811 -0.016914768353539045 0 -0.055698208515896068 -0.019428022956708303 0 -0.056170951922488811 -0.016914768353539045 0 -0.055636389218417133 -0.016966605044567065 0 -0.056170951922488811 -0.016914768353539045 0 -0.056354992212741838 -0.014380725856767414 0 -0.055636389218417133 -0.016966605044567065 0 -0.05650869134670472 -0.015091598440202634 0 -0.056850015281964074 -0.017389685507707996 0 -0.056170951922488811 -0.016914768353539045 0 -0.056489708358003168 -0.013959488645655806 0 -0.05650869134670472 -0.015091598440202634 0 -0.056354992212741838 -0.014380725856767414 0 -0.05650869134670472 -0.015091598440202634 0 -0.056170951922488811 -0.016914768353539045 0 -0.056354992212741838 -0.014380725856767414 0 -0.055832302696385193 -0.013886504520096132 0 -0.056354992212741838 -0.014380725856767414 0 -0.055636389218417133 -0.016966605044567065 0 -0.055832302696385193 -0.013886504520096132 0 -0.05499914510518155 -0.015462516826902641 0 -0.055636389218417133 -0.016966605044567065 0 -0.054998495433852518 -0.018662779269788092 0 -0.05499914510518155 -0.015462516826902641 0 -0.055636389218417133 -0.016966605044567065 0 -0.055574064323799688 -0.040011867119606949 0 -0.054291361026897314 -0.040523195825626163 0 -0.053903115032260134 -0.040300286928614731 0 -0.05553930096100599 -0.039825261061116002 0 -0.055477300046525353 -0.038353275629429161 0 -0.055574064323799688 -0.040011867119606949 0 -0.054998859348151789 -0.037865442768313842 0 -0.054999228810517609 -0.041064861284035983 0 -0.055574064323799688 -0.040011867119606949 0 -0.054998859348151789 -0.037865442768313842 0 -0.057097494957564818 -0.036560299218506717 0 -0.055574064323799688 -0.040011867119606949 0 -0.054999228810517609 -0.041064861284035983 0 -0.055510046103328117 -0.041523240610799671 0 -0.055574064323799688 -0.040011867119606949 0 -0.055032041804931507 -0.041123912195248996 0 -0.055510046103328117 -0.041523240610799671 0 -0.055574064323799688 -0.040011867119606949 0 -0.055032041804931507 -0.041123912195248996 0 -0.054291361026897314 -0.040523195825626163 0 -0.055032041804931507 -0.041123912195248996 0 -0.054447183017273873 -0.040970207544751676 0 -0.054291361026897314 -0.040523195825626163 0 -0.054447183017273873 -0.040970207544751676 0 -0.054291361026897314 -0.040523195825626163 0 -0.054068385633892692 -0.040487390315986894 0 -0.054291361026897314 -0.040523195825626163 0 -0.054056502113879516 -0.040071820858316523 0 -0.054068385633892692 -0.040487390315986894 0 -0.054291361026897314 -0.040523195825626163 0 -0.053567320865500742 -0.039881898676139303 0 -0.053903115032260134 -0.040300286928614731 0 -0.054291361026897314 -0.040523195825626163 0 -0.054056502113879516 -0.040071820858316523 0 -0.053567320865500742 -0.039881898676139303 0 -0.053567320865500742 -0.039881898676139303 0 -0.05340427602031253 -0.037728724572474316 0 -0.054286325872955975 -0.039391692883285513 0 -0.054056502113879516 -0.040071820858316523 0 -0.053567320865500742 -0.039881898676139303 0 -0.054286325872955975 -0.039391692883285513 0 -0.053567320865500742 -0.039881898676139303 0 -0.053903115032260134 -0.040300286928614731 0 -0.052307682559256732 -0.038741181390825739 0 -0.057097494957564818 -0.036560299218506717 0 -0.055951480253317538 -0.032966452547265025 0 -0.057538314469711596 -0.033483313229786704 0 -0.055477300046525353 -0.038353275629429161 0 -0.054915138920323646 -0.03601229685475639 0 -0.054998859348151789 -0.037865442768313842 0 -0.057097494957564818 -0.036560299218506717 0 -0.054999533309303676 -0.034663071627350391 0 -0.057097494957564818 -0.036560299218506717 0 -0.054999533309303676 -0.034663071627350391 0 -0.055951480253317538 -0.032966452547265025 0 -0.054999533309303676 -0.034663071627350391 0 -0.055951480253317538 -0.032966452547265025 0 -0.054999195534776522 -0.031463087160327037 0 -0.055951480253317538 -0.032966452547265025 0 -0.056457193984162934 -0.031302424792641094 0 -0.057538314469711596 -0.033483313229786704 0 -0.055951480253317538 -0.032966452547265025 0 -0.056457193984162934 -0.031302424792641094 0 -0.055795989844770952 -0.030400692689171657 0 -0.055951480253317538 -0.032966452547265025 0 -0.054999195534776522 -0.031463087160327037 0 -0.055795989844770952 -0.030400692689171657 0 -0.055795989844770952 -0.030400692689171657 0 -0.055734514716335795 -0.029045358251031439 0 -0.054999000176366497 -0.028263658399610585 0 -0.054999195534776522 -0.031463087160327037 0 -0.055795989844770952 -0.030400692689171657 0 -0.054999000176366497 -0.028263658399610585 0 -0.056457193984162934 -0.031302424792641094 0 -0.055795989844770952 -0.030400692689171657 0 -0.056108932142937037 -0.029900539542237783 0 -0.055795989844770952 -0.030400692689171657 0 -0.055734514716335795 -0.029045358251031439 0 -0.056108932142937037 -0.029900539542237783 0 -0.055312415319224664 -0.027238096335102116 0 -0.055734514716335795 -0.029045358251031439 0 -0.054999000176366497 -0.028263658399610585 0 -0.055244360854240546 -0.026679820364311817 0 -0.055734514716335795 -0.029045358251031439 0 -0.05443262025666435 -0.029754369560530913 0 -0.055734514716335795 -0.029045358251031439 0 -0.05443262025666435 -0.029754369560530913 0 -0.056108932142937037 -0.029900539542237783 0 -0.05443262025666435 -0.029754369560530913 0 -0.052489069101716461 -0.034081265701989771 0 -0.052105582995621492 -0.034058255804792298 0 -0.05443262025666435 -0.029754369560530913 0 -0.056108932142937037 -0.029900539542237783 0 -0.056769235734104528 -0.030444325115666433 0 -0.054459322681983446 -0.030076065044399684 0 -0.054472304376147952 -0.032360713647221866 0 -0.05443262025666435 -0.029754369560530913 0 -0.052489069101716461 -0.034081265701989771 0 -0.053468515750449287 -0.032637328163868398 0 -0.052489069101716461 -0.034081265701989771 0 -0.052798056135114443 -0.034027515840842917 0 -0.053468515750449287 -0.032637328163868398 0 -0.052404117551096557 -0.034221453697896205 0 -0.053605884743674025 -0.03604683766038079 0 -0.052489069101716461 -0.034081265701989771 0 -0.05340427602031253 -0.037728724572474316 0 -0.054720853485179889 -0.038097192565415737 0 -0.052489069101716461 -0.034081265701989771 0 -0.052105582995621492 -0.034058255804792298 0 -0.05340427602031253 -0.037728724572474316 0 -0.056457193984162934 -0.031302424792641094 0 -0.056769235734104528 -0.030444325115666433 0 -0.057538314469711596 -0.033483313229786704 0 -0.054472304376147952 -0.032360713647221866 0 -0.054915138920323646 -0.03601229685475639 0 -0.056457193984162934 -0.031302424792641094 0 -0.056108932142937037 -0.029900539542237783 0 -0.056769235734104528 -0.030444325115666433 0 -0.053567320865500742 -0.039881898676139303 0 -0.052307682559256732 -0.038741181390825739 0 -0.05340427602031253 -0.037728724572474316 0 -0.052105582995621492 -0.034058255804792298 0 -0.052307682559256732 -0.038741181390825739 0 -0.05340427602031253 -0.037728724572474316 0 -0.05340427602031253 -0.037728724572474316 0 -0.054720853485179889 -0.038097192565415737 0 -0.054286325872955975 -0.039391692883285513 0 -0.054720853485179889 -0.038097192565415737 0 -0.05392360288981405 -0.039786891854241058 0 -0.054286325872955975 -0.039391692883285513 0 -0.053605884743674025 -0.03604683766038079 0 -0.053028351388008342 -0.037925391967568174 0 -0.052798056135114443 -0.034027515840842917 0 -0.051971363308050307 -0.036002686829677083 0 -0.052701269323225733 -0.033964089112328087 0 -0.052798056135114443 -0.034027515840842917 0 -0.052701269323225733 -0.033964089112328087 0 -0.053468515750449287 -0.032637328163868398 0 -0.052701269323225733 -0.033964089112328087 0 -0.053468515750449287 -0.032637328163868398 0 -0.053843675568280402 -0.030728342243468491 0 -0.052701269323225733 -0.033964089112328087 0 -0.053843675568280402 -0.030728342243468491 0 -0.053026577214612951 -0.032657262508337323 0 -0.053654405982663224 -0.030321955763942806 0 -0.053843675568280402 -0.030728342243468491 0 -0.053026577214612951 -0.032657262508337323 0 -0.05443262025666435 -0.029754369560530913 0 -0.053468515750449287 -0.032637328163868398 0 -0.053843675568280402 -0.030728342243468491 0 -0.053654405982663224 -0.030321955763942806 0 -0.053623412131994994 -0.029639585455914101 0 -0.052973399940776975 -0.032549892772380906 0 -0.053654405982663224 -0.030321955763942806 0 -0.053026577214612951 -0.032657262508337323 0 -0.052973399940776975 -0.032549892772380906 0 -0.053026577214612951 -0.032657262508337323 0 -0.052403649905474595 -0.035639674614343926 0 -0.052973399940776975 -0.032549892772380906 0 -0.052701269323225733 -0.033964089112328087 0 -0.053026577214612951 -0.032657262508337323 0 -0.052403649905474595 -0.035639674614343926 0 -0.051971363308050307 -0.036002686829677083 0 -0.052403649905474595 -0.035639674614343926 0 -0.052223242159186167 -0.03925049351689066 0 -0.051971363308050307 -0.036002686829677083 0 -0.052701269323225733 -0.033964089112328087 0 -0.052403649905474595 -0.035639674614343926 0 -0.052403649905474595 -0.035639674614343926 0 -0.052223242159186167 -0.03925049351689066 0 -0.051459553742561205 -0.038781180715089063 0 -0.052223242159186167 -0.03925049351689066 0 -0.051877270578274945 -0.040256927343532228 0 -0.0527225071311683 -0.040157923923138564 0 -0.052223242159186167 -0.03925049351689066 0 -0.053842978070833811 -0.039910815628314882 0 -0.0527225071311683 -0.040157923923138564 0 -0.05392360288981405 -0.039786891854241058 0 -0.052223242159186167 -0.03925049351689066 0 -0.053842978070833811 -0.039910815628314882 0 -0.053028351388008342 -0.037925391967568174 0 -0.052453597264600048 -0.039080133355263044 0 -0.05392360288981405 -0.039786891854241058 0 -0.054286325872955975 -0.039391692883285513 0 -0.053842978070833811 -0.039910815628314882 0 -0.054056502113879516 -0.040071820858316523 0 -0.054286325872955975 -0.039391692883285513 0 -0.053842978070833811 -0.039910815628314882 0 -0.054056502113879516 -0.040071820858316523 0 -0.053842978070833811 -0.039910815628314882 0 -0.054068385633892692 -0.040487390315986894 0 -0.053842978070833811 -0.039910815628314882 0 -0.053609097183242471 -0.040368938585198841 0 -0.0527225071311683 -0.040157923923138564 0 -0.053842978070833811 -0.039910815628314882 0 -0.053609097183242471 -0.040368938585198841 0 -0.054068385633892692 -0.040487390315986894 0 -0.053609097183242471 -0.040368938585198841 0 -0.054068385633892692 -0.040487390315986894 0 -0.053807189504566907 -0.04080742347844795 0 -0.054447183017273873 -0.040970207544751676 0 -0.053807189504566907 -0.04080742347844795 0 -0.054250601206902255 -0.041129075615814248 0 -0.054447183017273873 -0.040970207544751676 0 -0.054068385633892692 -0.040487390315986894 0 -0.053807189504566907 -0.04080742347844795 0 -0.053609097183242471 -0.040368938585198841 0 -0.053807189504566907 -0.04080742347844795 0 -0.052870540919019632 -0.040620658747199195 0 -0.053807189504566907 -0.04080742347844795 0 -0.052870540919019632 -0.040620658747199195 0 -0.053254260897643763 -0.040888307087214575 0 -0.052870540919019632 -0.040620658747199195 0 -0.052649205225323882 -0.040965749690371291 0 -0.053254260897643763 -0.040888307087214575 0 -0.052205315760708734 -0.040537740996855309 0 -0.052078987423263917 -0.040821464314475447 0 -0.052649205225323882 -0.040965749690371291 0 -0.052870540919019632 -0.040620658747199195 0 -0.052205315760708734 -0.040537740996855309 0 -0.052649205225323882 -0.040965749690371291 0 -0.052205315760708734 -0.040537740996855309 0 -0.051877270578274945 -0.040256927343532228 0 -0.0527225071311683 -0.040157923923138564 0 -0.052870540919019632 -0.040620658747199195 0 -0.052205315760708734 -0.040537740996855309 0 -0.0527225071311683 -0.040157923923138564 0 -0.053609097183242471 -0.040368938585198841 0 -0.052870540919019632 -0.040620658747199195 0 -0.0527225071311683 -0.040157923923138564 0 -0.048549541113576719 -0.041358245114938533 0 -0.051209444542048371 -0.040552834437700649 0 -0.051018333472872622 -0.040578373146584149 0 -0.048329224579427101 -0.042374807334532007 0 -0.048058298773926353 -0.041750137201237672 0 -0.048549541113576719 -0.041358245114938533 0 -0.051209444542048371 -0.040552834437700649 0 -0.050778878894024028 -0.040449184077739862 0 -0.051877270578274945 -0.040256927343532228 0 -0.051209444542048371 -0.040552834437700649 0 -0.050778878894024028 -0.040449184077739862 0 -0.052205315760708734 -0.040537740996855309 0 -0.051877270578274945 -0.040256927343532228 0 -0.051209444542048371 -0.040552834437700649 0 -0.051209444542048371 -0.040552834437700649 0 -0.051737814748857025 -0.040842175436823669 0 -0.052078987423263917 -0.040821464314475447 0 -0.052205315760708734 -0.040537740996855309 0 -0.051209444542048371 -0.040552834437700649 0 -0.052078987423263917 -0.040821464314475447 0 -0.051209444542048371 -0.040552834437700649 0 -0.051018333472872622 -0.040578373146584149 0 -0.051737814748857025 -0.040842175436823669 0 -0.044348081878944401 -0.044737622573282912 0 -0.045402638687945862 -0.043834569323387626 0 -0.042334390270091962 -0.045925728256265792 0 -0.045402638687945862 -0.043834569323387626 0 -0.043936542012328508 -0.045714756656637948 0 -0.042334390270091962 -0.045925728256265792 0 -0.045402638687945862 -0.043834569323387626 0 -0.043936542012328508 -0.045714756656637948 0 -0.04629865837478489 -0.04415640564785743 0 -0.045402638687945862 -0.043834569323387626 0 -0.047457344473833755 -0.041800560343928934 0 -0.04629865837478489 -0.04415640564785743 0 -0.048549541113576719 -0.041358245114938533 0 -0.045402638687945862 -0.043834569323387626 0 -0.047457344473833755 -0.041800560343928934 0 -0.048549541113576719 -0.041358245114938533 0 -0.044348081878944401 -0.044737622573282912 0 -0.045402638687945862 -0.043834569323387626 0 -0.048549541113576719 -0.041358245114938533 0 -0.047457344473833755 -0.041800560343928934 0 -0.049629201835744041 -0.040303248768164657 0 -0.047457344473833755 -0.041800560343928934 0 -0.049090053584005935 -0.040032703007643798 0 -0.048578527960921429 -0.041057564507107944 0 -0.049090053584005935 -0.040032703007643798 0 -0.049629201835744041 -0.040303248768164657 0 -0.050882971405326313 -0.038435322208331527 0 -0.047457344473833755 -0.041800560343928934 0 -0.049090053584005935 -0.040032703007643798 0 -0.049629201835744041 -0.040303248768164657 0 -0.049629201835744041 -0.040303248768164657 0 -0.050778878894024028 -0.040449184077739862 0 -0.051459553742561205 -0.038781180715089063 0 -0.049629201835744041 -0.040303248768164657 0 -0.051459553742561205 -0.038781180715089063 0 -0.050882971405326313 -0.038435322208331527 0 -0.048549541113576719 -0.041358245114938533 0 -0.049629201835744041 -0.040303248768164657 0 -0.050778878894024028 -0.040449184077739862 0 -0.052223242159186167 -0.03925049351689066 0 -0.051877270578274945 -0.040256927343532228 0 -0.050778878894024028 -0.040449184077739862 0 -0.052223242159186167 -0.03925049351689066 0 -0.050778878894024028 -0.040449184077739862 0 -0.051459553742561205 -0.038781180715089063 0 -0.052403649905474595 -0.035639674614343926 0 -0.051459553742561205 -0.038781180715089063 0 -0.052725281528502317 -0.035718457273060056 0 -0.051459553742561205 -0.038781180715089063 0 -0.052725281528502317 -0.035718457273060056 0 -0.050882971405326313 -0.038435322208331527 0 -0.052403649905474595 -0.035639674614343926 0 -0.052725281528502317 -0.035718457273060056 0 -0.052973399940776975 -0.032549892772380906 0 -0.052725281528502317 -0.035718457273060056 0 -0.053751154019042548 -0.030749028069421553 0 -0.052973399940776975 -0.032549892772380906 0 -0.052725281528502317 -0.035718457273060056 0 -0.053751154019042548 -0.030749028069421553 0 -0.05520969205977222 -0.031371031208095666 0 -0.053623412131994994 -0.029639585455914101 0 -0.053751154019042548 -0.030749028069421553 0 -0.052973399940776975 -0.032549892772380906 0 -0.056025561238980351 -0.029558990584959397 0 -0.05520969205977222 -0.031371031208095666 0 -0.057193967310105606 -0.031409010556675276 0 -0.052725281528502317 -0.035718457273060056 0 -0.05520969205977222 -0.031371031208095666 0 -0.055810362919617933 -0.033715400250154341 0 -0.052911799232977508 -0.036212643257164709 0 -0.053658023984773109 -0.03588616175574804 0 -0.05520969205977222 -0.031371031208095666 0 -0.055810362919617933 -0.033715400250154341 0 -0.057193967310105606 -0.031409010556675276 0 -0.05031688709992839 -0.038898703948308161 0 -0.050882971405326313 -0.038435322208331527 0 -0.049744895020539331 -0.03916197720211563 0 -0.05031688709992839 -0.038898703948308161 0 -0.049744895020539331 -0.03916197720211563 0 -0.049666267407275567 -0.039266347661333328 0 -0.052725281528502317 -0.035718457273060056 0 -0.05031688709992839 -0.038898703948308161 0 -0.050882971405326313 -0.038435322208331527 0 -0.052495395835409873 -0.035863977912458496 0 -0.052911799232977508 -0.036212643257164709 0 -0.049090053584005935 -0.040032703007643798 0 -0.050882971405326313 -0.038435322208331527 0 -0.049744895020539331 -0.03916197720211563 0 -0.049090053584005935 -0.040032703007643798 0 -0.049744895020539331 -0.03916197720211563 0 -0.049407702003892953 -0.03973208932623315 0 -0.049407702003892953 -0.03973208932623315 0 -0.049844462468697268 -0.03958119440964241 0 -0.050051659865794067 -0.040605304220979396 0 -0.049407702003892953 -0.03973208932623315 0 -0.049844462468697268 -0.03958119440964241 0 -0.049666267407275567 -0.039266347661333328 0 -0.049844462468697268 -0.03958119440964241 0 -0.049666267407275567 -0.039266347661333328 0 -0.050273908405018226 -0.039295584515137712 0 -0.049744895020539331 -0.03916197720211563 0 -0.049407702003892953 -0.03973208932623315 0 -0.049666267407275567 -0.039266347661333328 0 -0.055810362919617933 -0.033715400250154341 0 -0.057659755407431054 -0.032459305279564997 0 -0.057193967310105606 -0.031409010556675276 0 -0.053658023984773109 -0.03588616175574804 0 -0.054244831112588543 -0.035534671485503634 0 -0.057659755407431054 -0.032459305279564997 0 -0.058355347872468745 -0.031397037148290799 0 -0.058503381747019849 -0.031757521766805873 0 -0.057659755407431054 -0.032459305279564997 0 -0.057193967310105606 -0.031409010556675276 0 -0.058355347872468745 -0.031397037148290799 0 -0.058051315924941269 -0.030724847872444054 0 -0.057193967310105606 -0.031409010556675276 0 -0.058355347872468745 -0.031397037148290799 0 -0.058051315924941269 -0.030724847872444054 0 -0.056025561238980351 -0.029558990584959397 0 -0.057193967310105606 -0.031409010556675276 0 -0.058353078323748218 -0.031550188119415498 0 -0.058559944543200161 -0.031332760422901285 0 -0.058468067177094393 -0.031461484951926647 0 -0.058559944543200161 -0.031332760422901285 0 -0.058525370704591635 -0.031477300530472568 0 -0.058468067177094393 -0.031461484951926647 0 -0.058559944543200161 -0.031332760422901285 0 -0.058051315924941269 -0.030724847872444054 0 -0.058355347872468745 -0.031397037148290799 0 -0.058559944543200161 -0.031332760422901285 0 -0.058525370704591635 -0.031477300530472568 0 -0.058355347872468745 -0.031397037148290799 0 -0.058525370704591635 -0.031477300530472568 0 -0.058355347872468745 -0.031397037148290799 0 -0.058503381747019849 -0.031757521766805873 0 -0.054244831112588543 -0.035534671485503634 0 -0.055062382032080269 -0.035601357136679286 0 -0.058525370704591635 -0.031477300530472568 0 -0.058503381747019849 -0.031757521766805873 0 -0.058436841663848681 -0.031424875848893148 0 -0.050273908405018226 -0.039295584515137712 0 -0.050822524975602655 -0.039513866109468471 0 -0.050719757554306945 -0.039567040483632528 0 -0.058525370704591635 -0.031477300530472568 0 -0.058468067177094393 -0.031461484951926647 0 -0.058436841663848681 -0.031424875848893148 0 -0.050273908405018226 -0.039295584515137712 0 -0.050654388194289142 -0.039759444361496026 0 -0.050719757554306945 -0.039567040483632528 0 -0.050273908405018226 -0.039295584515137712 0 -0.050654388194289142 -0.039759444361496026 0 -0.050289149687087593 -0.039818573648390032 0 -0.049844462468697268 -0.03958119440964241 0 -0.050273908405018226 -0.039295584515137712 0 -0.050289149687087593 -0.039818573648390032 0 -0.049844462468697268 -0.03958119440964241 0 -0.050289149687087593 -0.039818573648390032 0 -0.050051659865794067 -0.040605304220979396 0 -0.050289149687087593 -0.039818573648390032 0 -0.050631677041131952 -0.040121766922711306 0 -0.050051659865794067 -0.040605304220979396 0 -0.050654388194289142 -0.039759444361496026 0 -0.050289149687087593 -0.039818573648390032 0 -0.050631677041131952 -0.040121766922711306 0 -0.051173198286252081 -0.04088723165679322 0 -0.050800315497002958 -0.042214897688834727 0 -0.051745913514575546 -0.041992639399225172 0 -0.050800315497002958 -0.042214897688834727 0 -0.051745913514575546 -0.041992639399225172 0 -0.05142681391864691 -0.042694586208948004 0 -0.050800315497002958 -0.042214897688834727 0 -0.050051659865794067 -0.040605304220979396 0 -0.049525036602974068 -0.042026100365392151 0 -0.050551763858111894 -0.040596039464873279 0 -0.050187898640760079 -0.040594520982885844 0 -0.051173198286252081 -0.04088723165679322 0 -0.050800315497002958 -0.042214897688834727 0 -0.050051659865794067 -0.040605304220979396 0 -0.050051659865794067 -0.040605304220979396 0 -0.048578527960921429 -0.041057564507107944 0 -0.049525036602974068 -0.042026100365392151 0 -0.049407702003892953 -0.03973208932623315 0 -0.050051659865794067 -0.040605304220979396 0 -0.048578527960921429 -0.041057564507107944 0 -0.049090053584005935 -0.040032703007643798 0 -0.049407702003892953 -0.03973208932623315 0 -0.048578527960921429 -0.041057564507107944 0 -0.048578527960921429 -0.041057564507107944 0 -0.049525036602974068 -0.042026100365392151 0 -0.04629865837478489 -0.04415640564785743 0 -0.047457344473833755 -0.041800560343928934 0 -0.048578527960921429 -0.041057564507107944 0 -0.04629865837478489 -0.04415640564785743 0 -0.049525036602974068 -0.042026100365392151 0 -0.04629865837478489 -0.04415640564785743 0 -0.049792167587417079 -0.04384840656089465 0 -0.04609227154896664 -0.044384756171160215 0 -0.046164235574837641 -0.045436468310203378 0 -0.043936542012328508 -0.045714756656637948 0 -0.04629865837478489 -0.04415640564785743 0 -0.043490059976921285 -0.046914585194897745 0 -0.04629865837478489 -0.04415640564785743 0 -0.043126052577698866 -0.047402771734462147 0 -0.043490059976921285 -0.046914585194897745 0 -0.043126052577698866 -0.047402771734462147 0 -0.042226746575451342 -0.048525920746683979 0 -0.043490059976921285 -0.046914585194897745 0 -0.047458060105369189 -0.046175007827179745 0 -0.046164235574837641 -0.045436468310203378 0 -0.042355540785964763 -0.048410163824578523 0 -0.043126052577698866 -0.047402771734462147 0 -0.042226746575451342 -0.048525920746683979 0 -0.050800315497002958 -0.042214897688834727 0 -0.051217742981936445 -0.043643540739629366 0 -0.05142681391864691 -0.042694586208948004 0 -0.050800315497002958 -0.042214897688834727 0 -0.049525036602974068 -0.042026100365392151 0 -0.049792167587417079 -0.04384840656089465 0 -0.050800315497002958 -0.042214897688834727 0 -0.051217742981936445 -0.043643540739629366 0 -0.049792167587417079 -0.04384840656089465 0 -0.042226746575451342 -0.048525920746683979 0 -0.041785189132281575 -0.049344973617376657 0 -0.041094657299913809 -0.050563771412868948 0 -0.041770002265902786 -0.049789909294216762 0 -0.041094657299913809 -0.050563771412868948 0 -0.041637829061366337 -0.050771470229787223 0 -0.041770002265902786 -0.049789909294216762 0 -0.042226746575451342 -0.048525920746683979 0 -0.041094657299913809 -0.050563771412868948 0 -0.041770002265902786 -0.049789909294216762 0 -0.042141334567512019 -0.049013906822012177 0 -0.042226746575451342 -0.048525920746683979 0 -0.042355540785964763 -0.048410163824578523 0 -0.042141334567512019 -0.049013906822012177 0 -0.042226746575451342 -0.048525920746683979 0 -0.042226746575451342 -0.048525920746683979 0 -0.043490059976921285 -0.046914585194897745 0 -0.041785189132281575 -0.049344973617376657 0 -0.043936542012328508 -0.045714756656637948 0 -0.043490059976921285 -0.046914585194897745 0 -0.04226471612236897 -0.048039150339470031 0 -0.043490059976921285 -0.046914585194897745 0 -0.04226471612236897 -0.048039150339470031 0 -0.041785189132281575 -0.049344973617376657 0 -0.04226471612236897 -0.048039150339470031 0 -0.041785189132281575 -0.049344973617376657 0 -0.04054626588721523 -0.0510763841071342 0 -0.040166856120634739 -0.051733718172949084 0 -0.04054626588721523 -0.0510763841071342 0 -0.03806178250513708 -0.054702122094432683 0 -0.041785189132281575 -0.049344973617376657 0 -0.040166856120634739 -0.051733718172949084 0 -0.04054626588721523 -0.0510763841071342 0 -0.04054626588721523 -0.0510763841071342 0 -0.03806178250513708 -0.054702122094432683 0 -0.038480830157819591 -0.054363085518075373 0 -0.040166856120634739 -0.051733718172949084 0 -0.039091748016619257 -0.053144195381328307 0 -0.03806178250513708 -0.054702122094432683 0 -0.040166856120634739 -0.051733718172949084 0 -0.039091748016619257 -0.053144195381328307 0 -0.041094657299913809 -0.050563771412868948 0 -0.041785189132281575 -0.049344973617376657 0 -0.040166856120634739 -0.051733718172949084 0 -0.041094657299913809 -0.050563771412868948 0 -0.039091748016619257 -0.053144195381328307 0 -0.041094657299913809 -0.050563771412868948 0 -0.040883534617447648 -0.051943160232519284 0 -0.041094657299913809 -0.050563771412868948 0 -0.040883534617447648 -0.051943160232519284 0 -0.041637829061366337 -0.050771470229787223 0 -0.039091748016619257 -0.053144195381328307 0 -0.040883534617447648 -0.051943160232519284 0 -0.039701145438930004 -0.053312048848633893 0 -0.040883534617447648 -0.051943160232519284 0 -0.039701145438930004 -0.053312048848633893 0 -0.041350691030002946 -0.052726873691868979 0 -0.035447335944414293 -0.057447647144425365 0 -0.035064794280050646 -0.057613518475139514 0 -0.039701145438930004 -0.053312048848633893 0 -0.03536681016994854 -0.057426910640827659 0 -0.041991904344394648 -0.05369957868279527 0 -0.039091748016619257 -0.053144195381328307 0 -0.039701145438930004 -0.053312048848633893 0 -0.03536681016994854 -0.057426910640827659 0 -0.039091748016619257 -0.053144195381328307 0 -0.03536681016994854 -0.057426910640827659 0 -0.03806178250513708 -0.054702122094432683 0 -0.03536681016994854 -0.057426910640827659 0 -0.033332621891574168 -0.056233909531948525 0 -0.036330918850955844 -0.056507292450160444 0 -0.03536681016994854 -0.057426910640827659 0 -0.028516529152589974 -0.061623626891559875 0 -0.028849154905937677 -0.057263676659275925 0 -0.03536681016994854 -0.057426910640827659 0 -0.0298217881168437 -0.055796744129500975 0 -0.028849154905937677 -0.057263676659275925 0 -0.03536681016994854 -0.057426910640827659 0 -0.0298217881168437 -0.055796744129500975 0 -0.033332621891574168 -0.056233909531948525 0 -0.033332621891574168 -0.056233909531948525 0 -0.029955926798972608 -0.054996837847155207 0 -0.035933754012855437 -0.055741882889064044 0 -0.0298217881168437 -0.055796744129500975 0 -0.033332621891574168 -0.056233909531948525 0 -0.029955926798972608 -0.054996837847155207 0 -0.0298217881168437 -0.055796744129500975 0 -0.029955926798972608 -0.054996837847155207 0 -0.026943021770888975 -0.054999458769130982 0 -0.032790181466829306 -0.054999356275836964 0 -0.032847426227906332 -0.056512928414232375 0 -0.034925644441081809 -0.055900159028815691 0 -0.032790181466829306 -0.054999356275836964 0 -0.034925644441081809 -0.055900159028815691 0 -0.035633154304780146 -0.054999722822906889 0 -0.029947288736564989 -0.055000278498249351 0 -0.032790181466829306 -0.054999356275836964 0 -0.032847426227906332 -0.056512928414232375 0 -0.029948783661618364 -0.055000284189786391 0 -0.034368638271725281 -0.05616796864346224 0 -0.033332621891574168 -0.056233909531948525 0 -0.035933754012855437 -0.055741882889064044 0 -0.036330918850955844 -0.056507292450160444 0 -0.034368638271725281 -0.05616796864346224 0 -0.036321321979335248 -0.05659738753499538 0 -0.035933754012855437 -0.055741882889064044 0 -0.036330918850955844 -0.056507292450160444 0 -0.036592360547994578 -0.056641955191445131 0 -0.032847426227906332 -0.056512928414232375 0 -0.036592360547994578 -0.056641955191445131 0 -0.034925644441081809 -0.055900159028815691 0 -0.036330918850955844 -0.056507292450160444 0 -0.03806178250513708 -0.054702122094432683 0 -0.036592360547994578 -0.056641955191445131 0 -0.03806178250513708 -0.054702122094432683 0 -0.036592360547994578 -0.056641955191445131 0 -0.038480830157819591 -0.054363085518075373 0 -0.03536681016994854 -0.057426910640827659 0 -0.036330918850955844 -0.056507292450160444 0 -0.03806178250513708 -0.054702122094432683 0 -0.037264544313680224 -0.056544035306682866 0 -0.036592360547994578 -0.056641955191445131 0 -0.038480830157819591 -0.054363085518075373 0 -0.037264544313680224 -0.056544035306682866 0 -0.036592360547994578 -0.056641955191445131 0 -0.03793068361997938 -0.056302774777462976 0 -0.036592360547994578 -0.056641955191445131 0 -0.036493640276535733 -0.055997948499693334 0 -0.034925644441081809 -0.055900159028815691 0 -0.036493640276535733 -0.055997948499693334 0 -0.037752711939609954 -0.055764979998909371 0 -0.03793068361997938 -0.056302774777462976 0 -0.036592360547994578 -0.056641955191445131 0 -0.036493640276535733 -0.055997948499693334 0 -0.03793068361997938 -0.056302774777462976 0 -0.037752711939609954 -0.055764979998909371 0 -0.035633154304780146 -0.054999722822906889 0 -0.03847161043832819 -0.054998940728351944 0 -0.036493640276535733 -0.055997948499693334 0 -0.037752711939609954 -0.055764979998909371 0 -0.035633154304780146 -0.054999722822906889 0 -0.036493640276535733 -0.055997948499693334 0 -0.034925644441081809 -0.055900159028815691 0 -0.035633154304780146 -0.054999722822906889 0 -0.038748492403894622 -0.054999990851755255 0 -0.038473663515848973 -0.055000007333894922 0 -0.039531835833288204 -0.056095737701386608 0 -0.037752711939609954 -0.055764979998909371 0 -0.03847161043832819 -0.054998940728351944 0 -0.038788227810850118 -0.055268722786517677 0 -0.03847374843205717 -0.054999969643644689 0 -0.039742056603285385 -0.055885412445604611 0 -0.038748901240648656 -0.055000287486710701 0 -0.039742056603285385 -0.055885412445604611 0 -0.037752711939609954 -0.055764979998909371 0 -0.038788227810850118 -0.055268722786517677 0 -0.038692917506262255 -0.055894225951145092 0 -0.037752711939609954 -0.055764979998909371 0 -0.038692917506262255 -0.055894225951145092 0 -0.03793068361997938 -0.056302774777462976 0 -0.038692917506262255 -0.055894225951145092 0 -0.039237394558444945 -0.056452780955151459 0 -0.03793068361997938 -0.056302774777462976 0 -0.038692917506262255 -0.055894225951145092 0 -0.040021845143065164 -0.055854659226143598 0 -0.039237394558444945 -0.056452780955151459 0 -0.038788227810850118 -0.055268722786517677 0 -0.038692917506262255 -0.055894225951145092 0 -0.040021845143065164 -0.055854659226143598 0 -0.040849572333572941 -0.056414491780119327 0 -0.041462278506419224 -0.057250154490335693 0 -0.041705946516828137 -0.057285330150166965 0 -0.039742056603285385 -0.055885412445604611 0 -0.041763906646805661 -0.057359882486874202 0 -0.039742056603285385 -0.055885412445604611 0 -0.040814133524911866 -0.05661414727962092 0 -0.040021845143065164 -0.055854659226143598 0 -0.039237394558444945 -0.056452780955151459 0 -0.040385685006269469 -0.057255388233422466 0 -0.039237394558444945 -0.056452780955151459 0 -0.040385685006269469 -0.057255388233422466 0 -0.039337158245716312 -0.057298501943567733 0 -0.037264544313680224 -0.056544035306682866 0 -0.03793068361997938 -0.056302774777462976 0 -0.039337158245716312 -0.057298501943567733 0 -0.039237394558444945 -0.056452780955151459 0 -0.03793068361997938 -0.056302774777462976 0 -0.039337158245716312 -0.057298501943567733 0 -0.037264544313680224 -0.056544035306682866 0 -0.039337158245716312 -0.057298501943567733 0 -0.038858595703942053 -0.058283926941167456 0 -0.040385685006269469 -0.057255388233422466 0 -0.039337158245716312 -0.057298501943567733 0 -0.041410418377086727 -0.05877755384028386 0 -0.039337158245716312 -0.057298501943567733 0 -0.040056945823594294 -0.059014976412246893 0 -0.038858595703942053 -0.058283926941167456 0 -0.039337158245716312 -0.057298501943567733 0 -0.040056945823594294 -0.059014976412246893 0 -0.041410418377086727 -0.05877755384028386 0 -0.040056945823594294 -0.059014976412246893 0 -0.040983817115565764 -0.059492924155468668 0 -0.041410418377086727 -0.05877755384028386 0 -0.040056945823594294 -0.059014976412246893 0 -0.040359880215849429 -0.05998030657846961 0 -0.039329340133537879 -0.059800332324035893 0 -0.040056945823594294 -0.059014976412246893 0 -0.040359880215849429 -0.05998030657846961 0 -0.040983817115565764 -0.059492924155468668 0 -0.052509119964044178 -0.041995131542228142 0 -0.052584103066802945 -0.042150347023141597 0 -0.053741881969516979 -0.044833136416658211 0 -0.040359880215849429 -0.05998030657846961 0 -0.039899983404275287 -0.060755220377938804 0 -0.042073563068350986 -0.060210245021659461 0 -0.040359880215849429 -0.05998030657846961 0 -0.039329340133537879 -0.059800332324035893 0 -0.039899983404275287 -0.060755220377938804 0 -0.038887499340959801 -0.060419675568980639 0 -0.039329340133537879 -0.059800332324035893 0 -0.03795346320599291 -0.059801254688802576 0 -0.038887499340959801 -0.060419675568980639 0 -0.039329340133537879 -0.059800332324035893 0 -0.039899983404275287 -0.060755220377938804 0 -0.037264544313680224 -0.056544035306682866 0 -0.038858595703942053 -0.058283926941167456 0 -0.03795346320599291 -0.059801254688802576 0 -0.039329340133537879 -0.059800332324035893 0 -0.038858595703942053 -0.058283926941167456 0 -0.03795346320599291 -0.059801254688802576 0 -0.040056945823594294 -0.059014976412246893 0 -0.039329340133537879 -0.059800332324035893 0 -0.038858595703942053 -0.058283926941167456 0 -0.037264544313680224 -0.056544035306682866 0 -0.038480830157819591 -0.054363085518075373 0 -0.037055454690050754 -0.05285059868900107 0 -0.037431065061664825 -0.055935512566296065 0 -0.036916641023599872 -0.057684384653914171 0 -0.04054626588721523 -0.0510763841071342 0 -0.038480830157819591 -0.054363085518075373 0 -0.039933245037674495 -0.050343646149948795 0 -0.038480830157819591 -0.054363085518075373 0 -0.037055454690050754 -0.05285059868900107 0 -0.039933245037674495 -0.050343646149948795 0 -0.037055454690050754 -0.05285059868900107 0 -0.039933245037674495 -0.050343646149948795 0 -0.037749604275275454 -0.048210164477818264 0 -0.036916641023599872 -0.057684384653914171 0 -0.043372549247881753 -0.048631569658707192 0 -0.039933245037674495 -0.050343646149948795 0 -0.037749604275275454 -0.048210164477818264 0 -0.042334390270091962 -0.045925728256265792 0 -0.04226471612236897 -0.048039150339470031 0 -0.039933245037674495 -0.050343646149948795 0 -0.042334390270091962 -0.045925728256265792 0 -0.04226471612236897 -0.048039150339470031 0 -0.04054626588721523 -0.0510763841071342 0 -0.039933245037674495 -0.050343646149948795 0 -0.043936542012328508 -0.045714756656637948 0 -0.04226471612236897 -0.048039150339470031 0 -0.042334390270091962 -0.045925728256265792 0 -0.044348081878944401 -0.044737622573282912 0 -0.043390323273814736 -0.044983053525395639 0 -0.042334390270091962 -0.045925728256265792 0 -0.043372549247881753 -0.048631569658707192 0 -0.041716412654907387 -0.046168828053313321 0 -0.051018333472872622 -0.040578373146584149 0 -0.05202952951480818 -0.041092821010147974 0 -0.051737814748857025 -0.040842175436823669 0 -0.048058298773926353 -0.041750137201237672 0 -0.043372549247881753 -0.048631569658707192 0 -0.05202952951480818 -0.041092821010147974 0 -0.051737814748857025 -0.040842175436823669 0 -0.052215414826149407 -0.041427474638962174 0 -0.051737814748857025 -0.040842175436823669 0 -0.052078987423263917 -0.040821464314475447 0 -0.052236369842085704 -0.041238483778468643 0 -0.052078987423263917 -0.040821464314475447 0 -0.052236369842085704 -0.041238483778468643 0 -0.05240776946802992 -0.041227028573508948 0 -0.051737814748857025 -0.040842175436823669 0 -0.052236369842085704 -0.041238483778468643 0 -0.052215414826149407 -0.041427474638962174 0 -0.052395018582090037 -0.041724193022914829 0 -0.052584103066802945 -0.042150347023141597 0 -0.052215414826149407 -0.041427474638962174 0 -0.052236369842085704 -0.041238483778468643 0 -0.052395018582090037 -0.041724193022914829 0 -0.052215414826149407 -0.041427474638962174 0 -0.052236369842085704 -0.041238483778468643 0 -0.052395018582090037 -0.041724193022914829 0 -0.052509119964044178 -0.041995131542228142 0 -0.052236369842085704 -0.041238483778468643 0 -0.052509119964044178 -0.041995131542228142 0 -0.05240776946802992 -0.041227028573508948 0 -0.052395018582090037 -0.041724193022914829 0 -0.052509119964044178 -0.041995131542228142 0 -0.052584103066802945 -0.042150347023141597 0 -0.038887499340959801 -0.060419675568980639 0 -0.038406058741078351 -0.061199195186941197 0 -0.039899983404275287 -0.060755220377938804 0 -0.038887499340959801 -0.060419675568980639 0 -0.03795346320599291 -0.059801254688802576 0 -0.038406058741078351 -0.061199195186941197 0 -0.043372549247881753 -0.048631569658707192 0 -0.046454221040129591 -0.051859789149012535 0 -0.05202952951480818 -0.041092821010147974 0 -0.052584103066802945 -0.042150347023141597 0 -0.052215414826149407 -0.041427474638962174 0 -0.052954077993430451 -0.040810376423578959 0 -0.052649205225323882 -0.040965749690371291 0 -0.053269581486557693 -0.040978436326204598 0 -0.052954077993430451 -0.040810376423578959 0 -0.053269581486557693 -0.040978436326204598 0 -0.05388468567161938 -0.04109916444559146 0 -0.052509119964044178 -0.041995131542228142 0 -0.052954077993430451 -0.040810376423578959 0 -0.05240776946802992 -0.041227028573508948 0 -0.052832449293016795 -0.042145771581549071 0 -0.053642837146696105 -0.042959428747405992 0 -0.052954077993430451 -0.040810376423578959 0 -0.05240776946802992 -0.041227028573508948 0 -0.052649205225323882 -0.040965749690371291 0 -0.052078987423263917 -0.040821464314475447 0 -0.05240776946802992 -0.041227028573508948 0 -0.052649205225323882 -0.040965749690371291 0 -0.052649205225323882 -0.040965749690371291 0 -0.053269581486557693 -0.040978436326204598 0 -0.053254260897643763 -0.040888307087214575 0 -0.053807189504566907 -0.04080742347844795 0 -0.053254260897643763 -0.040888307087214575 0 -0.053711804824594395 -0.041014236557208199 0 -0.053807189504566907 -0.04080742347844795 0 -0.053711804824594395 -0.041014236557208199 0 -0.054250601206902255 -0.041129075615814248 0 -0.053711804824594395 -0.041014236557208199 0 -0.054250601206902255 -0.041129075615814248 0 -0.05388468567161938 -0.04109916444559146 0 -0.053269581486557693 -0.040978436326204598 0 -0.053254260897643763 -0.040888307087214575 0 -0.053711804824594395 -0.041014236557208199 0 -0.053269581486557693 -0.040978436326204598 0 -0.053711804824594395 -0.041014236557208199 0 -0.05388468567161938 -0.04109916444559146 0 -0.054447183017273873 -0.040970207544751676 0 -0.054250601206902255 -0.041129075615814248 0 -0.05476669035205587 -0.041475059846451223 0 -0.054250601206902255 -0.041129075615814248 0 -0.05388468567161938 -0.04109916444559146 0 -0.05476669035205587 -0.041475059846451223 0 -0.05388468567161938 -0.04109916444559146 0 -0.054282929560767412 -0.041002160174768383 0 -0.05476669035205587 -0.041475059846451223 0 -0.052954077993430451 -0.040810376423578959 0 -0.05388468567161938 -0.04109916444559146 0 -0.054282929560767412 -0.041002160174768383 0 -0.054876989192811559 -0.045899649720817781 0 -0.055665328620490506 -0.046698902354448256 0 -0.055252119482818836 -0.046076901300577212 0 -0.054056812743262656 -0.045250399322806292 0 -0.054876989192811559 -0.045899649720817781 0 -0.055665328620490506 -0.046698902354448256 0 -0.053642837146696105 -0.042959428747405992 0 -0.054969138264095281 -0.043853315437977596 0 -0.054282929560767412 -0.041002160174768383 0 -0.055343949122432172 -0.042183895717270041 0 -0.05476669035205587 -0.041475059846451223 0 -0.055665328620490506 -0.046698902354448256 0 -0.056211217934799343 -0.046996327105493285 0 -0.056559099977973544 -0.047365354205155343 0 -0.054969138264095281 -0.043853315437977596 0 -0.055889257484703005 -0.044799440922993539 0 -0.056211217934799343 -0.046996327105493285 0 -0.055252119482818836 -0.046076901300577212 0 -0.056485590593722129 -0.047398644208366543 0 -0.055665328620490506 -0.046698902354448256 0 -0.056211217934799343 -0.046996327105493285 0 -0.055252119482818836 -0.046076901300577212 0 -0.054876989192811559 -0.045899649720817781 0 -0.055252119482818836 -0.046076901300577212 0 -0.053741881969516979 -0.044833136416658211 0 -0.0443971596116782 -0.059702183555250997 0 -0.042073563068350986 -0.060210245021659461 0 -0.042871389930480577 -0.058938737512456214 0 -0.049794301175193678 -0.052920972747266495 0 -0.047795828494527431 -0.052483660809259376 0 -0.054056812743262656 -0.045250399322806292 0 -0.054876989192811559 -0.045899649720817781 0 -0.053741881969516979 -0.044833136416658211 0 -0.040359880215849429 -0.05998030657846961 0 -0.042073563068350986 -0.060210245021659461 0 -0.040983817115565764 -0.059492924155468668 0 -0.052509119964044178 -0.041995131542228142 0 -0.054056812743262656 -0.045250399322806292 0 -0.053741881969516979 -0.044833136416658211 0 -0.046454221040129591 -0.051859789149012535 0 -0.047795828494527431 -0.052483660809259376 0 -0.042073563068350986 -0.060210245021659461 0 -0.041410418377086727 -0.05877755384028386 0 -0.042871389930480577 -0.058938737512456214 0 -0.042073563068350986 -0.060210245021659461 0 -0.040983817115565764 -0.059492924155468668 0 -0.041410418377086727 -0.05877755384028386 0 -0.040385685006269469 -0.057255388233422466 0 -0.041410418377086727 -0.05877755384028386 0 -0.042134320042868406 -0.057798598514661223 0 -0.039593328563728138 -0.055879474123238383 0 -0.044003607976217156 -0.05689714287608949 0 -0.047735810689272566 -0.05499959029010195 0 -0.038750156518957593 -0.054998956107429851 0 -0.039593328563728138 -0.055879474123238383 0 -0.047735810689272566 -0.05499959029010195 0 -0.041410418377086727 -0.05877755384028386 0 -0.042134320042868406 -0.057798598514661223 0 -0.042871389930480577 -0.058938737512456214 0 -0.042134320042868406 -0.057798598514661223 0 -0.042871389930480577 -0.058938737512456214 0 -0.044296832179266464 -0.058204310958453707 0 -0.0443971596116782 -0.059702183555250997 0 -0.042871389930480577 -0.058938737512456214 0 -0.044296832179266464 -0.058204310958453707 0 -0.043110012594638744 -0.057497349110992461 0 -0.044003607976217156 -0.05689714287608949 0 -0.044296832179266464 -0.058204310958453707 0 -0.042134320042868406 -0.057798598514661223 0 -0.043110012594638744 -0.057497349110992461 0 -0.044296832179266464 -0.058204310958453707 0 -0.040814133524911866 -0.05661414727962092 0 -0.041976791755681378 -0.05774712652266438 0 -0.042134320042868406 -0.057798598514661223 0 -0.043110012594638744 -0.057497349110992461 0 -0.041705946516828137 -0.057285330150166965 0 -0.040021845143065164 -0.055854659226143598 0 -0.040385685006269469 -0.057255388233422466 0 -0.042134320042868406 -0.057798598514661223 0 -0.041462278506419224 -0.057250154490335693 0 -0.042134320042868406 -0.057798598514661223 0 -0.041705946516828137 -0.057285330150166965 0 -0.039593328563728138 -0.055879474123238383 0 -0.041705946516828137 -0.057285330150166965 0 -0.044003607976217156 -0.05689714287608949 0 -0.043110012594638744 -0.057497349110992461 0 -0.041705946516828137 -0.057285330150166965 0 -0.044003607976217156 -0.05689714287608949 0 -0.044003607976217156 -0.05689714287608949 0 -0.047735810689272566 -0.05499959029010195 0 -0.046828458970999819 -0.057481655955196866 0 -0.047735810689272566 -0.05499959029010195 0 -0.046828458970999819 -0.057481655955196866 0 -0.048516066971137861 -0.056938651865235224 0 -0.046828458970999819 -0.057481655955196866 0 -0.044296832179266464 -0.058204310958453707 0 -0.046844731293726592 -0.059144925183879947 0 -0.046828458970999819 -0.057481655955196866 0 -0.046844731293726592 -0.059144925183879947 0 -0.049434257426765903 -0.058285519210066361 0 -0.044003607976217156 -0.05689714287608949 0 -0.046828458970999819 -0.057481655955196866 0 -0.044296832179266464 -0.058204310958453707 0 -0.0443971596116782 -0.059702183555250997 0 -0.044296832179266464 -0.058204310958453707 0 -0.046844731293726592 -0.059144925183879947 0 -0.049794301175193678 -0.052920972747266495 0 -0.05162282827601164 -0.053284572954020316 0 -0.056485590593722129 -0.047398644208366543 0 -0.056740859532470829 -0.04797173829265089 0 -0.057050538494208894 -0.04903895951146317 0 -0.056211217934799343 -0.046996327105493285 0 -0.056485590593722129 -0.047398644208366543 0 -0.056740859532470829 -0.04797173829265089 0 -0.047735810689272566 -0.05499959029010195 0 -0.055001014668253301 -0.054996323914816826 0 -0.052374695255498691 -0.056382218603279528 0 -0.056740859532470829 -0.04797173829265089 0 -0.056419589642969531 -0.049105314101848187 0 -0.056395933356715146 -0.04761029852764697 0 -0.056740859532470829 -0.04797173829265089 0 -0.056775847860148117 -0.048827087566526234 0 -0.057050538494208894 -0.04903895951146317 0 -0.056740859532470829 -0.04797173829265089 0 -0.056775847860148117 -0.048827087566526234 0 -0.056419589642969531 -0.049105314101848187 0 -0.056754931459919999 -0.04980627791486146 0 -0.057050538494208894 -0.04903895951146317 0 -0.056782368846315226 -0.051422809830833388 0 -0.056775847860148117 -0.048827087566526234 0 -0.056754931459919999 -0.04980627791486146 0 -0.056419589642969531 -0.049105314101848187 0 -0.056775847860148117 -0.048827087566526234 0 -0.056754931459919999 -0.04980627791486146 0 -0.057050538494208894 -0.04903895951146317 0 -0.05162282827601164 -0.053284572954020316 0 -0.053167509110926922 -0.05370273589729712 0 -0.047735810689272566 -0.05499959029010195 0 -0.05011146946611586 -0.057127550981679001 0 -0.052374695255498691 -0.056382218603279528 0 -0.047735810689272566 -0.05499959029010195 0 -0.048516066971137861 -0.056938651865235224 0 -0.05011146946611586 -0.057127550981679001 0 -0.046828458970999819 -0.057481655955196866 0 -0.049434257426765903 -0.058285519210066361 0 -0.048516066971137861 -0.056938651865235224 0 -0.049434257426765903 -0.058285519210066361 0 -0.048516066971137861 -0.056938651865235224 0 -0.05011146946611586 -0.057127550981679001 0 -0.05034775362081393 -0.057055679757732188 0 -0.052263379467875369 -0.056319657910829261 0 -0.053167509110926922 -0.05370273589729712 0 -0.054377487265763726 -0.05414247647526297 0 -0.049434257426765903 -0.058285519210066361 0 -0.05011146946611586 -0.057127550981679001 0 -0.05202915912517643 -0.056897612661535285 0 -0.054694807917749361 -0.054709149403458446 0 -0.052263379467875369 -0.056319657910829261 0 -0.054510707491232373 -0.055319237881643141 0 -0.055001014668253301 -0.054996323914816826 0 -0.052374695255498691 -0.056382218603279528 0 -0.055370632271202626 -0.053917945837344668 0 -0.054999922375413242 -0.054266250989756099 0 -0.054999525404842084 -0.051998759509742976 0 -0.054510707491232373 -0.055319237881643141 0 -0.055001014668253301 -0.054996323914816826 0 -0.054998070992021766 -0.054273160962474781 0 -0.054694807917749361 -0.054709149403458446 0 -0.054999647617314552 -0.054267691323365203 0 -0.054662963111631241 -0.055173721669087794 0 -0.052335043036032938 -0.056171625095525354 0 -0.05202915912517643 -0.056897612661535285 0 -0.05011146946611586 -0.057127550981679001 0 -0.052335043036032938 -0.056171625095525354 0 -0.05202915912517643 -0.056897612661535285 0 -0.056754931459919999 -0.04980627791486146 0 -0.056782368846315226 -0.051422809830833388 0 -0.056445410943045504 -0.050402587548780416 0 -0.056782368846315226 -0.051422809830833388 0 -0.056040430582282086 -0.051284182081508534 0 -0.056445410943045504 -0.050402587548780416 0 -0.056782368846315226 -0.051422809830833388 0 -0.056040430582282086 -0.051284182081508534 0 -0.055847161826875859 -0.052213005259766715 0 -0.056040430582282086 -0.051284182081508534 0 -0.055847161826875859 -0.052213005259766715 0 -0.054999525404842084 -0.051998759509742976 0 -0.054694807917749361 -0.054709149403458446 0 -0.054377487265763726 -0.05414247647526297 0 -0.055370632271202626 -0.053917945837344668 0 -0.055847161826875859 -0.052213005259766715 0 -0.054999525404842084 -0.051998759509742976 0 -0.055370632271202626 -0.053917945837344668 0 -0.056782368846315226 -0.051422809830833388 0 -0.055847161826875859 -0.052213005259766715 0 -0.054999525404842084 -0.051998759509742976 0 -0.055935431968892203 -0.05027505747223901 0 -0.054999624299816231 -0.049731626964319667 0 -0.056040430582282086 -0.051284182081508534 0 -0.054999525404842084 -0.051998759509742976 0 -0.055935431968892203 -0.05027505747223901 0 -0.056040430582282086 -0.051284182081508534 0 -0.055935431968892203 -0.05027505747223901 0 -0.056445410943045504 -0.050402587548780416 0 -0.055935431968892203 -0.05027505747223901 0 -0.056445410943045504 -0.050402587548780416 0 -0.056419589642969531 -0.049105314101848187 0 -0.056754931459919999 -0.04980627791486146 0 -0.056445410943045504 -0.050402587548780416 0 -0.056419589642969531 -0.049105314101848187 0 -0.055935431968892203 -0.05027505747223901 0 -0.056419589642969531 -0.049105314101848187 0 -0.055826804439698834 -0.048546337050408749 0 -0.056419589642969531 -0.049105314101848187 0 -0.055826804439698834 -0.048546337050408749 0 -0.056395933356715146 -0.04761029852764697 0 -0.055826804439698834 -0.048546337050408749 0 -0.054999624299816231 -0.049731626964319667 0 -0.05499984605807777 -0.047466701045228578 0 -0.055935431968892203 -0.05027505747223901 0 -0.055826804439698834 -0.048546337050408749 0 -0.054999624299816231 -0.049731626964319667 0 -0.055826804439698834 -0.048546337050408749 0 -0.05499984605807777 -0.047466701045228578 0 -0.056395933356715146 -0.04761029852764697 0 -0.05499966164449184 -0.047464814497718076 0 -0.055899809434488225 -0.046045338931093902 0 -0.054999758432191431 -0.047461212525085283 0 -0.055784262357620649 -0.044401170642615201 0 -0.055611769579311215 -0.043464717297322368 0 -0.054999758432191431 -0.047461212525085283 0 -0.054998781736363363 -0.044263667888173444 0 -0.055611769579311215 -0.043464717297322368 0 -0.055784262357620649 -0.044401170642615201 0 -0.055405217377397599 -0.042141830728883549 0 -0.055611769579311215 -0.043464717297322368 0 -0.056740859532470829 -0.04797173829265089 0 -0.056395933356715146 -0.04761029852764697 0 -0.056559099977973544 -0.047365354205155343 0 -0.056211217934799343 -0.046996327105493285 0 -0.056740859532470829 -0.04797173829265089 0 -0.056559099977973544 -0.047365354205155343 0 -0.055784262357620649 -0.044401170642615201 0 -0.055343949122432172 -0.042183895717270041 0 -0.055405217377397599 -0.042141830728883549 0 -0.055899809434488225 -0.046045338931093902 0 -0.055889257484703005 -0.044799440922993539 0 -0.055405217377397599 -0.042141830728883549 0 -0.055443202743256516 -0.041891118871986599 0 -0.055611769579311215 -0.043464717297322368 0 -0.055343949122432172 -0.042183895717270041 0 -0.055405217377397599 -0.042141830728883549 0 -0.05476669035205587 -0.041475059846451223 0 -0.055032041804931507 -0.041123912195248996 0 -0.054447183017273873 -0.040970207544751676 0 -0.05476669035205587 -0.041475059846451223 0 -0.055032041804931507 -0.041123912195248996 0 -0.055405217377397599 -0.042141830728883549 0 -0.05476669035205587 -0.041475059846451223 0 -0.055032041804931507 -0.041123912195248996 0 -0.055405217377397599 -0.042141830728883549 0 -0.055443202743256516 -0.041891118871986599 0 -0.055032041804931507 -0.041123912195248996 0 -0.055443202743256516 -0.041891118871986599 0 -0.055510046103328117 -0.041523240610799671 0 -0.054999228810517609 -0.041064861284035983 0 -0.055510046103328117 -0.041523240610799671 0 -0.054998781736363363 -0.044263667888173444 0 -0.055510046103328117 -0.041523240610799671 0 -0.054998781736363363 -0.044263667888173444 0 -0.055611769579311215 -0.043464717297322368 0 -0.055443202743256516 -0.041891118871986599 0 -0.055510046103328117 -0.041523240610799671 0 -0.055611769579311215 -0.043464717297322368 0 -0.0035674661148490309 -0.050186253718104035 0 -0.0063933766879384884 -0.051908562668507151 0 -0.0048757687608625465 -0.051137278914979066 0 -0.0068933489692998961 -0.052298261485716459 0 -0.0067115753975794234 -0.050469867626159827 0 -0.0048757687608625465 -0.051137278914979066 0 -0.0067115753975794234 -0.050469867626159827 0 -0.0057041338718001808 -0.04964214639529442 0 -0.0014357366652577503 -0.048719983895569391 0 0.00019426212663309513 -0.051335189966240778 0 0.0036585880204529626 -0.046147391386103902 0 0.003982446884319449 -0.050564180241566718 0 0.00019426212663309513 -0.051335189966240778 0 0.004248878691827343 -0.045873360970265648 0 -0.0035674661148490309 -0.050186253718104035 0 0.002821013634933073 -0.047481100748974027 0 0.00089198446095079117 -0.050385447021927064 0 0.002821013634933073 -0.047481100748974027 0 0.00019426212663309513 -0.051335189966240778 0 0.0030505505550640108 -0.053309117869504763 0 -0.00071383286586571839 -0.05409482228060037 0 0.003982446884319449 -0.050564180241566718 0 0.0030505505550640108 -0.053309117869504763 0 0.0057869558199838932 -0.051944740425116841 0 0.003982446884319449 -0.050564180241566718 0 0.00019426212663309513 -0.051335189966240778 0 0.0030505505550640108 -0.053309117869504763 0 0.0030505505550640108 -0.053309117869504763 0 0.005751885030853875 -0.054028004918616652 0 0.0040988373947466392 -0.055736918648185203 0 0.0030505505550640108 -0.053309117869504763 0 0.0014297107458752312 -0.055482039209699727 0 0.0040988373947466392 -0.055736918648185203 0 0.0030505505550640108 -0.053309117869504763 0 -0.00071383286586571839 -0.05409482228060037 0 0.0014297107458752312 -0.055482039209699727 0 -0.0014357366652577503 -0.048719983895569391 0 -0.0033047502312646281 -0.05305615257739163 0 -0.0068933489692998961 -0.052298261485716459 0 -0.00071383286586571839 -0.05409482228060037 0 -0.0033047502312646281 -0.05305615257739163 0 -0.0031287205193223874 -0.055551615021338874 0 -0.0014357366652577503 -0.048719983895569391 0 0.00019426212663309513 -0.051335189966240778 0 -0.0033047502312646281 -0.05305615257739163 0 0.00019426212663309513 -0.051335189966240778 0 -0.00071383286586571839 -0.05409482228060037 0 -0.0033047502312646281 -0.05305615257739163 0 -0.0033047502312646281 -0.05305615257739163 0 -0.0031287205193223874 -0.055551615021338874 0 -0.0060529389730360145 -0.055877712015424741 0 -0.0087380742949336229 -0.055421673876777169 0 -0.0068933489692998961 -0.052298261485716459 0 -0.01026615120995375 -0.053421211922212677 0 -0.0033047502312646281 -0.05305615257739163 0 -0.0068933489692998961 -0.052298261485716459 0 -0.0060529389730360145 -0.055877712015424741 0 -0.0068933489692998961 -0.052298261485716459 0 -0.01026615120995375 -0.053421211922212677 0 -0.0086733377522433246 -0.05137913961058508 0 -0.0087380742949336229 -0.055421673876777169 0 -0.0068933489692998961 -0.052298261485716459 0 -0.0060529389730360145 -0.055877712015424741 0 -0.01026615120995375 -0.053421211922212677 0 -0.01103449709636224 -0.055941393056759992 0 -0.01268624695068781 -0.054735694878304979 0 -0.0087380742949336229 -0.055421673876777169 0 -0.01026615120995375 -0.053421211922212677 0 -0.01103449709636224 -0.055941393056759992 0 -0.01026615120995375 -0.053421211922212677 0 -0.010727067498737095 -0.051452196875856046 0 -0.013280125911140415 -0.0525641557924287 0 -0.010727067498737095 -0.051452196875856046 0 -0.0092146787657243021 -0.049585612382681027 0 -0.012190989516744128 -0.049987404523026004 0 -0.01026615120995375 -0.053421211922212677 0 -0.010727067498737095 -0.051452196875856046 0 -0.0086733377522433246 -0.05137913961058508 0 -0.010727067498737095 -0.051452196875856046 0 -0.0086733377522433246 -0.05137913961058508 0 -0.0092146787657243021 -0.049585612382681027 0 -0.0068933489692998961 -0.052298261485716459 0 -0.0086733377522433246 -0.05137913961058508 0 -0.0067115753975794234 -0.050469867626159827 0 -0.0086733377522433246 -0.05137913961058508 0 -0.0067115753975794234 -0.050469867626159827 0 -0.0092146787657243021 -0.049585612382681027 0 -0.0067115753975794234 -0.050469867626159827 0 -0.006828077821353736 -0.048438465270221116 0 -0.0092146787657243021 -0.049585612382681027 0 -0.0087950597603555173 -0.047736117855376792 0 -0.006828077821353736 -0.048438465270221116 0 -0.0092146787657243021 -0.049585612382681027 0 -0.0092146787657243021 -0.049585612382681027 0 -0.010824021918154885 -0.047773697415342958 0 -0.012190989516744128 -0.049987404523026004 0 -0.0087950597603555173 -0.047736117855376792 0 -0.0092146787657243021 -0.049585612382681027 0 -0.010824021918154885 -0.047773697415342958 0 -0.010824021918154885 -0.047773697415342958 0 -0.0093485164865283656 -0.046310562391513772 0 -0.011335340148315052 -0.045426019310967583 0 -0.0087950597603555173 -0.047736117855376792 0 -0.010824021918154885 -0.047773697415342958 0 -0.0093485164865283656 -0.046310562391513772 0 -0.0093485164865283656 -0.046310562391513772 0 -0.011335340148315052 -0.045426019310967583 0 -0.0089660647060075538 -0.044768660763539116 0 -0.006828077821353736 -0.048438465270221116 0 -0.0075674531690574703 -0.046337488929553812 0 -0.0057389539294093956 -0.04669891538573475 0 -0.0087950597603555173 -0.047736117855376792 0 -0.006828077821353736 -0.048438465270221116 0 -0.0075674531690574703 -0.046337488929553812 0 -0.0087950597603555173 -0.047736117855376792 0 -0.0093485164865283656 -0.046310562391513772 0 -0.0075674531690574703 -0.046337488929553812 0 -0.0093485164865283656 -0.046310562391513772 0 -0.0075674531690574703 -0.046337488929553812 0 -0.0089660647060075538 -0.044768660763539116 0 -0.0075674531690574703 -0.046337488929553812 0 -0.0057389539294093956 -0.04669891538573475 0 -0.0067883179831826302 -0.044778098156722568 0 -0.0057389539294093956 -0.04669891538573475 0 -0.0044045748224382855 -0.048464832091245642 0 -0.0034892785621342248 -0.045936366849206385 0 -0.0057389539294093956 -0.04669891538573475 0 -0.0034892785621342248 -0.045936366849206385 0 -0.0049799820641676876 -0.044646393960767305 0 -0.0048757687608625465 -0.051137278914979066 0 -0.0044045748224382855 -0.048464832091245642 0 -0.0057041338718001808 -0.04964214639529442 0 -0.006828077821353736 -0.048438465270221116 0 -0.0057389539294093956 -0.04669891538573475 0 -0.0044045748224382855 -0.048464832091245642 0 -0.006828077821353736 -0.048438465270221116 0 -0.0044045748224382855 -0.048464832091245642 0 -0.0057041338718001808 -0.04964214639529442 0 -0.0067115753975794234 -0.050469867626159827 0 -0.006828077821353736 -0.048438465270221116 0 -0.0057041338718001808 -0.04964214639529442 0 -0.0044045748224382855 -0.048464832091245642 0 -0.0022933626512220435 -0.049801706071325912 0 -0.0024321672728916206 -0.047239666440094585 0 -0.0048757687608625465 -0.051137278914979066 0 -0.0044045748224382855 -0.048464832091245642 0 -0.0022933626512220435 -0.049801706071325912 0 -0.0044045748224382855 -0.048464832091245642 0 -0.0024321672728916206 -0.047239666440094585 0 -0.0034892785621342248 -0.045936366849206385 0 -0.0034892785621342248 -0.045936366849206385 0 -0.0018794433665298533 -0.045684237999614435 0 -0.0022641744540379243 -0.0445569706721183 0 -0.0024321672728916206 -0.047239666440094585 0 -0.0034892785621342248 -0.045936366849206385 0 -0.0018794433665298533 -0.045684237999614435 0 -0.0018794433665298533 -0.045684237999614435 0 -0.00018879563689330861 -0.046172304247560039 0 -0.0010725898095560859 -0.04466846789201423 0 -0.0024321672728916206 -0.047239666440094585 0 -0.0018794433665298533 -0.045684237999614435 0 -0.00018879563689330861 -0.046172304247560039 0 0.0095327891314122299 -0.042078971628878595 0 0.012334950602758634 -0.040705759881534083 0 0.012151236063881682 -0.041920426923090587 0 0.012334950602758634 -0.040705759881534083 0 0.013315704567613693 -0.041021881357360554 0 0.013417067061955924 -0.039730784694113161 0 0.012334950602758634 -0.040705759881534083 0 0.013315704567613693 -0.041021881357360554 0 0.012151236063881682 -0.041920426923090587 0 0.013315704567613693 -0.041021881357360554 0 0.01315401311915116 -0.042669934538623437 0 0.012151236063881682 -0.041920426923090587 0 0.01315401311915116 -0.042669934538623437 0 0.012151236063881682 -0.041920426923090587 0 0.011282512177633552 -0.042907297575330849 0 0.0095327891314122299 -0.042078971628878595 0 0.012151236063881682 -0.041920426923090587 0 0.011282512177633552 -0.042907297575330849 0 0.0095327891314122299 -0.042078971628878595 0 0.011282512177633552 -0.042907297575330849 0 0.0099331032141193702 -0.044832202492327722 0 0.012119774810285587 -0.04446799530154457 0 0.0094618522940676381 -0.044832784884519361 0 0.015298683030176518 -0.046168540484822808 0 0.01315401311915116 -0.042669934538623437 0 0.011022541987961683 -0.043924153564077209 0 0.0093232237439172666 -0.043886469100190922 0 0.010484323669418658 -0.046234875704366359 0 0.014612001955495689 -0.041858210347080212 0 0.012551129691017307 -0.042946021722736843 0 0.010061706595763656 -0.044109366192872715 0 0.01315401311915116 -0.042669934538623437 0 0.011282512177633552 -0.042907297575330849 0 0.0099331032141193702 -0.044832202492327722 0 0.01315401311915116 -0.042669934538623437 0 0.011022541987961683 -0.043924153564077209 0 0.012119774810285587 -0.04446799530154457 0 0.0094618522940676381 -0.044832784884519361 0 0.010515089200065161 -0.046497503429134023 0 0.012649986391955047 -0.047074560573616864 0 0.011022541987961683 -0.043924153564077209 0 0.012119774810285587 -0.04446799530154457 0 0.0094618522940676381 -0.044832784884519361 0 0.011022541987961683 -0.043924153564077209 0 0.0094618522940676381 -0.044832784884519361 0 0.0093232237439172666 -0.043886469100190922 0 0.0094618522940676381 -0.044832784884519361 0 0.0093205070933446068 -0.046786325997328453 0 0.010515089200065161 -0.046497503429134023 0 -0.0022933626512220435 -0.049801706071325912 0 -0.0024321672728916206 -0.047239666440094585 0 -0.00018879563689330861 -0.046172304247560039 0 0.0094618522940676381 -0.044832784884519361 0 0.0076859894687444736 -0.046445098780898156 0 0.0093205070933446068 -0.046786325997328453 0 0.002821013634933073 -0.047481100748974027 0 0.0045351027257932745 -0.044373063595842685 0 0.0094618522940676381 -0.044832784884519361 0 0.0093232237439172666 -0.043886469100190922 0 0.0076859894687444736 -0.046445098780898156 0 0.002821013634933073 -0.047481100748974027 0 0.010061706595763656 -0.044109366192872715 0 0.0064287727556832314 -0.046597482696285719 0 0.0095327891314122299 -0.042078971628878595 0 0.0099331032141193702 -0.044832202492327722 0 0.004248878691827343 -0.045873360970265648 0 0.0093232237439172666 -0.043886469100190922 0 0.0076859894687444736 -0.046445098780898156 0 0.013516319597405489 -0.035694577254591457 0 0.012776379439840124 -0.034043600201442724 0 0.011827892755513691 -0.035918761542584901 0 0.013516319597405489 -0.035694577254591457 0 0.013204334930746802 -0.037201380968345195 0 0.011827892755513691 -0.035918761542584901 0 0.013516319597405489 -0.035694577254591457 0 0.014118868150843141 -0.037181146914076257 0 0.013204334930746802 -0.037201380968345195 0 0.014775303830374899 -0.038479110998346486 0 0.014510264099065983 -0.038862247452612991 0 0.014118868150843141 -0.037181146914076257 0 0.015154788882451177 -0.035547263638392716 0 0.014392207487478334 -0.038807677263689312 0 0.013315704567613693 -0.041021881357360554 0 0.01456342275025861 -0.042443720134525617 0 0.014392207487478334 -0.038807677263689312 0 0.013516319597405489 -0.035694577254591457 0 0.015154788882451177 -0.035547263638392716 0 0.014071544090789135 -0.034489050877613343 0 0.013516319597405489 -0.035694577254591457 0 0.014118868150843141 -0.037181146914076257 0 0.015154788882451177 -0.035547263638392716 0 0.013315704567613693 -0.041021881357360554 0 0.01315401311915116 -0.042669934538623437 0 0.01456342275025861 -0.042443720134525617 0 0.014775303830374899 -0.038479110998346486 0 0.014612001955495689 -0.041858210347080212 0 0.01315401311915116 -0.042669934538623437 0 0.01456342275025861 -0.042443720134525617 0 0.015298683030176518 -0.046168540484822808 0 0.015154788882451177 -0.035547263638392716 0 0.014071544090789135 -0.034489050877613343 0 0.014830592689743748 -0.032728639517845604 0 0.01315401311915116 -0.042669934538623437 0 0.012119774810285587 -0.04446799530154457 0 0.015298683030176518 -0.046168540484822808 0 0.014071544090789135 -0.034489050877613343 0 0.012776379439840124 -0.034043600201442724 0 0.014830592689743748 -0.032728639517845604 0 0.013516319597405489 -0.035694577254591457 0 0.014071544090789135 -0.034489050877613343 0 0.012776379439840124 -0.034043600201442724 0 0.014625123129524131 -0.043039127823748163 0 0.014589656165550696 -0.042964775461762257 0 0.014533909769067247 -0.042930916875834363 0 0.014625123129524131 -0.043039127823748163 0 0.014610904797009829 -0.043052199403976685 0 0.014589656165550696 -0.042964775461762257 0 0.012776379439840124 -0.034043600201442724 0 0.014830592689743748 -0.032728639517845604 0 0.011726086419725942 -0.031368525697346224 0 0.014612001955495689 -0.041858210347080212 0 0.013023079778378624 -0.037565039152762152 0 0.014612001955495689 -0.041858210347080212 0 0.016458306768025715 -0.050104717543461678 0 0.016543054758040493 -0.046843642100019733 0 0.014551211889201629 -0.049704029139276566 0 0.017267786969866899 -0.050751738735292498 0 0.016543054758040493 -0.046843642100019733 0 0.014551211889201629 -0.049704029139276566 0 0.012649986391955047 -0.047074560573616864 0 0.01536758946682799 -0.052114538133106618 0 0.013772457706329537 -0.053864170311512222 0 0.01799310980304112 -0.054586218342832123 0 0.014551211889201629 -0.049704029139276566 0 0.01536758946682799 -0.052114538133106618 0 0.013149900531038762 -0.051584162253846016 0 0.01536758946682799 -0.052114538133106618 0 0.013772457706329537 -0.053864170311512222 0 0.013149900531038762 -0.051584162253846016 0 0.01536758946682799 -0.052114538133106618 0 0.017267786969866899 -0.050751738735292498 0 0.01799310980304112 -0.054586218342832123 0 0.016458306768025715 -0.050104717543461678 0 0.012092666468749276 -0.030574430544892384 0 0.014551211889201629 -0.049704029139276566 0 0.01536758946682799 -0.052114538133106618 0 0.017267786969866899 -0.050751738735292498 0 0.012092666468749276 -0.030574430544892384 0 0.013533703139174676 -0.029704925717869785 0 0.014589656165550696 -0.042964775461762257 0 0.014620024841101854 -0.043044757177723235 0 0.014520937125508646 -0.042797283289186132 0 0.014610904797009829 -0.043052199403976685 0 0.014589656165550696 -0.042964775461762257 0 0.014620024841101854 -0.043044757177723235 0 0.003982446884319449 -0.050564180241566718 0 0.004248878691827343 -0.045873360970265648 0 0.006217248511652662 -0.049060219484885266 0 0.008385090695913873 -0.04854866532205477 0 0.0094812019207238026 -0.04989742813023916 0 0.0077850453730490578 -0.050990500496123893 0 0.008385090695913873 -0.04854866532205477 0 0.006217248511652662 -0.049060219484885266 0 0.0077850453730490578 -0.050990500496123893 0 0.008385090695913873 -0.04854866532205477 0 0.0097734080286794017 -0.048140374595055428 0 0.0094812019207238026 -0.04989742813023916 0 0.003982446884319449 -0.050564180241566718 0 0.006217248511652662 -0.049060219484885266 0 0.0057869558199838932 -0.051944740425116841 0 0.004248878691827343 -0.045873360970265648 0 0.006217248511652662 -0.049060219484885266 0 0.0076859894687444736 -0.046445098780898156 0 0.008385090695913873 -0.04854866532205477 0 0.006217248511652662 -0.049060219484885266 0 0.0076859894687444736 -0.046445098780898156 0 0.008385090695913873 -0.04854866532205477 0 0.0076859894687444736 -0.046445098780898156 0 0.0093205070933446068 -0.046786325997328453 0 0.008385090695913873 -0.04854866532205477 0 0.0093205070933446068 -0.046786325997328453 0 0.0097734080286794017 -0.048140374595055428 0 0.0094618522940676381 -0.044832784884519361 0 0.016543054758040493 -0.046843642100019733 0 0.012649986391955047 -0.047074560573616864 0 0.010515089200065161 -0.046497503429134023 0 0.010596832136446506 -0.0473078246437003 0 0.012649986391955047 -0.047074560573616864 0 0.0093205070933446068 -0.046786325997328453 0 0.010515089200065161 -0.046497503429134023 0 0.010596832136446506 -0.0473078246437003 0 0.010596832136446506 -0.0473078246437003 0 0.0097734080286794017 -0.048140374595055428 0 0.011084226368349796 -0.048763041014414497 0 0.010596832136446506 -0.0473078246437003 0 0.012649986391955047 -0.047074560573616864 0 0.011084226368349796 -0.048763041014414497 0 0.0093205070933446068 -0.046786325997328453 0 0.010596832136446506 -0.0473078246437003 0 0.0097734080286794017 -0.048140374595055428 0 0.014551211889201629 -0.049704029139276566 0 0.012649986391955047 -0.047074560573616864 0 0.012495461184891934 -0.049999479095650216 0 0.012649986391955047 -0.047074560573616864 0 0.012495461184891934 -0.049999479095650216 0 0.011084226368349796 -0.048763041014414497 0 0.012495461184891934 -0.049999479095650216 0 0.011084226368349796 -0.048763041014414497 0 0.011147154587463747 -0.050880884928985952 0 0.0097734080286794017 -0.048140374595055428 0 0.011084226368349796 -0.048763041014414497 0 0.0094812019207238026 -0.04989742813023916 0 0.011084226368349796 -0.048763041014414497 0 0.0094812019207238026 -0.04989742813023916 0 0.011147154587463747 -0.050880884928985952 0 0.0096066676597300581 -0.052184668930531489 0 0.011147154587463747 -0.050880884928985952 0 0.011555474725436998 -0.053024393478590892 0 0.0094812019207238026 -0.04989742813023916 0 0.0096066676597300581 -0.052184668930531489 0 0.011147154587463747 -0.050880884928985952 0 0.011147154587463747 -0.050880884928985952 0 0.013149900531038762 -0.051584162253846016 0 0.011555474725436998 -0.053024393478590892 0 0.014551211889201629 -0.049704029139276566 0 0.012495461184891934 -0.049999479095650216 0 0.013149900531038762 -0.051584162253846016 0 0.012495461184891934 -0.049999479095650216 0 0.011147154587463747 -0.050880884928985952 0 0.013149900531038762 -0.051584162253846016 0 0.013772457706329537 -0.053864170311512222 0 0.013149900531038762 -0.051584162253846016 0 0.011555474725436998 -0.053024393478590892 0 0.013772457706329537 -0.053864170311512222 0 0.011555474725436998 -0.053024393478590892 0 0.012018431100332022 -0.054610041265325274 0 0.0096066676597300581 -0.052184668930531489 0 0.011555474725436998 -0.053024393478590892 0 0.0098375732405319421 -0.054592573341105483 0 0.011555474725436998 -0.053024393478590892 0 0.0098375732405319421 -0.054592573341105483 0 0.012018431100332022 -0.054610041265325274 0 0.0096066676597300581 -0.052184668930531489 0 0.0098375732405319421 -0.054592573341105483 0 0.007857117016851883 -0.053707733835843083 0 0.007857117016851883 -0.053707733835843083 0 0.005751885030853875 -0.054028004918616652 0 0.0073215376237650547 -0.056343825756004703 0 0.0096066676597300581 -0.052184668930531489 0 0.007857117016851883 -0.053707733835843083 0 0.0077850453730490578 -0.050990500496123893 0 0.007857117016851883 -0.053707733835843083 0 0.0077850453730490578 -0.050990500496123893 0 0.0057869558199838932 -0.051944740425116841 0 0.0094812019207238026 -0.04989742813023916 0 0.0096066676597300581 -0.052184668930531489 0 0.0077850453730490578 -0.050990500496123893 0 0.006217248511652662 -0.049060219484885266 0 0.0077850453730490578 -0.050990500496123893 0 0.0057869558199838932 -0.051944740425116841 0 0.0030505505550640108 -0.053309117869504763 0 0.0057869558199838932 -0.051944740425116841 0 0.005751885030853875 -0.054028004918616652 0 0.007857117016851883 -0.053707733835843083 0 0.0057869558199838932 -0.051944740425116841 0 0.005751885030853875 -0.054028004918616652 0 0.0073215376237650547 -0.056343825756004703 0 0.012872279037856137 -0.056970634549958821 0 0.0070875791315789579 -0.059543113000910253 0 0.005751885030853875 -0.054028004918616652 0 0.0073215376237650547 -0.056343825756004703 0 0.0040988373947466392 -0.055736918648185203 0 0.0073215376237650547 -0.056343825756004703 0 0.0040988373947466392 -0.055736918648185203 0 0.0039925411498613764 -0.057807279328156894 0 0.0073215376237650547 -0.056343825756004703 0 0.0070875791315789579 -0.059543113000910253 0 0.0039925411498613764 -0.057807279328156894 0 0.0098375732405319421 -0.054592573341105483 0 0.007857117016851883 -0.053707733835843083 0 0.0073215376237650547 -0.056343825756004703 0 0.0096963987364582366 -0.035743128032759676 0 0.0067924593623349865 -0.037182556569443005 0 0.0068084929034727942 -0.013960812356965894 0 0.0056533743178618107 -0.01499747078225974 0 0.0035728224371230849 -0.015091011405159274 0 0.0098375732405319421 -0.054592573341105483 0 0.0073215376237650547 -0.056343825756004703 0 0.012872279037856137 -0.056970634549958821 0 0.0098375732405319421 -0.054592573341105483 0 0.012018431100332022 -0.054610041265325274 0 0.012872279037856137 -0.056970634549958821 0 0.013772457706329537 -0.053864170311512222 0 0.012018431100332022 -0.054610041265325274 0 0.012872279037856137 -0.056970634549958821 0 0.0068084929034727942 -0.013960812356965894 0 0.0056533743178618107 -0.01499747078225974 0 0.0071003470268363629 -0.015445573474715023 0 0.0056533743178618107 -0.01499747078225974 0 0.0061274552987514207 -0.016067674198204752 0 0.004802577355829926 -0.015738958047206326 0 0.0061274552987514207 -0.016067674198204752 0 0.0076455089201573215 -0.016913539299323377 0 0.0049438814058917887 -0.017092368324616202 0 0.0056533743178618107 -0.01499747078225974 0 0.0071003470268363629 -0.015445573474715023 0 0.0061274552987514207 -0.016067674198204752 0 0.0071003470268363629 -0.015445573474715023 0 0.0061274552987514207 -0.016067674198204752 0 0.0076455089201573215 -0.016913539299323377 0 0.0061274552987514207 -0.016067674198204752 0 0.004802577355829926 -0.015738958047206326 0 0.0049438814058917887 -0.017092368324616202 0 0.004802577355829926 -0.015738958047206326 0 0.0026472721548802154 -0.016269390100963118 0 0.0049438814058917887 -0.017092368324616202 0 0.004802577355829926 -0.015738958047206326 0 0.0026472721548802154 -0.016269390100963118 0 0.0038714005915723871 -0.014551579661282921 0 0.0056533743178618107 -0.01499747078225974 0 0.004802577355829926 -0.015738958047206326 0 0.0038714005915723871 -0.014551579661282921 0 0.0042369535436734178 -0.020100228570989573 0 0.0067924593623349865 -0.037182556569443005 0 0.010939218304054841 -0.016805238367075565 0 0.010417837681516096 -0.016858489123197061 0 0.011314125426071677 -0.016975608284173313 0 0.0097486855232170912 -0.013067972440878511 0 0.0086712485951089824 -0.015176265037662727 0 0.010417837681516096 -0.016858489123197061 0 0.010939218304054841 -0.016805238367075565 0 0.0118129274701261 -0.016609800685421394 0 0.011314125426071677 -0.016975608284173313 0 0.012092666468749276 -0.030574430544892384 0 0.0095227687093181381 -0.010186140060266791 0 0.0068084929034727942 -0.013960812356965894 0 0.0097486855232170912 -0.013067972440878511 0 0.0086712485951089824 -0.015176265037662727 0 0.013772457706329537 -0.053864170311512222 0 0.012872279037856137 -0.056970634549958821 0 0.01799310980304112 -0.054586218342832123 0 0.0096963987364582366 -0.035743128032759676 0 0.012092666468749276 -0.030574430544892384 0 0.0068084929034727942 -0.013960812356965894 0 0.0071003470268363629 -0.015445573474715023 0 0.0086712485951089824 -0.015176265037662727 0 0.0086712485951089824 -0.015176265037662727 0 0.010417837681516096 -0.016858489123197061 0 0.0076455089201573215 -0.016913539299323377 0 0.0071003470268363629 -0.015445573474715023 0 0.0086712485951089824 -0.015176265037662727 0 0.0076455089201573215 -0.016913539299323377 0 0.010417837681516096 -0.016858489123197061 0 0.009416183718088807 -0.018174180108675005 0 0.011204834061638478 -0.017371787493638446 0 0.010417837681516096 -0.016858489123197061 0 0.0076455089201573215 -0.016913539299323377 0 0.009416183718088807 -0.018174180108675005 0 0.0076455089201573215 -0.016913539299323377 0 0.009416183718088807 -0.018174180108675005 0 0.0059096144044316163 -0.019074037458836627 0 0.0079698827268637144 -0.020300807383700981 0 0.009416183718088807 -0.018174180108675005 0 0.0059096144044316163 -0.019074037458836627 0 0.009416183718088807 -0.018174180108675005 0 0.011204834061638478 -0.017371787493638446 0 0.010246987914821941 -0.017695700273436046 0 0.0079698827268637144 -0.020300807383700981 0 0.009416183718088807 -0.018174180108675005 0 0.010246987914821941 -0.017695700273436046 0 0.0026472721548802154 -0.016269390100963118 0 0.0049438814058917887 -0.017092368324616202 0 0.0020052558492005029 -0.018244489539675966 0 0.0049438814058917887 -0.017092368324616202 0 0.0059096144044316163 -0.019074037458836627 0 0.0020052558492005029 -0.018244489539675966 0 0.0076455089201573215 -0.016913539299323377 0 0.0049438814058917887 -0.017092368324616202 0 0.0059096144044316163 -0.019074037458836627 0 0.003217275971779079 -0.021842816409507523 0 0.0079698827268637144 -0.020300807383700981 0 0.0059096144044316163 -0.019074037458836627 0 0.003217275971779079 -0.021842816409507523 0 0.0059096144044316163 -0.019074037458836627 0 0.0020052558492005029 -0.018244489539675966 0 -0.0025456529754182343 -0.022761420355123164 0 0.003217275971779079 -0.021842816409507523 0 9.216138642429816e-05 -0.020512051127329452 0 9.216138642429816e-05 -0.020512051127329452 0 -0.0019826291537900003 -0.019576166787646676 0 0.0020052558492005029 -0.018244489539675966 0 0.003217275971779079 -0.021842816409507523 0 9.216138642429816e-05 -0.020512051127329452 0 0.0020052558492005029 -0.018244489539675966 0 -0.0025456529754182343 -0.022761420355123164 0 -0.0019826291537900003 -0.019576166787646676 0 -0.0057921408651087393 -0.019106716385062165 0 -0.0025456529754182343 -0.022761420355123164 0 9.216138642429816e-05 -0.020512051127329452 0 -0.0019826291537900003 -0.019576166787646676 0 -0.0028213782975512591 -0.017828212619160483 0 0.0020052558492005029 -0.018244489539675966 0 -0.0035676425922309789 -0.015918652829931223 0 -0.0019826291537900003 -0.019576166787646676 0 -0.0028213782975512591 -0.017828212619160483 0 0.0020052558492005029 -0.018244489539675966 0 0.00095843779194955273 -0.01535504023950824 0 -0.0030079024358542739 -0.025623645676325427 0 -0.0019826291537900003 -0.019576166787646676 0 -0.0028213782975512591 -0.017828212619160483 0 -0.0057921408651087393 -0.019106716385062165 0 0.0020052558492005029 -0.018244489539675966 0 0.00024881544348701105 -0.015431573643478661 0 -0.0037140187321660256 -0.016972758208947551 0 0.0026472721548802154 -0.016269390100963118 0 0.0038714005915723871 -0.014551579661282921 0 0.00024881544348701105 -0.015431573643478661 0 0.011877547461139483 -0.055543106052417267 0 0.0058203335526682016 -0.058055251147176377 0 0.0050245479575337804 -0.055621838191582847 0 0.0067924593623349865 -0.037182556569443005 0 0.0029125518907135214 -0.037401910602307693 0 0.0026472721548802154 -0.016269390100963118 0 0.0020052558492005029 -0.018244489539675966 0 0.00024881544348701105 -0.015431573643478661 0 0.0058203335526682016 -0.058055251147176377 0 0.0029623174319292483 -0.057828394149942432 0 0.0050245479575337804 -0.055621838191582847 0 0.0029125518907135214 -0.037401910602307693 0 -0.0030079024358542739 -0.025623645676325427 0 0.0058203335526682016 -0.058055251147176377 0 -0.00032027544988894594 -0.060068424895124255 0 0.0029623174319292483 -0.057828394149942432 0 0.001544277626330475 -0.057169195937562679 0 0.0050245479575337804 -0.055621838191582847 0 -0.0029383171408040231 -0.056242060628923812 0 -0.00032027544988894594 -0.060068424895124255 0 0.001544277626330475 -0.057169195937562679 0 0.0029623174319292483 -0.057828394149942432 0 0.001544277626330475 -0.057169195937562679 0 0.0029623174319292483 -0.057828394149942432 0 0.0050245479575337804 -0.055621838191582847 0 0.0032197214379739874 -0.059149422106568601 0 -0.0047468532119127309 -0.057527899872877382 0 -0.0033416326914665557 -0.057314969178301492 0 -0.00093589383286685581 -0.056660981424659647 0 7.8961800553738418e-05 -0.059671061612900006 0 -0.0033416326914665557 -0.057314969178301492 0 7.8961800553738418e-05 -0.059671061612900006 0 -0.0064191155144182419 -0.058957694876883841 0 -0.0033416326914665557 -0.057314969178301492 0 -0.0031287205193223874 -0.055551615021338874 0 -0.0060529389730360145 -0.055877712015424741 0 -0.00071383286586571839 -0.05409482228060037 0 -0.0031287205193223874 -0.055551615021338874 0 -0.00093589383286685581 -0.056660981424659647 0 -0.0033416326914665557 -0.057314969178301492 0 -0.0031287205193223874 -0.055551615021338874 0 -0.00093589383286685581 -0.056660981424659647 0 0.0067924593623349865 -0.037182556569443005 0 0.0032197214379739874 -0.059149422106568601 0 -0.00071383286586571839 -0.05409482228060037 0 -0.00093589383286685581 -0.056660981424659647 0 0.0014297107458752312 -0.055482039209699727 0 -0.00093589383286685581 -0.056660981424659647 0 0.0014297107458752312 -0.055482039209699727 0 0.0017342550554988066 -0.057063157130443957 0 0.0070875791315789579 -0.059543113000910253 0 0.0039925411498613764 -0.057807279328156894 0 7.8961800553738418e-05 -0.059671061612900006 0 0.0014297107458752312 -0.055482039209699727 0 0.0017342550554988066 -0.057063157130443957 0 0.0040988373947466392 -0.055736918648185203 0 0.0017342550554988066 -0.057063157130443957 0 0.0040988373947466392 -0.055736918648185203 0 0.0039925411498613764 -0.057807279328156894 0 -0.00093589383286685581 -0.056660981424659647 0 0.0017342550554988066 -0.057063157130443957 0 7.8961800553738418e-05 -0.059671061612900006 0 0.0017342550554988066 -0.057063157130443957 0 0.0039925411498613764 -0.057807279328156894 0 7.8961800553738418e-05 -0.059671061612900006 0 -0.010119021119922154 -0.057785110337643768 0 -0.0047468532119127309 -0.057527899872877382 0 -0.010809774246885636 -0.057861767382372663 0 -0.0096467363741243334 -0.056693754601037184 0 -0.0081539002714421244 -0.057235690859962426 0 -0.010809774246885636 -0.057861767382372663 0 -0.01103449709636224 -0.055941393056759992 0 -0.013225944071672329 -0.056590879238393829 0 -0.010809774246885636 -0.057861767382372663 0 -0.01103449709636224 -0.055941393056759992 0 -0.0096467363741243334 -0.056693754601037184 0 -0.0087380742949336229 -0.055421673876777169 0 -0.0096467363741243334 -0.056693754601037184 0 -0.0081539002714421244 -0.057235690859962426 0 -0.0087380742949336229 -0.055421673876777169 0 -0.01103449709636224 -0.055941393056759992 0 -0.0096467363741243334 -0.056693754601037184 0 -0.010809774246885636 -0.057861767382372663 0 -0.0064191155144182419 -0.058957694876883841 0 -0.0081539002714421244 -0.057235690859962426 0 -0.0087380742949336229 -0.055421673876777169 0 -0.0060529389730360145 -0.055877712015424741 0 -0.0081539002714421244 -0.057235690859962426 0 -0.0033416326914665557 -0.057314969178301492 0 -0.0060529389730360145 -0.055877712015424741 0 -0.0064191155144182419 -0.058957694876883841 0 -0.0060529389730360145 -0.055877712015424741 0 -0.0064191155144182419 -0.058957694876883841 0 -0.0081539002714421244 -0.057235690859962426 0 0.00081954031712043777 -0.059884078327746157 0 -0.0071702199246741006 -0.04484020138242651 0 -0.0030079024358542739 -0.025623645676325427 0 -0.0071702199246741006 -0.04484020138242651 0 -0.0035751929191060539 -0.015945001481838663 0 -0.007017141819296511 -0.014593062790147465 0 -0.0050700334648948299 -0.016421578924233207 0 -0.00032027544988894594 -0.060068424895124255 0 0.001544277626330475 -0.057169195937562679 0 -0.0048645632533793736 -0.058147311771620275 0 0.001544277626330475 -0.057169195937562679 0 -0.0029383171408040231 -0.056242060628923812 0 -0.0069179039221848419 -0.060126724088016233 0 -0.0030079024358542739 -0.025623645676325427 0 -0.0028749681608162981 -0.021617002280854444 0 -0.007017141819296511 -0.014593062790147465 0 -0.0077928910701246653 -0.016843767551159145 0 -0.0050700334648948299 -0.016421578924233207 0 -0.007017141819296511 -0.014593062790147465 0 -0.0077928910701246653 -0.016843767551159145 0 -0.011673532310156477 -0.015394251156934205 0 -0.0071702199246741006 -0.04484020138242651 0 -0.012645877423055415 -0.02755536348952544 0 -0.010809774246885636 -0.057861767382372663 0 -0.0029383171408040231 -0.056242060628923812 0 -0.0069179039221848419 -0.060126724088016233 0 -0.0071702199246741006 -0.04484020138242651 0 -0.013068169014076302 -0.050119168989323309 0 -0.010809774246885636 -0.057861767382372663 0 -0.0069179039221848419 -0.060126724088016233 0 -0.01271065291349755 -0.058542260505236206 0 -0.011806171480586637 -0.041645328957854826 0 -0.01336962710034533 -0.041073792820317506 0 -0.013501044695878872 -0.041901996275140893 0 -0.0095114957574897758 -0.018652620217547281 0 -0.0077928910701246653 -0.016843767551159145 0 -0.011673532310156477 -0.015394251156934205 0 -0.0095114957574897758 -0.018652620217547281 0 -0.0077928910701246653 -0.016843767551159145 0 -0.0057921408651087393 -0.019106716385062165 0 -0.0028213782975512591 -0.017828212619160483 0 -0.0035676425922309789 -0.015918652829931223 0 -0.0050700334648948299 -0.016421578924233207 0 -0.0028213782975512591 -0.017828212619160483 0 -0.0050700334648948299 -0.016421578924233207 0 -0.0057921408651087393 -0.019106716385062165 0 -0.0077928910701246653 -0.016843767551159145 0 -0.0050700334648948299 -0.016421578924233207 0 -0.0057921408651087393 -0.019106716385062165 0 -0.0090336665243994155 -0.023166462705599477 0 -0.0025456529754182343 -0.022761420355123164 0 -0.0057921408651087393 -0.019106716385062165 0 -0.0090336665243994155 -0.023166462705599477 0 -0.0095114957574897758 -0.018652620217547281 0 -0.0057921408651087393 -0.019106716385062165 0 -0.0090336665243994155 -0.023166462705599477 0 -0.0095114957574897758 -0.018652620217547281 0 -0.012434498011009869 -0.020871633255610141 0 -0.015728953616226286 -0.023327396274743933 0 -0.0090336665243994155 -0.023166462705599477 0 -0.012434498011009869 -0.020871633255610141 0 -0.012434498011009869 -0.020871633255610141 0 -0.013575113351818949 -0.018448263423258671 0 -0.015464897823943922 -0.020363066223381229 0 -0.013575113351818949 -0.018448263423258671 0 -0.016471861900363625 -0.01630438576482374 0 -0.011673532310156477 -0.015394251156934205 0 -0.0095114957574897758 -0.018652620217547281 0 -0.012434498011009869 -0.020871633255610141 0 -0.013575113351818949 -0.018448263423258671 0 -0.0095114957574897758 -0.018652620217547281 0 -0.013575113351818949 -0.018448263423258671 0 -0.011673532310156477 -0.015394251156934205 0 -0.013575113351818949 -0.018448263423258671 0 -0.016471861900363625 -0.01630438576482374 0 -0.016556133548193977 -0.018908071236314061 0 -0.013575113351818949 -0.018448263423258671 0 -0.016556133548193977 -0.018908071236314061 0 -0.015464897823943922 -0.020363066223381229 0 -0.016556133548193977 -0.018908071236314061 0 -0.016780496038022553 -0.020476990101869378 0 -0.018223893808856761 -0.020896673254606864 0 -0.016556133548193977 -0.018908071236314061 0 -0.016780496038022553 -0.020476990101869378 0 -0.015464897823943922 -0.020363066223381229 0 -0.016780496038022553 -0.020476990101869378 0 -0.015464897823943922 -0.020363066223381229 0 -0.016876764003954166 -0.021765706002221438 0 -0.016780496038022553 -0.020476990101869378 0 -0.016876764003954166 -0.021765706002221438 0 -0.018223893808856761 -0.020896673254606864 0 -0.016074293778580377 -0.019120486431349802 0 -0.01574733777179 -0.021925089683863582 0 -0.015728953616226286 -0.023327396274743933 0 -0.012434498011009869 -0.020871633255610141 0 -0.015464897823943922 -0.020363066223381229 0 -0.017878515753993133 -0.023633454829423306 0 -0.015816531982979568 -0.023626299491945214 0 -0.016876764003954166 -0.021765706002221438 0 -0.015816531982979568 -0.023626299491945214 0 -0.015464897823943922 -0.020363066223381229 0 -0.016876764003954166 -0.021765706002221438 0 -0.017878515753993133 -0.023633454829423306 0 -0.016876764003954166 -0.021765706002221438 0 -0.018223893808856761 -0.020896673254606864 0 -0.016556133548193977 -0.018908071236314061 0 -0.018223893808856761 -0.020896673254606864 0 -0.020602517632745832 -0.019220858668889958 0 -0.021982397814480061 -0.022972137255601606 0 -0.021716529418210739 -0.018534669686801841 0 -0.020602517632745832 -0.019220858668889958 0 -0.021982397814480061 -0.022972137255601606 0 -0.018513823851198888 -0.022918806730940159 0 -0.020602517632745832 -0.019220858668889958 0 -0.017878515753993133 -0.023633454829423306 0 -0.018223893808856761 -0.020896673254606864 0 -0.020602517632745832 -0.019220858668889958 0 -0.022966574275960668 -0.018019218954651556 0 -0.018891350174115158 -0.021732417655799342 0 -0.032407725522965503 -0.023562829617544325 0 -0.032224048010177371 -0.023547249589175864 0 -0.032272908564631948 -0.023385432988403437 0 -0.038263836104445267 -0.023123245219843006 0 -0.031074690297855864 -0.029559123420497387 0 -0.032178294501643674 -0.018330268434084456 0 -0.024129140534813815 -0.022982007613015706 0 -0.032224048010177371 -0.023547249589175864 0 -0.032272908564631948 -0.023385432988403437 0 -0.032171186002984284 -0.023381577026783288 0 -0.031074690297855864 -0.029559123420497387 0 -0.027766888899265461 -0.033420545140894799 0 -0.031074690297855864 -0.029559123420497387 0 -0.024129140534813815 -0.022982007613015706 0 -0.030001962654833715 -0.029962986557091353 0 -0.022738168051890086 -0.030419763178382318 0 -0.02878946846580414 -0.026907121521744074 0 -0.022738168051890086 -0.030419763178382318 0 -0.022405401402576901 -0.025609787798666978 0 -0.02878946846580414 -0.026907121521744074 0 -0.020557995283556917 -0.031408239839584018 0 -0.027766888899265461 -0.033420545140894799 0 -0.024129140534813815 -0.022982007613015706 0 -0.020557995283556917 -0.031408239839584018 0 -0.031474366358367908 -0.038435325919844811 0 -0.031392422657384469 -0.038518371443245228 0 -0.031395784310693148 -0.038783952619240204 0 -0.031435371380410269 -0.038311504057348608 0 -0.031392422657384469 -0.038518371443245228 0 -0.031190898212241257 -0.038626406291052864 0 -0.031435371380410269 -0.038311504057348608 0 -0.031474366358367908 -0.038435325919844811 0 -0.031392422657384469 -0.038518371443245228 0 -0.015546553519781571 -0.02907064586476454 0 -0.020557995283556917 -0.031408239839584018 0 -0.016027782082217966 -0.018417207225704585 0 -0.024129140534813815 -0.022982007613015706 0 -0.016556133548193977 -0.018908071236314061 0 -0.021267880941180105 -0.018780200861053205 0 -0.021167613764480859 -0.017387296842883711 0 -0.016471861900363625 -0.01630438576482374 0 -0.016556133548193977 -0.018908071236314061 0 -0.021167613764480859 -0.017387296842883711 0 -0.016556133548193977 -0.018908071236314061 0 -0.021716529418210739 -0.018534669686801841 0 -0.020602517632745832 -0.019220858668889958 0 -0.015200093905657745 -0.041930188886309533 0 -0.017301914862414117 -0.042250320979747222 0 -0.016328019826600315 -0.041543277863813927 0 -0.016328019826600315 -0.041543277863813927 0 -0.017206267206657102 -0.040779688376520878 0 -0.015611983479159413 -0.041200438925703943 0 -0.020557995283556917 -0.031408239839584018 0 -0.020653225655119734 -0.042964626741454168 0 -0.017301914862414117 -0.042250320979747222 0 -0.016328019826600315 -0.041543277863813927 0 -0.017206267206657102 -0.040779688376520878 0 -0.016150545087954382 -0.04151286787380469 0 -0.01560376470970464 -0.041293018505175264 0 -0.01610553644372998 -0.041055546533352173 0 -0.021822385033691303 -0.043267410548668957 0 -0.020366219777897408 -0.043615798213315682 0 -0.022147116020922467 -0.048159364222954866 0 -0.020653225655119734 -0.042964626741454168 0 -0.020422560064860457 -0.047759664110166633 0 -0.024633420010202533 -0.043662032846479806 0 -0.020422560064860457 -0.047759664110166633 0 -0.020653225655119734 -0.042964626741454168 0 -0.014888532001237461 -0.041662937090264696 0 -0.016150545087954382 -0.04151286787380469 0 -0.01560376470970464 -0.041293018505175264 0 -0.015205706372624049 -0.04168986296169476 0 -0.01560376470970464 -0.041293018505175264 0 -0.015205706372624049 -0.04168986296169476 0 -0.015108961954896815 -0.041210925517989702 0 -0.024633420010202533 -0.043662032846479806 0 -0.025775641599544132 -0.048300146035595966 0 -0.024930775479578445 -0.034533347018662182 0 -0.021517871057790367 -0.033845948957483073 0 -0.024348542199313903 -0.041141148028119717 0 -0.024930775479578445 -0.034533347018662182 0 -0.025344596173697456 -0.040902907877617911 0 -0.024348542199313903 -0.041141148028119717 0 -0.031395784310693148 -0.038783952619240204 0 -0.0316161384646199 -0.038985741892168524 0 -0.031184477150100202 -0.039103524345777484 0 -0.031474366358367908 -0.038435325919844811 0 -0.031395784310693148 -0.038783952619240204 0 -0.0316161384646199 -0.038985741892168524 0 -0.027766888899265461 -0.033420545140894799 0 -0.024633420010202533 -0.043662032846479806 0 -0.031392422657384469 -0.038518371443245228 0 -0.031395784310693148 -0.038783952619240204 0 -0.031190898212241257 -0.038626406291052864 0 -0.020653225655119734 -0.042964626741454168 0 -0.024633420010202533 -0.043662032846479806 0 -0.021209212664560297 -0.057081924361821544 0 -0.021644415527625881 -0.055931559092921232 0 -0.023038885138455378 -0.056757244223753153 0 -0.021644415527625881 -0.055931559092921232 0 -0.022508103947358818 -0.055401065090223321 0 -0.023038885138455378 -0.056757244223753153 0 -0.021209212664560297 -0.057081924361821544 0 -0.021644415527625881 -0.055931559092921232 0 -0.020914667351963769 -0.05635015268940996 0 -0.021644415527625881 -0.055931559092921232 0 -0.020811074740864421 -0.055178213060704993 0 -0.021488928180617151 -0.054923079798252651 0 -0.021644415527625881 -0.055931559092921232 0 -0.020914667351963769 -0.05635015268940996 0 -0.020811074740864421 -0.055178213060704993 0 -0.021644415527625881 -0.055931559092921232 0 -0.022508103947358818 -0.055401065090223321 0 -0.021488928180617151 -0.054923079798252651 0 -0.019664359220709547 -0.056106765245896667 0 -0.016150393491320865 -0.057318255876342455 0 -0.019522883706562414 -0.055750031638161598 0 -0.015480839820975005 -0.040952297286694972 0 -0.015848203651414355 -0.040450866819280069 0 -0.014726028628018943 -0.040755738935266628 0 -0.017872567111257349 -0.050400166291947254 0 -0.01552072388118887 -0.048879237982073886 0 -0.01560376470970464 -0.041293018505175264 0 -0.015480839820975005 -0.040952297286694972 0 -0.015108961954896815 -0.041210925517989702 0 -0.01560376470970464 -0.041293018505175264 0 -0.015480839820975005 -0.040952297286694972 0 -0.01610553644372998 -0.041055546533352173 0 -0.015480839820975005 -0.040952297286694972 0 -0.01610553644372998 -0.041055546533352173 0 -0.015848203651414355 -0.040450866819280069 0 -0.020422560064860457 -0.047759664110166633 0 -0.017872567111257349 -0.050400166291947254 0 -0.020422560064860457 -0.047759664110166633 0 -0.01943021213436991 -0.053344603438847837 0 -0.019461599330010352 -0.048393908896546683 0 -0.020579855689005729 -0.051266695078365523 0 -0.019668701131022117 -0.051624021165004114 0 -0.01967018878997974 -0.056117882833537448 0 -0.019522883706562414 -0.055750031638161598 0 -0.020341614242753037 -0.055860804408339605 0 -0.017872567111257349 -0.050400166291947254 0 -0.01943021213436991 -0.053344603438847837 0 -0.017872567111257349 -0.050400166291947254 0 -0.018200336847472274 -0.051282662443290938 0 -0.016150393491320865 -0.057318255876342455 0 -0.017861407449998618 -0.054546672973052469 0 -0.019522883706562414 -0.055750031638161598 0 -0.015480839820975005 -0.040952297286694972 0 -0.014726028628018943 -0.040755738935266628 0 -0.015108961954896815 -0.041210925517989702 0 -0.014726028628018943 -0.040755738935266628 0 -0.015108961954896815 -0.041210925517989702 0 -0.014650144048473203 -0.041365672736321392 0 -0.01552072388118887 -0.048879237982073886 0 -0.013068169014076302 -0.050119168989323309 0 -0.014726028628018943 -0.040755738935266628 0 -0.014125220973722086 -0.041368741039062358 0 -0.01336962710034533 -0.041073792820317506 0 -0.016150393491320865 -0.057318255876342455 0 -0.013225944071672329 -0.056590879238393829 0 -0.014941348412902521 -0.054706885701746803 0 -0.016150393491320865 -0.057318255876342455 0 -0.013225944071672329 -0.056590879238393829 0 -0.01271065291349755 -0.058542260505236206 0 -0.01103449709636224 -0.055941393056759992 0 -0.013225944071672329 -0.056590879238393829 0 -0.01268624695068781 -0.054735694878304979 0 -0.010809774246885636 -0.057861767382372663 0 -0.013225944071672329 -0.056590879238393829 0 -0.01271065291349755 -0.058542260505236206 0 -0.015546553519781571 -0.02907064586476454 0 -0.012645877423055415 -0.02755536348952544 0 -0.015200093905657745 -0.041930188886309533 0 -0.013501044695878872 -0.041901996275140893 0 -0.014267923092126848 -0.041822170975500804 0 -0.014125220973722086 -0.041368741039062358 0 -0.01336962710034533 -0.041073792820317506 0 -0.013501044695878872 -0.041901996275140893 0 -0.014125220973722086 -0.041368741039062358 0 -0.013501044695878872 -0.041901996275140893 0 -0.014267923092126848 -0.041822170975500804 0 -0.014614028750001295 -0.041705920392159784 0 -0.014888532001237461 -0.041662937090264696 0 -0.014267923092126848 -0.041822170975500804 0 -0.015205706372624049 -0.04168986296169476 0 -0.014650144048473203 -0.041365672736321392 0 -0.015200093905657745 -0.041930188886309533 0 -0.016328019826600315 -0.041543277863813927 0 -0.015611983479159413 -0.041200438925703943 0 -0.015200093905657745 -0.041930188886309533 0 -0.014267923092126848 -0.041822170975500804 0 -0.015611983479159413 -0.041200438925703943 0 -0.015205706372624049 -0.04168986296169476 0 -0.015108961954896815 -0.041210925517989702 0 -0.014650144048473203 -0.041365672736321392 0 -0.014726028628018943 -0.040755738935266628 0 -0.014125220973722086 -0.041368741039062358 0 -0.014650144048473203 -0.041365672736321392 0 -0.014125220973722086 -0.041368741039062358 0 -0.014267923092126848 -0.041822170975500804 0 -0.014650144048473203 -0.041365672736321392 0 -0.058436841663848681 -0.031424875848893148 0 -0.058373218505764761 -0.031472157823534685 0 -0.058053671165800493 -0.031382980388155846 0 -0.050822524975602655 -0.039513866109468471 0 -0.050657805291758277 -0.039475502700374143 0 -0.050719757554306945 -0.039567040483632528 0 -0.058468067177094393 -0.031461484951926647 0 -0.058436841663848681 -0.031424875848893148 0 -0.058373218505764761 -0.031472157823534685 0 -0.058353078323748218 -0.031550188119415498 0 -0.058468067177094393 -0.031461484951926647 0 -0.058373218505764761 -0.031472157823534685 0 -0.058353078323748218 -0.031550188119415498 0 -0.058373218505764761 -0.031472157823534685 0 -0.05821269048283443 -0.031500806726957181 0 -0.048005818608289473 -0.031527025029162707 0 -0.05094380644836128 -0.031517182185215827 0 -0.04960973509074279 -0.02994690283701926 0 -0.04960973509074279 -0.02994690283701926 0 -0.048287645859615876 -0.028394732102116869 0 -0.047254842818782006 -0.029905673000838101 0 -0.053479063162442747 -0.028110485334849791 0 -0.053911638011547483 -0.030844266087053537 0 -0.058373218505764761 -0.031472157823534685 0 -0.05821269048283443 -0.031500806726957181 0 -0.058053671165800493 -0.031382980388155846 0 -0.055062382032080269 -0.035601357136679286 0 -0.051866400722908407 -0.034517576285991267 0 -0.050822524975602655 -0.039513866109468471 0 -0.049983619800204826 -0.039814372394407285 0 -0.050657805291758277 -0.039475502700374143 0 -0.053911638011547483 -0.030844266087053537 0 -0.051866400722908407 -0.034517576285991267 0 -0.049634368112540836 -0.039602194983186526 0 -0.049001921496560283 -0.039686363777344205 0 -0.049278092091784249 -0.039170659460944772 0 -0.051866400722908407 -0.034517576285991267 0 -0.041021328452978206 -0.034388523808144805 0 -0.048287645859615876 -0.028394732102116869 0 -0.047254842818782006 -0.029905673000838101 0 -0.04593959097313257 -0.028556917434780109 0 -0.051866400722908407 -0.034517576285991267 0 -0.049792430064251526 -0.040055659095018306 0 -0.045095387251594059 -0.03149951271372739 0 -0.048005818608289473 -0.031527025029162707 0 -0.047254842818782006 -0.029905673000838101 0 -0.048005818608289473 -0.031527025029162707 0 -0.04960973509074279 -0.02994690283701926 0 -0.047254842818782006 -0.029905673000838101 0 -0.037512279404130627 -0.027295691253366304 0 -0.038345371552667006 -0.029536512028033615 0 -0.036550965543478434 -0.029681428360156713 0 -0.045095387251594059 -0.03149951271372739 0 -0.047254842818782006 -0.029905673000838101 0 -0.04593959097313257 -0.028556917434780109 0 -0.037201959117285251 -0.027296428584377797 0 -0.037512279404130627 -0.027295691253366304 0 -0.036550965543478434 -0.029681428360156713 0 -0.041915026113141379 -0.025303287262963936 0 -0.041021328452978206 -0.034388523808144805 0 -0.031074690297855864 -0.029559123420497387 0 -0.041021328452978206 -0.034388523808144805 0 -0.031435371380410269 -0.038311504057348608 0 -0.030976894313553421 -0.03837207105117537 0 -0.031190898212241257 -0.038626406291052864 0 -0.031190898212241257 -0.038626406291052864 0 -0.031184477150100202 -0.039103524345777484 0 -0.030756407089084292 -0.039246022490746976 0 -0.030976894313553421 -0.03837207105117537 0 -0.031190898212241257 -0.038626406291052864 0 -0.030756407089084292 -0.039246022490746976 0 -0.031395784310693148 -0.038783952619240204 0 -0.031190898212241257 -0.038626406291052864 0 -0.031184477150100202 -0.039103524345777484 0 -0.022508103947358818 -0.055401065090223321 0 -0.023038885138455378 -0.056757244223753153 0 -0.023700621569315922 -0.055739383421152443 0 -0.023700621569315922 -0.055739383421152443 0 -0.02512098758918033 -0.055925022338569469 0 -0.022821089696983363 -0.054324699125655559 0 -0.023038885138455378 -0.056757244223753153 0 -0.023700621569315922 -0.055739383421152443 0 -0.025023102198049405 -0.056293303654252502 0 -0.036687888680642676 -0.048649329045995532 0 -0.022894209732108553 -0.056378913695258423 0 -0.025775641599544132 -0.048300146035595966 0 -0.036200843715224522 -0.044349524593163527 0 -0.022508103947358818 -0.055401065090223321 0 -0.023700621569315922 -0.055739383421152443 0 -0.022821089696983363 -0.054324699125655559 0 -0.023700621569315922 -0.055739383421152443 0 -0.025023102198049405 -0.056293303654252502 0 -0.02512098758918033 -0.055925022338569469 0 -0.036200843715224522 -0.044349524593163527 0 -0.045840635565742228 -0.043848606070860947 0 -0.037831239367376701 -0.043900612077331549 0 -0.037824551112917403 -0.043936756456309088 0 -0.037809282358837973 -0.043909902468514089 0 -0.036200843715224522 -0.044349524593163527 0 -0.036687888680642676 -0.048649329045995532 0 -0.036687888680642676 -0.048649329045995532 0 -0.045840635565742228 -0.043848606070860947 0 -0.052681649575066998 -0.041093477027845653 0 -0.052614411786401367 -0.041029327262329815 0 -0.052455952215424019 -0.041325311417465649 0 -0.045840635565742228 -0.043848606070860947 0 -0.050414013171380334 -0.039636058335175042 0 -0.049356335706904744 -0.038717099837972078 0 -0.049530813365229229 -0.038658435903958482 0 -0.049675557669646507 -0.038998001587848434 0 -0.049983619800204826 -0.039814372394407285 0 -0.049675557669646507 -0.038998001587848434 0 -0.049278092091784249 -0.039170659460944772 0 -0.041021328452978206 -0.034388523808144805 0 -0.036200843715224522 -0.044349524593163527 0 -0.049530813365229229 -0.038658435903958482 0 -0.049675557669646507 -0.038998001587848434 0 -0.050130926631817951 -0.039029751230241258 0 -0.049001921496560283 -0.039686363777344205 0 -0.049356335706904744 -0.038717099837972078 0 -0.049278092091784249 -0.039170659460944772 0 -0.049356335706904744 -0.038717099837972078 0 -0.049675557669646507 -0.038998001587848434 0 -0.049278092091784249 -0.039170659460944772 0 -0.049983619800204826 -0.039814372394407285 0 -0.049675557669646507 -0.038998001587848434 0 -0.050130926631817951 -0.039029751230241258 0 -0.049983619800204826 -0.039814372394407285 0 -0.050130926631817951 -0.039029751230241258 0 -0.050657805291758277 -0.039475502700374143 0 -0.050414013171380334 -0.039636058335175042 0 -0.050603002145667278 -0.039459366971128493 0 -0.050914860634301305 -0.039689737365699695 0 -0.050742594835414379 -0.039679408837776486 0 -0.050657805291758277 -0.039475502700374143 0 -0.051008986622130242 -0.039817078727323478 0 -0.050914860634301305 -0.039689737365699695 0 -0.050824369162970881 -0.039877201783164645 0 -0.052614411786401367 -0.041029327262329815 0 -0.052001441348400082 -0.041031526443410578 0 -0.052455952215424019 -0.041325311417465649 0 -0.045840635565742228 -0.043848606070860947 0 -0.052695717670704821 -0.039985437943941472 0 -0.050914860634301305 -0.039689737365699695 0 -0.050824369162970881 -0.039877201783164645 0 -0.050742594835414379 -0.039679408837776486 0 -0.050551763858111894 -0.040596039464873279 0 -0.052695717670704821 -0.039985437943941472 0 -0.050654388194289142 -0.039759444361496026 0 -0.050631677041131952 -0.040121766922711306 0 -0.050824369162970881 -0.039877201783164645 0 -0.050654388194289142 -0.039759444361496026 0 -0.050824369162970881 -0.039877201783164645 0 -0.050742594835414379 -0.039679408837776486 0 -0.050654388194289142 -0.039759444361496026 0 -0.050742594835414379 -0.039679408837776486 0 -0.050719757554306945 -0.039567040483632528 0 -0.050742594835414379 -0.039679408837776486 0 -0.050657805291758277 -0.039475502700374143 0 -0.050719757554306945 -0.039567040483632528 0 -0.051745913514575546 -0.041992639399225172 0 -0.052224025027369093 -0.042173642661836951 0 -0.051900350997023628 -0.042982742080984827 0 -0.051173198286252081 -0.04088723165679322 0 -0.052001441348400082 -0.041031526443410578 0 -0.052088254553115339 -0.041535385302956189 0 -0.051173198286252081 -0.04088723165679322 0 -0.051745913514575546 -0.041992639399225172 0 -0.052088254553115339 -0.041535385302956189 0 -0.052088254553115339 -0.041535385302956189 0 -0.052455952215424019 -0.041325311417465649 0 -0.052636357278212441 -0.041785357207957161 0 -0.052088254553115339 -0.041535385302956189 0 -0.052224025027369093 -0.042173642661836951 0 -0.052636357278212441 -0.041785357207957161 0 -0.052001441348400082 -0.041031526443410578 0 -0.052088254553115339 -0.041535385302956189 0 -0.052455952215424019 -0.041325311417465649 0 -0.052224025027369093 -0.042173642661836951 0 -0.052636357278212441 -0.041785357207957161 0 -0.052530041874875519 -0.042750535527086769 0 -0.051745913514575546 -0.041992639399225172 0 -0.052088254553115339 -0.041535385302956189 0 -0.052224025027369093 -0.042173642661836951 0 -0.02942468014012355 -0.051520739667117919 0 -0.031433914822722925 -0.0552195443351629 0 -0.032914240890917774 -0.050452537427271987 0 -0.02942468014012355 -0.051520739667117919 0 -0.031433914822722925 -0.0552195443351629 0 -0.027850159994694767 -0.054125580305868372 0 -0.042399678188071027 -0.048776308983238002 0 -0.042655790234517453 -0.046389634742279258 0 -0.036687888680642676 -0.048649329045995532 0 -0.042399678188071027 -0.048776308983238002 0 -0.052681649575066998 -0.041093477027845653 0 -0.052455952215424019 -0.041325311417465649 0 -0.052636357278212441 -0.041785357207957161 0 -0.030101502839443104 -0.060049227840875762 0 -0.031433914822722925 -0.0552195443351629 0 -0.028615811343077197 -0.056610553426758803 0 -0.031433914822722925 -0.0552195443351629 0 -0.028615811343077197 -0.056610553426758803 0 -0.027850159994694767 -0.054125580305868372 0 -0.028615811343077197 -0.056610553426758803 0 -0.025379859780233063 -0.056581511794672863 0 -0.027850159994694767 -0.054125580305868372 0 -0.030101502839443104 -0.060049227840875762 0 -0.028615811343077197 -0.056610553426758803 0 -0.025379859780233063 -0.056581511794672863 0 -0.027850159994694767 -0.054125580305868372 0 -0.026767438613196384 -0.051846755026800834 0 -0.024810968222133845 -0.053176427398983803 0 -0.025379859780233063 -0.056581511794672863 0 -0.027850159994694767 -0.054125580305868372 0 -0.024810968222133845 -0.053176427398983803 0 -0.02942468014012355 -0.051520739667117919 0 -0.027850159994694767 -0.054125580305868372 0 -0.026767438613196384 -0.051846755026800834 0 -0.026767438613196384 -0.051846755026800834 0 -0.024810968222133845 -0.053176427398983803 0 -0.023808060467592113 -0.050693043410188321 0 -0.026767438613196384 -0.051846755026800834 0 -0.026900050029654201 -0.04960758978235575 0 -0.023808060467592113 -0.050693043410188321 0 -0.02942468014012355 -0.051520739667117919 0 -0.026767438613196384 -0.051846755026800834 0 -0.026900050029654201 -0.04960758978235575 0 -0.026900050029654201 -0.04960758978235575 0 -0.027142795933625303 -0.04720105307186287 0 -0.0301709964971036 -0.048411580146210928 0 -0.026900050029654201 -0.04960758978235575 0 -0.027142795933625303 -0.04720105307186287 0 -0.024046863913677385 -0.048062286466466625 0 -0.027142795933625303 -0.04720105307186287 0 -0.024046863913677385 -0.048062286466466625 0 -0.024754571799196323 -0.045214061921688975 0 -0.027736843873185021 -0.045500262419069577 0 -0.027142795933625303 -0.04720105307186287 0 -0.024754571799196323 -0.045214061921688975 0 -0.027736843873185021 -0.045500262419069577 0 -0.027142795933625303 -0.04720105307186287 0 -0.029100611505539761 -0.046474946143336117 0 -0.027736843873185021 -0.045500262419069577 0 -0.029100611505539761 -0.046474946143336117 0 -0.029328444301915859 -0.045155876238867583 0 -0.027142795933625303 -0.04720105307186287 0 -0.029100611505539761 -0.046474946143336117 0 -0.0301709964971036 -0.048411580146210928 0 -0.029100611505539761 -0.046474946143336117 0 -0.030956832004866566 -0.045472813240477604 0 -0.0301709964971036 -0.048411580146210928 0 -0.029806869500718741 -0.045471207981371248 0 -0.033873724394144364 -0.046572451917880633 0 -0.029100611505539761 -0.046474946143336117 0 -0.029328444301915859 -0.045155876238867583 0 -0.030956832004866566 -0.045472813240477604 0 -0.031429342424434091 -0.044686182714033421 0 -0.032312218145888881 -0.047253134557753124 0 -0.0301709964971036 -0.048411580146210928 0 -0.033873724394144364 -0.046572451917880633 0 -0.030526693966159254 -0.047846882660008173 0 -0.032312218145888881 -0.047253134557753124 0 -0.0301709964971036 -0.048411580146210928 0 -0.032914240890917774 -0.050452537427271987 0 -0.02942468014012355 -0.051520739667117919 0 -0.026900050029654201 -0.04960758978235575 0 -0.0301709964971036 -0.048411580146210928 0 -0.02942468014012355 -0.051520739667117919 0 -0.0301709964971036 -0.048411580146210928 0 -0.032914240890917774 -0.050452537427271987 0 -0.052530041874875519 -0.042750535527086769 0 -0.052279659401187624 -0.043733582815667679 0 -0.051900350997023628 -0.042982742080984827 0 -0.042655790234517453 -0.046389634742279258 0 -0.04438618651620977 -0.045522495184582172 0 -0.052224025027369093 -0.042173642661836951 0 -0.052530041874875519 -0.042750535527086769 0 -0.051900350997023628 -0.042982742080984827 0 -0.032312218145888881 -0.047253134557753124 0 -0.032914240890917774 -0.050452537427271987 0 -0.034684999471467096 -0.045400202323826133 0 -0.031429342424434091 -0.044686182714033421 0 -0.032312218145888881 -0.047253134557753124 0 -0.034684999471467096 -0.045400202323826133 0 -0.042327440491408665 -0.048994090215425383 0 -0.042567024351418549 -0.04896544174282446 0 -0.042570246972088624 -0.048943944298312059 0 -0.033873724394144364 -0.046572451917880633 0 -0.04438618651620977 -0.045522495184582172 0 -0.042634787104082687 -0.048887640089340663 0 -0.042567024351418549 -0.04896544174282446 0 -0.042570246972088624 -0.048943944298312059 0 -0.042634787104082687 -0.048887640089340663 0 -0.04265278235468762 -0.04878763722734164 0 -0.042473742337983469 -0.048885947839793581 0 -0.043663259325614212 -0.04753019994275904 0 -0.04438618651620977 -0.045522495184582172 0 -0.042355540785964763 -0.048410163824578523 0 -0.04265278235468762 -0.04878763722734164 0 -0.042473742337983469 -0.048885947839793581 0 -0.047458060105369189 -0.046175007827179745 0 -0.04438618651620977 -0.045522495184582172 0 -0.051217742981936445 -0.043643540739629366 0 -0.052279659401187624 -0.043733582815667679 0 -0.051900350997023628 -0.042982742080984827 0 -0.051745913514575546 -0.041992639399225172 0 -0.051900350997023628 -0.042982742080984827 0 -0.05142681391864691 -0.042694586208948004 0 -0.051217742981936445 -0.043643540739629366 0 -0.051900350997023628 -0.042982742080984827 0 -0.05142681391864691 -0.042694586208948004 0 -0.016385826620585131 -0.052548984017012669 0 -0.013280125911140415 -0.0525641557924287 0 -0.015030995225500263 -0.050175900137593141 0 -0.016385826620585131 -0.052548984017012669 0 -0.017926513230353998 -0.050872475428686205 0 -0.018616479130108436 -0.05303626395882971 0 -0.016385826620585131 -0.052548984017012669 0 -0.017926513230353998 -0.050872475428686205 0 -0.015030995225500263 -0.050175900137593141 0 -0.013280125911140415 -0.0525641557924287 0 -0.015030995225500263 -0.050175900137593141 0 -0.012190989516744128 -0.049987404523026004 0 -0.010727067498737095 -0.051452196875856046 0 -0.013280125911140415 -0.0525641557924287 0 -0.012190989516744128 -0.049987404523026004 0 -0.016385826620585131 -0.052548984017012669 0 -0.013280125911140415 -0.0525641557924287 0 -0.014941348412902521 -0.054706885701746803 0 -0.01026615120995375 -0.053421211922212677 0 -0.013280125911140415 -0.0525641557924287 0 -0.01268624695068781 -0.054735694878304979 0 -0.013280125911140415 -0.0525641557924287 0 -0.01268624695068781 -0.054735694878304979 0 -0.014941348412902521 -0.054706885701746803 0 -0.013225944071672329 -0.056590879238393829 0 -0.01268624695068781 -0.054735694878304979 0 -0.014941348412902521 -0.054706885701746803 0 -0.016150393491320865 -0.057318255876342455 0 -0.014941348412902521 -0.054706885701746803 0 -0.017861407449998618 -0.054546672973052469 0 -0.016385826620585131 -0.052548984017012669 0 -0.014941348412902521 -0.054706885701746803 0 -0.017861407449998618 -0.054546672973052469 0 -0.016385826620585131 -0.052548984017012669 0 -0.017861407449998618 -0.054546672973052469 0 -0.018616479130108436 -0.05303626395882971 0 -0.017861407449998618 -0.054546672973052469 0 -0.019522883706562414 -0.055750031638161598 0 -0.020275495756037216 -0.054513188481586657 0 -0.020275495756037216 -0.054513188481586657 0 -0.021488928180617151 -0.054923079798252651 0 -0.020342951620413992 -0.052367082811390887 0 -0.019522883706562414 -0.055750031638161598 0 -0.020341614242753037 -0.055860804408339605 0 -0.020275495756037216 -0.054513188481586657 0 -0.01943021213436991 -0.053344603438847837 0 -0.019824315784234093 -0.054719445524901329 0 -0.017861407449998618 -0.054546672973052469 0 -0.020275495756037216 -0.054513188481586657 0 -0.018616479130108436 -0.05303626395882971 0 -0.022821089696983363 -0.054324699125655559 0 -0.021488928180617151 -0.054923079798252651 0 -0.020342951620413992 -0.052367082811390887 0 -0.022508103947358818 -0.055401065090223321 0 -0.022821089696983363 -0.054324699125655559 0 -0.021488928180617151 -0.054923079798252651 0 -0.020369529615934107 -0.055425851204454535 0 -0.020275495756037216 -0.054513188481586657 0 -0.021488928180617151 -0.054923079798252651 0 -0.01943021213436991 -0.053344603438847837 0 -0.020758011406751559 -0.053998548469287255 0 -0.024810968222133845 -0.053176427398983803 0 -0.020342951620413992 -0.052367082811390887 0 -0.023808060467592113 -0.050693043410188321 0 -0.022894209732108553 -0.056378913695258423 0 -0.020873418197202426 -0.052378946574148502 0 -0.025379859780233063 -0.056581511794672863 0 -0.024810968222133845 -0.053176427398983803 0 -0.020342951620413992 -0.052367082811390887 0 -0.020275495756037216 -0.054513188481586657 0 -0.018616479130108436 -0.05303626395882971 0 -0.020342951620413992 -0.052367082811390887 0 -0.017926513230353998 -0.050872475428686205 0 -0.018616479130108436 -0.05303626395882971 0 -0.020342951620413992 -0.052367082811390887 0 -0.017926513230353998 -0.050872475428686205 0 -0.020660301821911919 -0.049412377913651752 0 -0.017052192177079692 -0.047856121228526366 0 -0.017926513230353998 -0.050872475428686205 0 -0.020342951620413992 -0.052367082811390887 0 -0.020660301821911919 -0.049412377913651752 0 -0.020342951620413992 -0.052367082811390887 0 -0.020660301821911919 -0.049412377913651752 0 -0.023808060467592113 -0.050693043410188321 0 -0.020660301821911919 -0.049412377913651752 0 -0.024046863913677385 -0.048062286466466625 0 -0.020855261527930626 -0.046524610743090757 0 -0.020660301821911919 -0.049412377913651752 0 -0.023808060467592113 -0.050693043410188321 0 -0.024046863913677385 -0.048062286466466625 0 -0.026900050029654201 -0.04960758978235575 0 -0.023808060467592113 -0.050693043410188321 0 -0.024046863913677385 -0.048062286466466625 0 -0.024754571799196323 -0.045214061921688975 0 -0.020855261527930626 -0.046524610743090757 0 -0.021070470654480571 -0.043470766740983414 0 -0.024046863913677385 -0.048062286466466625 0 -0.024754571799196323 -0.045214061921688975 0 -0.020855261527930626 -0.046524610743090757 0 -0.020855261527930626 -0.046524610743090757 0 -0.017052192177079692 -0.047856121228526366 0 -0.017935206975836938 -0.044970399821814257 0 -0.020660301821911919 -0.049412377913651752 0 -0.020855261527930626 -0.046524610743090757 0 -0.017052192177079692 -0.047856121228526366 0 -0.020855261527930626 -0.046524610743090757 0 -0.017935206975836938 -0.044970399821814257 0 -0.021070470654480571 -0.043470766740983414 0 -0.017052192177079692 -0.047856121228526366 0 -0.014261885872017229 -0.044869140699252706 0 -0.017935206975836938 -0.044970399821814257 0 -0.017052192177079692 -0.047856121228526366 0 -0.013689933505781061 -0.047750433163343105 0 -0.014261885872017229 -0.044869140699252706 0 -0.017926513230353998 -0.050872475428686205 0 -0.017052192177079692 -0.047856121228526366 0 -0.015030995225500263 -0.050175900137593141 0 -0.017052192177079692 -0.047856121228526366 0 -0.015030995225500263 -0.050175900137593141 0 -0.013689933505781061 -0.047750433163343105 0 -0.010824021918154885 -0.047773697415342958 0 -0.012190989516744128 -0.049987404523026004 0 -0.013689933505781061 -0.047750433163343105 0 -0.015030995225500263 -0.050175900137593141 0 -0.012190989516744128 -0.049987404523026004 0 -0.013689933505781061 -0.047750433163343105 0 -0.011335340148315052 -0.045426019310967583 0 -0.013689933505781061 -0.047750433163343105 0 -0.014261885872017229 -0.044869140699252706 0 -0.010824021918154885 -0.047773697415342958 0 -0.011335340148315052 -0.045426019310967583 0 -0.013689933505781061 -0.047750433163343105 0 -0.011335340148315052 -0.045426019310967583 0 -0.014261885872017229 -0.044869140699252706 0 -0.011046094398591918 -0.043072562308619416 0 -0.014261885872017229 -0.044869140699252706 0 -0.013906049837881417 -0.041981182399436809 0 -0.011046094398591918 -0.043072562308619416 0 -0.013906049837881417 -0.041981182399436809 0 -0.011936897960467237 -0.040978237564537161 0 -0.011046094398591918 -0.043072562308619416 0 -0.013906049837881417 -0.041981182399436809 0 -0.011936897960467237 -0.040978237564537161 0 -0.015084195429935622 -0.039649558687941233 0 -0.016652599956780693 -0.042374455855971417 0 -0.019282519007171157 -0.040910058683892199 0 -0.015084195429935622 -0.039649558687941233 0 -0.013906049837881417 -0.041981182399436809 0 -0.016652599956780693 -0.042374455855971417 0 -0.015084195429935622 -0.039649558687941233 0 -0.014261885872017229 -0.044869140699252706 0 -0.013906049837881417 -0.041981182399436809 0 -0.016652599956780693 -0.042374455855971417 0 -0.014261885872017229 -0.044869140699252706 0 -0.016652599956780693 -0.042374455855971417 0 -0.017935206975836938 -0.044970399821814257 0 -0.016652599956780693 -0.042374455855971417 0 -0.017935206975836938 -0.044970399821814257 0 -0.021070470654480571 -0.043470766740983414 0 -0.021070470654480571 -0.043470766740983414 0 -0.024054095019767043 -0.042277235490002257 0 -0.021362534517504857 -0.039110058250180588 0 -0.024754571799196323 -0.045214061921688975 0 -0.021070470654480571 -0.043470766740983414 0 -0.024054095019767043 -0.042277235490002257 0 -0.024054095019767043 -0.042277235490002257 0 -0.021362534517504857 -0.039110058250180588 0 -0.027119233872238763 -0.040741237817703682 0 -0.025543054190732311 -0.057450755301899213 0 -0.031686891996671809 -0.059458445543425602 0 -0.032268035780208489 -0.054083511790272876 0 -0.020926256691662246 -0.051072305471974361 0 -0.029411186043665893 -0.049967891537868743 0 -0.017927274231821586 -0.039868394877558534 0 -0.020926256691662246 -0.051072305471974361 0 -0.016652599956780693 -0.042374455855971417 0 -0.021070470654480571 -0.043470766740983414 0 -0.021362534517504857 -0.039110058250180588 0 -0.020926256691662246 -0.051072305471974361 0 -0.01477111462100017 -0.052105511869117681 0 -0.0173792052939995 -0.063610297840360833 0 -0.020246615694105189 -0.064161635845367215 0 -0.017391338764796101 -0.06129475471520713 0 -0.018867734261409468 -0.065318518490356969 0 -0.0173792052939995 -0.063610297840360833 0 -0.015140436005424017 -0.064011953599780791 0 -0.018867734261409468 -0.065318518490356969 0 -0.0173792052939995 -0.063610297840360833 0 -0.020246615694105189 -0.064161635845367215 0 -0.020926256691662246 -0.051072305471974361 0 -0.026841391211610187 -0.060692414542606377 0 -0.018867734261409468 -0.065318518490356969 0 -0.020246615694105189 -0.064161635845367215 0 -0.021749720402977409 -0.063966936344863334 0 -0.020246615694105189 -0.064161635845367215 0 -0.020419380649084957 -0.06294171079956494 0 -0.021749720402977409 -0.063966936344863334 0 -0.020419380649084957 -0.06294171079956494 0 -0.017842745219416398 -0.0624488421154979 0 -0.020549925651851226 -0.061541069471286104 0 -0.020246615694105189 -0.064161635845367215 0 -0.020419380649084957 -0.06294171079956494 0 -0.017842745219416398 -0.0624488421154979 0 -0.020100215257575677 -0.064020395779558717 0 -0.017629949604551224 -0.0619049495075037 0 -0.017391338764796101 -0.06129475471520713 0 -0.014123211107548016 -0.061513813224708461 0 -0.015140436005424017 -0.064011953599780791 0 -0.017391338764796101 -0.06129475471520713 0 -0.014123211107548016 -0.061513813224708461 0 -0.014443509477919897 -0.058856142362663309 0 -0.014123211107548016 -0.061513813224708461 0 -0.015140436005424017 -0.064011953599780791 0 -0.011543127065179111 -0.062575645431266605 0 -0.011936897960467237 -0.040978237564537161 0 -0.015084195429935622 -0.039649558687941233 0 -0.010119224167033923 -0.03890757337088574 0 -0.01477111462100017 -0.052105511869117681 0 -0.010970191996890305 -0.050754054021396024 0 -0.0173792052939995 -0.063610297840360833 0 -0.017391338764796101 -0.06129475471520713 0 -0.015140436005424017 -0.064011953599780791 0 -0.041770002265902786 -0.049789909294216762 0 -0.042330839320586851 -0.04960754229564996 0 -0.041637829061366337 -0.050771470229787223 0 -0.041770002265902786 -0.049789909294216762 0 -0.042141334567512019 -0.049013906822012177 0 -0.042330839320586851 -0.04960754229564996 0 -0.042330839320586851 -0.04960754229564996 0 -0.042859656329038473 -0.050990172488575347 0 -0.041637829061366337 -0.050771470229787223 0 -0.042355540785964763 -0.048410163824578523 0 -0.042141334567512019 -0.049013906822012177 0 -0.042473742337983469 -0.048885947839793581 0 -0.042141334567512019 -0.049013906822012177 0 -0.042330839320586851 -0.04960754229564996 0 -0.042473742337983469 -0.048885947839793581 0 -0.042330839320586851 -0.04960754229564996 0 -0.042473742337983469 -0.048885947839793581 0 -0.042738292133418912 -0.048992336233881009 0 -0.042330839320586851 -0.04960754229564996 0 -0.042738292133418912 -0.048992336233881009 0 -0.043322394682539414 -0.049213494829489515 0 -0.042634787104082687 -0.048887640089340663 0 -0.042473742337983469 -0.048885947839793581 0 -0.042738292133418912 -0.048992336233881009 0 -0.042634787104082687 -0.048887640089340663 0 -0.042738292133418912 -0.048992336233881009 0 -0.042570246972088624 -0.048943944298312059 0 -0.042738292133418912 -0.048992336233881009 0 -0.042570246972088624 -0.048943944298312059 0 -0.042475338321465848 -0.048823243787521273 0 -0.042835782632576182 -0.050189680759406635 0 -0.037350686160108899 -0.050114040018632781 0 -0.042330839320586851 -0.04960754229564996 0 -0.043322394682539414 -0.049213494829489515 0 -0.042859656329038473 -0.050990172488575347 0 -0.037350686160108899 -0.050114040018632781 0 -0.041154769933246037 -0.054216053020320516 0 -0.035789926687190811 -0.057628955586315804 0 -0.037131907571046063 -0.060969634274848993 0 -0.031686891996671809 -0.059458445543425602 0 -0.035789926687190811 -0.057628955586315804 0 -0.037131907571046063 -0.060969634274848993 0 -0.039190438688230592 -0.055502079613749672 0 -0.037350686160108899 -0.050114040018632781 0 -0.029411186043665893 -0.049967891537868743 0 -0.032997893139027151 -0.042489166042618119 0 -0.030663161126574415 -0.044045506166294851 0 -0.028247783937965881 -0.043259248512492146 0 -0.032997893139027151 -0.042489166042618119 0 -0.028247783937965881 -0.043259248512492146 0 -0.027119233872238763 -0.040741237817703682 0 -0.033873724394144364 -0.046572451917880633 0 -0.037350686160108899 -0.050114040018632781 0 -0.042327440491408665 -0.048994090215425383 0 -0.042570246972088624 -0.048943944298312059 0 -0.042475338321465848 -0.048823243787521273 0 -0.03187431438402847 -0.045821319513902288 0 -0.032997893139027151 -0.042489166042618119 0 -0.030663161126574415 -0.044045506166294851 0 -0.029328444301915859 -0.045155876238867583 0 -0.03187431438402847 -0.045821319513902288 0 -0.030663161126574415 -0.044045506166294851 0 -0.029328444301915859 -0.045155876238867583 0 -0.030663161126574415 -0.044045506166294851 0 -0.028247783937965881 -0.043259248512492146 0 -0.024754571799196323 -0.045214061921688975 0 -0.024054095019767043 -0.042277235490002257 0 -0.028247783937965881 -0.043259248512492146 0 -0.024054095019767043 -0.042277235490002257 0 -0.028247783937965881 -0.043259248512492146 0 -0.027119233872238763 -0.040741237817703682 0 -0.027736843873185021 -0.045500262419069577 0 -0.029328444301915859 -0.045155876238867583 0 -0.028247783937965881 -0.043259248512492146 0 -0.027736843873185021 -0.045500262419069577 0 -0.024754571799196323 -0.045214061921688975 0 -0.028247783937965881 -0.043259248512492146 0 -0.035789926687190811 -0.057628955586315804 0 -0.031686891996671809 -0.059458445543425602 0 -0.034053981700404613 -0.056483069565183862 0 -0.031686891996671809 -0.059458445543425602 0 -0.034053981700404613 -0.056483069565183862 0 -0.032268035780208489 -0.054083511790272876 0 -0.034053981700404613 -0.056483069565183862 0 -0.032268035780208489 -0.054083511790272876 0 -0.036340060649461305 -0.054807099401427611 0 -0.021821073049806006 -0.062602030763176927 0 -0.023145231134108154 -0.061825140316792523 0 -0.020549925651851226 -0.061541069471286104 0 -0.020419380649084957 -0.06294171079956494 0 -0.021749720402977409 -0.063966936344863334 0 -0.021821073049806006 -0.062602030763176927 0 -0.020419380649084957 -0.06294171079956494 0 -0.021821073049806006 -0.062602030763176927 0 -0.020549925651851226 -0.061541069471286104 0 -0.021821073049806006 -0.062602030763176927 0 -0.024611437461332767 -0.062850855153461199 0 -0.023145231134108154 -0.061825140316792523 0 -0.021749720402977409 -0.063966936344863334 0 -0.021821073049806006 -0.062602030763176927 0 -0.024611437461332767 -0.062850855153461199 0 -0.026841391211610187 -0.060692414542606377 0 -0.031942927525466153 -0.057470329967091241 0 -0.024611437461332767 -0.062850855153461199 0 -0.024277044770122554 -0.061444948881915783 0 -0.023145231134108154 -0.061825140316792523 0 -0.032268035780208489 -0.054083511790272876 0 -0.036340060649461305 -0.054807099401427611 0 -0.03923528619146182 -0.052410485156327485 0 -0.036340060649461305 -0.054807099401427611 0 -0.039190438688230592 -0.055502079613749672 0 -0.03923528619146182 -0.052410485156327485 0 -0.035789926687190811 -0.057628955586315804 0 -0.034053981700404613 -0.056483069565183862 0 -0.036340060649461305 -0.054807099401427611 0 -0.035789926687190811 -0.057628955586315804 0 -0.036340060649461305 -0.054807099401427611 0 -0.039190438688230592 -0.055502079613749672 0 -0.042859656329038473 -0.050990172488575347 0 -0.040708611497375077 -0.052883793830795098 0 -0.041527580341972903 -0.052009790850157993 0 -0.039190438688230592 -0.055502079613749672 0 -0.03923528619146182 -0.052410485156327485 0 -0.040708611497375077 -0.052883793830795098 0 -0.03923528619146182 -0.052410485156327485 0 -0.040708611497375077 -0.052883793830795098 0 -0.041991904344394648 -0.05369957868279527 0 -0.041154769933246037 -0.054216053020320516 0 -0.040841165121486799 -0.052378359100496798 0 -0.040708611497375077 -0.052883793830795098 0 -0.041350691030002946 -0.052726873691868979 0 -0.041991904344394648 -0.05369957868279527 0 -0.040708611497375077 -0.052883793830795098 0 -0.041527580341972903 -0.052009790850157993 0 -0.041350691030002946 -0.052726873691868979 0 -0.040883534617447648 -0.051943160232519284 0 -0.041527580341972903 -0.052009790850157993 0 -0.041350691030002946 -0.052726873691868979 0 -0.040883534617447648 -0.051943160232519284 0 -0.041527580341972903 -0.052009790850157993 0 -0.041637829061366337 -0.050771470229787223 0 -0.042859656329038473 -0.050990172488575347 0 -0.041527580341972903 -0.052009790850157993 0 -0.041637829061366337 -0.050771470229787223 0 -0.028516529152589974 -0.061623626891559875 0 -0.026749421004793602 -0.05889107573378375 0 -0.028849154905937677 -0.057263676659275925 0 -0.028516529152589974 -0.061623626891559875 0 -0.0256501306542385 -0.060947341765157328 0 -0.026749421004793602 -0.05889107573378375 0 -0.039701145438930004 -0.053312048848633893 0 -0.041350691030002946 -0.052726873691868979 0 -0.041991904344394648 -0.05369957868279527 0 -0.024611437461332767 -0.062850855153461199 0 -0.028516529152589974 -0.061623626891559875 0 -0.0256501306542385 -0.060947341765157328 0 -0.031942927525466153 -0.057470329967091241 0 -0.035064794280050646 -0.057613518475139514 0 -0.024611437461332767 -0.062850855153461199 0 -0.0256501306542385 -0.060947341765157328 0 -0.024277044770122554 -0.061444948881915783 0 -0.0256501306542385 -0.060947341765157328 0 -0.024934050422181702 -0.058604583995358367 0 -0.026749421004793602 -0.05889107573378375 0 -0.024934050422181702 -0.058604583995358367 0 -0.026749421004793602 -0.05889107573378375 0 -0.026302551116481651 -0.056616131725147574 0 -0.0256501306542385 -0.060947341765157328 0 -0.024934050422181702 -0.058604583995358367 0 -0.023725535788784266 -0.060102950879999832 0 -0.023725535788784266 -0.060102950879999832 0 -0.021331249532322124 -0.059370099902755921 0 -0.022846032524970063 -0.057253622937113204 0 -0.024934050422181702 -0.058604583995358367 0 -0.023725535788784266 -0.060102950879999832 0 -0.022846032524970063 -0.057253622937113204 0 -0.0256501306542385 -0.060947341765157328 0 -0.023725535788784266 -0.060102950879999832 0 -0.024277044770122554 -0.061444948881915783 0 -0.023725535788784266 -0.060102950879999832 0 -0.023145231134108154 -0.061825140316792523 0 -0.021331249532322124 -0.059370099902755921 0 -0.023725535788784266 -0.060102950879999832 0 -0.024277044770122554 -0.061444948881915783 0 -0.023145231134108154 -0.061825140316792523 0 -0.023145231134108154 -0.061825140316792523 0 -0.021372147508542397 -0.059423281569155308 0 -0.020549925651851226 -0.061541069471286104 0 -0.023031392603861688 -0.06167878490295408 0 -0.021376818359405858 -0.059435975374706761 0 -0.021331249532322124 -0.059370099902755921 0 -0.022846032524970063 -0.057253622937113204 0 -0.019628357399928083 -0.05711376130277511 0 -0.020932766647585158 -0.054999896181004627 0 -0.022846032524970063 -0.057253622937113204 0 -0.019628357399928083 -0.05711376130277511 0 -0.020932766647585158 -0.054999896181004627 0 -0.023938398182795508 -0.054999484371266269 0 -0.022846032524970063 -0.057253622937113204 0 -0.024934050422181702 -0.058604583995358367 0 -0.022846032524970063 -0.057253622937113204 0 -0.026302551116481651 -0.056616131725147574 0 -0.023938398182795508 -0.054999484371266269 0 -0.022846032524970063 -0.057253622937113204 0 -0.026302551116481651 -0.056616131725147574 0 -0.023938398182795508 -0.054999484371266269 0 -0.026302551116481651 -0.056616131725147574 0 -0.026943021770888975 -0.054999458769130982 0 -0.0298217881168437 -0.055796744129500975 0 -0.026302551116481651 -0.056616131725147574 0 -0.026943021770888975 -0.054999458769130982 0 -0.0298217881168437 -0.055796744129500975 0 -0.026302551116481651 -0.056616131725147574 0 -0.028849154905937677 -0.057263676659275925 0 -0.026749421004793602 -0.05889107573378375 0 -0.026302551116481651 -0.056616131725147574 0 -0.028849154905937677 -0.057263676659275925 0 -0.015312491525007488 -0.060447155043029908 0 -0.018328827570819623 -0.05937596368949611 0 -0.015951661364231966 -0.057676426973294441 0 -0.015312491525007488 -0.060447155043029908 0 -0.014371202613248583 -0.05793748547497745 0 -0.012871819458741735 -0.058437701910478951 0 -0.015312491525007488 -0.060447155043029908 0 -0.015951661364231966 -0.057676426973294441 0 -0.014371202613248583 -0.05793748547497745 0 -0.014874844322978002 -0.059594037313311435 0 -0.012215505270735016 -0.057820744120653675 0 -0.014123211107548016 -0.061513813224708461 0 -0.014443509477919897 -0.058856142362663309 0 -0.012210529619098227 -0.060821718456278068 0 -0.017842745219416398 -0.0624488421154979 0 -0.015312491525007488 -0.060447155043029908 0 -0.018328827570819623 -0.05937596368949611 0 -0.017629949604551224 -0.0619049495075037 0 -0.014874844322978002 -0.059594037313311435 0 -0.017842745219416398 -0.0624488421154979 0 -0.020549925651851226 -0.061541069471286104 0 -0.018328827570819623 -0.05937596368949611 0 -0.021372147508542397 -0.059423281569155308 0 -0.020549925651851226 -0.061541069471286104 0 -0.018328827570819623 -0.05937596368949611 0 -0.021372147508542397 -0.059423281569155308 0 -0.018328827570819623 -0.05937596368949611 0 -0.019651485664285477 -0.05718907361703264 0 -0.018328827570819623 -0.05937596368949611 0 -0.017630276314467473 -0.056916416317728799 0 -0.019651485664285477 -0.05718907361703264 0 -0.018328827570819623 -0.05937596368949611 0 -0.017630276314467473 -0.056916416317728799 0 -0.015951661364231966 -0.057676426973294441 0 -0.021376818359405858 -0.059435975374706761 0 -0.019631484285952881 -0.057148040007613012 0 -0.020932766647585158 -0.054999896181004627 0 -0.019628357399928083 -0.05711376130277511 0 -0.017928048513750669 -0.054999978400348398 0 -0.019631484285952881 -0.057148040007613012 0 -0.017928239783259178 -0.055000409057642703 0 -0.017630276314467473 -0.056916416317728799 0 -0.019651485664285477 -0.05718907361703264 0 -0.017927978769390014 -0.054999906714279269 0 -0.017630276314467473 -0.056916416317728799 0 -0.015710402976204876 -0.054999982067274376 0 -0.015951661364231966 -0.057676426973294441 0 -0.017630276314467473 -0.056916416317728799 0 -0.017927978769390014 -0.054999906714279269 0 -0.015710402976204876 -0.054999982067274376 0 -0.015951661364231966 -0.057676426973294441 0 -0.014371202613248583 -0.05793748547497745 0 -0.014523863042920958 -0.056439178071895128 0 -0.014371202613248583 -0.05793748547497745 0 -0.014523863042920958 -0.056439178071895128 0 -0.013206321328502293 -0.056711252327324012 0 -0.015710402976204876 -0.054999982067274376 0 -0.015951661364231966 -0.057676426973294441 0 -0.014523863042920958 -0.056439178071895128 0 -0.015710402976204876 -0.054999982067274376 0 -0.014523863042920958 -0.056439178071895128 0 -0.013492998691375142 -0.054999975141208503 0 -0.013492843632945156 -0.054999997703473455 0 -0.011931530060397025 -0.056074410790220491 0 -0.011063123386684857 -0.054999990946234575 0 -0.013492843632945156 -0.054999997703473455 0 -0.011931530060397025 -0.056074410790220491 0 -0.013134418869700303 -0.056739225487055914 0 -0.014523863042920958 -0.056439178071895128 0 -0.013492998691375142 -0.054999975141208503 0 -0.013206321328502293 -0.056711252327324012 0 -0.013492796747628148 -0.055000456706215076 0 -0.013137701254150596 -0.056795625383087391 0 -0.011931530060397025 -0.056074410790220491 0 -0.011063123386684857 -0.054999990946234575 0 -0.010723771593796607 -0.056741630044069014 0 -0.0097527676507242877 -0.056425588205608682 0 -0.011338734742047404 -0.057812570743585957 0 -0.010025628842454008 -0.058533414797448516 0 -0.010231544737043897 -0.056603165867434538 0 -0.012215505270735016 -0.057820744120653675 0 -0.011931530060397025 -0.056074410790220491 0 -0.010723771593796607 -0.056741630044069014 0 -0.012790290675594267 -0.058468581287848896 0 -0.014371202613248583 -0.05793748547497745 0 -0.013206321328502293 -0.056711252327324012 0 -0.012871819458741735 -0.058437701910478951 0 -0.011931530060397025 -0.056074410790220491 0 -0.013134418869700303 -0.056739225487055914 0 -0.012790290675594267 -0.058468581287848896 0 -0.013137701254150596 -0.056795625383087391 0 -0.012215505270735016 -0.057820744120653675 0 -0.0086314096579156625 -0.05499991125164095 0 -0.0078723203595771167 -0.056753783642451483 0 -0.0056222612009208311 -0.054999787277284669 0 -0.011063123386684857 -0.054999990946234575 0 -0.010723771593796607 -0.056741630044069014 0 -0.0086333667878447165 -0.05499999892072438 0 -0.0097527676507242877 -0.056425588205608682 0 -0.0086314096579156625 -0.05499991125164095 0 -0.0078723203595771167 -0.056753783642451483 0 -0.010231544737043897 -0.056603165867434538 0 -0.0086335788777980749 -0.055000270322519466 0 -0.0097527676507242877 -0.056425588205608682 0 -0.0078723203595771167 -0.056753783642451483 0 -0.008313957403592101 -0.058816686723308371 0 -0.0078723203595771167 -0.056753783642451483 0 -0.008313957403592101 -0.058816686723308371 0 -0.0059218404219196384 -0.05769564579826137 0 -0.008313957403592101 -0.058816686723308371 0 -0.005949268644144818 -0.060547113516340838 0 -0.0059218404219196384 -0.05769564579826137 0 -0.008313957403592101 -0.058816686723308371 0 -0.0096921413764015207 -0.060021146590515391 0 -0.0085952635049105861 -0.061416756307085318 0 -0.008313957403592101 -0.058816686723308371 0 -0.0085952635049105861 -0.061416756307085318 0 -0.005949268644144818 -0.060547113516340838 0 -0.014443509477919897 -0.058856142362663309 0 -0.011678673596272266 -0.056575127744532515 0 -0.011145782638244967 -0.059238160469100812 0 -0.012215505270735016 -0.057820744120653675 0 -0.011033179566567681 -0.059410267533905825 0 -0.011338734742047404 -0.057812570743585957 0 -0.010025628842454008 -0.058533414797448516 0 -0.010994131827145018 -0.059712564637760646 0 -0.0097527676507242877 -0.056425588205608682 0 -0.008313957403592101 -0.058816686723308371 0 -0.010025628842454008 -0.058533414797448516 0 -0.008313957403592101 -0.058816686723308371 0 -0.010025628842454008 -0.058533414797448516 0 -0.0096921413764015207 -0.060021146590515391 0 -0.0096921413764015207 -0.060021146590515391 0 -0.010994131827145018 -0.059712564637760646 0 -0.010666743080059677 -0.061849257654556844 0 -0.010025628842454008 -0.058533414797448516 0 -0.0096921413764015207 -0.060021146590515391 0 -0.010994131827145018 -0.059712564637760646 0 -0.014443509477919897 -0.058856142362663309 0 -0.011145782638244967 -0.059238160469100812 0 -0.012210529619098227 -0.060821718456278068 0 -0.011145782638244967 -0.059238160469100812 0 -0.012210529619098227 -0.060821718456278068 0 -0.010666743080059677 -0.061849257654556844 0 -0.014123211107548016 -0.061513813224708461 0 -0.012210529619098227 -0.060821718456278068 0 -0.011543127065179111 -0.062575645431266605 0 -0.011033179566567681 -0.059410267533905825 0 -0.010688135560997276 -0.061698994239781188 0 -0.012210529619098227 -0.060821718456278068 0 -0.011543127065179111 -0.062575645431266605 0 -0.010666743080059677 -0.061849257654556844 0 -0.010119224167033923 -0.03890757337088574 0 -0.0080464183774223517 -0.040065324478013919 0 -0.0095727068153716628 -0.041264330511437033 0 -0.011936897960467237 -0.040978237564537161 0 -0.010119224167033923 -0.03890757337088574 0 -0.0095727068153716628 -0.041264330511437033 0 -0.0080464183774223517 -0.040065324478013919 0 -0.0057747492906412134 -0.038846082203852418 0 -0.0060987951810764678 -0.040580262048543141 0 -0.010119224167033923 -0.03890757337088574 0 -0.0080464183774223517 -0.040065324478013919 0 -0.0057747492906412134 -0.038846082203852418 0 -0.0080464183774223517 -0.040065324478013919 0 -0.0060987951810764678 -0.040580262048543141 0 -0.0073250324537088582 -0.04157088488243689 0 -0.0080464183774223517 -0.040065324478013919 0 -0.0095727068153716628 -0.041264330511437033 0 -0.0073250324537088582 -0.04157088488243689 0 -0.011543127065179111 -0.062575645431266605 0 -0.010666743080059677 -0.061849257654556844 0 -0.0085952635049105861 -0.061416756307085318 0 -0.0096921413764015207 -0.060021146590515391 0 -0.010666743080059677 -0.061849257654556844 0 -0.0085952635049105861 -0.061416756307085318 0 -0.010970191996890305 -0.050754054021396024 0 -0.0072334568035891294 -0.050158490965411591 0 -0.0072334568035891294 -0.050158490965411591 0 -0.0042081320402352343 -0.049906982798931458 0 -0.0057747492906412134 -0.038846082203852418 0 -0.0025534553047716134 -0.040489777389470759 0 -0.0023173465488950835 -0.039159887062855045 0 -0.0057747492906412134 -0.038846082203852418 0 -0.0025534553047716134 -0.040489777389470759 0 -0.0042581765686281808 -0.040848672195977362 0 -0.0025534553047716134 -0.040489777389470759 0 -0.0042581765686281808 -0.040848672195977362 0 -0.0021092447513869511 -0.042047747118992999 0 -0.0057747492906412134 -0.038846082203852418 0 -0.0042581765686281808 -0.040848672195977362 0 -0.0060987951810764678 -0.040580262048543141 0 -0.0042581765686281808 -0.040848672195977362 0 -0.0060987951810764678 -0.040580262048543141 0 -0.0053046964952385787 -0.041770679828276105 0 -0.0060987951810764678 -0.040580262048543141 0 -0.0053046964952385787 -0.041770679828276105 0 -0.0073250324537088582 -0.04157088488243689 0 -0.0053046964952385787 -0.041770679828276105 0 -0.0065012707826667794 -0.043346338564231889 0 -0.0073250324537088582 -0.04157088488243689 0 -0.0042581765686281808 -0.040848672195977362 0 -0.0053046964952385787 -0.041770679828276105 0 -0.003717872635896605 -0.042476191359665613 0 -0.0053046964952385787 -0.041770679828276105 0 -0.0047888789785972604 -0.043145919290906089 0 -0.003717872635896605 -0.042476191359665613 0 -0.0053046964952385787 -0.041770679828276105 0 -0.0047888789785972604 -0.043145919290906089 0 -0.0065012707826667794 -0.043346338564231889 0 -0.0042581765686281808 -0.040848672195977362 0 -0.003717872635896605 -0.042476191359665613 0 -0.0021092447513869511 -0.042047747118992999 0 -0.003717872635896605 -0.042476191359665613 0 -0.0025838580194565055 -0.04321641368778089 0 -0.003574238239584436 -0.043988186795260988 0 -0.0047888789785972604 -0.043145919290906089 0 -0.003717872635896605 -0.042476191359665613 0 -0.003574238239584436 -0.043988186795260988 0 -0.003717872635896605 -0.042476191359665613 0 -0.0025838580194565055 -0.04321641368778089 0 -0.0021092447513869511 -0.042047747118992999 0 -0.0025838580194565055 -0.04321641368778089 0 -0.003574238239584436 -0.043988186795260988 0 -0.0022641744540379243 -0.0445569706721183 0 -0.0034892785621342248 -0.045936366849206385 0 -0.003574238239584436 -0.043988186795260988 0 -0.0049799820641676876 -0.044646393960767305 0 -0.0034892785621342248 -0.045936366849206385 0 -0.003574238239584436 -0.043988186795260988 0 -0.0022641744540379243 -0.0445569706721183 0 -0.0065012707826667794 -0.043346338564231889 0 -0.0049799820641676876 -0.044646393960767305 0 -0.0067883179831826302 -0.044778098156722568 0 -0.0047888789785972604 -0.043145919290906089 0 -0.003574238239584436 -0.043988186795260988 0 -0.0049799820641676876 -0.044646393960767305 0 -0.0047888789785972604 -0.043145919290906089 0 -0.0065012707826667794 -0.043346338564231889 0 -0.0049799820641676876 -0.044646393960767305 0 -0.0057389539294093956 -0.04669891538573475 0 -0.0049799820641676876 -0.044646393960767305 0 -0.0067883179831826302 -0.044778098156722568 0 -0.0075674531690574703 -0.046337488929553812 0 -0.0067883179831826302 -0.044778098156722568 0 -0.0089660647060075538 -0.044768660763539116 0 -0.0065012707826667794 -0.043346338564231889 0 -0.0067883179831826302 -0.044778098156722568 0 -0.008143850376552875 -0.043099437606898557 0 -0.0067883179831826302 -0.044778098156722568 0 -0.0089660647060075538 -0.044768660763539116 0 -0.008143850376552875 -0.043099437606898557 0 -0.011335340148315052 -0.045426019310967583 0 -0.0089660647060075538 -0.044768660763539116 0 -0.011046094398591918 -0.043072562308619416 0 -0.0089660647060075538 -0.044768660763539116 0 -0.011046094398591918 -0.043072562308619416 0 -0.008143850376552875 -0.043099437606898557 0 -0.011046094398591918 -0.043072562308619416 0 -0.0095727068153716628 -0.041264330511437033 0 -0.008143850376552875 -0.043099437606898557 0 -0.011936897960467237 -0.040978237564537161 0 -0.011046094398591918 -0.043072562308619416 0 -0.0095727068153716628 -0.041264330511437033 0 -0.0095727068153716628 -0.041264330511437033 0 -0.0073250324537088582 -0.04157088488243689 0 -0.008143850376552875 -0.043099437606898557 0 -0.0065012707826667794 -0.043346338564231889 0 -0.0073250324537088582 -0.04157088488243689 0 -0.008143850376552875 -0.043099437606898557 0 0.014143230103468952 -0.039130982146980214 0 0.013600095112104728 -0.039866973188596097 0 0.014692229751839727 -0.040747485602998817 0 0.0010454609150974807 -0.043457322629132718 0 0.00069677809713264557 -0.042177560402785814 0 0.0020987447375358623 -0.041968398837691719 0 0.014143230103468952 -0.039130982146980214 0 0.013728013782199906 -0.038594157566971057 0 0.014692229751839727 -0.040747485602998817 0 0.0073382637146756254 -0.041174539824414901 0 0.0083334231589118173 -0.041439098488911447 0 0.013600095112104728 -0.039866973188596097 0 0.014692229751839727 -0.040747485602998817 0 0.012572684695300309 -0.041009520865834891 0 0.013600095112104728 -0.039866973188596097 0 0.01255780485205967 -0.039175710859576614 0 0.012572684695300309 -0.041009520865834891 0 0.013600095112104728 -0.039866973188596097 0 0.01255780485205967 -0.039175710859576614 0 0.013572072368514983 -0.038876706906815613 0 0.014143230103468952 -0.039130982146980214 0 0.013600095112104728 -0.039866973188596097 0 0.013572072368514983 -0.038876706906815613 0 0.013572072368514983 -0.038876706906815613 0 0.013029851859663965 -0.038168423801175168 0 0.013856927512907584 -0.038256896519066608 0 0.01255780485205967 -0.039175710859576614 0 0.013572072368514983 -0.038876706906815613 0 0.013029851859663965 -0.038168423801175168 0 0.01255780485205967 -0.039175710859576614 0 0.013029851859663965 -0.038168423801175168 0 0.012119152143419749 -0.037802269418976665 0 0.013029851859663965 -0.038168423801175168 0 0.013204334930746802 -0.037201380968345195 0 0.012119152143419749 -0.037802269418976665 0 0.013204334930746802 -0.037201380968345195 0 0.012119152143419749 -0.037802269418976665 0 0.011827892755513691 -0.035918761542584901 0 0.013029851859663965 -0.038168423801175168 0 0.013204334930746802 -0.037201380968345195 0 0.013856927512907584 -0.038256896519066608 0 0.014118868150843141 -0.037181146914076257 0 0.013204334930746802 -0.037201380968345195 0 0.013856927512907584 -0.038256896519066608 0 0.014118868150843141 -0.037181146914076257 0 0.013856927512907584 -0.038256896519066608 0 0.014392207487478334 -0.038807677263689312 0 0.014143230103468952 -0.039130982146980214 0 0.013856927512907584 -0.038256896519066608 0 0.014392207487478334 -0.038807677263689312 0 0.014143230103468952 -0.039130982146980214 0 0.013572072368514983 -0.038876706906815613 0 0.013856927512907584 -0.038256896519066608 0 0.014143230103468952 -0.039130982146980214 0 0.014392207487478334 -0.038807677263689312 0 0.013728013782199906 -0.038594157566971057 0 0.013315704567613693 -0.041021881357360554 0 0.014392207487478334 -0.038807677263689312 0 0.013417067061955924 -0.039730784694113161 0 0.0045351027257932745 -0.044373063595842685 0 0.0073382637146756254 -0.041174539824414901 0 0.0095327891314122299 -0.042078971628878595 0 0.012334950602758634 -0.040705759881534083 0 0.013728013782199906 -0.038594157566971057 0 -0.00018879563689330861 -0.046172304247560039 0 -0.00023787821267298078 -0.043896317924463212 0 0.0010454609150974807 -0.043457322629132718 0 0.012334950602758634 -0.040705759881534083 0 0.013417067061955924 -0.039730784694113161 0 0.013728013782199906 -0.038594157566971057 0 -0.00023787821267298078 -0.043896317924463212 0 0.0010454609150974807 -0.043457322629132718 0 -0.00026056696171916616 -0.042796115799790167 0 0.014392207487478334 -0.038807677263689312 0 0.013417067061955924 -0.039730784694113161 0 0.013728013782199906 -0.038594157566971057 0 -0.00018879563689330861 -0.046172304247560039 0 -0.00023787821267298078 -0.043896317924463212 0 -0.0010725898095560859 -0.04466846789201423 0 -0.0018794433665298533 -0.045684237999614435 0 -0.0022641744540379243 -0.0445569706721183 0 -0.0010725898095560859 -0.04466846789201423 0 -0.00023787821267298078 -0.043896317924463212 0 -0.0010725898095560859 -0.04466846789201423 0 -0.0013232917371419814 -0.04339330526356578 0 -0.0022641744540379243 -0.0445569706721183 0 -0.0010725898095560859 -0.04466846789201423 0 -0.0013232917371419814 -0.04339330526356578 0 -0.0025838580194565055 -0.04321641368778089 0 -0.0022641744540379243 -0.0445569706721183 0 -0.0013232917371419814 -0.04339330526356578 0 -0.0025838580194565055 -0.04321641368778089 0 -0.0013232917371419814 -0.04339330526356578 0 -0.0021092447513869511 -0.042047747118992999 0 -0.00023787821267298078 -0.043896317924463212 0 -0.0013232917371419814 -0.04339330526356578 0 -0.00026056696171916616 -0.042796115799790167 0 -0.0013232917371419814 -0.04339330526356578 0 -0.0021092447513869511 -0.042047747118992999 0 -0.00026056696171916616 -0.042796115799790167 0 -0.0021092447513869511 -0.042047747118992999 0 -0.00026056696171916616 -0.042796115799790167 0 -0.00050265933614072834 -0.041579753354456149 0 0.0010454609150974807 -0.043457322629132718 0 -0.00026056696171916616 -0.042796115799790167 0 0.00069677809713264557 -0.042177560402785814 0 -0.00026056696171916616 -0.042796115799790167 0 0.00069677809713264557 -0.042177560402785814 0 -0.00050265933614072834 -0.041579753354456149 0 0.00069677809713264557 -0.042177560402785814 0 -0.00050265933614072834 -0.041579753354456149 0 0.00092351696420217447 -0.041373298049541957 0 -0.00050265933614072834 -0.041579753354456149 0 -0.00078926869346217449 -0.040395493279111738 0 0.00092351696420217447 -0.041373298049541957 0 -0.0025534553047716134 -0.040489777389470759 0 -0.0021092447513869511 -0.042047747118992999 0 -0.00050265933614072834 -0.041579753354456149 0 -0.0025534553047716134 -0.040489777389470759 0 -0.00050265933614072834 -0.041579753354456149 0 -0.00078926869346217449 -0.040395493279111738 0 -0.0025534553047716134 -0.040489777389470759 0 -0.00078926869346217449 -0.040395493279111738 0 -0.0023173465488950835 -0.039159887062855045 0 -0.00078926869346217449 -0.040395493279111738 0 0.00092351696420217447 -0.041373298049541957 0 0.00032803431779498905 -0.039519332218343563 0 0.00092351696420217447 -0.041373298049541957 0 0.0015562705252698365 -0.040913444563261278 0 0.00032803431779498905 -0.039519332218343563 0 0.0015562705252698365 -0.040913444563261278 0 0.0029822598275201753 -0.042186951888697616 0 0.002009943640575414 -0.040182909827269978 0 0.0015562705252698365 -0.040913444563261278 0 0.0019157171873491585 -0.041727182900798972 0 0.0029822598275201753 -0.042186951888697616 0 0.00092351696420217447 -0.041373298049541957 0 0.0015562705252698365 -0.040913444563261278 0 0.0019157171873491585 -0.041727182900798972 0 0.00069677809713264557 -0.042177560402785814 0 0.00092351696420217447 -0.041373298049541957 0 0.0020987447375358623 -0.041968398837691719 0 0.0019157171873491585 -0.041727182900798972 0 0.0020987447375358623 -0.041968398837691719 0 0.0029822598275201753 -0.042186951888697616 0 0.00092351696420217447 -0.041373298049541957 0 0.0019157171873491585 -0.041727182900798972 0 0.0020987447375358623 -0.041968398837691719 0 0.014692229751839727 -0.040747485602998817 0 0.01303686348929276 -0.042746891210988729 0 0.013636514616494549 -0.044964955942802955 0 0.014692229751839727 -0.040747485602998817 0 0.012572684695300309 -0.041009520865834891 0 0.01303686348929276 -0.042746891210988729 0 0.0083334231589118173 -0.041439098488911447 0 0.0081066864323946063 -0.044048834263618573 0 0.0020987447375358623 -0.041968398837691719 0 0.0029822598275201753 -0.042186951888697616 0 0.0025046581211731456 -0.042841187844050367 0 0.01303686348929276 -0.042746891210988729 0 0.013636514616494549 -0.044964955942802955 0 0.012466040173332483 -0.044011057040132334 0 0.0029822598275201753 -0.042186951888697616 0 0.0025046581211731456 -0.042841187844050367 0 0.0029415675235072033 -0.048482129070281536 0 0.0029822598275201753 -0.042186951888697616 0 0.0029415675235072033 -0.048482129070281536 0 0.0049581969367182843 -0.051540037438061743 0 0.0029822598275201753 -0.042186951888697616 0 0.002009943640575414 -0.040182909827269978 0 0.0032975873905167707 -0.038610259662340218 0 0.0040811806054590642 -0.040370207878780151 0 0.0014175533136300052 -0.050257503312827384 0 0.0014175533136300052 -0.050257503312827384 0 -0.0014795853157583674 -0.049388229793780505 0 0.002009943640575414 -0.040182909827269978 0 0.0032975873905167707 -0.038610259662340218 0 0.00032803431779498905 -0.039519332218343563 0 0.0015562705252698365 -0.040913444563261278 0 0.002009943640575414 -0.040182909827269978 0 0.00032803431779498905 -0.039519332218343563 0 -0.0017148687300948002 -0.05792366276234618 0 -0.00068509956668558734 -0.058943239435746246 0 -0.003266421548240946 -0.059763888279374899 0 -0.0017148687300948002 -0.05792366276234618 0 -0.003266421548240946 -0.059763888279374899 0 -0.0032186078935657358 -0.057627038880030394 0 0.0014175533136300052 -0.050257503312827384 0 0.0010269516827137852 -0.056779067410774466 0 0.0035097800377304547 -0.05232303100742032 0 0.0027529084521645299 -0.054743596489516239 0 0.0026169949819178483 -0.052625755701235087 0 -0.0017148687300948002 -0.05792366276234618 0 -0.00068509956668558734 -0.058943239435746246 0 -0.00027979954397553856 -0.0570513359116726 0 0.0029415675235072033 -0.048482129070281536 0 0.0049581969367182843 -0.051540037438061743 0 0.0026169949819178483 -0.052625755701235087 0 0.0014175533136300052 -0.050257503312827384 0 0.0027166112815776339 -0.051192860249502141 0 -0.005949268644144818 -0.060547113516340838 0 -0.003266421548240946 -0.059763888279374899 0 -0.0059218404219196384 -0.05769564579826137 0 -0.0042081320402352343 -0.049906982798931458 0 -0.0014795853157583674 -0.049388229793780505 0 -0.00078926869346217449 -0.040395493279111738 0 -0.0023173465488950835 -0.039159887062855045 0 0.00032803431779498905 -0.039519332218343563 0 -0.003266421548240946 -0.059763888279374899 0 -0.0059218404219196384 -0.05769564579826137 0 -0.0032186078935657358 -0.057627038880030394 0 -0.0059218404219196384 -0.05769564579826137 0 -0.0045672433848812782 -0.056592499254599561 0 -0.0056222612009208311 -0.054999787277284669 0 -0.0078723203595771167 -0.056753783642451483 0 -0.0059218404219196384 -0.05769564579826137 0 -0.0056222612009208311 -0.054999787277284669 0 -0.0059218404219196384 -0.05769564579826137 0 -0.0045672433848812782 -0.056592499254599561 0 -0.0032186078935657358 -0.057627038880030394 0 -0.0045672433848812782 -0.056592499254599561 0 -0.0056222612009208311 -0.054999787277284669 0 -0.0026106355044672146 -0.054999778998301857 0 -0.0017148687300948002 -0.05792366276234618 0 -0.00027979954397553856 -0.0570513359116726 0 -0.0020132340863548829 -0.056565443844110753 0 -0.0045672433848812782 -0.056592499254599561 0 -0.0032186078935657358 -0.057627038880030394 0 -0.0020132340863548829 -0.056565443844110753 0 -0.0017148687300948002 -0.05792366276234618 0 -0.0032186078935657358 -0.057627038880030394 0 -0.0020132340863548829 -0.056565443844110753 0 -0.0045672433848812782 -0.056592499254599561 0 -0.0020132340863548829 -0.056565443844110753 0 -0.0026106355044672146 -0.054999778998301857 0 -0.0020132340863548829 -0.056565443844110753 0 -0.0026106355044672146 -0.054999778998301857 0 0.00039965391405187534 -0.05499992824382427 0 -0.00027979954397553856 -0.0570513359116726 0 -0.0020132340863548829 -0.056565443844110753 0 0.00039965391405187534 -0.05499992824382427 0 0.0027529084521645299 -0.054743596489516239 0 0.00040576451630765193 -0.054998520543438796 0 0.002281539184775369 -0.054984133183660702 0 0.0010269516827137852 -0.056779067410774466 0 0.00040103554390898306 -0.054998521942305353 0 0.0027529084521645299 -0.054743596489516239 0 0.0024542032037387805 -0.054122110300981428 0 0.0026169949819178483 -0.052625755701235087 0 0.0027529084521645299 -0.054743596489516239 0 0.002281539184775369 -0.054984133183660702 0 0.0024542032037387805 -0.054122110300981428 0 0.002281539184775369 -0.054984133183660702 0 0.0024542032037387805 -0.054122110300981428 0 0.0041716289481437572 -0.055061290421258735 0 0.00040576451630765193 -0.054998520543438796 0 0.002281539184775369 -0.054984133183660702 0 0.0035321581791933087 -0.054999284156502876 0 0.002281539184775369 -0.054984133183660702 0 0.0041716289481437572 -0.055061290421258735 0 0.0035321581791933087 -0.054999284156502876 0 0.0041716289481437572 -0.055061290421258735 0 0.0035321581791933087 -0.054999284156502876 0 0.0046818381605602203 -0.055486679374406163 0 0.0035321581791933087 -0.054999284156502876 0 0.0066617815800623119 -0.054998873468628529 0 0.0046818381605602203 -0.055486679374406163 0 0.0066617815800623119 -0.054998873468628529 0 0.0046818381605602203 -0.055486679374406163 0 0.0062614992539700987 -0.055485034307140392 0 0.0046818381605602203 -0.055486679374406163 0 0.0043794381899655375 -0.054921319651722006 0 0.0046122086708669146 -0.053530207934476666 0 0.0046818381605602203 -0.055486679374406163 0 0.0050416513957563455 -0.055785956635262722 0 0.0062614992539700987 -0.055485034307140392 0 0.0046818381605602203 -0.055486679374406163 0 0.0043794381899655375 -0.054921319651722006 0 0.0050416513957563455 -0.055785956635262722 0 0.0050215093677276595 -0.055376489468998723 0 0.0059600433962808926 -0.056706240621340845 0 0.0043794381899655375 -0.054921319651722006 0 0.0050416513957563455 -0.055785956635262722 0 0.0032058739984780408 -0.054195537894738258 0 0.0041716289481437572 -0.055061290421258735 0 0.0046818381605602203 -0.055486679374406163 0 0.0046122086708669146 -0.053530207934476666 0 0.0046122086708669146 -0.053530207934476666 0 0.0054885456358968179 -0.050527149185083359 0 0.0064258235094121485 -0.051526187626968277 0 0.0070223223377160445 -0.047544515667375428 0 0.0059600433962808926 -0.056706240621340845 0 0.0046122086708669146 -0.053530207934476666 0 0.0033399291496968922 -0.049403930630325187 0 0.0032058739984780408 -0.054195537894738258 0 0.0043794381899655375 -0.054921319651722006 0 0.0046122086708669146 -0.053530207934476666 0 0.0032058739984780408 -0.054195537894738258 0 0.0085520544680398394 -0.04235332933129704 0 0.0081023820938998757 -0.042366598551351199 0 0.0089049148786460499 -0.041863434761692103 0 0.0070223223377160445 -0.047544515667375428 0 0.010510660459668012 -0.047923848328319266 0 0.0099171395419900693 -0.049814794963025689 0 0.0067714747173907245 -0.053761018717544913 0 0.0063673548541002493 -0.049314781884042681 0 0.0085520544680398394 -0.04235332933129704 0 0.0089049148786460499 -0.041863434761692103 0 0.0086190716419395786 -0.041161005997143223 0 0.0089049148786460499 -0.041863434761692103 0 0.0088855359166991228 -0.041800152279722912 0 0.0086190716419395786 -0.041161005997143223 0 0.0046122086708669146 -0.053530207934476666 0 0.0054885456358968179 -0.050527149185083359 0 0.0033399291496968922 -0.049403930630325187 0 0.0054885456358968179 -0.050527149185083359 0 0.0060863192123323069 -0.047946204176463066 0 0.0068693688007355896 -0.049422229594218887 0 0.0054885456358968179 -0.050527149185083359 0 0.0033399291496968922 -0.049403930630325187 0 0.0060863192123323069 -0.047946204176463066 0 0.0089957683075040026 -0.048845771899362088 0 0.010699171206229634 -0.0507100064416873 0 0.0064258235094121485 -0.051526187626968277 0 0.0068693688007355896 -0.049422229594218887 0 0.0089957683075040026 -0.048845771899362088 0 0.0080669273928768315 -0.046339641091395448 0 0.0060863192123323069 -0.047946204176463066 0 0.0068693688007355896 -0.049422229594218887 0 0.0080669273928768315 -0.046339641091395448 0 0.0068693688007355896 -0.049422229594218887 0 0.0089957683075040026 -0.048845771899362088 0 0.0064258235094121485 -0.051526187626968277 0 0.0054885456358968179 -0.050527149185083359 0 0.0068693688007355896 -0.049422229594218887 0 0.0064258235094121485 -0.051526187626968277 0 0.0089957683075040026 -0.048845771899362088 0 0.01014320283411751 -0.045730622858443114 0 0.0080669273928768315 -0.046339641091395448 0 0.0089957683075040026 -0.048845771899362088 0 0.011059540761492809 -0.047101795762724559 0 0.01014320283411751 -0.045730622858443114 0 0.013636514616494549 -0.044964955942802955 0 0.011059540761492809 -0.047101795762724559 0 0.010699171206229634 -0.0507100064416873 0 0.0025046581211731456 -0.042841187844050367 0 0.0029415675235072033 -0.048482129070281536 0 0.00098954938092381587 -0.051642109700373182 0 0.0081066864323946063 -0.044048834263618573 0 0.005923151447894663 -0.050832096303048829 0 0.0029415675235072033 -0.048482129070281536 0 0.00098954938092381587 -0.051642109700373182 0 0.0026169949819178483 -0.052625755701235087 0 0.0089957683075040026 -0.048845771899362088 0 0.011059540761492809 -0.047101795762724559 0 0.010699171206229634 -0.0507100064416873 0 0.0024542032037387805 -0.054122110300981428 0 0.00098954938092381587 -0.051642109700373182 0 0.0026169949819178483 -0.052625755701235087 0 0.0024542032037387805 -0.054122110300981428 0 0.0041716289481437572 -0.055061290421258735 0 0.00098954938092381587 -0.051642109700373182 0 0.0041716289481437572 -0.055061290421258735 0 0.010699171206229634 -0.0507100064416873 0 0.0064258235094121485 -0.051526187626968277 0 0.0041716289481437572 -0.055061290421258735 0 0.0046122086708669146 -0.053530207934476666 0 0.0064258235094121485 -0.051526187626968277 0 0.0044046872637197492 -0.054519421148095798 0 0.005923151447894663 -0.050832096303048829 0 0.012831644092747365 -0.056808064671488495 0 0.014657629031740014 -0.056469259579570399 0 0.013811731885133757 -0.057404170010975954 0 0.012831644092747365 -0.056808064671488495 0 0.012664005116678778 -0.058057612791710948 0 0.013811731885133757 -0.057404170010975954 0 0.012831644092747365 -0.056808064671488495 0 0.011567818193753864 -0.057664706296222605 0 0.012664005116678778 -0.058057612791710948 0 0.012831644092747365 -0.056808064671488495 0 0.012928038731272309 -0.054999753283981302 0 0.011474208053446329 -0.055839328591896019 0 0.012831644092747365 -0.056808064671488495 0 0.012928038731272309 -0.054999753283981302 0 0.014657629031740014 -0.056469259579570399 0 0.012928038731272309 -0.054999753283981302 0 0.011474208053446329 -0.055839328591896019 0 0.0097959386149242059 -0.054999687371683946 0 0.011474208053446329 -0.055839328591896019 0 0.01051122167158332 -0.056009032794735437 0 0.0097959386149242059 -0.054999687371683946 0 0.011474208053446329 -0.055839328591896019 0 0.01051122167158332 -0.056009032794735437 0 0.011312788131372372 -0.056765036482743718 0 0.01051122167158332 -0.056009032794735437 0 0.011312788131372372 -0.056765036482743718 0 0.010531467398775671 -0.056971008860684874 0 0.011312788131372372 -0.056765036482743718 0 0.011567818193753864 -0.057664706296222605 0 0.010531467398775671 -0.056971008860684874 0 0.012831644092747365 -0.056808064671488495 0 0.011312788131372372 -0.056765036482743718 0 0.011567818193753864 -0.057664706296222605 0 0.012831644092747365 -0.056808064671488495 0 0.011474208053446329 -0.055839328591896019 0 0.011312788131372372 -0.056765036482743718 0 0.011567818193753864 -0.057664706296222605 0 0.010531467398775671 -0.056971008860684874 0 0.010398340989517073 -0.057853891255979104 0 0.0097182553869554628 -0.057302765647675349 0 0.010531467398775671 -0.056971008860684874 0 0.010398340989517073 -0.057853891255979104 0 0.0097182553869554628 -0.057302765647675349 0 0.0090251489934825586 -0.056856631810632413 0 0.0092613387178447724 -0.058002111194522102 0 0.0097182553869554628 -0.057302765647675349 0 0.0092613387178447724 -0.058002111194522102 0 0.010398340989517073 -0.057853891255979104 0 0.0097182553869554628 -0.057302765647675349 0 0.0098688742440915089 -0.056518403997356893 0 0.0090251489934825586 -0.056856631810632413 0 0.0097182553869554628 -0.057302765647675349 0 0.0098688742440915089 -0.056518403997356893 0 0.010531467398775671 -0.056971008860684874 0 0.01051122167158332 -0.056009032794735437 0 0.0098688742440915089 -0.056518403997356893 0 0.010531467398775671 -0.056971008860684874 0 0.0095776659915002629 -0.055270920701470723 0 0.0082917564946109936 -0.056457952027413903 0 0.0098688742440915089 -0.056518403997356893 0 0.0096838845303039295 -0.055357895608370775 0 0.0090251489934825586 -0.056856631810632413 0 0.0096838845303039295 -0.055357895608370775 0 0.0080730140016351971 -0.055378395147078166 0 0.0074057049514020925 -0.05598338030288004 0 0.01051122167158332 -0.056009032794735437 0 0.0098688742440915089 -0.056518403997356893 0 0.0096838845303039295 -0.055357895608370775 0 0.01051122167158332 -0.056009032794735437 0 0.0096838845303039295 -0.055357895608370775 0 0.0097959386149242059 -0.054999687371683946 0 0.0096838845303039295 -0.055357895608370775 0 0.0097959386149242059 -0.054999687371683946 0 0.0080730140016351971 -0.055378395147078166 0 0.0066617815800623119 -0.054998873468628529 0 0.0080730140016351971 -0.055378395147078166 0 0.0062614992539700987 -0.055485034307140392 0 0.0066617815800623119 -0.054998873468628529 0 0.0097959386149242059 -0.054999687371683946 0 0.0080730140016351971 -0.055378395147078166 0 0.0080730140016351971 -0.055378395147078166 0 0.0062614992539700987 -0.055485034307140392 0 0.0074057049514020925 -0.05598338030288004 0 0.0050416513957563455 -0.055785956635262722 0 0.0074057049514020925 -0.05598338030288004 0 0.0051780596051204247 -0.057451695741496091 0 0.0050416513957563455 -0.055785956635262722 0 0.0062614992539700987 -0.055485034307140392 0 0.0074057049514020925 -0.05598338030288004 0 0.0090251489934825586 -0.056856631810632413 0 0.0080806883782149896 -0.058146461806352925 0 0.0092613387178447724 -0.058002111194522102 0 0.0082917564946109936 -0.056457952027413903 0 0.0059600433962808926 -0.056706240621340845 0 0.0080806883782149896 -0.058146461806352925 0 0.0092613387178447724 -0.058002111194522102 0 0.0089089648372891583 -0.059058696704919117 0 0.0080806883782149896 -0.058146461806352925 0 0.0083192688829739556 -0.060019488146277368 0 0.0089089648372891583 -0.059058696704919117 0 0.0059600433962808926 -0.056706240621340845 0 0.010510660459668012 -0.047923848328319266 0 0.0093623511423040328 -0.041603362816579455 0 0.015682380631153455 -0.042478379333649958 0 0.0095151111767650814 -0.043194417969657464 0 0.010510660459668012 -0.047923848328319266 0 0.012411045484707992 -0.038416992198113065 0 0.0083192688829739556 -0.060019488146277368 0 0.0092622438031705404 -0.060200328052482086 0 0.0089089648372891583 -0.059058696704919117 0 0.010510660459668012 -0.047923848328319266 0 0.015239983354060981 -0.040451075112869952 0 0.015239983354060981 -0.040451075112869952 0 0.012411045484707992 -0.038416992198113065 0 0.0092622438031705404 -0.060200328052482086 0 0.0089089648372891583 -0.059058696704919117 0 0.009544755596854854 -0.05952768837044356 0 0.0089089648372891583 -0.059058696704919117 0 0.009544755596854854 -0.05952768837044356 0 0.010129853358071721 -0.058888274776600941 0 0.009544755596854854 -0.05952768837044356 0 0.010244447750533018 -0.059704630435826696 0 0.010129853358071721 -0.058888274776600941 0 0.017585907049301016 -0.030950082495074357 0 0.016547568381197825 -0.03083263167374025 0 0.016759756146689304 -0.030592046830221601 0 0.0092622438031705404 -0.060200328052482086 0 0.010244447750533018 -0.059704630435826696 0 0.011413659576417812 -0.06019233147496237 0 0.015239983354060981 -0.040451075112869952 0 0.013622536107996474 -0.046004185697936455 0 0.0092622438031705404 -0.060200328052482086 0 0.009544755596854854 -0.05952768837044356 0 0.010244447750533018 -0.059704630435826696 0 0.010244447750533018 -0.059704630435826696 0 0.010129853358071721 -0.058888274776600941 0 0.010936635379477005 -0.059576253458571593 0 0.0092613387178447724 -0.058002111194522102 0 0.0089089648372891583 -0.059058696704919117 0 0.010129853358071721 -0.058888274776600941 0 0.0092613387178447724 -0.058002111194522102 0 0.010129853358071721 -0.058888274776600941 0 0.010398340989517073 -0.057853891255979104 0 0.010129853358071721 -0.058888274776600941 0 0.010398340989517073 -0.057853891255979104 0 0.010920399833385917 -0.058431747474224346 0 0.011567818193753864 -0.057664706296222605 0 0.010398340989517073 -0.057853891255979104 0 0.010920399833385917 -0.058431747474224346 0 0.011567818193753864 -0.057664706296222605 0 0.010920399833385917 -0.058431747474224346 0 0.011730135057157674 -0.058437473228071649 0 0.011567818193753864 -0.057664706296222605 0 0.011730135057157674 -0.058437473228071649 0 0.012664005116678778 -0.058057612791710948 0 0.011244950528832696 -0.059060081989346633 0 0.011803882076900581 -0.059478178669525525 0 0.012322639685058125 -0.0589426492086269 0 0.011730135057157674 -0.058437473228071649 0 0.011244950528832696 -0.059060081989346633 0 0.012322639685058125 -0.0589426492086269 0 0.010129853358071721 -0.058888274776600941 0 0.010920399833385917 -0.058431747474224346 0 0.011244950528832696 -0.059060081989346633 0 0.010920399833385917 -0.058431747474224346 0 0.011730135057157674 -0.058437473228071649 0 0.011244950528832696 -0.059060081989346633 0 0.010129853358071721 -0.058888274776600941 0 0.011244950528832696 -0.059060081989346633 0 0.010936635379477005 -0.059576253458571593 0 0.011244950528832696 -0.059060081989346633 0 0.010936635379477005 -0.059576253458571593 0 0.011803882076900581 -0.059478178669525525 0 0.010936635379477005 -0.059576253458571593 0 0.011413659576417812 -0.06019233147496237 0 0.011803882076900581 -0.059478178669525525 0 0.010244447750533018 -0.059704630435826696 0 0.010936635379477005 -0.059576253458571593 0 0.011413659576417812 -0.06019233147496237 0 0.011413659576417812 -0.06019233147496237 0 0.011803882076900581 -0.059478178669525525 0 0.012759105928250955 -0.059428588647684452 0 0.011803882076900581 -0.059478178669525525 0 0.012759105928250955 -0.059428588647684452 0 0.012322639685058125 -0.0589426492086269 0 0.011413659576417812 -0.06019233147496237 0 0.012759105928250955 -0.059428588647684452 0 0.013873482538653293 -0.060089657329085971 0 0.016547568381197825 -0.03083263167374025 0 0.015599594158904497 -0.03006823279140057 0 0.014940656830780955 -0.030905527321101783 0 0.013622536107996474 -0.046004185697936455 0 0.014188392075121327 -0.046077944318840262 0 0.012759105928250955 -0.059428588647684452 0 0.01397281342730199 -0.059078221316437446 0 0.013873482538653293 -0.060089657329085971 0 0.012759105928250955 -0.059428588647684452 0 0.013208716090790757 -0.058756429840265939 0 0.01397281342730199 -0.059078221316437446 0 0.013208716090790757 -0.058756429840265939 0 0.013902255878283988 -0.058201988479078787 0 0.01397281342730199 -0.059078221316437446 0 0.012759105928250955 -0.059428588647684452 0 0.013208716090790757 -0.058756429840265939 0 0.012322639685058125 -0.0589426492086269 0 0.013208716090790757 -0.058756429840265939 0 0.012322639685058125 -0.0589426492086269 0 0.012664005116678778 -0.058057612791710948 0 0.011730135057157674 -0.058437473228071649 0 0.012322639685058125 -0.0589426492086269 0 0.012664005116678778 -0.058057612791710948 0 0.013208716090790757 -0.058756429840265939 0 0.012664005116678778 -0.058057612791710948 0 0.013902255878283988 -0.058201988479078787 0 0.012664005116678778 -0.058057612791710948 0 0.013902255878283988 -0.058201988479078787 0 0.013811731885133757 -0.057404170010975954 0 0.015970836834315306 -0.026820272463970986 0 0.016532331818098371 -0.028328909114586152 0 0.017400739870578184 -0.027138448701612083 0 0.015970836834315306 -0.026820272463970986 0 0.015484666588066099 -0.028208146012348324 0 0.016532331818098371 -0.028328909114586152 0 0.015970836834315306 -0.026820272463970986 0 0.015484666588066099 -0.028208146012348324 0 0.014638306872835752 -0.027414148502801026 0 0.015484666588066099 -0.028208146012348324 0 0.016111553224786957 -0.029324531323558164 0 0.016532331818098371 -0.028328909114586152 0 0.015484666588066099 -0.028208146012348324 0 0.016111553224786957 -0.029324531323558164 0 0.014194776908858325 -0.02887295479385521 0 0.016547568381197825 -0.03083263167374025 0 0.015599594158904497 -0.03006823279140057 0 0.016759756146689304 -0.030592046830221601 0 0.016111553224786957 -0.029324531323558164 0 0.016532331818098371 -0.028328909114586152 0 0.018117082401093363 -0.029559657288984315 0 0.015678368788979619 -0.029703622086135497 0 0.017912773251862947 -0.029611618568116761 0 0.016532331818098371 -0.028328909114586152 0 0.018117082401093363 -0.029559657288984315 0 0.017552355150255217 -0.028144651804280975 0 0.018117082401093363 -0.029559657288984315 0 0.017552355150255217 -0.028144651804280975 0 0.018412770590414736 -0.028617913102834274 0 0.018340497798120699 -0.027833100288077901 0 0.017552355150255217 -0.028144651804280975 0 0.018412770590414736 -0.028617913102834274 0 0.018340497798120699 -0.027833100288077901 0 0.017552355150255217 -0.028144651804280975 0 0.017400739870578184 -0.027138448701612083 0 0.016532331818098371 -0.028328909114586152 0 0.017552355150255217 -0.028144651804280975 0 0.017400739870578184 -0.027138448701612083 0 0.015970836834315306 -0.026820272463970986 0 0.017400739870578184 -0.027138448701612083 0 0.017386498738229506 -0.025923870639463574 0 0.017400739870578184 -0.027138448701612083 0 0.018432393514484235 -0.026633960545860695 0 0.017386498738229506 -0.025923870639463574 0 0.018340497798120699 -0.027833100288077901 0 0.017400739870578184 -0.027138448701612083 0 0.018432393514484235 -0.026633960545860695 0 0.018432393514484235 -0.026633960545860695 0 0.01908496032823679 -0.027450623377416425 0 0.019346372222170713 -0.026348119475041475 0 0.018340497798120699 -0.027833100288077901 0 0.018432393514484235 -0.026633960545860695 0 0.01908496032823679 -0.027450623377416425 0 0.019954095413544107 -0.027405372681075912 0 0.01908496032823679 -0.027450623377416425 0 0.019346372222170713 -0.026348119475041475 0 0.019954095413544107 -0.027405372681075912 0 0.020038606175811595 -0.026319510899820174 0 0.019346372222170713 -0.026348119475041475 0 0.019954095413544107 -0.027405372681075912 0 0.01908496032823679 -0.027450623377416425 0 0.019794868551045987 -0.028197503709080307 0 0.01908496032823679 -0.027450623377416425 0 0.019007015065497158 -0.028404631034247438 0 0.019794868551045987 -0.028197503709080307 0 0.018340497798120699 -0.027833100288077901 0 0.01908496032823679 -0.027450623377416425 0 0.019007015065497158 -0.028404631034247438 0 0.020091218096365736 -0.029899616229329157 0 0.018117082401093363 -0.029559657288984315 0 0.019042956124236985 -0.029101694315802899 0 0.018340497798120699 -0.027833100288077901 0 0.019007015065497158 -0.028404631034247438 0 0.018412770590414736 -0.028617913102834274 0 0.015239983354060981 -0.040451075112869952 0 0.017912773251862947 -0.029611618568116761 0 0.019007015065497158 -0.028404631034247438 0 0.018412770590414736 -0.028617913102834274 0 0.019042956124236985 -0.029101694315802899 0 0.018117082401093363 -0.029559657288984315 0 0.018412770590414736 -0.028617913102834274 0 0.019042956124236985 -0.029101694315802899 0 0.020091218096365736 -0.029899616229329157 0 0.019042956124236985 -0.029101694315802899 0 0.019797467128053751 -0.028942140352624653 0 0.019007015065497158 -0.028404631034247438 0 0.019042956124236985 -0.029101694315802899 0 0.019797467128053751 -0.028942140352624653 0 0.019007015065497158 -0.028404631034247438 0 0.019797467128053751 -0.028942140352624653 0 0.019794868551045987 -0.028197503709080307 0 0.012411045484707992 -0.038416992198113065 0 0.011704476293098766 -0.030341389424255061 0 0.020539692966247337 -0.028486889170553267 0 0.021226436714957289 -0.029807807335703651 0 0.021046324912269716 -0.027069786268140494 0 0.0063953038683255952 -0.041288927730596184 0 0.0076611243457293445 -0.0352613886269059 0 0.0067699661700922065 -0.032922023701495204 0 0.0063953038683255952 -0.041288927730596184 0 0.0076611243457293445 -0.0352613886269059 0 0.0081364756467431319 -0.038528875975696993 0 0.019797467128053751 -0.028942140352624653 0 0.019794868551045987 -0.028197503709080307 0 0.020539692966247337 -0.028486889170553267 0 0.019797467128053751 -0.028942140352624653 0 0.020539692966247337 -0.028486889170553267 0 0.020412462296408432 -0.029284692590598328 0 0.020091218096365736 -0.029899616229329157 0 0.019797467128053751 -0.028942140352624653 0 0.020412462296408432 -0.029284692590598328 0 0.020091218096365736 -0.029899616229329157 0 0.020412462296408432 -0.029284692590598328 0 0.021226436714957289 -0.029807807335703651 0 0.020539692966247337 -0.028486889170553267 0 0.020412462296408432 -0.029284692590598328 0 0.021226436714957289 -0.029807807335703651 0 0.010212444522679326 -0.033080782110455426 0 0.011704476293098766 -0.030341389424255061 0 0.0076611243457293445 -0.0352613886269059 0 0.0075300960212503322 -0.032721418655630941 0 0.0093831322942574489 -0.033195526451721455 0 0.019954095413544107 -0.027405372681075912 0 0.019794868551045987 -0.028197503709080307 0 0.020539692966247337 -0.028486889170553267 0 0.019954095413544107 -0.027405372681075912 0 0.020539692966247337 -0.028486889170553267 0 0.021046324912269716 -0.027069786268140494 0 0.019954095413544107 -0.027405372681075912 0 0.021046324912269716 -0.027069786268140494 0 0.020038606175811595 -0.026319510899820174 0 0.011704476293098766 -0.030341389424255061 0 0.013428091407615016 -0.02509924915944084 0 0.0087285778170492715 -0.029992624448145842 0 0.008620506159702189 -0.028911771815853395 0 0.0081381331869353896 -0.027969612330934125 0 0.021046324912269716 -0.027069786268140494 0 0.020038606175811595 -0.026319510899820174 0 0.019808301663503131 -0.02444963473018965 0 0.011704476293098766 -0.030341389424255061 0 0.0094111602218618449 -0.029874248336298811 0 0.0087285778170492715 -0.029992624448145842 0 0.0086486401552899068 -0.029179149997122254 0 0.008620506159702189 -0.028911771815853395 0 0.0086486401552899068 -0.029179149997122254 0 0.010138007175319564 -0.030816101418074181 0 0.0099992477526195164 -0.028732261977738493 0 0.0075300960212503322 -0.032721418655630941 0 0.0086486401552899068 -0.029179149997122254 0 0.010138007175319564 -0.030816101418074181 0 0.008620506159702189 -0.028911771815853395 0 0.0093505679990800797 -0.027324384648840114 0 0.0093349080888462822 -0.02656440306079506 0 0.0093469509425784664 -0.027941170829487844 0 0.013428091407615016 -0.02509924915944084 0 0.008620506159702189 -0.028911771815853395 0 0.0096934041924894732 -0.027775345067487613 0 0.0093505679990800797 -0.027324384648840114 0 0.0086486401552899068 -0.029179149997122254 0 0.0096934041924894732 -0.027775345067487613 0 0.0099992477526195164 -0.028732261977738493 0 0.0086486401552899068 -0.029179149997122254 0 0.008620506159702189 -0.028911771815853395 0 0.0096934041924894732 -0.027775345067487613 0 0.0096934041924894732 -0.027775345067487613 0 0.010135087041706995 -0.026071409343794705 0 0.0093505679990800797 -0.027324384648840114 0 0.010135087041706995 -0.026071409343794705 0 0.0093349080888462822 -0.02656440306079506 0 0.010487277013108752 -0.025610461724180592 0 0.010135087041706995 -0.026071409343794705 0 0.0093505679990800797 -0.027324384648840114 0 0.0093349080888462822 -0.02656440306079506 0 0.013428091407615016 -0.02509924915944084 0 0.012642100355991769 -0.022455129312432841 0 0.019808301663503131 -0.02444963473018965 0 0.018242532415719524 -0.023213358670777385 0 0.018123174864217117 -0.022232897256227211 0 0.013428091407615016 -0.02509924915944084 0 0.016429380015714982 -0.021176200764987135 0 0.019808301663503131 -0.02444963473018965 0 0.018242532415719524 -0.023213358670777385 0 0.018393497908132272 -0.023820199801079935 0 0.019808301663503131 -0.02444963473018965 0 0.018610732804521045 -0.024551965721642841 0 0.018590735210984283 -0.02540000679150025 0 0.019808301663503131 -0.02444963473018965 0 0.018610732804521045 -0.024551965721642841 0 0.018393497908132272 -0.023820199801079935 0 0.020038606175811595 -0.026319510899820174 0 0.019808301663503131 -0.02444963473018965 0 0.019346372222170713 -0.026348119475041475 0 0.019808301663503131 -0.02444963473018965 0 0.018590735210984283 -0.02540000679150025 0 0.019346372222170713 -0.026348119475041475 0 0.018432393514484235 -0.026633960545860695 0 0.018590735210984283 -0.02540000679150025 0 0.019346372222170713 -0.026348119475041475 0 0.018432393514484235 -0.026633960545860695 0 0.018590735210984283 -0.02540000679150025 0 0.017386498738229506 -0.025923870639463574 0 0.017386498738229506 -0.025923870639463574 0 0.017661356926773331 -0.024536947036826278 0 0.016255598955494197 -0.025247514515454331 0 0.018590735210984283 -0.02540000679150025 0 0.017386498738229506 -0.025923870639463574 0 0.017661356926773331 -0.024536947036826278 0 0.018610732804521045 -0.024551965721642841 0 0.018590735210984283 -0.02540000679150025 0 0.017661356926773331 -0.024536947036826278 0 0.018610732804521045 -0.024551965721642841 0 0.017661356926773331 -0.024536947036826278 0 0.018393497908132272 -0.023820199801079935 0 0.017661356926773331 -0.024536947036826278 0 0.018393497908132272 -0.023820199801079935 0 0.017531826661832055 -0.023523483756677645 0 0.018242532415719524 -0.023213358670777385 0 0.017531826661832055 -0.023523483756677645 0 0.017510891995364333 -0.02265923224415867 0 0.018242532415719524 -0.023213358670777385 0 0.018393497908132272 -0.023820199801079935 0 0.017531826661832055 -0.023523483756677645 0 0.017531826661832055 -0.023523483756677645 0 0.016867118929853715 -0.023200028507244796 0 0.016596135201502816 -0.024029493766358496 0 0.017531826661832055 -0.023523483756677645 0 0.016867118929853715 -0.023200028507244796 0 0.017510891995364333 -0.02265923224415867 0 0.017661356926773331 -0.024536947036826278 0 0.017531826661832055 -0.023523483756677645 0 0.016596135201502816 -0.024029493766358496 0 0.016596135201502816 -0.024029493766358496 0 0.016141797563044579 -0.023362178847880485 0 0.014968451628256683 -0.024393297746119036 0 0.016141797563044579 -0.023362178847880485 0 0.015583435236139176 -0.022669452427149125 0 0.014968451628256683 -0.024393297746119036 0 0.016596135201502816 -0.024029493766358496 0 0.016255598955494197 -0.025247514515454331 0 0.014968451628256683 -0.024393297746119036 0 0.017661356926773331 -0.024536947036826278 0 0.016596135201502816 -0.024029493766358496 0 0.016255598955494197 -0.025247514515454331 0 0.016867118929853715 -0.023200028507244796 0 0.016596135201502816 -0.024029493766358496 0 0.016141797563044579 -0.023362178847880485 0 0.016255598955494197 -0.025247514515454331 0 0.014780514091590287 -0.025945203867359486 0 0.014968451628256683 -0.024393297746119036 0 0.015970836834315306 -0.026820272463970986 0 0.017386498738229506 -0.025923870639463574 0 0.016255598955494197 -0.025247514515454331 0 0.015970836834315306 -0.026820272463970986 0 0.016255598955494197 -0.025247514515454331 0 0.014780514091590287 -0.025945203867359486 0 0.0087722465172278847 -0.04140740392366353 0 0.0087903352189723834 -0.043332396078538872 0 0.0071775389412893553 -0.042420640909676316 0 0.0087722465172278847 -0.04140740392366353 0 0.010469370268788624 -0.041192071188481637 0 0.0087903352189723834 -0.043332396078538872 0 0.010469370268788624 -0.041192071188481637 0 0.011477739630066831 -0.043223413027359374 0 0.0087903352189723834 -0.043332396078538872 0 0.012572684695300309 -0.041009520865834891 0 0.010469370268788624 -0.041192071188481637 0 0.011477739630066831 -0.043223413027359374 0 0.012572684695300309 -0.041009520865834891 0 0.01303686348929276 -0.042746891210988729 0 0.011477739630066831 -0.043223413027359374 0 0.011477739630066831 -0.043223413027359374 0 0.011664244830666056 -0.045257158422387138 0 0.01014320283411751 -0.045730622858443114 0 0.011477739630066831 -0.043223413027359374 0 0.01014320283411751 -0.045730622858443114 0 0.0087903352189723834 -0.043332396078538872 0 0.011477739630066831 -0.043223413027359374 0 0.012466040173332483 -0.044011057040132334 0 0.011664244830666056 -0.045257158422387138 0 0.013636514616494549 -0.044964955942802955 0 0.012466040173332483 -0.044011057040132334 0 0.011664244830666056 -0.045257158422387138 0 0.01303686348929276 -0.042746891210988729 0 0.011477739630066831 -0.043223413027359374 0 0.012466040173332483 -0.044011057040132334 0 0.013636514616494549 -0.044964955942802955 0 0.011059540761492809 -0.047101795762724559 0 0.011664244830666056 -0.045257158422387138 0 0.011059540761492809 -0.047101795762724559 0 0.011664244830666056 -0.045257158422387138 0 0.01014320283411751 -0.045730622858443114 0 0.01014320283411751 -0.045730622858443114 0 0.0087903352189723834 -0.043332396078538872 0 0.0080669273928768315 -0.046339641091395448 0 0.0087903352189723834 -0.043332396078538872 0 0.0080669273928768315 -0.046339641091395448 0 0.0066842468941475048 -0.043882603654963569 0 0.0060863192123323069 -0.047946204176463066 0 0.0080669273928768315 -0.046339641091395448 0 0.0066842468941475048 -0.043882603654963569 0 0.0033399291496968922 -0.049403930630325187 0 0.0060863192123323069 -0.047946204176463066 0 0.0066842468941475048 -0.043882603654963569 0 0.0081023820938998757 -0.042366598551351199 0 0.0072053081309029036 -0.043032474902183766 0 0.0066842468941475048 -0.043882603654963569 0 0.0070223223377160445 -0.047544515667375428 0 0.0067638020523825794 -0.043940156030993063 0 0.0087903352189723834 -0.043332396078538872 0 0.0066842468941475048 -0.043882603654963569 0 0.0071775389412893553 -0.042420640909676316 0 0.0072053081309029036 -0.043032474902183766 0 0.0066842468941475048 -0.043882603654963569 0 0.0071775389412893553 -0.042420640909676316 0 0.0085520544680398394 -0.04235332933129704 0 0.0086190716419395786 -0.041161005997143223 0 0.0098843128164854549 -0.036224271794962883 0 0.0085520544680398394 -0.04235332933129704 0 0.0072053081309029036 -0.043032474902183766 0 0.0060766692360553843 -0.042393543275655005 0 0.0086342670498671947 -0.041801742236988751 0 0.0088317867669523101 -0.037868563383646997 0 0.0085520544680398394 -0.04235332933129704 0 0.0098843128164854549 -0.036224271794962883 0 0.011755337996607679 -0.033608343487796753 0 0.0063953038683255952 -0.041288927730596184 0 0.0086190716419395786 -0.041161005997143223 0 0.0081364756467431319 -0.038528875975696993 0 0.012411045484707992 -0.038416992198113065 0 0.0078553525135300027 -0.040404037054043468 0 0.0085520544680398394 -0.04235332933129704 0 0.0081023820938998757 -0.042366598551351199 0 0.0072053081309029036 -0.043032474902183766 0 0.0076611243457293445 -0.0352613886269059 0 0.0081364756467431319 -0.038528875975696993 0 0.0098843128164854549 -0.036224271794962883 0 0.0086190716419395786 -0.041161005997143223 0 0.0081364756467431319 -0.038528875975696993 0 0.0098843128164854549 -0.036224271794962883 0 0.0098843128164854549 -0.036224271794962883 0 0.011755337996607679 -0.033608343487796753 0 0.0093831322942574489 -0.033195526451721455 0 0.0076611243457293445 -0.0352613886269059 0 0.0098843128164854549 -0.036224271794962883 0 0.0093831322942574489 -0.033195526451721455 0 0.0075300960212503322 -0.032721418655630941 0 0.0093831322942574489 -0.033195526451721455 0 0.010138007175319564 -0.030816101418074181 0 0.011755337996607679 -0.033608343487796753 0 0.0093831322942574489 -0.033195526451721455 0 0.010138007175319564 -0.030816101418074181 0 0.0087722465172278847 -0.04140740392366353 0 0.0071775389412893553 -0.042420640909676316 0 0.0077410042112940171 -0.040044111643942198 0 0.0071775389412893553 -0.042420640909676316 0 0.0077410042112940171 -0.040044111643942198 0 0.0067064457014915308 -0.040834780383052896 0 0.0072053081309029036 -0.043032474902183766 0 0.0060766692360553843 -0.042393543275655005 0 0.0071775389412893553 -0.042420640909676316 0 0.0060766692360553843 -0.042393543275655005 0 0.0071775389412893553 -0.042420640909676316 0 0.0067064457014915308 -0.040834780383052896 0 0.0077410042112940171 -0.040044111643942198 0 0.0067064457014915308 -0.040834780383052896 0 0.0055296060963473748 -0.038087005399310397 0 0.010138007175319564 -0.030816101418074181 0 0.0099992477526195164 -0.028732261977738493 0 0.011353575057857102 -0.027037060913768306 0 0.011755337996607679 -0.033608343487796753 0 0.010138007175319564 -0.030816101418074181 0 0.011353575057857102 -0.027037060913768306 0 0.0060766692360553843 -0.042393543275655005 0 0.0067064457014915308 -0.040834780383052896 0 0.0055296060963473748 -0.038087005399310397 0 0.0088317867669523101 -0.037868563383646997 0 0.0084413827901792683 -0.032685229880993989 0 0.0096934041924894732 -0.027775345067487613 0 0.0099992477526195164 -0.028732261977738493 0 0.011353575057857102 -0.027037060913768306 0 0.010135087041706995 -0.026071409343794705 0 0.011353575057857102 -0.027037060913768306 0 0.0096708124084256362 -0.025387557284115229 0 0.0096934041924894732 -0.027775345067487613 0 0.010135087041706995 -0.026071409343794705 0 0.011353575057857102 -0.027037060913768306 0 0.0077410042112940171 -0.040044111643942198 0 0.0055296060963473748 -0.038087005399310397 0 0.0082915148036256554 -0.037423201965601158 0 0.0055296060963473748 -0.038087005399310397 0 0.0082915148036256554 -0.037423201965601158 0 0.0060317692923992786 -0.034202362430988204 0 0.0082915148036256554 -0.037423201965601158 0 0.0097964582645280688 -0.039295889426014842 0 0.010742466076138938 -0.03725708437085401 0 0.0082915148036256554 -0.037423201965601158 0 0.010742466076138938 -0.03725708437085401 0 0.0094487287011132595 -0.035147099076800976 0 0.0077410042112940171 -0.040044111643942198 0 0.0082915148036256554 -0.037423201965601158 0 0.0097964582645280688 -0.039295889426014842 0 0.0087722465172278847 -0.04140740392366353 0 0.0077410042112940171 -0.040044111643942198 0 0.0097964582645280688 -0.039295889426014842 0 0.0087722465172278847 -0.04140740392366353 0 0.010469370268788624 -0.041192071188481637 0 0.0097964582645280688 -0.039295889426014842 0 0.01255780485205967 -0.039175710859576614 0 0.012572684695300309 -0.041009520865834891 0 0.011330567144035965 -0.039915180183499654 0 0.012572684695300309 -0.041009520865834891 0 0.010469370268788624 -0.041192071188481637 0 0.011330567144035965 -0.039915180183499654 0 0.010469370268788624 -0.041192071188481637 0 0.0097964582645280688 -0.039295889426014842 0 0.011330567144035965 -0.039915180183499654 0 0.0097964582645280688 -0.039295889426014842 0 0.011330567144035965 -0.039915180183499654 0 0.011329892605313739 -0.038696178306543295 0 0.01255780485205967 -0.039175710859576614 0 0.011330567144035965 -0.039915180183499654 0 0.011329892605313739 -0.038696178306543295 0 0.01255780485205967 -0.039175710859576614 0 0.011329892605313739 -0.038696178306543295 0 0.012119152143419749 -0.037802269418976665 0 0.0097964582645280688 -0.039295889426014842 0 0.011329892605313739 -0.038696178306543295 0 0.010742466076138938 -0.03725708437085401 0 0.011329892605313739 -0.038696178306543295 0 0.010742466076138938 -0.03725708437085401 0 0.012119152143419749 -0.037802269418976665 0 0.010742466076138938 -0.03725708437085401 0 0.012119152143419749 -0.037802269418976665 0 0.011827892755513691 -0.035918761542584901 0 0.011827892755513691 -0.035918761542584901 0 0.0094487287011132595 -0.035147099076800976 0 0.010690833770185638 -0.033503896445161559 0 0.010742466076138938 -0.03725708437085401 0 0.011827892755513691 -0.035918761542584901 0 0.0094487287011132595 -0.035147099076800976 0 0.010690833770185638 -0.033503896445161559 0 0.0096405085944199134 -0.031646105780485753 0 0.0085772879882571006 -0.032709162946049815 0 0.0094487287011132595 -0.035147099076800976 0 0.010690833770185638 -0.033503896445161559 0 0.0085772879882571006 -0.032709162946049815 0 0.012776379439840124 -0.034043600201442724 0 0.011827892755513691 -0.035918761542584901 0 0.010690833770185638 -0.033503896445161559 0 0.012776379439840124 -0.034043600201442724 0 0.010690833770185638 -0.033503896445161559 0 0.011726086419725942 -0.031368525697346224 0 0.010690833770185638 -0.033503896445161559 0 0.011726086419725942 -0.031368525697346224 0 0.0096405085944199134 -0.031646105780485753 0 0.011726086419725942 -0.031368525697346224 0 0.0096405085944199134 -0.031646105780485753 0 0.0090276258355233181 -0.030074158304951863 0 0.013023079778378624 -0.037565039152762152 0 0.012610093271749988 -0.028834539140951892 0 0.012959533980173472 -0.017049494397185602 0 0.0118129274701261 -0.016609800685421394 0 0.013677799139823671 -0.01675107207791918 0 0.013533703139174676 -0.029704925717869785 0 0.012610093271749988 -0.028834539140951892 0 0.012959533980173472 -0.017049494397185602 0 0.013903173801185888 -0.017243868887988015 0 0.013677799139823671 -0.01675107207791918 0 0.014533909769067247 -0.042930916875834363 0 0.014520937125508646 -0.042797283289186132 0 0.014284156196542776 -0.042651637974720616 0 0.014589656165550696 -0.042964775461762257 0 0.014533909769067247 -0.042930916875834363 0 0.014520937125508646 -0.042797283289186132 0 0.014678757402285627 -0.017621125270958365 0 0.014962432700440483 -0.017844678186296582 0 0.014985186553486882 -0.017838166045763295 0 0.014678757402285627 -0.017621125270958365 0 0.014779673049579127 -0.017679741859729328 0 0.014962432700440483 -0.017844678186296582 0 0.014962432700440483 -0.017844678186296582 0 0.014985186553486882 -0.017838166045763295 0 0.015298646650376184 -0.018246978911690307 0 0.014678757402285627 -0.017621125270958365 0 0.014985186553486882 -0.017838166045763295 0 0.014418118939833637 -0.0175462436158863 0 0.014418118939833637 -0.0175462436158863 0 0.013903173801185888 -0.017243868887988015 0 0.014339884251500378 -0.01739987320612596 0 0.014678757402285627 -0.017621125270958365 0 0.014418118939833637 -0.0175462436158863 0 0.014339884251500378 -0.01739987320612596 0 0.013903173801185888 -0.017243868887988015 0 0.014103227939066102 -0.017156160663814639 0 0.013677799139823671 -0.01675107207791918 0 0.014103227939066102 -0.017156160663814639 0 0.013800200320026977 -0.016956337451239534 0 0.014453648551417234 -0.017430353444213731 0 0.013903173801185888 -0.017243868887988015 0 0.014103227939066102 -0.017156160663814639 0 0.014339884251500378 -0.01739987320612596 0 0.012201541010319832 -0.025540438309247689 0 0.012610093271749988 -0.028834539140951892 0 0.014678757402285627 -0.017621125270958365 0 0.014339884251500378 -0.01739987320612596 0 0.014453648551417234 -0.017430353444213731 0 0.014103227939066102 -0.017156160663814639 0 0.014339884251500378 -0.01739987320612596 0 0.014453648551417234 -0.017430353444213731 0 0.014678757402285627 -0.017621125270958365 0 0.014779673049579127 -0.017679741859729328 0 0.014453648551417234 -0.017430353444213731 0 0.013800200320026977 -0.016956337451239534 0 0.014453648551417234 -0.017430353444213731 0 0.015005170999885182 -0.017822831280662102 0 0.0083515016081393018 -0.030745822129545918 0 0.0074332304851494084 -0.029850151022481879 0 0.0085772879882571006 -0.032709162946049815 0 0.012610093271749988 -0.028834539140951892 0 0.011216499667204569 -0.023532375684320119 0 0.0090276258355233181 -0.030074158304951863 0 0.0083515016081393018 -0.030745822129545918 0 0.007482520436069522 -0.030014239390725637 0 0.0096405085944199134 -0.031646105780485753 0 0.0090276258355233181 -0.030074158304951863 0 0.0083515016081393018 -0.030745822129545918 0 0.0096405085944199134 -0.031646105780485753 0 0.0083515016081393018 -0.030745822129545918 0 0.0085772879882571006 -0.032709162946049815 0 0.011216499667204569 -0.023532375684320119 0 0.013089842557631541 -0.023455375267105876 0 0.007482520436069522 -0.030014239390725637 0 0.009759161779517897 -0.02690862823613218 0 0.01133605462381709 -0.027298317923422376 0 0.014779673049579127 -0.017679741859729328 0 0.014962432700440483 -0.017844678186296582 0 0.015005170999885182 -0.017822831280662102 0 0.014779673049579127 -0.017679741859729328 0 0.014453648551417234 -0.017430353444213731 0 0.015005170999885182 -0.017822831280662102 0 0.0083515016081393018 -0.030745822129545918 0 0.007482520436069522 -0.030014239390725637 0 0.0074332304851494084 -0.029850151022481879 0 0.014962432700440483 -0.017844678186296582 0 0.015005170999885182 -0.017822831280662102 0 0.015298646650376184 -0.018246978911690307 0 0.007482520436069522 -0.030014239390725637 0 0.0074332304851494084 -0.029850151022481879 0 0.009759161779517897 -0.02690862823613218 0 0.009759161779517897 -0.02690862823613218 0 0.0096708124084256362 -0.025387557284115229 0 0.010601711069549167 -0.025333850277731555 0 0.0075043294847542408 -0.029999178455915428 0 0.007859059695998552 -0.030005422961613331 0 0.0074332304851494084 -0.029850151022481879 0 0.009759161779517897 -0.02690862823613218 0 0.0096708124084256362 -0.025387557284115229 0 0.0074332304851494084 -0.029850151022481879 0 0.0085772879882571006 -0.032709162946049815 0 0.0060317692923992786 -0.034202362430988204 0 0.0082915148036256554 -0.037423201965601158 0 0.0094487287011132595 -0.035147099076800976 0 0.0060317692923992786 -0.034202362430988204 0 0.0094487287011132595 -0.035147099076800976 0 0.0085772879882571006 -0.032709162946049815 0 0.0060317692923992786 -0.034202362430988204 0 0.0084413827901792683 -0.032685229880993989 0 0.007859059695998552 -0.030005422961613331 0 0.010135087041706995 -0.026071409343794705 0 0.0096708124084256362 -0.025387557284115229 0 0.010601711069549167 -0.025333850277731555 0 0.010601711069549167 -0.025333850277731555 0 0.011132818270993597 -0.025216513575874157 0 0.011827355776193085 -0.024910509789165338 0 0.010601711069549167 -0.025333850277731555 0 0.010487277013108752 -0.025610461724180592 0 0.011132818270993597 -0.025216513575874157 0 0.010135087041706995 -0.026071409343794705 0 0.010601711069549167 -0.025333850277731555 0 0.010487277013108752 -0.025610461724180592 0 0.014350349303424978 -0.021434867202908721 0 0.013875536695200853 -0.020414389992222084 0 0.013788197974853582 -0.020494334251881591 0 0.0093349080888462822 -0.02656440306079506 0 0.010487277013108752 -0.025610461724180592 0 0.011707826191039879 -0.024916255132748751 0 0.011707826191039879 -0.024916255132748751 0 0.011132818270993597 -0.025216513575874157 0 0.011827355776193085 -0.024910509789165338 0 0.010487277013108752 -0.025610461724180592 0 0.011707826191039879 -0.024916255132748751 0 0.011132818270993597 -0.025216513575874157 0 0.011827355776193085 -0.024910509789165338 0 0.013215043769672192 -0.02276596642367909 0 0.01133605462381709 -0.027298317923422376 0 0.01298851955573762 -0.023044295254251695 0 0.013089842557631541 -0.023455375267105876 0 0.011707826191039879 -0.024916255132748751 0 0.011827355776193085 -0.024910509789165338 0 0.013215043769672192 -0.02276596642367909 0 0.009759161779517897 -0.02690862823613218 0 0.010601711069549167 -0.025333850277731555 0 0.011827355776193085 -0.024910509789165338 0 0.009759161779517897 -0.02690862823613218 0 0.011827355776193085 -0.024910509789165338 0 0.01133605462381709 -0.027298317923422376 0 0.015583435236139176 -0.022669452427149125 0 0.016119737550436025 -0.022096095095486174 0 0.0153616495979898 -0.021715556285212968 0 0.016119737550436025 -0.022096095095486174 0 0.016019768301039773 -0.021446458003798258 0 0.0153616495979898 -0.021715556285212968 0 0.015583435236139176 -0.022669452427149125 0 0.016556307016516513 -0.022544048940183397 0 0.016119737550436025 -0.022096095095486174 0 0.016141797563044579 -0.023362178847880485 0 0.015583435236139176 -0.022669452427149125 0 0.016556307016516513 -0.022544048940183397 0 0.016867118929853715 -0.023200028507244796 0 0.016141797563044579 -0.023362178847880485 0 0.016556307016516513 -0.022544048940183397 0 0.016503553988500518 -0.021935984733538458 0 0.016803200012892209 -0.021519831827430464 0 0.016019768301039773 -0.021446458003798258 0 0.016556307016516513 -0.022544048940183397 0 0.016503553988500518 -0.021935984733538458 0 0.017028595801828129 -0.022093026893856286 0 0.016556307016516513 -0.022544048940183397 0 0.016503553988500518 -0.021935984733538458 0 0.016119737550436025 -0.022096095095486174 0 0.016503553988500518 -0.021935984733538458 0 0.016119737550436025 -0.022096095095486174 0 0.016019768301039773 -0.021446458003798258 0 0.016503553988500518 -0.021935984733538458 0 0.017028595801828129 -0.022093026893856286 0 0.016803200012892209 -0.021519831827430464 0 0.017366351346404872 -0.022122982182900288 0 0.018123174864217117 -0.022232897256227211 0 0.016803200012892209 -0.021519831827430464 0 0.017366351346404872 -0.022122982182900288 0 0.017028595801828129 -0.022093026893856286 0 0.016803200012892209 -0.021519831827430464 0 0.017366351346404872 -0.022122982182900288 0 0.017028595801828129 -0.022093026893856286 0 0.017510891995364333 -0.02265923224415867 0 0.016867118929853715 -0.023200028507244796 0 0.016556307016516513 -0.022544048940183397 0 0.017510891995364333 -0.02265923224415867 0 0.016556307016516513 -0.022544048940183397 0 0.017028595801828129 -0.022093026893856286 0 0.017510891995364333 -0.02265923224415867 0 0.018242532415719524 -0.023213358670777385 0 0.017510891995364333 -0.02265923224415867 0 0.018123174864217117 -0.022232897256227211 0 0.017366351346404872 -0.022122982182900288 0 0.017510891995364333 -0.02265923224415867 0 0.018123174864217117 -0.022232897256227211 0 0.011707826191039879 -0.024916255132748751 0 0.013215043769672192 -0.02276596642367909 0 0.013684877764678463 -0.020353130779929229 0 0.018123174864217117 -0.022232897256227211 0 0.016803200012892209 -0.021519831827430464 0 0.016438288128610708 -0.020269416426310794 0 0.016429380015714982 -0.021176200764987135 0 0.015164561367413398 -0.020217971244508682 0 0.013875536695200853 -0.020414389992222084 0 0.01383842165082556 -0.020176311447657223 0 0.013684877764678463 -0.020353130779929229 0 0.012642100355991769 -0.022455129312432841 0 0.013617383593916708 -0.020902377611638601 0 0.013875536695200853 -0.020414389992222084 0 0.013788197974853582 -0.020494334251881591 0 0.01383842165082556 -0.020176311447657223 0 0.016803200012892209 -0.021519831827430464 0 0.015955186697704522 -0.020777506181460105 0 0.016019768301039773 -0.021446458003798258 0 0.016803200012892209 -0.021519831827430464 0 0.016438288128610708 -0.020269416426310794 0 0.015955186697704522 -0.020777506181460105 0 0.015955186697704522 -0.020777506181460105 0 0.015298950698336837 -0.019903783615412774 0 0.015330304585702635 -0.020882860680001294 0 0.016438288128610708 -0.020269416426310794 0 0.015955186697704522 -0.020777506181460105 0 0.015298950698336837 -0.019903783615412774 0 0.015955186697704522 -0.020777506181460105 0 0.016019768301039773 -0.021446458003798258 0 0.015330304585702635 -0.020882860680001294 0 0.016019768301039773 -0.021446458003798258 0 0.015330304585702635 -0.020882860680001294 0 0.0153616495979898 -0.021715556285212968 0 0.01383842165082556 -0.020176311447657223 0 0.014329321679108392 -0.019474873390815047 0 0.015018606052160474 -0.018800012186445229 0 0.016438288128610708 -0.020269416426310794 0 0.015018606052160474 -0.018800012186445229 0 0.015298950698336837 -0.019903783615412774 0 0.015164561367413398 -0.020217971244508682 0 0.015022009157352162 -0.019038027539866029 0 0.01383842165082556 -0.020176311447657223 0 0.014329321679108392 -0.019474873390815047 0 0.013684877764678463 -0.020353130779929229 0 0.014329321679108392 -0.019474873390815047 0 0.014398202161815168 -0.019305889770500281 0 0.013684877764678463 -0.020353130779929229 0 0.013215043769672192 -0.02276596642367909 0 0.013684877764678463 -0.020353130779929229 0 0.014403554179452563 -0.019693794372362405 0 0.014398202161815168 -0.019305889770500281 0 0.013684877764678463 -0.020353130779929229 0 0.014403554179452563 -0.019693794372362405 0 0.014398202161815168 -0.019305889770500281 0 0.014403554179452563 -0.019693794372362405 0 0.014888817682049476 -0.018654680346973151 0 0.014932161439179728 -0.018615786359222994 0 0.014888817682049476 -0.018654680346973151 0 0.015406186317339678 -0.018000928581152317 0 0.014398202161815168 -0.019305889770500281 0 0.014932161439179728 -0.018615786359222994 0 0.014888817682049476 -0.018654680346973151 0 0.014329321679108392 -0.019474873390815047 0 0.014398202161815168 -0.019305889770500281 0 0.014932161439179728 -0.018615786359222994 0 0.014932161439179728 -0.018615786359222994 0 0.015581410723568273 -0.017970637452717743 0 0.015018606052160474 -0.018800012186445229 0 0.014329321679108392 -0.019474873390815047 0 0.014932161439179728 -0.018615786359222994 0 0.015018606052160474 -0.018800012186445229 0 0.015005170999885182 -0.017822831280662102 0 0.015682014667360189 -0.019545117458960738 0 0.015298646650376184 -0.018246978911690307 0 0.015682014667360189 -0.019545117458960738 0 0.015234125099009569 -0.01869553435138227 0 0.015298646650376184 -0.018246978911690307 0 0.015682014667360189 -0.019545117458960738 0 0.014403554179452563 -0.019693794372362405 0 0.015234125099009569 -0.01869553435138227 0 0.013215043769672192 -0.02276596642367909 0 0.015682014667360189 -0.019545117458960738 0 0.014403554179452563 -0.019693794372362405 0 0.014888817682049476 -0.018654680346973151 0 0.015234125099009569 -0.01869553435138227 0 0.015302836707902218 -0.018087086209645883 0 0.014403554179452563 -0.019693794372362405 0 0.014888817682049476 -0.018654680346973151 0 0.015234125099009569 -0.01869553435138227 0 0.014985186553486882 -0.017838166045763295 0 0.015298646650376184 -0.018246978911690307 0 0.015302836707902218 -0.018087086209645883 0 0.015234125099009569 -0.01869553435138227 0 0.015298646650376184 -0.018246978911690307 0 0.015302836707902218 -0.018087086209645883 0 0.014985186553486882 -0.017838166045763295 0 0.015127357154144812 -0.017914398051489179 0 0.015302836707902218 -0.018087086209645883 0 0.015127357154144812 -0.017914398051489179 0 0.015302836707902218 -0.018087086209645883 0 0.01546524764008269 -0.017905856954881977 0 0.015302836707902218 -0.018087086209645883 0 0.01546524764008269 -0.017905856954881977 0 0.015406186317339678 -0.018000928581152317 0 0.014888817682049476 -0.018654680346973151 0 0.015302836707902218 -0.018087086209645883 0 0.015406186317339678 -0.018000928581152317 0 0.01546524764008269 -0.017905856954881977 0 0.015248598213053346 -0.017975676999039777 0 0.015839039532337028 -0.017798418403583646 0 0.01546524764008269 -0.017905856954881977 0 0.015406186317339678 -0.018000928581152317 0 0.015839039532337028 -0.017798418403583646 0 0.015127357154144812 -0.017914398051489179 0 0.01546524764008269 -0.017905856954881977 0 0.015248598213053346 -0.017975676999039777 0 0.014932161439179728 -0.018615786359222994 0 0.01560052092706603 -0.017943627362502122 0 0.015581410723568273 -0.017970637452717743 0 0.014932161439179728 -0.018615786359222994 0 0.01560052092706603 -0.017943627362502122 0 0.015406186317339678 -0.018000928581152317 0 0.01560052092706603 -0.017943627362502122 0 0.016439789810293749 -0.017426831433679013 0 0.015581410723568273 -0.017970637452717743 0 0.01560052092706603 -0.017943627362502122 0 0.015406186317339678 -0.018000928581152317 0 0.015948555092582212 -0.017722329692658571 0 0.015406186317339678 -0.018000928581152317 0 0.015948555092582212 -0.017722329692658571 0 0.015839039532337028 -0.017798418403583646 0 0.015948555092582212 -0.017722329692658571 0 0.016483917176429774 -0.017751184469872176 0 0.015839039532337028 -0.017798418403583646 0 0.015948555092582212 -0.017722329692658571 0 0.016483917176429774 -0.017751184469872176 0 0.016439789810293749 -0.017426831433679013 0 0.01560052092706603 -0.017943627362502122 0 0.015948555092582212 -0.017722329692658571 0 0.016439789810293749 -0.017426831433679013 0 0.016483917176429774 -0.017751184469872176 0 0.017302175389307319 -0.01771978347291852 0 0.016439789810293749 -0.017426831433679013 0 0.016483917176429774 -0.017751184469872176 0 0.017146732201575855 -0.018080561696868492 0 0.017302175389307319 -0.01771978347291852 0 0.016483917176429774 -0.017751184469872176 0 0.016366646605520729 -0.018025046461934539 0 0.015839039532337028 -0.017798418403583646 0 0.016483917176429774 -0.017751184469872176 0 0.016366646605520729 -0.018025046461934539 0 0.017146732201575855 -0.018080561696868492 0 0.015248598213053346 -0.017975676999039777 0 0.015371003092524376 -0.018050000670753429 0 0.014850681265699913 -0.01821081122483733 0 0.015248598213053346 -0.017975676999039777 0 0.015371003092524376 -0.018050000670753429 0 0.015839039532337028 -0.017798418403583646 0 0.016366646605520729 -0.018025046461934539 0 0.015371003092524376 -0.018050000670753429 0 0.015839039532337028 -0.017798418403583646 0 0.015371003092524376 -0.018050000670753429 0 0.014850681265699913 -0.01821081122483733 0 0.015203322279677911 -0.018272071529867755 0 0.016366646605520729 -0.018025046461934539 0 0.015371003092524376 -0.018050000670753429 0 0.015203322279677911 -0.018272071529867755 0 0.014850681265699913 -0.01821081122483733 0 0.01458437413228335 -0.018375662545351237 0 0.015203322279677911 -0.018272071529867755 0 0.015248598213053346 -0.017975676999039777 0 0.014850681265699913 -0.01821081122483733 0 0.014597014256762733 -0.018079685882464731 0 0.014850681265699913 -0.01821081122483733 0 0.013971438625675648 -0.018448744043789787 0 0.014597014256762733 -0.018079685882464731 0 0.014850681265699913 -0.01821081122483733 0 0.01458437413228335 -0.018375662545351237 0 0.013971438625675648 -0.018448744043789787 0 0.013694716796738938 -0.017956488626394311 0 0.012866858722453462 -0.017666469940365918 0 0.012782549327864358 -0.017406694113025849 0 0.011204834061638478 -0.017371787493638446 0 0.011556323314240266 -0.017970765498212131 0 0.011204834061638478 -0.017371787493638446 0 0.011556323314240266 -0.017970765498212131 0 0.010246987914821941 -0.017695700273436046 0 0.010417837681516096 -0.016858489123197061 0 0.011204834061638478 -0.017371787493638446 0 0.011465107879136604 -0.01705261017507044 0 0.012782549327864358 -0.017406694113025849 0 0.011204834061638478 -0.017371787493638446 0 0.01179264408338577 -0.016982009610352584 0 0.011204834061638478 -0.017371787493638446 0 0.01179264408338577 -0.016982009610352584 0 0.011465107879136604 -0.01705261017507044 0 0.012866858722453462 -0.017666469940365918 0 0.012197567439144208 -0.017206705771048787 0 0.01179264408338577 -0.016982009610352584 0 0.011465107879136604 -0.01705261017507044 0 0.012147743022366835 -0.017259432425204432 0 0.013971438625675648 -0.018448744043789787 0 0.012147743022366835 -0.017259432425204432 0 0.01389471295768167 -0.017574314204203436 0 0.010417837681516096 -0.016858489123197061 0 0.011465107879136604 -0.01705261017507044 0 0.011314125426071677 -0.016975608284173313 0 0.011465107879136604 -0.01705261017507044 0 0.011314125426071677 -0.016975608284173313 0 0.012147743022366835 -0.017259432425204432 0 0.0118129274701261 -0.016609800685421394 0 0.011314125426071677 -0.016975608284173313 0 0.012147743022366835 -0.017259432425204432 0 0.012959533980173472 -0.017049494397185602 0 0.012147743022366835 -0.017259432425204432 0 0.01389471295768167 -0.017574314204203436 0 0.012959533980173472 -0.017049494397185602 0 0.0118129274701261 -0.016609800685421394 0 0.012147743022366835 -0.017259432425204432 0 0.012959533980173472 -0.017049494397185602 0 0.013903173801185888 -0.017243868887988015 0 0.01389471295768167 -0.017574314204203436 0 0.01389471295768167 -0.017574314204203436 0 0.014664210643203193 -0.017778809120115972 0 0.014597014256762733 -0.018079685882464731 0 0.014418118939833637 -0.0175462436158863 0 0.013903173801185888 -0.017243868887988015 0 0.01389471295768167 -0.017574314204203436 0 0.014418118939833637 -0.0175462436158863 0 0.01389471295768167 -0.017574314204203436 0 0.014664210643203193 -0.017778809120115972 0 0.014985186553486882 -0.017838166045763295 0 0.014418118939833637 -0.0175462436158863 0 0.014664210643203193 -0.017778809120115972 0 0.015127357154144812 -0.017914398051489179 0 0.014664210643203193 -0.017778809120115972 0 0.014597014256762733 -0.018079685882464731 0 0.014985186553486882 -0.017838166045763295 0 0.015127357154144812 -0.017914398051489179 0 0.014664210643203193 -0.017778809120115972 0 0.015127357154144812 -0.017914398051489179 0 0.015248598213053346 -0.017975676999039777 0 0.014597014256762733 -0.018079685882464731 0 0.013971438625675648 -0.018448744043789787 0 0.01389471295768167 -0.017574314204203436 0 0.014597014256762733 -0.018079685882464731 0 0.025035371092872988 -0.015997280681289271 0 0.024568269816194557 -0.01559812699908085 0 0.026469117444665572 -0.015694113808913491 0 0.025035371092872988 -0.015997280681289271 0 0.024451971844576755 -0.016581942343011493 0 0.025634171765434869 -0.016514221679499418 0 0.025035371092872988 -0.015997280681289271 0 0.023829570066183112 -0.01598876236301915 0 0.024451971844576755 -0.016581942343011493 0 0.023829570066183112 -0.01598876236301915 0 0.024451971844576755 -0.016581942343011493 0 0.023243772605006742 -0.016629031154259764 0 0.023829570066183112 -0.01598876236301915 0 0.024568269816194557 -0.01559812699908085 0 0.023803367831916108 -0.016350518493488723 0 0.025035371092872988 -0.015997280681289271 0 0.023829570066183112 -0.01598876236301915 0 0.024568269816194557 -0.01559812699908085 0 0.028097971379460032 -0.018957979429183227 0 0.028426706040388369 -0.018626582189599547 0 0.028626465545259633 -0.018025544103081693 0 0.026346849685095406 -0.017276698633158352 0 0.027526848772667624 -0.016881657428745065 0 0.028426706040388369 -0.018626582189599547 0 0.028626465545259633 -0.018025544103081693 0 0.028117689581012528 -0.017754350616509599 0 0.028426706040388369 -0.018626582189599547 0 0.028339418623955892 -0.018711631240136875 0 0.028117689581012528 -0.017754350616509599 0 0.028626465545259633 -0.018025544103081693 0 0.028485057942712361 -0.016766106492801316 0 0.028117689581012528 -0.017754350616509599 0 0.027526848772667624 -0.016881657428745065 0 0.028352700045898876 -0.016817391389477722 0 0.025035371092872988 -0.015997280681289271 0 0.026469117444665572 -0.015694113808913491 0 0.025634171765434869 -0.016514221679499418 0 0.027088174169125848 -0.017219300243350215 0 0.025172401161732121 -0.017272918752434731 0 0.025634171765434869 -0.016514221679499418 0 0.026469117444665572 -0.015694113808913491 0 0.027088174169125848 -0.017219300243350215 0 0.025634171765434869 -0.016514221679499418 0 0.028485057942712361 -0.016766106492801316 0 0.027990342782002377 -0.016887806824191848 0 0.027088174169125848 -0.017219300243350215 0 0.028485057942712361 -0.016766106492801316 0 0.027990342782002377 -0.016887806824191848 0 0.029187113627474458 -0.01654969146004992 0 0.026469117444665572 -0.015694113808913491 0 0.028485057942712361 -0.016766106492801316 0 0.027088174169125848 -0.017219300243350215 0 0.029740915238395373 -0.015946585017867426 0 0.029237528479535979 -0.016506563902027239 0 0.032335139582721113 -0.01502339083491841 0 0.029187113627474458 -0.01654969146004992 0 0.030300055558597605 -0.014476203390424372 0 0.027990342782002377 -0.016887806824191848 0 0.027244795273613027 -0.017090070834964752 0 0.029187113627474458 -0.01654969146004992 0 0.027990342782002377 -0.016887806824191848 0 0.027088174169125848 -0.017219300243350215 0 0.027244795273613027 -0.017090070834964752 0 0.027088174169125848 -0.017219300243350215 0 0.027244795273613027 -0.017090070834964752 0 0.027423378077176031 -0.015893710795898897 0 0.027007277061060264 -0.01723017194239166 0 0.026026039258590278 -0.017430430946258343 0 0.027088174169125848 -0.017219300243350215 0 0.027684425090769051 -0.016081132113040617 0 0.027423378077176031 -0.015893710795898897 0 0.024456723235057327 -0.018837227217136168 0 0.025172401161732121 -0.017272918752434731 0 0.024026470479425032 -0.017447287018847891 0 0.027088174169125848 -0.017219300243350215 0 0.024456723235057327 -0.018837227217136168 0 0.025172401161732121 -0.017272918752434731 0 0.025172401161732121 -0.017272918752434731 0 0.024451971844576755 -0.016581942343011493 0 0.024026470479425032 -0.017447287018847891 0 0.025172401161732121 -0.017272918752434731 0 0.024451971844576755 -0.016581942343011493 0 0.025634171765434869 -0.016514221679499418 0 0.024451971844576755 -0.016581942343011493 0 0.024026470479425032 -0.017447287018847891 0 0.023243772605006742 -0.016629031154259764 0 0.024026470479425032 -0.017447287018847891 0 0.022629591155203427 -0.018116889275554673 0 0.023243772605006742 -0.016629031154259764 0 0.024456723235057327 -0.018837227217136168 0 0.024026470479425032 -0.017447287018847891 0 0.022629591155203427 -0.018116889275554673 0 0.022629591155203427 -0.018116889275554673 0 0.021499648935911633 -0.017418946845717174 0 0.021041514177001359 -0.018709743071001428 0 0.020197328024165077 -0.01823670246730779 0 0.021499648935911633 -0.017418946845717174 0 0.021041514177001359 -0.018709743071001428 0 0.020197328024165077 -0.01823670246730779 0 0.019553753247544124 -0.018674913523165068 0 0.021041514177001359 -0.018709743071001428 0 0.020197328024165077 -0.01823670246730779 0 0.021499648935911633 -0.017418946845717174 0 0.018808987889000369 -0.017921654522678923 0 0.021608150589214583 -0.017457997887349305 0 0.021481188376035045 -0.016244430670782108 0 0.021499648935911633 -0.017418946845717174 0 0.018808987889000369 -0.017921654522678923 0 0.019666774014159009 -0.01595664950321642 0 0.021499648935911633 -0.017418946845717174 0 0.023243772605006742 -0.016629031154259764 0 0.023264339518595516 -0.01610669167959192 0 0.022629591155203427 -0.018116889275554673 0 0.021499648935911633 -0.017418946845717174 0 0.023243772605006742 -0.016629031154259764 0 0.017146732201575855 -0.018080561696868492 0 0.017302175389307319 -0.01771978347291852 0 0.018253066065033588 -0.018504134270232477 0 0.018808987889000369 -0.017921654522678923 0 0.017302175389307319 -0.01771978347291852 0 0.018253066065033588 -0.018504134270232477 0 0.020197328024165077 -0.01823670246730779 0 0.018808987889000369 -0.017921654522678923 0 0.019553753247544124 -0.018674913523165068 0 0.018808987889000369 -0.017921654522678923 0 0.018253066065033588 -0.018504134270232477 0 0.019553753247544124 -0.018674913523165068 0 0.018808987889000369 -0.017921654522678923 0 0.017333733260384274 -0.016902680741638948 0 0.019666774014159009 -0.01595664950321642 0 0.018808987889000369 -0.017921654522678923 0 0.017302175389307319 -0.01771978347291852 0 0.017333733260384274 -0.016902680741638948 0 0.017302175389307319 -0.01771978347291852 0 0.016439789810293749 -0.017426831433679013 0 0.017333733260384274 -0.016902680741638948 0 0.016439789810293749 -0.017426831433679013 0 0.017333733260384274 -0.016902680741638948 0 0.015581410723568273 -0.017970637452717743 0 0.017333733260384274 -0.016902680741638948 0 0.019666774014159009 -0.01595664950321642 0 0.017736133192885643 -0.013982876681668843 0 0.019666774014159009 -0.01595664950321642 0 0.017736133192885643 -0.013982876681668843 0 0.018619249553673826 -0.01373673036965313 0 0.017184272038231672 -0.017109374654235784 0 0.01620699086769985 -0.015877393831511061 0 0.017333733260384274 -0.016902680741638948 0 0.015581410723568273 -0.017970637452717743 0 0.014914509164848235 -0.01817313744322133 0 0.023829570066183112 -0.01598876236301915 0 0.023243772605006742 -0.016629031154259764 0 0.023264339518595516 -0.01610669167959192 0 0.021481188376035045 -0.016244430670782108 0 0.022150313459330859 -0.0148621544429887 0 0.023264339518595516 -0.01610669167959192 0 0.023981440308639346 -0.016249282756602906 0 0.024869002337630328 -0.016633338085485182 0 0.023829570066183112 -0.01598876236301915 0 0.023981440308639346 -0.016249282756602906 0 0.023803367831916108 -0.016350518493488723 0 0.023829570066183112 -0.01598876236301915 0 0.023264339518595516 -0.01610669167959192 0 0.023981440308639346 -0.016249282756602906 0 0.023981440308639346 -0.016249282756602906 0 0.024660960104606184 -0.016945462372585499 0 0.023803367831916108 -0.016350518493488723 0 0.023981440308639346 -0.016249282756602906 0 0.024660960104606184 -0.016945462372585499 0 0.024869002337630328 -0.016633338085485182 0 0.024660960104606184 -0.016945462372585499 0 0.025013060884143352 -0.017824236924669012 0 0.0253248584680573 -0.017646582978092538 0 0.025052425629732953 -0.017797444683748651 0 0.025364748833707592 -0.01765253106042277 0 0.025013060884143352 -0.017824236924669012 0 0.02687587046771673 -0.018085793476864648 0 0.026818709414221459 -0.019019984066660445 0 0.024660960104606184 -0.016945462372585499 0 0.025013060884143352 -0.017824236924669012 0 0.023803367831916108 -0.016350518493488723 0 0.015018606052160474 -0.018800012186445229 0 0.014914509164848235 -0.01817313744322133 0 0.014054662086994336 -0.019776550529221445 0 0.015581410723568273 -0.017970637452717743 0 0.015018606052160474 -0.018800012186445229 0 0.014914509164848235 -0.01817313744322133 0 0.024660960104606184 -0.016945462372585499 0 0.024869002337630328 -0.016633338085485182 0 0.0253248584680573 -0.017646582978092538 0 0.017736133192885643 -0.013982876681668843 0 0.018619249553673826 -0.01373673036965313 0 0.017951369965165713 -0.012008360208431825 0 0.01620699086769985 -0.015877393831511061 0 0.017534965772706697 -0.017246901281408596 0 0.022150313459330859 -0.0148621544429887 0 0.017534965772706697 -0.017246901281408596 0 0.015018606052160474 -0.018800012186445229 0 0.014054662086994336 -0.019776550529221445 0 0.015298950698336837 -0.019903783615412774 0 0.014054662086994336 -0.019776550529221445 0 0.015298950698336837 -0.019903783615412774 0 0.014744366414989989 -0.020464063818596747 0 0.017534965772706697 -0.017246901281408596 0 0.013882119250916944 -0.022133430349432926 0 0.014935658028949878 -0.021210190964942931 0 0.014744366414989989 -0.020464063818596747 0 0.01435858420419759 -0.021961546384527134 0 0.014054662086994336 -0.019776550529221445 0 0.014744366414989989 -0.020464063818596747 0 0.01435858420419759 -0.021961546384527134 0 0.014935658028949878 -0.021210190964942931 0 0.015330304585702635 -0.020882860680001294 0 0.014744366414989989 -0.020464063818596747 0 0.014935658028949878 -0.021210190964942931 0 0.015330304585702635 -0.020882860680001294 0 0.0153616495979898 -0.021715556285212968 0 0.015298950698336837 -0.019903783615412774 0 0.015330304585702635 -0.020882860680001294 0 0.014744366414989989 -0.020464063818596747 0 0.01328495852491063 -0.018799253213276905 0 0.013019297685844269 -0.022050978816583765 0 0.014149010073180505 -0.021618017972741238 0 0.017534965772706697 -0.017246901281408596 0 0.019348019071637034 -0.020012785714457575 0 0.0253248584680573 -0.017646582978092538 0 0.025289035989180215 -0.017670216624583349 0 0.025237821931431235 -0.017567191268002672 0 0.025237821931431235 -0.017567191268002672 0 0.025370188753208053 -0.017543038567835845 0 0.025464653307780857 -0.017368646001079263 0 0.025289035989180215 -0.017670216624583349 0 0.025237821931431235 -0.017567191268002672 0 0.025370188753208053 -0.017543038567835845 0 0.015583435236139176 -0.022669452427149125 0 0.01435858420419759 -0.021961546384527134 0 0.014968451628256683 -0.024393297746119036 0 0.013019297685844269 -0.022050978816583765 0 0.014149010073180505 -0.021618017972741238 0 0.014968451628256683 -0.024393297746119036 0 0.014935658028949878 -0.021210190964942931 0 0.01435858420419759 -0.021961546384527134 0 0.0153616495979898 -0.021715556285212968 0 0.015583435236139176 -0.022669452427149125 0 0.01435858420419759 -0.021961546384527134 0 0.0153616495979898 -0.021715556285212968 0 0.025013060884143352 -0.017824236924669012 0 0.026040169262103331 -0.017643680518026984 0 0.02687587046771673 -0.018085793476864648 0 0.025013060884143352 -0.017824236924669012 0 0.026040169262103331 -0.017643680518026984 0 0.025498401095111596 -0.017589836825670696 0 0.025013060884143352 -0.017824236924669012 0 0.0253248584680573 -0.017646582978092538 0 0.025289035989180215 -0.017670216624583349 0 0.025013060884143352 -0.017824236924669012 0 0.025289035989180215 -0.017670216624583349 0 0.025498401095111596 -0.017589836825670696 0 0.025498401095111596 -0.017589836825670696 0 0.025464653307780857 -0.017368646001079263 0 0.026026431581879221 -0.017283138999256958 0 0.025498401095111596 -0.017589836825670696 0 0.025370188753208053 -0.017543038567835845 0 0.025464653307780857 -0.017368646001079263 0 0.025289035989180215 -0.017670216624583349 0 0.025498401095111596 -0.017589836825670696 0 0.025370188753208053 -0.017543038567835845 0 0.026040169262103331 -0.017643680518026984 0 0.025498401095111596 -0.017589836825670696 0 0.026026431581879221 -0.017283138999256958 0 0.026040169262103331 -0.017643680518026984 0 0.026902692739254417 -0.017540582943558061 0 0.026026431581879221 -0.017283138999256958 0 0.026902692739254417 -0.017540582943558061 0 0.027792040452081307 -0.017310744948079243 0 0.027842799410513139 -0.018065044330447928 0 0.026902692739254417 -0.017540582943558061 0 0.027842799410513139 -0.018065044330447928 0 0.02687587046771673 -0.018085793476864648 0 0.027842799410513139 -0.018065044330447928 0 0.02687587046771673 -0.018085793476864648 0 0.028187007792115436 -0.018763345600591907 0 0.026040169262103331 -0.017643680518026984 0 0.026902692739254417 -0.017540582943558061 0 0.02687587046771673 -0.018085793476864648 0 0.02687587046771673 -0.018085793476864648 0 0.028187007792115436 -0.018763345600591907 0 0.026818709414221459 -0.019019984066660445 0 0.028097971379460032 -0.018957979429183227 0 0.028426706040388369 -0.018626582189599547 0 0.028187007792115436 -0.018763345600591907 0 0.028097971379460032 -0.018957979429183227 0 0.028187007792115436 -0.018763345600591907 0 0.026818709414221459 -0.019019984066660445 0 0.026346849685095406 -0.017276698633158352 0 0.025364748833707592 -0.01765253106042277 0 0.028426706040388369 -0.018626582189599547 0 0.028187007792115436 -0.018763345600591907 0 0.028339418623955892 -0.018711631240136875 0 0.028187007792115436 -0.018763345600591907 0 0.028339418623955892 -0.018711631240136875 0 0.02877823564749309 -0.018787192097980313 0 0.03050273812099227 -0.020887676162977726 0 0.02877823564749309 -0.018787192097980313 0 0.030703305625247521 -0.019658897214365357 0 0.029411143677985759 -0.019700683033433305 0 0.028810156516780872 -0.018796815644479582 0 0.02877823564749309 -0.018787192097980313 0 0.030703305625247521 -0.019658897214365357 0 0.030382203529783408 -0.018050968299684965 0 0.027842799410513139 -0.018065044330447928 0 0.028187007792115436 -0.018763345600591907 0 0.02877823564749309 -0.018787192097980313 0 0.027842799410513139 -0.018065044330447928 0 0.02877823564749309 -0.018787192097980313 0 0.028778114572907829 -0.017396758576844671 0 0.027792040452081307 -0.017310744948079243 0 0.027842799410513139 -0.018065044330447928 0 0.028778114572907829 -0.017396758576844671 0 0.02877823564749309 -0.018787192097980313 0 0.028778114572907829 -0.017396758576844671 0 0.030382203529783408 -0.018050968299684965 0 0.028778114572907829 -0.017396758576844671 0 0.030236406847165932 -0.016512672226171719 0 0.030382203529783408 -0.018050968299684965 0 0.028778114572907829 -0.017396758576844671 0 0.02887492609401162 -0.016443456682381778 0 0.030236406847165932 -0.016512672226171719 0 0.02903567575858957 -0.016506412539452769 0 0.030360785577002506 -0.017116012469149535 0 0.02887492609401162 -0.016443456682381778 0 0.030427836709072859 -0.017697875653465204 0 0.030125154587267815 -0.016137558833550846 0 0.02887492609401162 -0.016443456682381778 0 0.028076509599264464 -0.016799775799126192 0 0.027794600335834054 -0.016194718258480859 0 0.027792040452081307 -0.017310744948079243 0 0.028778114572907829 -0.017396758576844671 0 0.028076509599264464 -0.016799775799126192 0 0.028778114572907829 -0.017396758576844671 0 0.02887492609401162 -0.016443456682381778 0 0.028076509599264464 -0.016799775799126192 0 0.026902692739254417 -0.017540582943558061 0 0.027792040452081307 -0.017310744948079243 0 0.027002620390795349 -0.016734035333763844 0 0.027792040452081307 -0.017310744948079243 0 0.028076509599264464 -0.016799775799126192 0 0.027002620390795349 -0.016734035333763844 0 0.026902692739254417 -0.017540582943558061 0 0.027002620390795349 -0.016734035333763844 0 0.026026431581879221 -0.017283138999256958 0 0.027002620390795349 -0.016734035333763844 0 0.02658965264432318 -0.01573466946019237 0 0.025772045966353976 -0.016387494443568913 0 0.027002620390795349 -0.016734035333763844 0 0.027794600335834054 -0.016194718258480859 0 0.02658965264432318 -0.01573466946019237 0 0.028076509599264464 -0.016799775799126192 0 0.027002620390795349 -0.016734035333763844 0 0.027794600335834054 -0.016194718258480859 0 0.02755513557131492 -0.016253703978564217 0 0.026482947241603376 -0.015804927405456675 0 0.027794600335834054 -0.016194718258480859 0 0.027252991861437977 -0.015583608244955574 0 0.025847825060108333 -0.016372531015664701 0 0.027794600335834054 -0.016194718258480859 0 0.027252991861437977 -0.015583608244955574 0 0.028192439355485405 -0.015586489916540431 0 0.025847825060108333 -0.016372531015664701 0 0.026549163761896796 -0.014754303858439561 0 0.024772493182943216 -0.01512502814827074 0 0.027252991861437977 -0.015583608244955574 0 0.025847825060108333 -0.016372531015664701 0 0.026549163761896796 -0.014754303858439561 0 0.026549163761896796 -0.014754303858439561 0 0.027992187778362831 -0.014889425545985383 0 0.027808691765050905 -0.014145794484708801 0 0.027252991861437977 -0.015583608244955574 0 0.026549163761896796 -0.014754303858439561 0 0.027992187778362831 -0.014889425545985383 0 0.027252991861437977 -0.015583608244955574 0 0.027992187778362831 -0.014889425545985383 0 0.028192439355485405 -0.015586489916540431 0 0.027992187778362831 -0.014889425545985383 0 0.029173885264471348 -0.0153233446571895 0 0.028722255593105244 -0.014350813849336787 0 0.027992187778362831 -0.014889425545985383 0 0.029173885264471348 -0.0153233446571895 0 0.028192439355485405 -0.015586489916540431 0 0.029173885264471348 -0.0153233446571895 0 0.029765542262546029 -0.014297528936025839 0 0.028722255593105244 -0.014350813849336787 0 0.02887492609401162 -0.016443456682381778 0 0.029173885264471348 -0.0153233446571895 0 0.030125154587267815 -0.016137558833550846 0 0.02887492609401162 -0.016443456682381778 0 0.027794600335834054 -0.016194718258480859 0 0.028192439355485405 -0.015586489916540431 0 0.02887492609401162 -0.016443456682381778 0 0.029173885264471348 -0.0153233446571895 0 0.028192439355485405 -0.015586489916540431 0 0.014780514091590287 -0.025945203867359486 0 0.012787184044166365 -0.025165166548814781 0 0.013697382214228414 -0.026929279468417527 0 0.014780514091590287 -0.025945203867359486 0 0.014968451628256683 -0.024393297746119036 0 0.012787184044166365 -0.025165166548814781 0 0.013019297685844269 -0.022050978816583765 0 0.014968451628256683 -0.024393297746119036 0 0.012787184044166365 -0.025165166548814781 0 0.013882119250916944 -0.022133430349432926 0 0.015018967082142232 -0.024133124270323537 0 0.025237821931431235 -0.017567191268002672 0 0.025344549166878109 -0.017346744887643768 0 0.025464653307780857 -0.017368646001079263 0 0.019348019071637034 -0.020012785714457575 0 0.019127612320904857 -0.02125273702899478 0 0.025407188880483853 -0.01730871019853544 0 0.025464653307780857 -0.017368646001079263 0 0.025553180797994672 -0.017249520248938777 0 0.025344549166878109 -0.017346744887643768 0 0.025407188880483853 -0.01730871019853544 0 0.025464653307780857 -0.017368646001079263 0 0.025464653307780857 -0.017368646001079263 0 0.026026431581879221 -0.017283138999256958 0 0.025553180797994672 -0.017249520248938777 0 0.02596818976960585 -0.017355778093561588 0 0.025849311223458078 -0.016625990700556842 0 0.027002620390795349 -0.016734035333763844 0 0.026026431581879221 -0.017283138999256958 0 0.025772045966353976 -0.016387494443568913 0 0.026482947241603376 -0.015804927405456675 0 0.023102379857482765 -0.017958249273455306 0 0.02658965264432318 -0.01573466946019237 0 0.025772045966353976 -0.016387494443568913 0 0.025395183486841576 -0.015438701514602648 0 0.025847825060108333 -0.016372531015664701 0 0.024772493182943216 -0.01512502814827074 0 0.023759392179078541 -0.016151468248376512 0 0.024772493182943216 -0.01512502814827074 0 0.023259488391593513 -0.015171926530888977 0 0.023759392179078541 -0.016151468248376512 0 0.017075414420443035 -0.025035844085285173 0 0.015456758240707507 -0.020597281472387614 0 0.020656614575015785 -0.021964341024570753 0 0.019350520824034358 -0.018173414433406157 0 0.023102379857482765 -0.017958249273455306 0 0.025407188880483853 -0.01730871019853544 0 0.025553180797994672 -0.017249520248938777 0 0.025368986984747991 -0.017340180904522339 0 0.025407188880483853 -0.01730871019853544 0 0.025368986984747991 -0.017340180904522339 0 0.025348899995489216 -0.01742156153176258 0 0.025849311223458078 -0.016625990700556842 0 0.023102379857482765 -0.017958249273455306 0 0.023102379857482765 -0.017958249273455306 0 0.018201200136851555 -0.022686906133623903 0 0.025344549166878109 -0.017346744887643768 0 0.025407188880483853 -0.01730871019853544 0 0.025348899995489216 -0.01742156153176258 0 0.019127612320904857 -0.02125273702899478 0 0.018201200136851555 -0.022686906133623903 0 0.012787184044166365 -0.025165166548814781 0 0.012542395017651087 -0.02825192672133052 0 0.013697382214228414 -0.026929279468417527 0 0.012542395017651087 -0.02825192672133052 0 0.013512339738614343 -0.027975443725306127 0 0.013697382214228414 -0.026929279468417527 0 0.017075414420443035 -0.025035844085285173 0 0.020656614575015785 -0.021964341024570753 0 0.020246816350564887 -0.02937965172841446 0 0.012530745469263383 -0.02852296395583695 0 0.013875653448789192 -0.029312379551621002 0 0.012415852457041498 -0.03123527387207712 0 0.018201200136851555 -0.022686906133623903 0 0.015407395177903302 -0.039448029108417743 0 0.018201200136851555 -0.022686906133623903 0 0.012986453552395628 -0.02793846117056345 0 0.012542395017651087 -0.02825192672133052 0 0.014194776908858325 -0.02887295479385521 0 0.013512339738614343 -0.027975443725306127 0 0.016111553224786957 -0.029324531323558164 0 0.014194776908858325 -0.02887295479385521 0 0.013875653448789192 -0.029312379551621002 0 0.012530745469263383 -0.02852296395583695 0 0.014194776908858325 -0.02887295479385521 0 0.013875653448789192 -0.029312379551621002 0 0.015678368788979619 -0.029703622086135497 0 0.014035351097036479 -0.029359227430118533 0 0.015599594158904497 -0.03006823279140057 0 0.013875653448789192 -0.029312379551621002 0 0.014940656830780955 -0.030905527321101783 0 0.015484666588066099 -0.028208146012348324 0 0.014194776908858325 -0.02887295479385521 0 0.014638306872835752 -0.027414148502801026 0 0.014638306872835752 -0.027414148502801026 0 0.013512339738614343 -0.027975443725306127 0 0.013697382214228414 -0.026929279468417527 0 0.014194776908858325 -0.02887295479385521 0 0.014638306872835752 -0.027414148502801026 0 0.013512339738614343 -0.027975443725306127 0 0.014780514091590287 -0.025945203867359486 0 0.014638306872835752 -0.027414148502801026 0 0.013697382214228414 -0.026929279468417527 0 0.015970836834315306 -0.026820272463970986 0 0.014780514091590287 -0.025945203867359486 0 0.014638306872835752 -0.027414148502801026 0 0.013902255878283988 -0.058201988479078787 0 0.014850189509764022 -0.058665868965731935 0 0.014869146147290076 -0.057819837059829647 0 0.014850189509764022 -0.058665868965731935 0 0.01557520338336673 -0.058422054620919615 0 0.014869146147290076 -0.057819837059829647 0 0.014850189509764022 -0.058665868965731935 0 0.01397281342730199 -0.059078221316437446 0 0.014925690519909525 -0.059311346626812034 0 0.014850189509764022 -0.058665868965731935 0 0.014925690519909525 -0.059311346626812034 0 0.015618867179394261 -0.058976017116125982 0 0.014850189509764022 -0.058665868965731935 0 0.015618867179394261 -0.058976017116125982 0 0.01557520338336673 -0.058422054620919615 0 0.013902255878283988 -0.058201988479078787 0 0.014850189509764022 -0.058665868965731935 0 0.01397281342730199 -0.059078221316437446 0 0.01397281342730199 -0.059078221316437446 0 0.013873482538653293 -0.060089657329085971 0 0.014925690519909525 -0.059311346626812034 0 0.014188392075121327 -0.046077944318840262 0 0.015407395177903302 -0.039448029108417743 0 0.013873482538653293 -0.060089657329085971 0 0.014925690519909525 -0.059311346626812034 0 0.016271984002901543 -0.059732742055233122 0 0.013875653448789192 -0.029312379551621002 0 0.014940656830780955 -0.030905527321101783 0 0.012415852457041498 -0.03123527387207712 0 0.014925690519909525 -0.059311346626812034 0 0.016271984002901543 -0.059732742055233122 0 0.015618867179394261 -0.058976017116125982 0 0.017075414420443035 -0.025035844085285173 0 0.018729453555263127 -0.029543197043940785 0 0.020246816350564887 -0.02937965172841446 0 0.015407395177903302 -0.039448029108417743 0 0.018021821479666682 -0.058580506846530551 0 0.013289385098015962 -0.041953483242859621 0 0.020053260502597155 -0.041191929633952927 0 0.01915765191729284 -0.057613395688999938 0 0.020396478140480526 -0.036183128538142643 0 0.015407395177903302 -0.039448029108417743 0 0.01745795119158456 -0.060340075542881677 0 0.016837797749522862 -0.059161485742377486 0 0.017697094240225579 -0.059074991792656448 0 0.020396478140480526 -0.036183128538142643 0 0.018021821479666682 -0.058580506846530551 0 0.016837797749522862 -0.059161485742377486 0 0.017197825019086007 -0.058686492024165648 0 0.017697094240225579 -0.059074991792656448 0 0.018021821479666682 -0.058580506846530551 0 0.017933012544170998 -0.058690211728022093 0 0.016311427718062727 -0.058741395347437254 0 0.015618867179394261 -0.058976017116125982 0 0.01557520338336673 -0.058422054620919615 0 0.016271984002901543 -0.059732742055233122 0 0.016311427718062727 -0.058741395347437254 0 0.015618867179394261 -0.058976017116125982 0 0.016311427718062727 -0.058741395347437254 0 0.01557520338336673 -0.058422054620919615 0 0.016095800927025224 -0.057824292361352878 0 0.01557520338336673 -0.058422054620919615 0 0.016095800927025224 -0.057824292361352878 0 0.014869146147290076 -0.057819837059829647 0 0.016831359102277548 -0.059207933650160326 0 0.016814896380961935 -0.058880076933651139 0 0.016095800927025224 -0.057824292361352878 0 0.018021821479666682 -0.058580506846530551 0 0.016516819765500127 -0.057854609598708466 0 0.016946524196554513 -0.058135760817483083 0 0.016814896380961935 -0.058880076933651139 0 0.016095800927025224 -0.057824292361352878 0 0.016946524196554513 -0.058135760817483083 0 0.017197825019086007 -0.058686492024165648 0 0.01770010050528352 -0.058145391439947548 0 0.016946524196554513 -0.058135760817483083 0 0.017197825019086007 -0.058686492024165648 0 0.016814896380961935 -0.058880076933651139 0 0.016837797749522862 -0.059161485742377486 0 0.017197825019086007 -0.058686492024165648 0 0.016814896380961935 -0.058880076933651139 0 0.01770010050528352 -0.058145391439947548 0 0.018746083668214186 -0.059117119517055991 0 0.017697094240225579 -0.059074991792656448 0 0.017197825019086007 -0.058686492024165648 0 0.01770010050528352 -0.058145391439947548 0 0.017697094240225579 -0.059074991792656448 0 0.01770010050528352 -0.058145391439947548 0 0.018746083668214186 -0.059117119517055991 0 0.018643644857413967 -0.057498755573507816 0 0.018746083668214186 -0.059117119517055991 0 0.02020677868150262 -0.058236121120546006 0 0.018643644857413967 -0.057498755573507816 0 0.01745795119158456 -0.060340075542881677 0 0.018746083668214186 -0.059117119517055991 0 0.017697094240225579 -0.059074991792656448 0 0.023259488391593513 -0.015171926530888977 0 0.022690370473596642 -0.014211135406145348 0 0.024800068905974148 -0.013815127631563949 0 0.020396478140480526 -0.036183128538142643 0 0.022589649920326766 -0.037123794716084707 0 0.01745795119158456 -0.060340075542881677 0 0.018746083668214186 -0.059117119517055991 0 0.020429428524696744 -0.060158160128630865 0 0.019350520824034358 -0.018173414433406157 0 0.020396478140480526 -0.036183128538142643 0 0.024772493182943216 -0.01512502814827074 0 0.023259488391593513 -0.015171926530888977 0 0.024800068905974148 -0.013815127631563949 0 0.026549163761896796 -0.014754303858439561 0 0.024772493182943216 -0.01512502814827074 0 0.024800068905974148 -0.013815127631563949 0 0.020429428524696744 -0.060158160128630865 0 0.02020677868150262 -0.058236121120546006 0 0.021843678304658658 -0.058702668748864331 0 0.018746083668214186 -0.059117119517055991 0 0.020429428524696744 -0.060158160128630865 0 0.02020677868150262 -0.058236121120546006 0 0.02020677868150262 -0.058236121120546006 0 0.021843678304658658 -0.058702668748864331 0 0.02156277087919873 -0.057222714348600726 0 0.02020677868150262 -0.058236121120546006 0 0.019799755903034084 -0.056607399168979243 0 0.02156277087919873 -0.057222714348600726 0 0.02020677868150262 -0.058236121120546006 0 0.019799755903034084 -0.056607399168979243 0 0.018643644857413967 -0.057498755573507816 0 0.019799755903034084 -0.056607399168979243 0 0.02156277087919873 -0.057222714348600726 0 0.021347558030700362 -0.055929428452072272 0 0.019799755903034084 -0.056607399168979243 0 0.019192467465263423 -0.054998137190167669 0 0.021347558030700362 -0.055929428452072272 0 0.019799755903034084 -0.056607399168979243 0 0.019192467465263423 -0.054998137190167669 0 0.018054425867970274 -0.056175417295758319 0 0.019192467465263423 -0.054998137190167669 0 0.018054425867970274 -0.056175417295758319 0 0.016059628316683033 -0.055000114210459597 0 0.018054425867970274 -0.056175417295758319 0 0.017229225240689185 -0.057289491257244002 0 0.016570872793075824 -0.056417699365116855 0 0.018054425867970274 -0.056175417295758319 0 0.018643644857413967 -0.057498755573507816 0 0.017229225240689185 -0.057289491257244002 0 0.019799755903034084 -0.056607399168979243 0 0.018054425867970274 -0.056175417295758319 0 0.018643644857413967 -0.057498755573507816 0 0.01770010050528352 -0.058145391439947548 0 0.018643644857413967 -0.057498755573507816 0 0.017229225240689185 -0.057289491257244002 0 0.016095800927025224 -0.057824292361352878 0 0.016570872793075824 -0.056417699365116855 0 0.014657629031740014 -0.056469259579570399 0 0.016946524196554513 -0.058135760817483083 0 0.017229225240689185 -0.057289491257244002 0 0.016095800927025224 -0.057824292361352878 0 0.016946524196554513 -0.058135760817483083 0 0.01770010050528352 -0.058145391439947548 0 0.017229225240689185 -0.057289491257244002 0 0.017229225240689185 -0.057289491257244002 0 0.016095800927025224 -0.057824292361352878 0 0.016570872793075824 -0.056417699365116855 0 0.018054425867970274 -0.056175417295758319 0 0.016570872793075824 -0.056417699365116855 0 0.016059628316683033 -0.055000114210459597 0 0.016570872793075824 -0.056417699365116855 0 0.016059628316683033 -0.055000114210459597 0 0.014657629031740014 -0.056469259579570399 0 0.012928038731272309 -0.054999753283981302 0 0.016059628316683033 -0.055000114210459597 0 0.014657629031740014 -0.056469259579570399 0 0.016095800927025224 -0.057824292361352878 0 0.014657629031740014 -0.056469259579570399 0 0.014869146147290076 -0.057819837059829647 0 0.013902255878283988 -0.058201988479078787 0 0.014869146147290076 -0.057819837059829647 0 0.013811731885133757 -0.057404170010975954 0 0.014657629031740014 -0.056469259579570399 0 0.014869146147290076 -0.057819837059829647 0 0.013811731885133757 -0.057404170010975954 0 0.027819197480285756 -0.059438275491094497 0 0.026722469216752431 -0.058382901076112576 0 0.023852639958539937 -0.059963978590398224 0 0.029017116196366759 -0.037002449500137868 0 0.025234277843388817 -0.036670420598929596 0 0.029017116196366759 -0.037002449500137868 0 0.032585829215350477 -0.055985233215054261 0 0.026722469216752431 -0.058382901076112576 0 0.025059880275065369 -0.057962140210507301 0 0.026756918473296913 -0.057086090902144983 0 0.026722469216752431 -0.058382901076112576 0 0.028486822147204008 -0.058063306768509258 0 0.026756918473296913 -0.057086090902144983 0 0.028016337190855941 -0.059238392068825828 0 0.026722469216752431 -0.058382901076112576 0 0.028486822147204008 -0.058063306768509258 0 0.028016337190855941 -0.059238392068825828 0 0.028486822147204008 -0.058063306768509258 0 0.031439396797587706 -0.058419935090632397 0 0.029017116196366759 -0.037002449500137868 0 0.034402179711446185 -0.041750727060182041 0 0.028486822147204008 -0.058063306768509258 0 0.028984019916979843 -0.057008590136903639 0 0.031439396797587706 -0.058419935090632397 0 0.029017116196366759 -0.037002449500137868 0 0.032408630399235229 -0.016422363308571018 0 0.035205234415188344 -0.023969201497625724 0 0.036277827486600016 -0.024219491777976526 0 0.036437757369833845 -0.023919398621159386 0 0.028666203099596416 -0.013409577918293922 0 0.029765542262546029 -0.014297528936025839 0 0.028722255593105244 -0.014350813849336787 0 0.028666203099596416 -0.013409577918293922 0 0.027808691765050905 -0.014145794484708801 0 0.026901578526485035 -0.013535548236452602 0 0.028666203099596416 -0.013409577918293922 0 0.028722255593105244 -0.014350813849336787 0 0.027808691765050905 -0.014145794484708801 0 0.027992187778362831 -0.014889425545985383 0 0.028722255593105244 -0.014350813849336787 0 0.027808691765050905 -0.014145794484708801 0 0.026549163761896796 -0.014754303858439561 0 0.027808691765050905 -0.014145794484708801 0 0.026901578526485035 -0.013535548236452602 0 0.022589649920326766 -0.037123794716084707 0 0.025234277843388817 -0.036670420598929596 0 0.026549163761896796 -0.014754303858439561 0 0.024800068905974148 -0.013815127631563949 0 0.026901578526485035 -0.013535548236452602 0 0.020429428524696744 -0.060158160128630865 0 0.021843678304658658 -0.058702668748864331 0 0.023852639958539937 -0.059963978590398224 0 0.023298588179155422 -0.057923971999961812 0 0.021843678304658658 -0.058702668748864331 0 0.023852639958539937 -0.059963978590398224 0 0.026722469216752431 -0.058382901076112576 0 0.023852639958539937 -0.059963978590398224 0 0.025059880275065369 -0.057962140210507301 0 0.023298588179155422 -0.057923971999961812 0 0.023852639958539937 -0.059963978590398224 0 0.025059880275065369 -0.057962140210507301 0 0.025059880275065369 -0.057962140210507301 0 0.024684401309091917 -0.056491851813548204 0 0.026756918473296913 -0.057086090902144983 0 0.023298588179155422 -0.057923971999961812 0 0.025059880275065369 -0.057962140210507301 0 0.024684401309091917 -0.056491851813548204 0 0.023298588179155422 -0.057923971999961812 0 0.024684401309091917 -0.056491851813548204 0 0.02275868557389072 -0.056457709212327019 0 0.023298588179155422 -0.057923971999961812 0 0.021843678304658658 -0.058702668748864331 0 0.02156277087919873 -0.057222714348600726 0 0.023298588179155422 -0.057923971999961812 0 0.02156277087919873 -0.057222714348600726 0 0.02275868557389072 -0.056457709212327019 0 0.02156277087919873 -0.057222714348600726 0 0.02275868557389072 -0.056457709212327019 0 0.021347558030700362 -0.055929428452072272 0 0.019192506398534676 -0.054999954430282418 0 0.022639320340881817 -0.055212218879494741 0 0.019191748952931336 -0.054999959010227063 0 0.021356537414215723 -0.055000064121809487 0 0.022144709414752918 -0.055694311308897876 0 0.021356537414215723 -0.055000064121809487 0 0.022144709414752918 -0.055694311308897876 0 0.023521918294741154 -0.054999815617935037 0 0.019192467465263423 -0.054998137190167669 0 0.021347558030700362 -0.055929428452072272 0 0.023022507596116227 -0.054651100665011165 0 0.02275868557389072 -0.056457709212327019 0 0.021347558030700362 -0.055929428452072272 0 0.023022507596116227 -0.054651100665011165 0 0.024684401309091917 -0.056491851813548204 0 0.023022507596116227 -0.054651100665011165 0 0.027268016520179315 -0.05514729223123261 0 0.022144709414752918 -0.055694311308897876 0 0.023521918294741154 -0.054999815617935037 0 0.025233439216800324 -0.056385909771146096 0 0.022639320340881817 -0.055212218879494741 0 0.026241829402097308 -0.055784910595820796 0 0.024684401309091917 -0.056491851813548204 0 0.02275868557389072 -0.056457709212327019 0 0.023022507596116227 -0.054651100665011165 0 0.023522254928997018 -0.05500003543977549 0 0.026852720801683994 -0.055281633328882009 0 0.023521633490996272 -0.055000009206964802 0 0.026728708969042624 -0.055330246298892431 0 0.026239261262261268 -0.054999974412663438 0 0.023521918294741154 -0.054999815617935037 0 0.025233439216800324 -0.056385909771146096 0 0.026982690698612827 -0.055222084551345203 0 0.024684401309091917 -0.056491851813548204 0 0.027268016520179315 -0.05514729223123261 0 0.026756918473296913 -0.057086090902144983 0 0.027268016520179315 -0.05514729223123261 0 0.026756918473296913 -0.057086090902144983 0 0.028984019916979843 -0.057008590136903639 0 0.028486822147204008 -0.058063306768509258 0 0.026756918473296913 -0.057086090902144983 0 0.028984019916979843 -0.057008590136903639 0 0.026241829402097308 -0.055784910595820796 0 0.029648818326125124 -0.056590606957046277 0 0.027268016520179315 -0.05514729223123261 0 0.028984019916979843 -0.057008590136903639 0 0.030950222330210164 -0.056199321892254475 0 0.025233439216800324 -0.056385909771146096 0 0.026982690698612827 -0.055222084551345203 0 0.02842653437179583 -0.05699766932263043 0 0.026728708969042624 -0.055330246298892431 0 0.026239261262261268 -0.054999974412663438 0 0.028956708885906433 -0.055000059580881791 0 0.026852720801683994 -0.055281633328882009 0 0.030149693001073903 -0.055610491669459861 0 0.026982690698612827 -0.055222084551345203 0 0.030316813143342034 -0.055554088982456964 0 0.02842653437179583 -0.05699766932263043 0 0.026728708969042624 -0.055330246298892431 0 0.028956708885906433 -0.055000059580881791 0 0.029928243300694046 -0.055672194387950659 0 0.028956708885906433 -0.055000059580881791 0 0.029928243300694046 -0.055672194387950659 0 0.031674607638631377 -0.054999872337656297 0 0.030316813143342034 -0.055554088982456964 0 0.02842653437179583 -0.05699766932263043 0 0.031383396893352032 -0.057510932909935308 0 0.029648818326125124 -0.056590606957046277 0 0.032298894166958837 -0.057299458909033631 0 0.030950222330210164 -0.056199321892254475 0 0.031439396797587706 -0.058419935090632397 0 0.033258353424394253 -0.057087110535091093 0 0.028984019916979843 -0.057008590136903639 0 0.030950222330210164 -0.056199321892254475 0 0.031439396797587706 -0.058419935090632397 0 0.036437757369833845 -0.023919398621159386 0 0.036769447595804222 -0.024105544676499609 0 0.036783589843775888 -0.024418730290186822 0 0.031439396797587706 -0.058419935090632397 0 0.033415118142929377 -0.057848459119929314 0 0.033258353424394253 -0.057087110535091093 0 0.034402179711446185 -0.041750727060182041 0 0.034948053108767606 -0.041075149033170701 0 0.036437757369833845 -0.023919398621159386 0 0.036769447595804222 -0.024105544676499609 0 0.036798695574738617 -0.024016506561036301 0 0.036769447595804222 -0.024105544676499609 0 0.036852629393127653 -0.023955089243013251 0 0.036798695574738617 -0.024016506561036301 0 0.036277827486600016 -0.024219491777976526 0 0.036437757369833845 -0.023919398621159386 0 0.036798695574738617 -0.024016506561036301 0 0.036381483858050734 -0.024091720003451257 0 0.036716650507256969 -0.023913503846351901 0 0.0360847091876563 -0.023828465394025177 0 0.036372107272025993 -0.024339687661977447 0 0.036545216874765959 -0.024183324220475751 0 0.036456222377433414 -0.024424270571067306 0 0.036372107272025993 -0.024339687661977447 0 0.03616452388208781 -0.024204519533804696 0 0.036381483858050734 -0.024091720003451257 0 0.036372107272025993 -0.024339687661977447 0 0.036381483858050734 -0.024091720003451257 0 0.036545216874765959 -0.024183324220475751 0 0.036372107272025993 -0.024339687661977447 0 0.036143500641853558 -0.024378569587750323 0 0.03616452388208781 -0.024204519533804696 0 0.036372107272025993 -0.024339687661977447 0 0.036143500641853558 -0.024378569587750323 0 0.036151415769584465 -0.024562251264592619 0 0.036143500641853558 -0.024378569587750323 0 0.036151415769584465 -0.024562251264592619 0 0.035859211390509814 -0.024406870238357952 0 0.036143500641853558 -0.024378569587750323 0 0.03616452388208781 -0.024204519533804696 0 0.035859211390509814 -0.024406870238357952 0 0.03616452388208781 -0.024204519533804696 0 0.036381483858050734 -0.024091720003451257 0 0.0360847091876563 -0.023828465394025177 0 0.03616452388208781 -0.024204519533804696 0 0.035859211390509814 -0.024406870238357952 0 0.0360847091876563 -0.023828465394025177 0 0.036732120927595382 -0.024172449875929213 0 0.036545216874765959 -0.024183324220475751 0 0.036716650507256969 -0.023913503846351901 0 0.036381483858050734 -0.024091720003451257 0 0.036545216874765959 -0.024183324220475751 0 0.036716650507256969 -0.023913503846351901 0 0.036852629393127653 -0.023955089243013251 0 0.036732120927595382 -0.024172449875929213 0 0.036716650507256969 -0.023913503846351901 0 0.036769447595804222 -0.024105544676499609 0 0.036852629393127653 -0.023955089243013251 0 0.036732120927595382 -0.024172449875929213 0 0.036732120927595382 -0.024172449875929213 0 0.036545216874765959 -0.024183324220475751 0 0.036456222377433414 -0.024424270571067306 0 0.036732120927595382 -0.024172449875929213 0 0.036783589843775888 -0.024418730290186822 0 0.036456222377433414 -0.024424270571067306 0 0.033415118142929377 -0.057848459119929314 0 0.034265099552513202 -0.057875499106220557 0 0.033258353424394253 -0.057087110535091093 0 0.036769447595804222 -0.024105544676499609 0 0.036732120927595382 -0.024172449875929213 0 0.036783589843775888 -0.024418730290186822 0 0.036783589843775888 -0.024418730290186822 0 0.036456222377433414 -0.024424270571067306 0 0.035975334384221007 -0.025074195367002207 0 0.034948053108767606 -0.041075149033170701 0 0.035210312551563552 -0.041779335724189619 0 0.033415118142929377 -0.057848459119929314 0 0.034436423405679685 -0.058048598991314898 0 0.034265099552513202 -0.057875499106220557 0 0.036372107272025993 -0.024339687661977447 0 0.036456222377433414 -0.024424270571067306 0 0.036151415769584465 -0.024562251264592619 0 0.036151415769584465 -0.024562251264592619 0 0.035792011786757907 -0.024669476844642695 0 0.035859211390509814 -0.024406870238357952 0 0.036456222377433414 -0.024424270571067306 0 0.036151415769584465 -0.024562251264592619 0 0.035975334384221007 -0.025074195367002207 0 0.036151415769584465 -0.024562251264592619 0 0.035975334384221007 -0.025074195367002207 0 0.035792011786757907 -0.024669476844642695 0 0.034436423405679685 -0.058048598991314898 0 0.034265099552513202 -0.057875499106220557 0 0.034707472479617668 -0.057596632716609052 0 0.034265099552513202 -0.057875499106220557 0 0.0343602290833281 -0.057271401882368712 0 0.033459764234062252 -0.057343720906475597 0 0.034265099552513202 -0.057875499106220557 0 0.033459764234062252 -0.057343720906475597 0 0.031383396893352032 -0.057510932909935308 0 0.034265099552513202 -0.057875499106220557 0 0.0343602290833281 -0.057271401882368712 0 0.034707472479617668 -0.057596632716609052 0 0.033071654410195543 -0.056947884466167081 0 0.033932609921071881 -0.056765813830635184 0 0.033249114071712778 -0.055888929397914552 0 0.033459764234062252 -0.057343720906475597 0 0.033071654410195543 -0.056947884466167081 0 0.033932609921071881 -0.056765813830635184 0 0.0343602290833281 -0.057271401882368712 0 0.033932609921071881 -0.056765813830635184 0 0.034720858594509164 -0.05676791028424838 0 0.0343602290833281 -0.057271401882368712 0 0.033459764234062252 -0.057343720906475597 0 0.033932609921071881 -0.056765813830635184 0 0.033071654410195543 -0.056947884466167081 0 0.031383396893352032 -0.057510932909935308 0 0.033249114071712778 -0.055888929397914552 0 0.034133745753062647 -0.057823280842758562 0 0.032298894166958837 -0.057299458909033631 0 0.033459764234062252 -0.057343720906475597 0 0.033071654410195543 -0.056947884466167081 0 0.031383396893352032 -0.057510932909935308 0 0.029928243300694046 -0.055672194387950659 0 0.031674607638631377 -0.054999872337656297 0 0.033249114071712778 -0.055888929397914552 0 0.030316813143342034 -0.055554088982456964 0 0.031383396893352032 -0.057510932909935308 0 0.033249114071712778 -0.055888929397914552 0 0.030149693001073903 -0.055610491669459861 0 0.033096401751798545 -0.055881721203833147 0 0.031674607638631377 -0.054999872337656297 0 0.033249114071712778 -0.055888929397914552 0 0.034392302819139277 -0.054999857395307397 0 0.033932609921071881 -0.056765813830635184 0 0.033249114071712778 -0.055888929397914552 0 0.03481827843732279 -0.056026571564803652 0 0.033249114071712778 -0.055888929397914552 0 0.034392302819139277 -0.054999857395307397 0 0.03481827843732279 -0.056026571564803652 0 0.034392302819139277 -0.054999857395307397 0 0.03481827843732279 -0.056026571564803652 0 0.037108844247631632 -0.054999823445342461 0 0.03481827843732279 -0.056026571564803652 0 0.037108844247631632 -0.054999823445342461 0 0.035646531272482428 -0.056688842646282787 0 0.037108844247631632 -0.054999823445342461 0 0.036641163385590016 -0.056813013048180913 0 0.035646531272482428 -0.056688842646282787 0 0.037108844247631632 -0.054999823445342461 0 0.036641163385590016 -0.056813013048180913 0 0.037635886724803599 -0.057099092352250337 0 0.037576417021548382 -0.054996510739191269 0 0.037115722557222515 -0.055002212039306206 0 0.038275866591138324 -0.052695704490963238 0 0.037110343851015207 -0.055004732605563149 0 0.03913292928965259 -0.050775405331506422 0 0.036641163385590016 -0.056813013048180913 0 0.037635886724803599 -0.057099092352250337 0 0.037123216132425078 -0.057806836790401411 0 0.038517413351240995 -0.04498321232584044 0 0.038538041598009158 -0.046117601991773997 0 0.037584398823681489 -0.046235140176076987 0 0.03913292928965259 -0.050775405331506422 0 0.035905437070589463 -0.039733770423279975 0 0.036641163385590016 -0.056813013048180913 0 0.035708601536185484 -0.057443322654334987 0 0.037123216132425078 -0.057806836790401411 0 0.034436423405679685 -0.058048598991314898 0 0.035708601536185484 -0.057443322654334987 0 0.037123216132425078 -0.057806836790401411 0 0.035708601536185484 -0.057443322654334987 0 0.034707472479617668 -0.057596632716609052 0 0.035034279026666733 -0.057221300103228685 0 0.034436423405679685 -0.058048598991314898 0 0.035708601536185484 -0.057443322654334987 0 0.034707472479617668 -0.057596632716609052 0 0.0343602290833281 -0.057271401882368712 0 0.034707472479617668 -0.057596632716609052 0 0.035034279026666733 -0.057221300103228685 0 0.033932609921071881 -0.056765813830635184 0 0.03481827843732279 -0.056026571564803652 0 0.034720858594509164 -0.05676791028424838 0 0.035034279026666733 -0.057221300103228685 0 0.034720858594509164 -0.05676791028424838 0 0.035646531272482428 -0.056688842646282787 0 0.03481827843732279 -0.056026571564803652 0 0.034720858594509164 -0.05676791028424838 0 0.035646531272482428 -0.056688842646282787 0 0.0343602290833281 -0.057271401882368712 0 0.035034279026666733 -0.057221300103228685 0 0.034720858594509164 -0.05676791028424838 0 0.035708601536185484 -0.057443322654334987 0 0.035034279026666733 -0.057221300103228685 0 0.035646531272482428 -0.056688842646282787 0 0.036641163385590016 -0.056813013048180913 0 0.035708601536185484 -0.057443322654334987 0 0.035646531272482428 -0.056688842646282787 0 0.046466799158837377 -0.044038234643516208 0 0.048566598518660173 -0.046336879623028161 0 0.051268134255937722 -0.045952367252054767 0 0.039843380303080954 -0.054999942805994982 0 0.041691682686251424 -0.05499997712185626 0 0.041728915490719512 -0.056629789672426288 0 0.039843380303080954 -0.054999942805994982 0 0.039348551759794133 -0.055690866640320115 0 0.041728915490719512 -0.056629789672426288 0 0.041828460605307635 -0.051941531994075321 0 0.046535917464575388 -0.051118048162002119 0 0.039843050260372707 -0.055000025164521786 0 0.041828460605307635 -0.051941531994075321 0 0.037581668070417053 -0.054999993967450297 0 0.039843295243627563 -0.054999981438105874 0 0.039330642408291545 -0.055708279035834411 0 0.037580347933010724 -0.054999141821275063 0 0.041828460605307635 -0.051941531994075321 0 0.041828460605307635 -0.051941531994075321 0 0.03913292928965259 -0.050775405331506422 0 0.037576417021548382 -0.054996510739191269 0 0.037146511916963769 -0.05391359453037764 0 0.038275866591138324 -0.052695704490963238 0 0.046466799158837377 -0.044038234643516208 0 0.045534998013830853 -0.04777436359418312 0 0.048566598518660173 -0.046336879623028161 0 0.043871037681613476 -0.04956491040911698 0 0.045534998013830853 -0.04777436359418312 0 0.05094982384925241 -0.047328858881672813 0 0.046466799158837377 -0.044038234643516208 0 0.043163104015976943 -0.048158158254667564 0 0.045534998013830853 -0.04777436359418312 0 0.043163104015976943 -0.048158158254667564 0 0.043646255167188869 -0.049636563705615568 0 0.045534998013830853 -0.04777436359418312 0 0.03913292928965259 -0.050775405331506422 0 0.041359007082913984 -0.042771852445910037 0 0.038517413351240995 -0.04498321232584044 0 0.038832566641305327 -0.045853692143295884 0 0.038538041598009158 -0.046117601991773997 0 0.041359007082913984 -0.042771852445910037 0 0.038785572959547238 -0.038757386055209134 0 0.041359007082913984 -0.042771852445910037 0 0.042896941764374565 -0.046209243876167878 0 0.041359007082913984 -0.042771852445910037 0 0.053162771890155433 -0.048918099845203268 0 0.045534998013830853 -0.04777436359418312 0 0.048566598518660173 -0.046336879623028161 0 0.05094982384925241 -0.047328858881672813 0 0.048566598518660173 -0.046336879623028161 0 0.051268134255937722 -0.045952367252054767 0 0.05094982384925241 -0.047328858881672813 0 0.050589938285000524 -0.047150043603527363 0 0.050897356566408689 -0.04736482961776025 0 0.05094982384925241 -0.047328858881672813 0 0.050897356566408689 -0.04736482961776025 0 0.05094982384925241 -0.047328858881672813 0 0.051388035851770431 -0.047567447585060194 0 0.050589938285000524 -0.047150043603527363 0 0.050897356566408689 -0.04736482961776025 0 0.050676507965963277 -0.047561252721727031 0 0.041359007082913984 -0.042771852445910037 0 0.042714405114282997 -0.035750090302817131 0 0.035016450200247504 -0.027356556338373066 0 0.035246834887419858 -0.026177552101508652 0 0.034620759631051677 -0.025616615993807716 0 0.035016450200247504 -0.027356556338373066 0 0.035155584444463948 -0.027222265445229706 0 0.035246834887419858 -0.026177552101508652 0 0.034620759631051677 -0.025616615993807716 0 0.035276135732806045 -0.024931418296471507 0 0.034461561437494577 -0.024330881949905132 0 0.035246834887419858 -0.026177552101508652 0 0.034620759631051677 -0.025616615993807716 0 0.035276135732806045 -0.024931418296471507 0 0.042714405114282997 -0.035750090302817131 0 0.04199301978905777 -0.035425717936836021 0 0.050676507965963277 -0.047561252721727031 0 0.050940250370875718 -0.048190215520185826 0 0.051388035851770431 -0.047567447585060194 0 0.050897356566408689 -0.04736482961776025 0 0.050676507965963277 -0.047561252721727031 0 0.051388035851770431 -0.047567447585060194 0 0.035975334384221007 -0.025074195367002207 0 0.034633130727983796 -0.025466029937651194 0 0.035139768027201604 -0.024633717019921286 0 0.035210312551563552 -0.041779335724189619 0 0.035905437070589463 -0.039733770423279975 0 0.035975334384221007 -0.025074195367002207 0 0.035792011786757907 -0.024669476844642695 0 0.035139768027201604 -0.024633717019921286 0 0.035792011786757907 -0.024669476844642695 0 0.035139768027201604 -0.024633717019921286 0 0.035859211390509814 -0.024406870238357952 0 0.035905437070589463 -0.039733770423279975 0 0.037137580325711413 -0.025611162658588173 0 0.038785572959547238 -0.038757386055209134 0 0.037137580325711413 -0.025611162658588173 0 0.033939399094040222 -0.036006540877306578 0 0.036276238733934471 -0.035717332934949789 0 0.040265953144345029 -0.030012433810881183 0 0.038785572959547238 -0.038757386055209134 0 0.035905437070589463 -0.039733770423279975 0 0.035155584444463948 -0.027222265445229706 0 0.035246834887419858 -0.026177552101508652 0 0.036147510808025272 -0.026012227049545471 0 0.036147510808025272 -0.026012227049545471 0 0.035276135732806045 -0.024931418296471507 0 0.036086458111556842 -0.024920951298422311 0 0.035246834887419858 -0.026177552101508652 0 0.036147510808025272 -0.026012227049545471 0 0.035276135732806045 -0.024931418296471507 0 0.036147510808025272 -0.026012227049545471 0 0.036086458111556842 -0.024920951298422311 0 0.036812741994309069 -0.024424397983083629 0 0.037137580325711413 -0.025611162658588173 0 0.036705016254486002 -0.023883880309247752 0 0.036484250682268432 -0.024038377764263055 0 0.036841683563869528 -0.023458797954209416 0 0.03693611436080773 -0.023517486694850324 0 0.035139768027201604 -0.024633717019921286 0 0.035859211390509814 -0.024406870238357952 0 0.0360847091876563 -0.023828465394025177 0 0.037137580325711413 -0.025611162658588173 0 0.036327671855404996 -0.023531363315943594 0 0.036812741994309069 -0.024424397983083629 0 0.036653949048781082 -0.02385722372574979 0 0.036325466016121639 -0.024272193010993759 0 0.036653949048781082 -0.02385722372574979 0 0.036325466016121639 -0.024272193010993759 0 0.036240469908835005 -0.023918053655608045 0 0.036325466016121639 -0.024272193010993759 0 0.036240469908835005 -0.023918053655608045 0 0.035797110754573945 -0.02428293581867513 0 0.036086458111556842 -0.024920951298422311 0 0.036812741994309069 -0.024424397983083629 0 0.036325466016121639 -0.024272193010993759 0 0.035276135732806045 -0.024931418296471507 0 0.036086458111556842 -0.024920951298422311 0 0.035797110754573945 -0.02428293581867513 0 0.035276135732806045 -0.024931418296471507 0 0.035797110754573945 -0.02428293581867513 0 0.035133385232055288 -0.023889270976290213 0 0.036086458111556842 -0.024920951298422311 0 0.036325466016121639 -0.024272193010993759 0 0.035797110754573945 -0.02428293581867513 0 0.036240469908835005 -0.023918053655608045 0 0.035797110754573945 -0.02428293581867513 0 0.035819132722602044 -0.023544057938048497 0 0.035819132722602044 -0.023544057938048497 0 0.035285971734091336 -0.023138263120387866 0 0.036109704763206137 -0.0228137314224711 0 0.035797110754573945 -0.02428293581867513 0 0.035819132722602044 -0.023544057938048497 0 0.035133385232055288 -0.023889270976290213 0 0.035819132722602044 -0.023544057938048497 0 0.035133385232055288 -0.023889270976290213 0 0.035285971734091336 -0.023138263120387866 0 0.035819132722602044 -0.023544057938048497 0 0.036528374881248799 -0.023391156636360148 0 0.036109704763206137 -0.0228137314224711 0 0.036528374881248799 -0.023391156636360148 0 0.036109704763206137 -0.0228137314224711 0 0.036815935453083641 -0.02284721053843038 0 0.036653949048781082 -0.02385722372574979 0 0.036240469908835005 -0.023918053655608045 0 0.036528374881248799 -0.023391156636360148 0 0.036240469908835005 -0.023918053655608045 0 0.035819132722602044 -0.023544057938048497 0 0.036528374881248799 -0.023391156636360148 0 0.050940250370875718 -0.048190215520185826 0 0.051388035851770431 -0.047567447585060194 0 0.051652798190518961 -0.048287269213460521 0 0.035276135732806045 -0.024931418296471507 0 0.034461561437494577 -0.024330881949905132 0 0.035133385232055288 -0.023889270976290213 0 0.035133385232055288 -0.023889270976290213 0 0.034331050248339136 -0.023364148846043355 0 0.035285971734091336 -0.023138263120387866 0 0.034461561437494577 -0.024330881949905132 0 0.035133385232055288 -0.023889270976290213 0 0.034331050248339136 -0.023364148846043355 0 0.050940250370875718 -0.048190215520185826 0 0.051140001089091482 -0.04862781909238139 0 0.051652798190518961 -0.048287269213460521 0 0.04199301978905777 -0.035425717936836021 0 0.049643217523056553 -0.040073381707922094 0 0.053870880592870575 -0.043558071211468728 0 0.053494475405461553 -0.04422178987918244 0 0.054164433982533469 -0.044820448419454526 0 0.049643217523056553 -0.040073381707922094 0 0.055637262998055853 -0.046869615961972221 0 0.049643217523056553 -0.040073381707922094 0 0.044238154239863096 -0.033290663394704795 0 0.03481044016434312 -0.022699748312726965 0 0.035285971734091336 -0.023138263120387866 0 0.035604234032295713 -0.022596709894475868 0 0.034331050248339136 -0.023364148846043355 0 0.03481044016434312 -0.022699748312726965 0 0.035285971734091336 -0.023138263120387866 0 0.03481044016434312 -0.022699748312726965 0 0.035205594047659959 -0.022195279448630978 0 0.035604234032295713 -0.022596709894475868 0 0.053494475405461553 -0.04422178987918244 0 0.053295350360335704 -0.044621510655823496 0 0.053699101851192511 -0.044690822258155648 0 0.044238154239863096 -0.033290663394704795 0 0.039868432167511861 -0.028853349159069182 0 0.053494475405461553 -0.04422178987918244 0 0.053699101851192511 -0.044690822258155648 0 0.054164433982533469 -0.044820448419454526 0 0.036320056027556682 -0.021664033415497178 0 0.036109704763206137 -0.0228137314224711 0 0.035788150486735289 -0.021198869627840195 0 0.036320056027556682 -0.021664033415497178 0 0.036627630101309969 -0.021289196610768786 0 0.036830619817529872 -0.022088564744674306 0 0.036320056027556682 -0.021664033415497178 0 0.036109704763206137 -0.0228137314224711 0 0.036830619817529872 -0.022088564744674306 0 0.036109704763206137 -0.0228137314224711 0 0.036830619817529872 -0.022088564744674306 0 0.036815935453083641 -0.02284721053843038 0 0.035285971734091336 -0.023138263120387866 0 0.036109704763206137 -0.0228137314224711 0 0.035604234032295713 -0.022596709894475868 0 0.036502495026011966 -0.023169969619084969 0 0.034790933228944193 -0.020709202058302387 0 0.035788150486735289 -0.021198869627840195 0 0.036280025743114064 -0.020719767210263289 0 0.036302325584917756 -0.020206021869868793 0 0.036117946961578502 -0.020238824802998594 0 0.035788150486735289 -0.021198869627840195 0 0.036302325584917756 -0.020206021869868793 0 0.039868432167511861 -0.028853349159069182 0 0.034790933228944193 -0.020709202058302387 0 0.036280025743114064 -0.020719767210263289 0 0.036278464976000714 -0.020093981416965223 0 0.036302325584917756 -0.020206021869868793 0 0.036320056027556682 -0.021664033415497178 0 0.035788150486735289 -0.021198869627840195 0 0.036280025743114064 -0.020719767210263289 0 0.036320056027556682 -0.021664033415497178 0 0.036280025743114064 -0.020719767210263289 0 0.036627630101309969 -0.021289196610768786 0 0.036280025743114064 -0.020719767210263289 0 0.036627630101309969 -0.021289196610768786 0 0.036493118946504831 -0.020635368902865516 0 0.036280025743114064 -0.020719767210263289 0 0.036493118946504831 -0.020635368902865516 0 0.036278464976000714 -0.020093981416965223 0 0.036627630101309969 -0.021289196610768786 0 0.036493118946504831 -0.020635368902865516 0 0.037473425412993699 -0.021476222776497154 0 0.036493118946504831 -0.020635368902865516 0 0.037473425412993699 -0.021476222776497154 0 0.036263662127369541 -0.019698953171039375 0 0.036118938497211553 -0.019849917157819755 0 0.036241869584853162 -0.019710597358311745 0 0.036627630101309969 -0.021289196610768786 0 0.037473425412993699 -0.021476222776497154 0 0.036830619817529872 -0.022088564744674306 0 0.037473425412993699 -0.021476222776497154 0 0.036830619817529872 -0.022088564744674306 0 0.037223538775248699 -0.022505554707458464 0 0.037223538775248699 -0.022505554707458464 0 0.036815935453083641 -0.02284721053843038 0 0.03712083661536611 -0.02312467600951779 0 0.036830619817529872 -0.022088564744674306 0 0.037223538775248699 -0.022505554707458464 0 0.036815935453083641 -0.02284721053843038 0 0.037473425412993699 -0.021476222776497154 0 0.037223538775248699 -0.022505554707458464 0 0.037410523302834363 -0.02290578603005956 0 0.037223538775248699 -0.022505554707458464 0 0.037410523302834363 -0.02290578603005956 0 0.03712083661536611 -0.02312467600951779 0 0.036118938497211553 -0.019849917157819755 0 0.03508662205676466 -0.019564642308620719 0 0.03487839351998704 -0.018212519370746583 0 0.032935291773286413 -0.016455657452114494 0 0.03246518239008133 -0.018831225565745301 0 0.03487839351998704 -0.018212519370746583 0 0.03246518239008133 -0.018831225565745301 0 0.034761874198141605 -0.019747678177081233 0 0.032230353708448831 -0.017928722296301172 0 0.030360785577002506 -0.017116012469149535 0 0.03246518239008133 -0.018831225565745301 0 0.030427836709072859 -0.017697875653465204 0 0.031390073817469472 -0.016749895080464913 0 0.031954537983548692 -0.017024083467989389 0 0.030236406847165932 -0.016512672226171719 0 0.030382203529783408 -0.018050968299684965 0 0.030427836709072859 -0.017697875653465204 0 0.031390073817469472 -0.016749895080464913 0 0.030125154587267815 -0.016137558833550846 0 0.032935291773286413 -0.016455657452114494 0 0.03246518239008133 -0.018831225565745301 0 0.031390073817469472 -0.016749895080464913 0 0.03508662205676466 -0.019564642308620719 0 0.034312630806909966 -0.019930318745727552 0 0.032935291773286413 -0.016455657452114494 0 0.031390073817469472 -0.016749895080464913 0 0.031102151381767335 -0.015168806688169004 0 0.037410523302834363 -0.02290578603005956 0 0.037039607152115891 -0.023742457287237156 0 0.037071429506614927 -0.023305840223510416 0 0.031390073817469472 -0.016749895080464913 0 0.030125154587267815 -0.016137558833550846 0 0.031102151381767335 -0.015168806688169004 0 0.029173885264471348 -0.0153233446571895 0 0.030125154587267815 -0.016137558833550846 0 0.031102151381767335 -0.015168806688169004 0 0.032408630399235229 -0.016422363308571018 0 0.034312630806909966 -0.019930318745727552 0 0.029173885264471348 -0.0153233446571895 0 0.029765542262546029 -0.014297528936025839 0 0.031102151381767335 -0.015168806688169004 0 0.036277827486600016 -0.024219491777976526 0 0.037039607152115891 -0.023742457287237156 0 0.036798695574738617 -0.024016506561036301 0 0.037039607152115891 -0.023742457287237156 0 0.036956858446982724 -0.023747228486620746 0 0.036798695574738617 -0.024016506561036301 0 0.037039607152115891 -0.023742457287237156 0 0.036956858446982724 -0.023747228486620746 0 0.037071429506614927 -0.023305840223510416 0 0.036852629393127653 -0.023955089243013251 0 0.036956858446982724 -0.023747228486620746 0 0.036798695574738617 -0.024016506561036301 0 0.036894952964869852 -0.023669926310466986 0 0.036716650507256969 -0.023913503846351901 0 0.0360847091876563 -0.023828465394025177 0 0.036852629393127653 -0.023955089243013251 0 0.036894952964869852 -0.023669926310466986 0 0.036716650507256969 -0.023913503846351901 0 0.036894952964869852 -0.023669926310466986 0 0.0360847091876563 -0.023828465394025177 0 0.037071429506614927 -0.023305840223510416 0 0.036852629393127653 -0.023955089243013251 0 0.036956858446982724 -0.023747228486620746 0 0.036894952964869852 -0.023669926310466986 0 0.036956858446982724 -0.023747228486620746 0 0.036894952964869852 -0.023669926310466986 0 0.037071429506614927 -0.023305840223510416 0 0.036705016254486002 -0.023883880309247752 0 0.037141430333814146 -0.023221544147138617 0 0.036841683563869528 -0.023458797954209416 0 0.03693611436080773 -0.023517486694850324 0 0.03712083661536611 -0.02312467600951779 0 0.036812741994309069 -0.024424397983083629 0 0.036653949048781082 -0.02385722372574979 0 0.03712083661536611 -0.02312467600951779 0 0.036327671855404996 -0.023531363315943594 0 0.037071425689825993 -0.023360105717709818 0 0.036653949048781082 -0.02385722372574979 0 0.036528374881248799 -0.023391156636360148 0 0.03712083661536611 -0.02312467600951779 0 0.036528374881248799 -0.023391156636360148 0 0.036815935453083641 -0.02284721053843038 0 0.03712083661536611 -0.02312467600951779 0 0.03693611436080773 -0.023517486694850324 0 0.03712083661536611 -0.02312467600951779 0 0.037071429506614927 -0.023305840223510416 0 0.037410523302834363 -0.02290578603005956 0 0.03712083661536611 -0.02312467600951779 0 0.037071429506614927 -0.023305840223510416 0 0.054995357298771946 -0.048899151231461609 0 0.053442286472117226 -0.052097496337502991 0 0.052958067499710361 -0.053316695157084405 0 0.054995357298771946 -0.048899151231461609 0 0.053232593179110659 -0.053829491169895542 0 0.052958067499710361 -0.053316695157084405 0 0.054995357298771946 -0.048899151231461609 0 0.05370604622818035 -0.051860292501029234 0 0.053442286472117226 -0.052097496337502991 0 0.054999181900276695 -0.048885292034786039 0 0.054396198616461909 -0.049459520157750507 0 0.05370604622818035 -0.051860292501029234 0 0.053442286472117226 -0.052097496337502991 0 0.053394770905015321 -0.052075264265545297 0 0.054997438355996443 -0.054995543495504028 0 0.053232593179110659 -0.053829491169895542 0 0.05023179435023771 -0.054997788274059142 0 0.054995357298771946 -0.048899151231461609 0 0.054997438355996443 -0.054995543495504028 0 0.053232593179110659 -0.053829491169895542 0 0.053232593179110659 -0.053829491169895542 0 0.05023179435023771 -0.054997788274059142 0 0.051210421602823762 -0.054393163426737293 0 0.053232593179110659 -0.053829491169895542 0 0.051210421602823762 -0.054393163426737293 0 0.052958067499710361 -0.053316695157084405 0 0.05023179435023771 -0.054997788274059142 0 0.051210421602823762 -0.054393163426737293 0 0.048868775753624805 -0.055019821370765915 0 0.051210421602823762 -0.054393163426737293 0 0.050013344161478859 -0.055061468001617007 0 0.048868775753624805 -0.055019821370765915 0 0.052692495450634966 -0.052972343622799165 0 0.050272271816492811 -0.054671910846236599 0 0.053333731791724515 -0.051985385505918941 0 0.05322857066368368 -0.052008623564754886 0 0.053198301502240072 -0.051952854456830358 0 0.051210421602823762 -0.054393163426737293 0 0.051833800525582341 -0.054329558789298779 0 0.050013344161478859 -0.055061468001617007 0 0.051210421602823762 -0.054393163426737293 0 0.051833800525582341 -0.054329558789298779 0 0.052958067499710361 -0.053316695157084405 0 0.053442286472117226 -0.052097496337502991 0 0.051833800525582341 -0.054329558789298779 0 0.052958067499710361 -0.053316695157084405 0 0.053442286472117226 -0.052097496337502991 0 0.053358109106849058 -0.052045407062141572 0 0.053394770905015321 -0.052075264265545297 0 0.053442286472117226 -0.052097496337502991 0 0.053333731791724515 -0.051985385505918941 0 0.053358109106849058 -0.052045407062141572 0 0.05307615754341357 -0.052313846319960569 0 0.052692495450634966 -0.052972343622799165 0 0.053333731791724515 -0.051985385505918941 0 0.053304983490465231 -0.052023157157960603 0 0.05322857066368368 -0.052008623564754886 0 0.051992519707163475 -0.050618310370372128 0 0.053972123711364312 -0.047262462812957269 0 0.053358109106849058 -0.052045407062141572 0 0.053304983490465231 -0.052023157157960603 0 0.053308019928625938 -0.052045018135486516 0 0.051992519707163475 -0.050618310370372128 0 0.053695907934931078 -0.052533281206819979 0 0.053304983490465231 -0.052023157157960603 0 0.05322857066368368 -0.052008623564754886 0 0.053308019928625938 -0.052045018135486516 0 0.053333731791724515 -0.051985385505918941 0 0.053358109106849058 -0.052045407062141572 0 0.053304983490465231 -0.052023157157960603 0 0.052535540632402199 -0.047021808642646608 0 0.052983751852843423 -0.046838066420598796 0 0.052252390564193812 -0.046255205763983086 0 0.052535540632402199 -0.047021808642646608 0 0.052983751852843423 -0.046838066420598796 0 0.052885325559719629 -0.047209795873651206 0 0.052983751852843423 -0.046838066420598796 0 0.052885325559719629 -0.047209795873651206 0 0.052853473238425604 -0.047360245709494986 0 0.052885325559719629 -0.047209795873651206 0 0.052662018935026866 -0.046882841897627286 0 0.052853473238425604 -0.047360245709494986 0 0.051992519707163475 -0.050618310370372128 0 0.048847458990209362 -0.054046617222243826 0 0.048847458990209362 -0.054046617222243826 0 0.050272271816492811 -0.054671910846236599 0 0.050264528825968074 -0.052534003378020527 0 0.050703467954681197 -0.053149695443089166 0 0.05034046487001289 -0.052985327090825027 0 0.051992519707163475 -0.050618310370372128 0 0.050272271816492811 -0.054671910846236599 0 0.050272271816492811 -0.054671910846236599 0 0.047895718330167585 -0.056192918001795308 0 0.05023179435023771 -0.054997788274059142 0 0.048868775753624805 -0.055019821370765915 0 0.046731023142759794 -0.05499882861682049 0 0.046424412592295003 -0.058366485286817503 0 0.047495282356892085 -0.058780614382894565 0 0.04709981773949401 -0.056936570821645112 0 0.047895718330167585 -0.056192918001795308 0 0.046727599396893804 -0.0549994862195929 0 0.046726963758495443 -0.054999952761362061 0 0.045024205983460873 -0.056742119744514395 0 0.043540193470801465 -0.054999965952902227 0 0.04709981773949401 -0.056936570821645112 0 0.046726963758495443 -0.054999952761362061 0 0.045024205983460873 -0.056742119744514395 0 0.048847458990209362 -0.054046617222243826 0 0.048414573344160113 -0.052082934339719118 0 0.046326536457802818 -0.05833544013041269 0 0.044943845082402664 -0.056706172050205568 0 0.044077621673200978 -0.057502660261373677 0 0.048847458990209362 -0.054046617222243826 0 0.044980523106143443 -0.057169232293174367 0 0.046424412592295003 -0.058366485286817503 0 0.04709981773949401 -0.056936570821645112 0 0.045024205983460873 -0.056742119744514395 0 0.044077621673200978 -0.057502660261373677 0 0.043203722446157042 -0.056232676033894993 0 0.041728915490719512 -0.056629789672426288 0 0.044943845082402664 -0.056706172050205568 0 0.044077621673200978 -0.057502660261373677 0 0.043203722446157042 -0.056232676033894993 0 0.044943845082402664 -0.056706172050205568 0 0.043539938855715846 -0.054999937783758258 0 0.043203722446157042 -0.056232676033894993 0 0.044980523106143443 -0.057169232293174367 0 0.043540124505223286 -0.055000032754581707 0 0.043539938855715846 -0.054999937783758258 0 0.043203722446157042 -0.056232676033894993 0 0.041691682686251424 -0.05499997712185626 0 0.043203722446157042 -0.056232676033894993 0 0.041691682686251424 -0.05499997712185626 0 0.041728915490719512 -0.056629789672426288 0 0.048414573344160113 -0.052082934339719118 0 0.046535917464575388 -0.051118048162002119 0 0.052662018935026866 -0.046882841897627286 0 0.051268134255937722 -0.045952367252054767 0 0.051980634511572039 -0.04726822918897771 0 0.051268134255937722 -0.045952367252054767 0 0.05094982384925241 -0.047328858881672813 0 0.051980634511572039 -0.04726822918897771 0 0.051980634511572039 -0.04726822918897771 0 0.052853473238425604 -0.047360245709494986 0 0.051388035851770431 -0.047567447585060194 0 0.05094982384925241 -0.047328858881672813 0 0.051980634511572039 -0.04726822918897771 0 0.051388035851770431 -0.047567447585060194 0 0.052662018935026866 -0.046882841897627286 0 0.051980634511572039 -0.04726822918897771 0 0.052853473238425604 -0.047360245709494986 0 0.052983751852843423 -0.046838066420598796 0 0.052853473238425604 -0.047360245709494986 0 0.053494288918049741 -0.046283265652920548 0 0.052853473238425604 -0.047360245709494986 0 0.051388035851770431 -0.047567447585060194 0 0.051652798190518961 -0.048287269213460521 0 0.052945117391303045 -0.046860862755672195 0 0.053103389130659935 -0.048482023241880841 0 0.052853473238425604 -0.047360245709494986 0 0.054214411459776436 -0.046235123523777594 0 0.053494288918049741 -0.046283265652920548 0 0.054214411459776436 -0.046235123523777594 0 0.053494288918049741 -0.046283265652920548 0 0.053955941341186642 -0.045495214467178385 0 0.053494288918049741 -0.046283265652920548 0 0.053955941341186642 -0.045495214467178385 0 0.053483914476791891 -0.045737291483740165 0 0.049643217523056553 -0.040073381707922094 0 0.053103389130659935 -0.048482023241880841 0 0.054592586759319543 -0.045458682503631158 0 0.054214411459776436 -0.046235123523777594 0 0.053955941341186642 -0.045495214467178385 0 0.054592586759319543 -0.045458682503631158 0 0.054157260570713434 -0.045167582362351119 0 0.054164433982533469 -0.044820448419454526 0 0.054592586759319543 -0.045458682503631158 0 0.053955941341186642 -0.045495214467178385 0 0.054157260570713434 -0.045167582362351119 0 0.054157260570713434 -0.045167582362351119 0 0.054164433982533469 -0.044820448419454526 0 0.054260786242090762 -0.045147400245343257 0 0.053955941341186642 -0.045495214467178385 0 0.054260786242090762 -0.045147400245343257 0 0.053962014872164094 -0.045536924066570526 0 0.053955941341186642 -0.045495214467178385 0 0.054157260570713434 -0.045167582362351119 0 0.054260786242090762 -0.045147400245343257 0 0.054260786242090762 -0.045147400245343257 0 0.053962014872164094 -0.045536924066570526 0 0.054278313088311568 -0.045400827051412358 0 0.053962014872164094 -0.045536924066570526 0 0.054278313088311568 -0.045400827051412358 0 0.054591558850513353 -0.045796581363550554 0 0.053962014872164094 -0.045536924066570526 0 0.054084704495528359 -0.04561079842677148 0 0.054591558850513353 -0.045796581363550554 0 0.054084704495528359 -0.04561079842677148 0 0.053483914476791891 -0.045737291483740165 0 0.054391695007790938 -0.045162099461662275 0 0.053955941341186642 -0.045495214467178385 0 0.053962014872164094 -0.045536924066570526 0 0.053483914476791891 -0.045737291483740165 0 0.053962014872164094 -0.045536924066570526 0 0.054084704495528359 -0.04561079842677148 0 0.053483914476791891 -0.045737291483740165 0 0.052983751852843423 -0.046838066420598796 0 0.053494288918049741 -0.046283265652920548 0 0.053483914476791891 -0.045737291483740165 0 0.052983751852843423 -0.046838066420598796 0 0.053483914476791891 -0.045737291483740165 0 0.052252390564193812 -0.046255205763983086 0 0.053313660081445856 -0.04535425506598225 0 0.053972123711364312 -0.047262462812957269 0 0.053166804975321579 -0.051869991826629665 0 0.053255582077190999 -0.052104852602181638 0 0.053308019928625938 -0.052045018135486516 0 0.053255582077190999 -0.052104852602181638 0 0.053308019928625938 -0.052045018135486516 0 0.053394770905015321 -0.052075264265545297 0 0.053972123711364312 -0.047262462812957269 0 0.054221485485793405 -0.049385508940187506 0 0.054986614563355483 -0.046146150989339836 0 0.055135443658961635 -0.046367078804356907 0 0.054864509369580115 -0.046000556283582808 0 0.053358109106849058 -0.052045407062141572 0 0.053308019928625938 -0.052045018135486516 0 0.053394770905015321 -0.052075264265545297 0 0.055135443658961635 -0.046367078804356907 0 0.054864509369580115 -0.046000556283582808 0 0.055163688731965393 -0.046267747623453113 0 0.053972123711364312 -0.047262462812957269 0 0.054696023238733675 -0.045198737648802147 0 0.054084704495528359 -0.04561079842677148 0 0.054391695007790938 -0.045162099461662275 0 0.054591558850513353 -0.045796581363550554 0 0.054986614563355483 -0.046146150989339836 0 0.054864509369580115 -0.046000556283582808 0 0.054591558850513353 -0.045796581363550554 0 0.054864509369580115 -0.046000556283582808 0 0.054591558850513353 -0.045796581363550554 0 0.054447893312447877 -0.045591117137387761 0 0.054278313088311568 -0.045400827051412358 0 0.054591558850513353 -0.045796581363550554 0 0.054447893312447877 -0.045591117137387761 0 0.054864509369580115 -0.046000556283582808 0 0.054447893312447877 -0.045591117137387761 0 0.05453647264727092 -0.045660037174628992 0 0.054864509369580115 -0.046000556283582808 0 0.05453647264727092 -0.045660037174628992 0 0.054908632120885641 -0.045968608824584936 0 0.056422912683054063 -0.043667583316060431 0 0.055807742396514801 -0.044903415295102896 0 0.058315582932071057 -0.041659573941653663 0 0.056726673343701392 -0.04388351282084791 0 0.056471768352717916 -0.041638178678779364 0 0.056726673343701392 -0.04388351282084791 0 0.056471768352717916 -0.041638178678779364 0 0.0549999004558148 -0.043110130890953231 0 0.056471768352717916 -0.041638178678779364 0 0.0549999004558148 -0.043110130890953231 0 0.05499987838639861 -0.040144088121812367 0 0.056726673343701392 -0.04388351282084791 0 0.0549999004558148 -0.043110130890953231 0 0.055000016993402165 -0.046076293848209222 0 0.055807742396514801 -0.044903415295102896 0 0.055000144893114083 -0.046076096565412915 0 0.054908632120885641 -0.045968608824584936 0 0.054999369736951499 -0.046079895867886342 0 0.055163688731965393 -0.046267747623453113 0 0.054864509369580115 -0.046000556283582808 0 0.054908632120885641 -0.045968608824584936 0 0.055163688731965393 -0.046267747623453113 0 0.055490930854840248 -0.047188390518550671 0 0.055135443658961635 -0.046367078804356907 0 0.055163688731965393 -0.046267747623453113 0 0.054396198616461909 -0.049459520157750507 0 0.054221485485793405 -0.049385508940187506 0 0.054999068286357561 -0.04888020583239689 0 0.055490930854840248 -0.047188390518550671 0 0.054999369736951499 -0.046079895867886342 0 0.055490930854840248 -0.047188390518550671 0 0.054999369736951499 -0.046079895867886342 0 0.055163688731965393 -0.046267747623453113 0 0.057237398112061702 -0.035123988260521037 0 0.054999966627685137 -0.037178228322235177 0 0.05840253666106629 -0.037072327947583174 0 0.057237398112061702 -0.035123988260521037 0 0.054999966627685137 -0.037178228322235177 0 0.054999852597427713 -0.034212368140757295 0 0.054999966627685137 -0.037178228322235177 0 0.05499987838639861 -0.040144088121812367 0 0.057278493409183812 -0.0394606211229706 0 0.054999966627685137 -0.037178228322235177 0 0.057278493409183812 -0.0394606211229706 0 0.05840253666106629 -0.037072327947583174 0 0.056471768352717916 -0.041638178678779364 0 0.05499987838639861 -0.040144088121812367 0 0.057278493409183812 -0.0394606211229706 0 0.058315582932071057 -0.041659573941653663 0 0.056471768352717916 -0.041638178678779364 0 0.057278493409183812 -0.0394606211229706 0 0.057278493409183812 -0.0394606211229706 0 0.059743080126812217 -0.039535270613422532 0 0.05840253666106629 -0.037072327947583174 0 0.056422912683054063 -0.043667583316060431 0 0.057010885961345105 -0.042217904614816455 0 0.054447893312447877 -0.045591117137387761 0 0.05453647264727092 -0.045660037174628992 0 0.054219728567783988 -0.045162307188256014 0 0.058315582932071057 -0.041659573941653663 0 0.057278493409183812 -0.0394606211229706 0 0.059743080126812217 -0.039535270613422532 0 0.054447893312447877 -0.045591117137387761 0 0.054219728567783988 -0.045162307188256014 0 0.054312555022118 -0.045057407315913206 0 0.057010885961345105 -0.042217904614816455 0 0.057805264455138741 -0.041830284623634729 0 0.054219728567783988 -0.045162307188256014 0 0.054291093907519364 -0.04439502413673542 0 0.054312555022118 -0.045057407315913206 0 0.059743080126812217 -0.039535270613422532 0 0.05840253666106629 -0.037072327947583174 0 0.060961125473312353 -0.037721387561271053 0 0.057237398112061702 -0.035123988260521037 0 0.05840253666106629 -0.037072327947583174 0 0.060146805484053413 -0.034682166795720483 0 0.05840253666106629 -0.037072327947583174 0 0.060961125473312353 -0.037721387561271053 0 0.060146805484053413 -0.034682166795720483 0 0.062096366272988798 -0.036147379987472278 0 0.060961125473312353 -0.037721387561271053 0 0.060146805484053413 -0.034682166795720483 0 0.056181748292388971 -0.030112366674104555 0 0.055664015829343313 -0.029730973459079546 0 0.057262157239782813 -0.030700842417942468 0 0.055474397392072279 -0.034638300044189177 0 0.059334886203232289 -0.032513592818534186 0 0.052035893647145996 -0.029987960563297531 0 0.052903905312888327 -0.02900549117685278 0 0.050638376156627071 -0.027983018901872193 0 0.056181748292388971 -0.030112366674104555 0 0.055271739858539247 -0.03023519616031577 0 0.055664015829343313 -0.029730973459079546 0 0.055474397392072279 -0.034638300044189177 0 0.053396311410471832 -0.036603584911543252 0 0.050933000188625357 -0.020615824634747187 0 0.055474397392072279 -0.034638300044189177 0 0.054619660265657316 -0.043707140562196482 0 0.054618806091928034 -0.044299080934503542 0 0.054291093907519364 -0.04439502413673542 0 0.054619660265657316 -0.043707140562196482 0 0.054618806091928034 -0.044299080934503542 0 0.054830417792531519 -0.044083409552840416 0 0.055474397392072279 -0.034638300044189177 0 0.057805264455138741 -0.041830284623634729 0 0.054291093907519364 -0.04439502413673542 0 0.054312555022118 -0.045057407315913206 0 0.054491053365719959 -0.044861664423977043 0 0.054278313088311568 -0.045400827051412358 0 0.054447893312447877 -0.045591117137387761 0 0.054312555022118 -0.045057407315913206 0 0.054278313088311568 -0.045400827051412358 0 0.054312555022118 -0.045057407315913206 0 0.054491053365719959 -0.044861664423977043 0 0.054260786242090762 -0.045147400245343257 0 0.054278313088311568 -0.045400827051412358 0 0.054491053365719959 -0.044861664423977043 0 0.054618806091928034 -0.044299080934503542 0 0.054291093907519364 -0.04439502413673542 0 0.054491053365719959 -0.044861664423977043 0 0.054618806091928034 -0.044299080934503542 0 0.054491053365719959 -0.044861664423977043 0 0.054801746465845395 -0.044438062487238916 0 0.054491053365719959 -0.044861664423977043 0 0.054801746465845395 -0.044438062487238916 0 0.054842281587049554 -0.044780137714920815 0 0.054472084235693816 -0.044392223106762954 0 0.054580737885002874 -0.046882034244815622 0 0.054260786242090762 -0.045147400245343257 0 0.054491053365719959 -0.044861664423977043 0 0.054842281587049554 -0.044780137714920815 0 0.054164433982533469 -0.044820448419454526 0 0.054113777359317099 -0.044934970811107998 0 0.053975650887254326 -0.0449247421303169 0 0.054164433982533469 -0.044820448419454526 0 0.054260786242090762 -0.045147400245343257 0 0.054113777359317099 -0.044934970811107998 0 0.054580737885002874 -0.046882034244815622 0 0.047691804776977251 -0.03186638110788078 0 0.054113777359317099 -0.044934970811107998 0 0.053975650887254326 -0.0449247421303169 0 0.053962660536572261 -0.044915814317307415 0 0.054801746465845395 -0.044438062487238916 0 0.054842281587049554 -0.044780137714920815 0 0.055124597187078274 -0.044236737225151132 0 0.048363744152998246 -0.026975221104712711 0 0.048776199189958874 -0.027551372105970057 0 0.050638376156627071 -0.027983018901872193 0 0.047691804776977251 -0.03186638110788078 0 0.053396311410471832 -0.036603584911543252 0 0.047691804776977251 -0.03186638110788078 0 0.047165093400005541 -0.029282931417224094 0 0.048364955596874162 -0.026964681600687504 0 0.048776199189958874 -0.027551372105970057 0 0.04770892672553885 -0.028142792540604582 0 0.047691804776977251 -0.03186638110788078 0 0.043873683319079267 -0.021049605130832677 0 0.054801746465845395 -0.044438062487238916 0 0.055124597187078274 -0.044236737225151132 0 0.054830417792531519 -0.044083409552840416 0 0.048776199189958874 -0.027551372105970057 0 0.050638376156627071 -0.027983018901872193 0 0.049873049271216392 -0.029069249508446245 0 0.054618806091928034 -0.044299080934503542 0 0.054801746465845395 -0.044438062487238916 0 0.054830417792531519 -0.044083409552840416 0 0.052035893647145996 -0.029987960563297531 0 0.050638376156627071 -0.027983018901872193 0 0.049873049271216392 -0.029069249508446245 0 0.050933000188625357 -0.020615824634747187 0 0.049021968723622231 -0.020994192818241234 0 0.047373510948279705 -0.012663978449710752 0 0.046634524214360429 -0.01302242961114702 0 0.046440976894625736 -0.012276398866409481 0 0.048776199189958874 -0.027551372105970057 0 0.049873049271216392 -0.029069249508446245 0 0.04770892672553885 -0.028142792540604582 0 0.049021968723622231 -0.020994192818241234 0 0.043873683319079267 -0.021049605130832677 0 0.046634524214360429 -0.01302242961114702 0 0.047516466353595743 -0.01387901653228908 0 0.046409466780193406 -0.013613869924035271 0 0.047373510948279705 -0.012663978449710752 0 0.046634524214360429 -0.01302242961114702 0 0.047516466353595743 -0.01387901653228908 0 0.04825253549086149 -0.013064941919902614 0 0.047373510948279705 -0.012663978449710752 0 0.047516466353595743 -0.01387901653228908 0 0.050933000188625357 -0.020615824634747187 0 0.047561909673473242 -0.011449854934731073 0 0.047516466353595743 -0.01387901653228908 0 0.047306888139968729 -0.014648664622503704 0 0.048132565178480212 -0.014489037060545256 0 0.047516466353595743 -0.01387901653228908 0 0.047306888139968729 -0.014648664622503704 0 0.046307928389188679 -0.014400991077216221 0 0.047516466353595743 -0.01387901653228908 0 0.046409466780193406 -0.013613869924035271 0 0.046307928389188679 -0.014400991077216221 0 0.047306888139968729 -0.014648664622503704 0 0.046307928389188679 -0.014400991077216221 0 0.046568240096813547 -0.014874626582912068 0 0.047306888139968729 -0.014648664622503704 0 0.047045954162802744 -0.01506029415903863 0 0.046568240096813547 -0.014874626582912068 0 0.047045954162802744 -0.01506029415903863 0 0.048021854808409717 -0.014991781509354037 0 0.047541410271432806 -0.015281927496685171 0 0.047306888139968729 -0.014648664622503704 0 0.047045954162802744 -0.01506029415903863 0 0.048021854808409717 -0.014991781509354037 0 0.047306888139968729 -0.014648664622503704 0 0.048021854808409717 -0.014991781509354037 0 0.048132565178480212 -0.014489037060545256 0 0.048132565178480212 -0.014489037060545256 0 0.04856357401117041 -0.014728794087181581 0 0.049103852158349615 -0.014124649500623537 0 0.048021854808409717 -0.014991781509354037 0 0.048132565178480212 -0.014489037060545256 0 0.04856357401117041 -0.014728794087181581 0 0.04856357401117041 -0.014728794087181581 0 0.048847303355817898 -0.014723327370632547 0 0.049103852158349615 -0.014124649500623537 0 0.04856357401117041 -0.014728794087181581 0 0.048738246261425457 -0.015067507537957665 0 0.048847303355817898 -0.014723327370632547 0 0.048021854808409717 -0.014991781509354037 0 0.04856357401117041 -0.014728794087181581 0 0.048738246261425457 -0.015067507537957665 0 0.051217719653838353 -0.016090948924906475 0 0.050955107183301304 -0.016542776167476306 0 0.048738246261425457 -0.015067507537957665 0 0.049064427100767215 -0.014860767532841886 0 0.048941780967765636 -0.015320724004749599 0 0.048738246261425457 -0.015067507537957665 0 0.049064427100767215 -0.014860767532841886 0 0.048847303355817898 -0.014723327370632547 0 0.051217719653838353 -0.016090948924906475 0 0.051205008939669804 -0.016176668216842931 0 0.051142919790179535 -0.016645916395429561 0 0.051176139816141067 -0.016346760869224583 0 0.050799751478611974 -0.015535657789738196 0 0.051142919790179535 -0.016645916395429561 0 0.050799751478611974 -0.015535657789738196 0 0.049103852158349615 -0.014124649500623537 0 0.051217719653838353 -0.016090948924906475 0 0.048726389055890655 -0.013937536533697129 0 0.049064427100767215 -0.014860767532841886 0 0.048847303355817898 -0.014723327370632547 0 0.049103852158349615 -0.014124649500623537 0 0.050904267650845193 -0.014773400684367066 0 0.049103852158349615 -0.014124649500623537 0 0.050594096609558124 -0.01315490987418904 0 0.050799751478611974 -0.015535657789738196 0 0.050904267650845193 -0.014773400684367066 0 0.049103852158349615 -0.014124649500623537 0 0.047516466353595743 -0.01387901653228908 0 0.048132565178480212 -0.014489037060545256 0 0.049103852158349615 -0.014124649500623537 0 0.048471017623037786 -0.012559405001368257 0 0.047516466353595743 -0.01387901653228908 0 0.049103852158349615 -0.014124649500623537 0 0.050933000188625357 -0.020615824634747187 0 0.055043129635175367 -0.025905026695238111 0 0.056181748292388971 -0.030112366674104555 0 0.056773766206592483 -0.030990956940440295 0 0.057262157239782813 -0.030700842417942468 0 0.056181748292388971 -0.030112366674104555 0 0.055271739858539247 -0.03023519616031577 0 0.056616998020930294 -0.030785713007167679 0 0.048471017623037786 -0.012559405001368257 0 0.049103852158349615 -0.014124649500623537 0 0.050594096609558124 -0.01315490987418904 0 0.057131230841530024 -0.031606485970963771 0 0.055043129635175367 -0.025905026695238111 0 0.057237398112061702 -0.035123988260521037 0 0.060146805484053413 -0.034682166795720483 0 0.057726981811175991 -0.032982740706236101 0 0.055043129635175367 -0.025905026695238111 0 0.058870744735529092 -0.031547042759303583 0 0.056773766206592483 -0.030990956940440295 0 0.057262157239782813 -0.030700842417942468 0 0.05739809221673587 -0.031124140177528532 0 0.057262157239782813 -0.030700842417942468 0 0.05739809221673587 -0.031124140177528532 0 0.057454988097963289 -0.031387167240852588 0 0.059334886203232289 -0.032513592818534186 0 0.057365658259052175 -0.032165864567157323 0 0.05755945431034433 -0.030980253643522474 0 0.05739809221673587 -0.031124140177528532 0 0.057454988097963289 -0.031387167240852588 0 0.05755945431034433 -0.030980253643522474 0 0.058627030952149696 -0.030378322145141353 0 0.058817060226337585 -0.031174729873491781 0 0.05755945431034433 -0.030980253643522474 0 0.058627030952149696 -0.030378322145141353 0 0.05694544235080462 -0.030381096243514094 0 0.057307001569747766 -0.030847799167875365 0 0.058870744735529092 -0.031547042759303583 0 0.055043129635175367 -0.025905026695238111 0 0.055427298803303979 -0.022064285774730394 0 0.058627030952149696 -0.030378322145141353 0 0.058817060226337585 -0.031174729873491781 0 0.0590712476050907 -0.030317443214757073 0 0.050904267650845193 -0.014773400684367066 0 0.050594096609558124 -0.01315490987418904 0 0.052142588253084918 -0.015161798271098948 0 0.05964058002671016 -0.031493438055804471 0 0.058817060226337585 -0.031174729873491781 0 0.0590712476050907 -0.030317443214757073 0 0.052142588253084918 -0.015161798271098948 0 0.052248339363866261 -0.016508192676588651 0 0.053151176091605835 -0.016818080889937158 0 0.050904267650845193 -0.014773400684367066 0 0.052142588253084918 -0.015161798271098948 0 0.051618202022235646 -0.015800916291096978 0 0.052142588253084918 -0.015161798271098948 0 0.051618202022235646 -0.015800916291096978 0 0.052248339363866261 -0.016508192676588651 0 0.050799751478611974 -0.015535657789738196 0 0.050904267650845193 -0.014773400684367066 0 0.051618202022235646 -0.015800916291096978 0 0.051176139816141067 -0.016346760869224583 0 0.050799751478611974 -0.015535657789738196 0 0.051618202022235646 -0.015800916291096978 0 0.051618202022235646 -0.015800916291096978 0 0.051733677281708419 -0.016463967848152128 0 0.052248339363866261 -0.016508192676588651 0 0.051176139816141067 -0.016346760869224583 0 0.051618202022235646 -0.015800916291096978 0 0.051733677281708419 -0.016463967848152128 0 0.051230756904147766 -0.016525290945706851 0 0.051176139816141067 -0.016346760869224583 0 0.051733677281708419 -0.016463967848152128 0 0.051217719653838353 -0.016090948924906475 0 0.053120165076376964 -0.017886295321942101 0 0.051733677281708419 -0.016463967848152128 0 0.052248339363866261 -0.016508192676588651 0 0.052641497336365986 -0.017694028270395436 0 0.051230756904147766 -0.016525290945706851 0 0.051733677281708419 -0.016463967848152128 0 0.052641497336365986 -0.017694028270395436 0 0.052248339363866261 -0.016508192676588651 0 0.053151176091605835 -0.016818080889937158 0 0.052641497336365986 -0.017694028270395436 0 0.058453564403439837 -0.028544263433776973 0 0.058130334014832946 -0.029718216906256589 0 0.0574501307554076 -0.028873331530781039 0 0.0590712476050907 -0.030317443214757073 0 0.058453564403439837 -0.028544263433776973 0 0.058130334014832946 -0.029718216906256589 0 0.058530171863970755 -0.030399408428935841 0 0.057029550888346145 -0.030278564212821275 0 0.055427298803303979 -0.022064285774730394 0 0.055842938765541077 -0.022777663439009357 0 0.058627030952149696 -0.030378322145141353 0 0.058130334014832946 -0.029718216906256589 0 0.057107488362912885 -0.030166275528899125 0 0.058627030952149696 -0.030378322145141353 0 0.0590712476050907 -0.030317443214757073 0 0.058130334014832946 -0.029718216906256589 0 0.057107488362912885 -0.030166275528899125 0 0.0574501307554076 -0.028873331530781039 0 0.056333326285145195 -0.028688989238491232 0 0.058130334014832946 -0.029718216906256589 0 0.057107488362912885 -0.030166275528899125 0 0.0574501307554076 -0.028873331530781039 0 0.0574501307554076 -0.028873331530781039 0 0.056333326285145195 -0.028688989238491232 0 0.057546775618381472 -0.026339448347754944 0 0.058453564403439837 -0.028544263433776973 0 0.0574501307554076 -0.028873331530781039 0 0.057546775618381472 -0.026339448347754944 0 0.056333326285145195 -0.028688989238491232 0 0.054999956442594117 -0.030160078476072865 0 0.054999872480652863 -0.027306893056283577 0 0.057029550888346145 -0.030278564212821275 0 0.055000390524954743 -0.030160753152255328 0 0.05694544235080462 -0.030381096243514094 0 0.054999670361515464 -0.030161819306659125 0 0.0550004599072733 -0.031244531458956795 0 0.057107488362912885 -0.030166275528899125 0 0.056333326285145195 -0.028688989238491232 0 0.054999956442594117 -0.030160078476072865 0 0.055000517069460041 -0.031246089394300666 0 0.057365658259052175 -0.032165864567157323 0 0.05755945431034433 -0.030980253643522474 0 0.05694544235080462 -0.030381096243514094 0 0.057454988097963289 -0.031387167240852588 0 0.05694544235080462 -0.030381096243514094 0 0.0550004599072733 -0.031244531458956795 0 0.057454988097963289 -0.031387167240852588 0 0.057237398112061702 -0.035123988260521037 0 0.057726981811175991 -0.032982740706236101 0 0.054999852597427713 -0.034212368140757295 0 0.054999958173841873 -0.031246333543469142 0 0.057726981811175991 -0.032982740706236101 0 0.054999852597427713 -0.034212368140757295 0 0.032974086113250783 -0.021098761371592698 0 0.03194477671055241 -0.019300614729541973 0 0.033790531347755594 -0.019800468467362949 0 0.035182281308100888 -0.020547178010849966 0 0.033790531347755594 -0.019800468467362949 0 0.035227391501369242 -0.019905885277107103 0 0.035182281308100888 -0.020547178010849966 0 0.035288777179496814 -0.021606105865885971 0 0.032974086113250783 -0.021098761371592698 0 0.035182281308100888 -0.020547178010849966 0 0.032974086113250783 -0.021098761371592698 0 0.033790531347755594 -0.019800468467362949 0 0.03294080068859831 -0.021120280116491828 0 0.033555926504023441 -0.021818911248039842 0 0.035288777179496814 -0.021606105865885971 0 0.032974086113250783 -0.021098761371592698 0 0.034974942650881531 -0.022751102513282304 0 0.035288777179496814 -0.021606105865885971 0 0.036270023752001779 -0.022411445065048129 0 0.034974942650881531 -0.022751102513282304 0 0.032974086113250783 -0.021098761371592698 0 0.031784478091359113 -0.020914566083216426 0 0.03221250654241329 -0.021140294640152314 0 0.03050273812099227 -0.020887676162977726 0 0.031784478091359113 -0.020914566083216426 0 0.030703305625247521 -0.019658897214365357 0 0.03050273812099227 -0.020887676162977726 0 0.031784478091359113 -0.020914566083216426 0 0.03186675397299317 -0.0212827365391892 0 0.031784478091359113 -0.020914566083216426 0 0.030703305625247521 -0.019658897214365357 0 0.03194477671055241 -0.019300614729541973 0 0.032974086113250783 -0.021098761371592698 0 0.031784478091359113 -0.020914566083216426 0 0.03194477671055241 -0.019300614729541973 0 0.030703305625247521 -0.019658897214365357 0 0.03194477671055241 -0.019300614729541973 0 0.030382203529783408 -0.018050968299684965 0 0.031954537983548692 -0.017024083467989389 0 0.03194477671055241 -0.019300614729541973 0 0.030382203529783408 -0.018050968299684965 0 0.031954537983548692 -0.017024083467989389 0 0.03194477671055241 -0.019300614729541973 0 0.033069958695210594 -0.01879081620432534 0 0.031954537983548692 -0.017024083467989389 0 0.033886905067716293 -0.017849555473371644 0 0.033069958695210594 -0.01879081620432534 0 0.032230353708448831 -0.017928722296301172 0 0.034296948719235831 -0.018802915485223622 0 0.033886905067716293 -0.017849555473371644 0 0.033069958695210594 -0.01879081620432534 0 0.034412378194243719 -0.019239556891578701 0 0.03194477671055241 -0.019300614729541973 0 0.033069958695210594 -0.01879081620432534 0 0.033790531347755594 -0.019800468467362949 0 0.033069958695210594 -0.01879081620432534 0 0.033790531347755594 -0.019800468467362949 0 0.034412378194243719 -0.019239556891578701 0 0.033790531347755594 -0.019800468467362949 0 0.035227391501369242 -0.019905885277107103 0 0.034412378194243719 -0.019239556891578701 0 0.035227391501369242 -0.019905885277107103 0 0.034412378194243719 -0.019239556891578701 0 0.036100029304940273 -0.019657954347967462 0 0.03487839351998704 -0.018212519370746583 0 0.034761874198141605 -0.019747678177081233 0 0.036263662127369541 -0.019698953171039375 0 0.033886905067716293 -0.017849555473371644 0 0.034412378194243719 -0.019239556891578701 0 0.036100029304940273 -0.019657954347967462 0 0.034296948719235831 -0.018802915485223622 0 0.035895846826714616 -0.019562788553372318 0 0.034761874198141605 -0.019747678177081233 0 0.036263662127369541 -0.019698953171039375 0 0.036100029304940273 -0.019657954347967462 0 0.036493118946504831 -0.020635368902865516 0 0.036263662127369541 -0.019698953171039375 0 0.036278464976000714 -0.020093981416965223 0 0.036263662127369541 -0.019698953171039375 0 0.036282918369986761 -0.0197878248241617 0 0.036100029304940273 -0.019657954347967462 0 0.036263662127369541 -0.019698953171039375 0 0.036282918369986761 -0.0197878248241617 0 0.036278464976000714 -0.020093981416965223 0 0.036282918369986761 -0.0197878248241617 0 0.036278464976000714 -0.020093981416965223 0 0.036396126311361826 -0.019908354882347153 0 0.036282918369986761 -0.0197878248241617 0 0.036396126311361826 -0.019908354882347153 0 0.036413252085047663 -0.019908627161448186 0 0.036505853686113303 -0.019957537737664784 0 0.036302325584917756 -0.020206021869868793 0 0.036396126311361826 -0.019908354882347153 0 0.036278464976000714 -0.020093981416965223 0 0.036302325584917756 -0.020206021869868793 0 0.036396126311361826 -0.019908354882347153 0 0.036505853686113303 -0.019957537737664784 0 0.036302325584917756 -0.020206021869868793 0 0.036636712858067709 -0.019840980824895278 0 0.036117946961578502 -0.020238824802998594 0 0.036302325584917756 -0.020206021869868793 0 0.036636712858067709 -0.019840980824895278 0 0.036505853686113303 -0.019957537737664784 0 0.036636712858067709 -0.019840980824895278 0 0.036750508704642297 -0.020006709035986545 0 0.036636712858067709 -0.019840980824895278 0 0.036750508704642297 -0.020006709035986545 0 0.037504354959608875 -0.020267765950729669 0 0.036505853686113303 -0.019957537737664784 0 0.036750508704642297 -0.020006709035986545 0 0.036396126311361826 -0.019908354882347153 0 0.036750508704642297 -0.020006709035986545 0 0.036396126311361826 -0.019908354882347153 0 0.036413252085047663 -0.019908627161448186 0 0.036750508704642297 -0.020006709035986545 0 0.036860779449188023 -0.020171418145488666 0 0.036413252085047663 -0.019908627161448186 0 0.036750508704642297 -0.020006709035986545 0 0.036860779449188023 -0.020171418145488666 0 0.037504354959608875 -0.020267765950729669 0 0.036860779449188023 -0.020171418145488666 0 0.037490857828888557 -0.020478718980493246 0 0.037202772662859054 -0.02066535000362494 0 0.036860779449188023 -0.020171418145488666 0 0.037490857828888557 -0.020478718980493246 0 0.037504354959608875 -0.020267765950729669 0 0.036860779449188023 -0.020171418145488666 0 0.03624967051955328 -0.0202175067102742 0 0.037202772662859054 -0.02066535000362494 0 0.036860779449188023 -0.020171418145488666 0 0.03624967051955328 -0.0202175067102742 0 0.036413252085047663 -0.019908627161448186 0 0.035227391501369242 -0.019905885277107103 0 0.03624967051955328 -0.0202175067102742 0 0.036100029304940273 -0.019657954347967462 0 0.03624967051955328 -0.0202175067102742 0 0.036100029304940273 -0.019657954347967462 0 0.036413252085047663 -0.019908627161448186 0 0.036282918369986761 -0.0197878248241617 0 0.036100029304940273 -0.019657954347967462 0 0.036413252085047663 -0.019908627161448186 0 0.053699101851192511 -0.044690822258155648 0 0.054164433982533469 -0.044820448419454526 0 0.053793709427233348 -0.044922664892226113 0 0.054164433982533469 -0.044820448419454526 0 0.053975650887254326 -0.0449247421303169 0 0.053793709427233348 -0.044922664892226113 0 0.053295350360335704 -0.044621510655823496 0 0.053699101851192511 -0.044690822258155648 0 0.053793709427233348 -0.044922664892226113 0 0.036636712858067709 -0.019840980824895278 0 0.037504354959608875 -0.020267765950729669 0 0.038539184003997008 -0.020166216178171284 0 0.039868432167511861 -0.028853349159069182 0 0.047019421234816013 -0.033542450480837142 0 0.037037079759539113 -0.019308876345274954 0 0.036636712858067709 -0.019840980824895278 0 0.038539184003997008 -0.020166216178171284 0 0.039868432167511861 -0.028853349159069182 0 0.03977799472187387 -0.021897139957879619 0 0.037490857828888557 -0.020478718980493246 0 0.038151778540580841 -0.020578708636873406 0 0.038176847271176179 -0.020919227339990857 0 0.037490857828888557 -0.020478718980493246 0 0.037504354959608875 -0.020267765950729669 0 0.038151778540580841 -0.020578708636873406 0 0.038151778540580841 -0.020578708636873406 0 0.038723996850724036 -0.020910497996423576 0 0.038176847271176179 -0.020919227339990857 0 0.037504354959608875 -0.020267765950729669 0 0.038151778540580841 -0.020578708636873406 0 0.038539184003997008 -0.020166216178171284 0 0.047691804776977251 -0.03186638110788078 0 0.047019421234816013 -0.033542450480837142 0 0.039891972255269803 -0.02141936282697875 0 0.038539184003997008 -0.020166216178171284 0 0.038723996850724036 -0.020910497996423576 0 0.053975650887254326 -0.0449247421303169 0 0.053962660536572261 -0.044915814317307415 0 0.053793709427233348 -0.044922664892226113 0 0.038151778540580841 -0.020578708636873406 0 0.038539184003997008 -0.020166216178171284 0 0.038723996850724036 -0.020910497996423576 0 0.038611163777653369 -0.021552785598218618 0 0.038176847271176179 -0.020919227339990857 0 0.039240669675628774 -0.021313704290532368 0 0.039120420519130429 -0.021624352885557731 0 0.038917295732711792 -0.021232314000040154 0 0.038176847271176179 -0.020919227339990857 0 0.038723996850724036 -0.020910497996423576 0 0.038917295732711792 -0.021232314000040154 0 0.038176847271176179 -0.020919227339990857 0 0.043873683319079267 -0.021049605130832677 0 0.036252007458792555 -0.020786774333642077 0 0.039389134556529586 -0.021175199524635212 0 0.039120420519130429 -0.021624352885557731 0 0.038917295732711792 -0.021232314000040154 0 0.039389134556529586 -0.021175199524635212 0 0.038723996850724036 -0.020910497996423576 0 0.038917295732711792 -0.021232314000040154 0 0.047691804776977251 -0.03186638110788078 0 0.035446757234398753 -0.019842238447317587 0 0.038176847271176179 -0.020919227339990857 0 0.039240669675628774 -0.021313704290532368 0 0.03778018805813415 -0.021188520900592558 0 0.039240669675628774 -0.021313704290532368 0 0.03778018805813415 -0.021188520900592558 0 0.037456713807164033 -0.022033534672036142 0 0.043873683319079267 -0.021049605130832677 0 0.042736686832429163 -0.015466937792850459 0 0.046634524214360429 -0.01302242961114702 0 0.046440976894625736 -0.012276398866409481 0 0.045716583642030975 -0.013239234902110975 0 0.038611163777653369 -0.021552785598218618 0 0.039240669675628774 -0.021313704290532368 0 0.03940922138935446 -0.019091129128321449 0 0.035182281308100888 -0.020547178010849966 0 0.03624967051955328 -0.0202175067102742 0 0.036486886859833416 -0.021190831442103982 0 0.03624967051955328 -0.0202175067102742 0 0.036486886859833416 -0.021190831442103982 0 0.037202772662859054 -0.02066535000362494 0 0.035182281308100888 -0.020547178010849966 0 0.035288777179496814 -0.021606105865885971 0 0.036486886859833416 -0.021190831442103982 0 0.035182281308100888 -0.020547178010849966 0 0.035227391501369242 -0.019905885277107103 0 0.03624967051955328 -0.0202175067102742 0 0.036486886859833416 -0.021190831442103982 0 0.037202772662859054 -0.02066535000362494 0 0.03778018805813415 -0.021188520900592558 0 0.037490857828888557 -0.020478718980493246 0 0.038176847271176179 -0.020919227339990857 0 0.037202772662859054 -0.02066535000362494 0 0.038176847271176179 -0.020919227339990857 0 0.037202772662859054 -0.02066535000362494 0 0.03778018805813415 -0.021188520900592558 0 0.036486886859833416 -0.021190831442103982 0 0.03778018805813415 -0.021188520900592558 0 0.037456713807164033 -0.022033534672036142 0 0.035288777179496814 -0.021606105865885971 0 0.036486886859833416 -0.021190831442103982 0 0.036270023752001779 -0.022411445065048129 0 0.036486886859833416 -0.021190831442103982 0 0.037456713807164033 -0.022033534672036142 0 0.036270023752001779 -0.022411445065048129 0 0.036270023752001779 -0.022411445065048129 0 0.037080736080363781 -0.022996747800815568 0 0.036421965270568145 -0.02362627951827603 0 0.03343137842501951 -0.022489525067469814 0 0.033555926504023441 -0.021818911248039842 0 0.036270023752001779 -0.022411445065048129 0 0.036421965270568145 -0.02362627951827603 0 0.034974942650881531 -0.022751102513282304 0 0.037456713807164033 -0.022033534672036142 0 0.037080736080363781 -0.022996747800815568 0 0.038068476237840966 -0.023180609493982592 0 0.037456713807164033 -0.022033534672036142 0 0.036270023752001779 -0.022411445065048129 0 0.037080736080363781 -0.022996747800815568 0 0.044233615726201367 -0.017089791637240594 0 0.044540133226937971 -0.01508987677810953 0 0.045670128594853907 -0.014641671383740326 0 0.041203894378204063 -0.020209540582353368 0 0.040103146790358785 -0.018480960433268741 0 0.037080736080363781 -0.022996747800815568 0 0.038068476237840966 -0.023180609493982592 0 0.03747538516278804 -0.02434923130714314 0 0.037080736080363781 -0.022996747800815568 0 0.036421965270568145 -0.02362627951827603 0 0.03747538516278804 -0.02434923130714314 0 0.045716583642030975 -0.013239234902110975 0 0.046409466780193406 -0.013613869924035271 0 0.046307928389188679 -0.014400991077216221 0 0.046634524214360429 -0.01302242961114702 0 0.045716583642030975 -0.013239234902110975 0 0.046409466780193406 -0.013613869924035271 0 0.039240669675628774 -0.021313704290532368 0 0.03940922138935446 -0.019091129128321449 0 0.044233615726201367 -0.017089791637240594 0 0.039240669675628774 -0.021313704290532368 0 0.037456713807164033 -0.022033534672036142 0 0.038068476237840966 -0.023180609493982592 0 0.039569509300057093 -0.021074234180759262 0 0.041203894378204063 -0.020209540582353368 0 0.042736686832429163 -0.015466937792850459 0 0.04409121888078197 -0.015519245024775545 0 0.03940922138935446 -0.019091129128321449 0 0.044233615726201367 -0.017089791637240594 0 0.044540133226937971 -0.01508987677810953 0 0.045716583642030975 -0.013239234902110975 0 0.044540133226937971 -0.01508987677810953 0 0.046307928389188679 -0.014400991077216221 0 0.046307928389188679 -0.014400991077216221 0 0.046568240096813547 -0.014874626582912068 0 0.04570362992127068 -0.014998582647867215 0 0.044540133226937971 -0.01508987677810953 0 0.046307928389188679 -0.014400991077216221 0 0.04570362992127068 -0.014998582647867215 0 0.044540133226937971 -0.01508987677810953 0 0.04570362992127068 -0.014998582647867215 0 0.045373495091006848 -0.014881830459774391 0 0.044540133226937971 -0.01508987677810953 0 0.045373495091006848 -0.014881830459774391 0 0.045670128594853907 -0.014641671383740326 0 0.04570362992127068 -0.014998582647867215 0 0.045373495091006848 -0.014881830459774391 0 0.04577585749558901 -0.015071269783310816 0 0.04577585749558901 -0.015071269783310816 0 0.046191931319429648 -0.015110278125666959 0 0.046126128026338808 -0.015221593240162918 0 0.04570362992127068 -0.014998582647867215 0 0.04577585749558901 -0.015071269783310816 0 0.046191931319429648 -0.015110278125666959 0 0.047045954162802744 -0.01506029415903863 0 0.046191931319429648 -0.015110278125666959 0 0.046740953624367573 -0.015265385525444975 0 0.047045954162802744 -0.01506029415903863 0 0.046568240096813547 -0.014874626582912068 0 0.046191931319429648 -0.015110278125666959 0 0.046568240096813547 -0.014874626582912068 0 0.04570362992127068 -0.014998582647867215 0 0.046191931319429648 -0.015110278125666959 0 0.03343137842501951 -0.022489525067469814 0 0.040103146790358785 -0.018480960433268741 0 0.031611623142767831 -0.020803939148089652 0 0.031342960471453005 -0.020448271233480586 0 0.031727314527364665 -0.020423431034306112 0 0.045373495091006848 -0.014881830459774391 0 0.04577585749558901 -0.015071269783310816 0 0.045670128594853907 -0.014641671383740326 0 0.04577585749558901 -0.015071269783310816 0 0.045757940643571117 -0.015192232627100427 0 0.04585156345467712 -0.015172858283162782 0 0.040103146790358785 -0.018480960433268741 0 0.038534971654146037 -0.017396163685028547 0 0.045951685594845637 -0.015311612629158866 0 0.040103146790358785 -0.018480960433268741 0 0.031727314527364665 -0.020423431034306112 0 0.031825603237715987 -0.019800321428321985 0 0.031442675527934727 -0.019933088254833326 0 0.031342960471453005 -0.020448271233480586 0 0.031727314527364665 -0.020423431034306112 0 0.031442675527934727 -0.019933088254833326 0 0.032067471487779005 -0.020115475051698039 0 0.031727314527364665 -0.020423431034306112 0 0.031825603237715987 -0.019800321428321985 0 0.030211481831518026 -0.018609089336630018 0 0.031686181563117637 -0.019373349419324885 0 0.032066726674260887 -0.017532002554959888 0 0.030211481831518026 -0.018609089336630018 0 0.031686181563117637 -0.019373349419324885 0 0.031732635404142402 -0.020663944176092148 0 0.03121747718911129 -0.01927528898211053 0 0.031622323040388547 -0.020529317038343854 0 0.032067471487779005 -0.020115475051698039 0 0.031732635404142402 -0.020663944176092148 0 0.031727314527364665 -0.020423431034306112 0 0.031732635404142402 -0.020663944176092148 0 0.031727314527364665 -0.020423431034306112 0 0.03186040101221202 -0.020816572928421904 0 0.031611623142767831 -0.020803939148089652 0 0.031727314527364665 -0.020423431034306112 0 0.03186040101221202 -0.020816572928421904 0 0.031611623142767831 -0.020803939148089652 0 0.03186040101221202 -0.020816572928421904 0 0.03206010833350699 -0.021079606680200473 0 0.031732635404142402 -0.020663944176092148 0 0.03186040101221202 -0.020816572928421904 0 0.03221250654241329 -0.021140294640152314 0 0.031732635404142402 -0.020663944176092148 0 0.03221250654241329 -0.021140294640152314 0 0.032145162271237815 -0.020935734032840745 0 0.032974086113250783 -0.021098761371592698 0 0.03221250654241329 -0.021140294640152314 0 0.03206010833350699 -0.021079606680200473 0 0.03186040101221202 -0.020816572928421904 0 0.03221250654241329 -0.021140294640152314 0 0.03206010833350699 -0.021079606680200473 0 0.029411143677985759 -0.019700683033433305 0 0.030003882633296817 -0.019486448947873311 0 0.031784478091359113 -0.020914566083216426 0 0.03221250654241329 -0.021140294640152314 0 0.03186675397299317 -0.0212827365391892 0 0.032145162271237815 -0.020935734032840745 0 0.03186675397299317 -0.0212827365391892 0 0.032579049875266115 -0.020281578238064538 0 0.03221250654241329 -0.021140294640152314 0 0.032145162271237815 -0.020935734032840745 0 0.03186675397299317 -0.0212827365391892 0 0.030003882633296817 -0.019486448947873311 0 0.030588802582294555 -0.01848309648098332 0 0.028485057942712361 -0.016766106492801316 0 0.028629954083031914 -0.016728989907197352 0 0.029187113627474458 -0.01654969146004992 0 0.028485057942712361 -0.016766106492801316 0 0.028117689581012528 -0.017754350616509599 0 0.028629954083031914 -0.016728989907197352 0 0.031686181563117637 -0.019373349419324885 0 0.031732635404142402 -0.020663944176092148 0 0.032579049875266115 -0.020281578238064538 0 0.031732635404142402 -0.020663944176092148 0 0.032145162271237815 -0.020935734032840745 0 0.032579049875266115 -0.020281578238064538 0 0.028629954083031914 -0.016728989907197352 0 0.029322169943694673 -0.015304882958983032 0 0.029064776965781011 -0.014905504418691854 0 0.030588802582294555 -0.01848309648098332 0 0.030539950200547335 -0.016279225723386775 0 0.031686181563117637 -0.019373349419324885 0 0.032579049875266115 -0.020281578238064538 0 0.032066726674260887 -0.017532002554959888 0 0.029187113627474458 -0.01654969146004992 0 0.030300055558597605 -0.014476203390424372 0 0.029322169943694673 -0.015304882958983032 0 0.028629954083031914 -0.016728989907197352 0 0.029187113627474458 -0.01654969146004992 0 0.029322169943694673 -0.015304882958983032 0 0.030300055558597605 -0.014476203390424372 0 0.029322169943694673 -0.015304882958983032 0 0.029654102688787994 -0.014256654822184994 0 0.029322169943694673 -0.015304882958983032 0 0.029064776965781011 -0.014905504418691854 0 0.029654102688787994 -0.014256654822184994 0 0.029654102688787994 -0.014256654822184994 0 0.030202918123077183 -0.013502286721165177 0 0.029988110885344144 -0.01433140945616938 0 0.029064776965781011 -0.014905504418691854 0 0.029654102688787994 -0.014256654822184994 0 0.0300455766861412 -0.014400858483125337 0 0.029654102688787994 -0.014256654822184994 0 0.029988110885344144 -0.01433140945616938 0 0.0300455766861412 -0.014400858483125337 0 0.030300055558597605 -0.014476203390424372 0 0.029654102688787994 -0.014256654822184994 0 0.030202918123077183 -0.013502286721165177 0 0.037245157666888656 -0.012673151562970832 0 0.037128148592733466 -0.014252422139873148 0 0.038470426334991939 -0.013964757100087662 0 0.037245157666888656 -0.012673151562970832 0 0.038470426334991939 -0.013964757100087662 0 0.039954015602385193 -0.013369270928602182 0 0.033850085854652601 -0.013172887926560349 0 0.034906144634736853 -0.013674696250225608 0 0.038470426334991939 -0.013964757100087662 0 0.039954015602385193 -0.013369270928602182 0 0.039476605476262847 -0.014574532294802902 0 0.039476605476262847 -0.014574532294802902 0 0.040639872134978668 -0.014537486730326673 0 0.040372865759035502 -0.015228454339191936 0 0.039954015602385193 -0.013369270928602182 0 0.039476605476262847 -0.014574532294802902 0 0.040639872134978668 -0.014537486730326673 0 0.039476605476262847 -0.014574532294802902 0 0.038195025463696117 -0.014755541160634971 0 0.03880172094587047 -0.015510512203117249 0 0.038195025463696117 -0.014755541160634971 0 0.03880172094587047 -0.015510512203117249 0 0.036912357525381724 -0.015417619789518557 0 0.037128148592733466 -0.014252422139873148 0 0.038195025463696117 -0.014755541160634971 0 0.036912357525381724 -0.015417619789518557 0 0.038470426334991939 -0.013964757100087662 0 0.039476605476262847 -0.014574532294802902 0 0.038195025463696117 -0.014755541160634971 0 0.037128148592733466 -0.014252422139873148 0 0.038470426334991939 -0.013964757100087662 0 0.038195025463696117 -0.014755541160634971 0 0.041335885854488441 -0.014017540264542799 0 0.041494264549004116 -0.014085091236280434 0 0.040639872134978668 -0.014537486730326673 0 0.041098590083508878 -0.0155957718492088 0 0.043500410648152757 -0.013925116189090144 0 0.04589272561764117 -0.013280412338428643 0 0.045859343716858604 -0.013009837000723404 0 0.04573607852665082 -0.013321732548140907 0 0.041494264549004116 -0.014085091236280434 0 0.040639872134978668 -0.014537486730326673 0 0.041139730336648334 -0.01540483249653171 0 0.035595547219495635 -0.015131016708024121 0 0.041098590083508878 -0.0155957718492088 0 0.039954015602385193 -0.013369270928602182 0 0.041335885854488441 -0.014017540264542799 0 0.040639872134978668 -0.014537486730326673 0 0.034906144634736853 -0.013674696250225608 0 0.035595547219495635 -0.015131016708024121 0 0.029988110885344144 -0.01433140945616938 0 0.029691371357467963 -0.013945268294029742 0 0.0300455766861412 -0.014400858483125337 0 0.03216898494437076 -0.018214989247467932 0 0.032004930822806782 -0.018724919989196027 0 0.032200846633794834 -0.019302482170351042 0 0.041098590083508878 -0.0155957718492088 0 0.038506903368289915 -0.017581673051077943 0 0.032033587976469095 -0.018164350371499167 0 0.032004930822806782 -0.018724919989196027 0 0.0316210801442042 -0.019181735635507954 0 0.035595547219495635 -0.015131016708024121 0 0.030233324748375822 -0.017458971034569542 0 0.029691371357467963 -0.013945268294029742 0 0.0300455766861412 -0.014400858483125337 0 0.029240853213859393 -0.015331227449017605 0 0.03216898494437076 -0.018214989247467932 0 0.032033587976469095 -0.018164350371499167 0 0.032004930822806782 -0.018724919989196027 0 0.032004930822806782 -0.018724919989196027 0 0.032200846633794834 -0.019302482170351042 0 0.0316210801442042 -0.019181735635507954 0 0.032200846633794834 -0.019302482170351042 0 0.031825603237715987 -0.019800321428321985 0 0.0316210801442042 -0.019181735635507954 0 0.030539950200547335 -0.016279225723386775 0 0.030093205525898264 -0.014576796242999684 0 0.032066726674260887 -0.017532002554959888 0 0.0300455766861412 -0.014400858483125337 0 0.029240853213859393 -0.015331227449017605 0 0.030211481831518026 -0.018609089336630018 0 0.032066726674260887 -0.017532002554959888 0 0.029240853213859393 -0.015331227449017605 0 0.032067471487779005 -0.020115475051698039 0 0.032200846633794834 -0.019302482170351042 0 0.031825603237715987 -0.019800321428321985 0 0.03121747718911129 -0.01927528898211053 0 0.030233324748375822 -0.017458971034569542 0 0.038534971654146037 -0.017396163685028547 0 0.038506903368289915 -0.017581673051077943 0 0.031825603237715987 -0.019800321428321985 0 0.031442675527934727 -0.019933088254833326 0 0.0316210801442042 -0.019181735635507954 0 0.04585156345467712 -0.015172858283162782 0 0.046077037293982402 -0.01536616144178511 0 0.046126128026338808 -0.015221593240162918 0 0.04577585749558901 -0.015071269783310816 0 0.04585156345467712 -0.015172858283162782 0 0.046126128026338808 -0.015221593240162918 0 0.046077037293982402 -0.01536616144178511 0 0.045929399810383804 -0.015364739470479387 0 0.046025519744008578 -0.015388780776432943 0 0.04585156345467712 -0.015172858283162782 0 0.046077037293982402 -0.01536616144178511 0 0.045929399810383804 -0.015364739470479387 0 0.046191931319429648 -0.015110278125666959 0 0.046740953624367573 -0.015265385525444975 0 0.046126128026338808 -0.015221593240162918 0 0.046740953624367573 -0.015265385525444975 0 0.046126128026338808 -0.015221593240162918 0 0.046560095607451668 -0.015411938859649301 0 0.046077037293982402 -0.01536616144178511 0 0.046126128026338808 -0.015221593240162918 0 0.046560095607451668 -0.015411938859649301 0 0.046740953624367573 -0.015265385525444975 0 0.046560095607451668 -0.015411938859649301 0 0.04717050446026811 -0.015426714711721535 0 0.046560095607451668 -0.015411938859649301 0 0.047282267819518553 -0.015704988081488368 0 0.046375034985339729 -0.015535848892607495 0 0.046560095607451668 -0.015411938859649301 0 0.047282267819518553 -0.015704988081488368 0 0.04717050446026811 -0.015426714711721535 0 0.046077037293982402 -0.01536616144178511 0 0.046560095607451668 -0.015411938859649301 0 0.046375034985339729 -0.015535848892607495 0 0.047282267819518553 -0.015704988081488368 0 0.046375034985339729 -0.015535848892607495 0 0.046626550204488124 -0.015902489130157085 0 0.046375034985339729 -0.015535848892607495 0 0.046626550204488124 -0.015902489130157085 0 0.046182867461962235 -0.015559363903309208 0 0.046626550204488124 -0.015902489130157085 0 0.046182867461962235 -0.015559363903309208 0 0.046096484972101802 -0.015951297874482517 0 0.047282267819518553 -0.015704988081488368 0 0.046626550204488124 -0.015902489130157085 0 0.047165388686713383 -0.016615095730717049 0 0.04605402107169116 -0.015368657809041347 0 0.045929399810383804 -0.015364739470479387 0 0.046025519744008578 -0.015388780776432943 0 0.046077037293982402 -0.01536616144178511 0 0.046375034985339729 -0.015535848892607495 0 0.046079639981094808 -0.015434121701120395 0 0.046077037293982402 -0.01536616144178511 0 0.046025519744008578 -0.015388780776432943 0 0.046079639981094808 -0.015434121701120395 0 0.046375034985339729 -0.015535848892607495 0 0.046079639981094808 -0.015434121701120395 0 0.046182867461962235 -0.015559363903309208 0 0.046025519744008578 -0.015388780776432943 0 0.046079639981094808 -0.015434121701120395 0 0.046018634903534084 -0.015120474027740773 0 0.046079639981094808 -0.015434121701120395 0 0.046182867461962235 -0.015559363903309208 0 0.046018634903534084 -0.015120474027740773 0 0.046182867461962235 -0.015559363903309208 0 0.046018634903534084 -0.015120474027740773 0 0.046096484972101802 -0.015951297874482517 0 0.046045124971580781 -0.013490906535171423 0 0.046792418362469702 -0.01445224682483569 0 0.04605402107169116 -0.015368657809041347 0 0.046025519744008578 -0.015388780776432943 0 0.046018634903534084 -0.015120474027740773 0 0.04589272561764117 -0.013280412338428643 0 0.045859343716858604 -0.013009837000723404 0 0.046018634903534084 -0.015120474027740773 0 0.041098590083508878 -0.0155957718492088 0 0.047721174842771046 -0.014896551410298674 0 0.04589272561764117 -0.013280412338428643 0 0.046424422972579059 -0.013314597971874521 0 0.047326892977353097 -0.013055127074959599 0 0.04589272561764117 -0.013280412338428643 0 0.046018634903534084 -0.015120474027740773 0 0.046096484972101802 -0.015951297874482517 0 0.04589272561764117 -0.013280412338428643 0 0.046424422972579059 -0.013314597971874521 0 0.04573607852665082 -0.013321732548140907 0 0.046518034650950543 -0.013671664220036619 0 0.046424422972579059 -0.013314597971874521 0 0.04573607852665082 -0.013321732548140907 0 0.046518034650950543 -0.013671664220036619 0 0.04573607852665082 -0.013321732548140907 0 0.045797125140625762 -0.014019410040206052 0 0.046518034650950543 -0.013671664220036619 0 0.046424422972579059 -0.013314597971874521 0 0.046923576881179631 -0.013455205542197599 0 0.046518034650950543 -0.013671664220036619 0 0.046923576881179631 -0.013455205542197599 0 0.047427040962470274 -0.013994326210598445 0 0.046424422972579059 -0.013314597971874521 0 0.047326892977353097 -0.013055127074959599 0 0.046923576881179631 -0.013455205542197599 0 0.047326892977353097 -0.013055127074959599 0 0.047384158338180875 -0.013581579037195571 0 0.046923576881179631 -0.013455205542197599 0 0.047384158338180875 -0.013581579037195571 0 0.046923576881179631 -0.013455205542197599 0 0.047427040962470274 -0.013994326210598445 0 0.047326892977353097 -0.013055127074959599 0 0.047384158338180875 -0.013581579037195571 0 0.0479020600739304 -0.013764172858361606 0 0.046518034650950543 -0.013671664220036619 0 0.047427040962470274 -0.013994326210598445 0 0.046827046542930573 -0.014227322320607029 0 0.047427040962470274 -0.013994326210598445 0 0.046827046542930573 -0.014227322320607029 0 0.047795486101638307 -0.014638021453774082 0 0.047384158338180875 -0.013581579037195571 0 0.047427040962470274 -0.013994326210598445 0 0.0479020600739304 -0.013764172858361606 0 0.046827046542930573 -0.014227322320607029 0 0.046433505541058039 -0.014900206300470132 0 0.045797125140625762 -0.014019410040206052 0 0.046518034650950543 -0.013671664220036619 0 0.046827046542930573 -0.014227322320607029 0 0.045797125140625762 -0.014019410040206052 0 0.046626550204488124 -0.015902489130157085 0 0.046096484972101802 -0.015951297874482517 0 0.047165388686713383 -0.016615095730717049 0 0.047326892977353097 -0.013055127074959599 0 0.04867811927501766 -0.013580989190115892 0 0.0479020600739304 -0.013764172858361606 0 0.046792418362469702 -0.01445224682483569 0 0.0479140314857383 -0.015094660228727456 0 0.047427040962470274 -0.013994326210598445 0 0.0479020600739304 -0.013764172858361606 0 0.048328242865673825 -0.014346472986798985 0 0.04867811927501766 -0.013580989190115892 0 0.0479020600739304 -0.013764172858361606 0 0.048328242865673825 -0.014346472986798985 0 0.04867811927501766 -0.013580989190115892 0 0.048328242865673825 -0.014346472986798985 0 0.049343830942690438 -0.014824161137913204 0 0.048328242865673825 -0.014346472986798985 0 0.048546898275079374 -0.014651488453228476 0 0.049343830942690438 -0.014824161137913204 0 0.048328242865673825 -0.014346472986798985 0 0.048546898275079374 -0.014651488453228476 0 0.047795486101638307 -0.014638021453774082 0 0.047427040962470274 -0.013994326210598445 0 0.048328242865673825 -0.014346472986798985 0 0.047795486101638307 -0.014638021453774082 0 0.048546898275079374 -0.014651488453228476 0 0.047795486101638307 -0.014638021453774082 0 0.048239923161513439 -0.014225770758053934 0 0.046827046542930573 -0.014227322320607029 0 0.046433505541058039 -0.014900206300470132 0 0.047795486101638307 -0.014638021453774082 0 0.047795486101638307 -0.014638021453774082 0 0.047480936360931973 -0.015128169628083639 0 0.048239923161513439 -0.014225770758053934 0 0.046433505541058039 -0.014900206300470132 0 0.045108797834838711 -0.015666328997594754 0 0.047480936360931973 -0.015128169628083639 0 0.046433505541058039 -0.014900206300470132 0 0.047795486101638307 -0.014638021453774082 0 0.047480936360931973 -0.015128169628083639 0 0.045108797834838711 -0.015666328997594754 0 0.046940189260608618 -0.015794021996137504 0 0.047480936360931973 -0.015128169628083639 0 0.046433505541058039 -0.014900206300470132 0 0.045108797834838711 -0.015666328997594754 0 0.042737135958489089 -0.015513067851923799 0 0.046433505541058039 -0.014900206300470132 0 0.042737135958489089 -0.015513067851923799 0 0.045797125140625762 -0.014019410040206052 0 0.045108797834838711 -0.015666328997594754 0 0.043221924008869546 -0.016675463977233056 0 0.046940189260608618 -0.015794021996137504 0 0.045108797834838711 -0.015666328997594754 0 0.042737135958489089 -0.015513067851923799 0 0.043221924008869546 -0.016675463977233056 0 0.042737135958489089 -0.015513067851923799 0 0.040624466526794051 -0.016934764106872793 0 0.043221924008869546 -0.016675463977233056 0 0.040624466526794051 -0.016934764106872793 0 0.042083033917746572 -0.017161294858943136 0 0.043221924008869546 -0.016675463977233056 0 0.040624466526794051 -0.016934764106872793 0 0.038479689357279703 -0.018727532778452398 0 0.037656251088384884 -0.01798360663578898 0 0.040637369162535554 -0.016868382442121476 0 0.040322732435756278 -0.01769781425769117 0 0.040624466526794051 -0.016934764106872793 0 0.037147445204597666 -0.017892864846303837 0 0.037656251088384884 -0.01798360663578898 0 0.040624466526794051 -0.016934764106872793 0 0.039973203887363959 -0.016127246685248772 0 0.037147445204597666 -0.017892864846303837 0 0.042737135958489089 -0.015513067851923799 0 0.040624466526794051 -0.016934764106872793 0 0.039973203887363959 -0.016127246685248772 0 0.042737135958489089 -0.015513067851923799 0 0.039973203887363959 -0.016127246685248772 0 0.041218747216663944 -0.015538413690868006 0 0.039973203887363959 -0.016127246685248772 0 0.040372865759035502 -0.015228454339191936 0 0.041218747216663944 -0.015538413690868006 0 0.039973203887363959 -0.016127246685248772 0 0.037289694729076124 -0.016575140158158294 0 0.037147445204597666 -0.017892864846303837 0 0.039973203887363959 -0.016127246685248772 0 0.03880172094587047 -0.015510512203117249 0 0.037289694729076124 -0.016575140158158294 0 0.03880172094587047 -0.015510512203117249 0 0.036912357525381724 -0.015417619789518557 0 0.037289694729076124 -0.016575140158158294 0 0.039476605476262847 -0.014574532294802902 0 0.03880172094587047 -0.015510512203117249 0 0.040372865759035502 -0.015228454339191936 0 0.039973203887363959 -0.016127246685248772 0 0.03880172094587047 -0.015510512203117249 0 0.040372865759035502 -0.015228454339191936 0 0.040372865759035502 -0.015228454339191936 0 0.041139730336648334 -0.01540483249653171 0 0.041218747216663944 -0.015538413690868006 0 0.040639872134978668 -0.014537486730326673 0 0.040372865759035502 -0.015228454339191936 0 0.041139730336648334 -0.01540483249653171 0 0.044967087563159022 -0.013320289526396635 0 0.04573607852665082 -0.013321732548140907 0 0.045797125140625762 -0.014019410040206052 0 0.045859343716858604 -0.013009837000723404 0 0.044967087563159022 -0.013320289526396635 0 0.04573607852665082 -0.013321732548140907 0 0.042737135958489089 -0.015513067851923799 0 0.044967087563159022 -0.013320289526396635 0 0.045797125140625762 -0.014019410040206052 0 0.042737135958489089 -0.015513067851923799 0 0.041139730336648334 -0.01540483249653171 0 0.041218747216663944 -0.015538413690868006 0 0.042519650786156563 -0.015824862632577978 0 0.043500410648152757 -0.013925116189090144 0 0.055004141816718401 -0.021589732564227446 0 0.054175387035439199 -0.019160408202022857 0 0.054870017164965298 -0.019482259186857906 0 0.054175387035439199 -0.019160408202022857 0 0.05432442255544441 -0.01842881718549428 0 0.054870017164965298 -0.019482259186857906 0 0.054175387035439199 -0.019160408202022857 0 0.054538034393335606 -0.018588561673333632 0 0.053528985373326572 -0.018263365888175887 0 0.055004427951719261 -0.021598106328396222 0 0.055378089576047236 -0.021289239817056726 0 0.055004141816718401 -0.021589732564227446 0 0.054175387035439199 -0.019160408202022857 0 0.054538034393335606 -0.018588561673333632 0 0.055004391776225049 -0.021598506652919663 0 0.056359767413913152 -0.023942424130912954 0 0.054999898015165333 -0.024452669964673417 0 0.054999898015165333 -0.024452669964673417 0 0.056099539854754805 -0.025624109728426138 0 0.054999872480652863 -0.027306893056283577 0 0.056359767413913152 -0.023942424130912954 0 0.054999898015165333 -0.024452669964673417 0 0.056099539854754805 -0.025624109728426138 0 0.056099539854754805 -0.025624109728426138 0 0.054999872480652863 -0.027306893056283577 0 0.057546775618381472 -0.026339448347754944 0 0.056333326285145195 -0.028688989238491232 0 0.054999872480652863 -0.027306893056283577 0 0.057546775618381472 -0.026339448347754944 0 0.055378089576047236 -0.021289239817056726 0 0.05568091143250091 -0.021999923463839 0 0.056359767413913152 -0.023942424130912954 0 0.056099539854754805 -0.025624109728426138 0 0.057546775618381472 -0.026339448347754944 0 0.054538034393335606 -0.018588561673333632 0 0.053846583519234895 -0.017723929040759798 0 0.053528985373326572 -0.018263365888175887 0 0.053400819878180281 -0.018134329746159007 0 0.053120165076376964 -0.017886295321942101 0 0.053846583519234895 -0.017723929040759798 0 0.053528985373326572 -0.018263365888175887 0 0.052641497336365986 -0.017694028270395436 0 0.053528985373326572 -0.018263365888175887 0 0.053289162538086556 -0.017711015516735734 0 0.053183768524477634 -0.018041215409235076 0 0.055842938765541077 -0.022777663439009357 0 0.05568091143250091 -0.021999923463839 0 0.053151176091605835 -0.016818080889937158 0 0.053846583519234895 -0.017723929040759798 0 0.052641497336365986 -0.017694028270395436 0 0.053289162538086556 -0.017711015516735734 0 0.053183768524477634 -0.018041215409235076 0 0.052985204199940898 -0.017775424516808441 0 0.053022619069630808 -0.017285563501942918 0 0.053289162538086556 -0.017711015516735734 0 0.052985204199940898 -0.017775424516808441 0 0.053528985373326572 -0.018263365888175887 0 0.053183768524477634 -0.018041215409235076 0 0.053148025478741687 -0.018067278833063374 0 0.053183768524477634 -0.018041215409235076 0 0.053148025478741687 -0.018067278833063374 0 0.053020071352202616 -0.018003196022050229 0 0.054175387035439199 -0.019160408202022857 0 0.053528985373326572 -0.018263365888175887 0 0.053148025478741687 -0.018067278833063374 0 0.054175387035439199 -0.019160408202022857 0 0.053148025478741687 -0.018067278833063374 0 0.05432442255544441 -0.01842881718549428 0 0.051136028368523302 -0.016942906439129393 0 0.051041016140145418 -0.01686224257515373 0 0.053148025478741687 -0.018067278833063374 0 0.052785644959325639 -0.017569679030790222 0 0.053020071352202616 -0.018003196022050229 0 0.049589045403000152 -0.016133500846851646 0 0.048670744021924783 -0.015714746671160275 0 0.048550105288951609 -0.015965431621042893 0 0.049589045403000152 -0.016133500846851646 0 0.048670744021924783 -0.015714746671160275 0 0.04904844975751689 -0.0157066673869742 0 0.04904844975751689 -0.0157066673869742 0 0.048941780967765636 -0.015320724004749599 0 0.048440262641540603 -0.015389997037848564 0 0.051041016140145418 -0.01686224257515373 0 0.050955107183301304 -0.016542776167476306 0 0.053183768524477634 -0.018041215409235076 0 0.053020071352202616 -0.018003196022050229 0 0.052985204199940898 -0.017775424516808441 0 0.048738246261425457 -0.015067507537957665 0 0.048941780967765636 -0.015320724004749599 0 0.048440262641540603 -0.015389997037848564 0 0.048021854808409717 -0.014991781509354037 0 0.048738246261425457 -0.015067507537957665 0 0.048440262641540603 -0.015389997037848564 0 0.048670744021924783 -0.015714746671160275 0 0.04904844975751689 -0.0157066673869742 0 0.048440262641540603 -0.015389997037848564 0 0.048670744021924783 -0.015714746671160275 0 0.048440262641540603 -0.015389997037848564 0 0.047944621101924122 -0.015534671587019823 0 0.048440262641540603 -0.015389997037848564 0 0.047944621101924122 -0.015534671587019823 0 0.047541410271432806 -0.015281927496685171 0 0.048021854808409717 -0.014991781509354037 0 0.048440262641540603 -0.015389997037848564 0 0.047541410271432806 -0.015281927496685171 0 0.047045954162802744 -0.01506029415903863 0 0.046740953624367573 -0.015265385525444975 0 0.047541410271432806 -0.015281927496685171 0 0.046740953624367573 -0.015265385525444975 0 0.047541410271432806 -0.015281927496685171 0 0.04717050446026811 -0.015426714711721535 0 0.047944621101924122 -0.015534671587019823 0 0.047541410271432806 -0.015281927496685171 0 0.04717050446026811 -0.015426714711721535 0 0.047282267819518553 -0.015704988081488368 0 0.047944621101924122 -0.015534671587019823 0 0.04717050446026811 -0.015426714711721535 0 0.047282267819518553 -0.015704988081488368 0 0.047944621101924122 -0.015534671587019823 0 0.048550105288951609 -0.015965431621042893 0 0.048670744021924783 -0.015714746671160275 0 0.047944621101924122 -0.015534671587019823 0 0.048550105288951609 -0.015965431621042893 0 0.047282267819518553 -0.015704988081488368 0 0.047165388686713383 -0.016615095730717049 0 0.048550105288951609 -0.015965431621042893 0 0.0479140314857383 -0.015094660228727456 0 0.049283877551486756 -0.015624550341236909 0 0.047165388686713383 -0.016615095730717049 0 0.048550105288951609 -0.015965431621042893 0 0.048679639284020707 -0.017011630072510667 0 0.048550105288951609 -0.015965431621042893 0 0.048679639284020707 -0.017011630072510667 0 0.049639201131257651 -0.016369060688637995 0 0.049938938825965708 -0.014224377010691163 0 0.049343830942690438 -0.014824161137913204 0 0.050638214252981283 -0.015513066800651183 0 0.04867811927501766 -0.013580989190115892 0 0.049938938825965708 -0.014224377010691163 0 0.049343830942690438 -0.014824161137913204 0 0.048546898275079374 -0.014651488453228476 0 0.049343830942690438 -0.014824161137913204 0 0.049237792236340609 -0.014976813165372057 0 0.049343830942690438 -0.014824161137913204 0 0.049237792236340609 -0.014976813165372057 0 0.050296013847205542 -0.015470142823971043 0 0.049237792236340609 -0.014976813165372057 0 0.050296013847205542 -0.015470142823971043 0 0.050679648326759433 -0.015931035664989705 0 0.049343830942690438 -0.014824161137913204 0 0.050296013847205542 -0.015470142823971043 0 0.050638214252981283 -0.015513066800651183 0 0.050638214252981283 -0.015513066800651183 0 0.051273133748431579 -0.016128159099654774 0 0.051501307735149278 -0.016539990413971264 0 0.050296013847205542 -0.015470142823971043 0 0.050638214252981283 -0.015513066800651183 0 0.051256635888556328 -0.016056056731954427 0 0.050638214252981283 -0.015513066800651183 0 0.051273133748431579 -0.016128159099654774 0 0.051256635888556328 -0.016056056731954427 0 0.050296013847205542 -0.015470142823971043 0 0.050986991554286903 -0.015911819582202568 0 0.050679648326759433 -0.015931035664989705 0 0.050296013847205542 -0.015470142823971043 0 0.051256635888556328 -0.016056056731954427 0 0.050986991554286903 -0.015911819582202568 0 0.050986991554286903 -0.015911819582202568 0 0.051491809229907919 -0.016158297166007762 0 0.050679648326759433 -0.015931035664989705 0 0.051256635888556328 -0.016056056731954427 0 0.051491809229907919 -0.016158297166007762 0 0.052017566938162868 -0.016581079182873628 0 0.051256635888556328 -0.016056056731954427 0 0.050986991554286903 -0.015911819582202568 0 0.051491809229907919 -0.016158297166007762 0 0.051256635888556328 -0.016056056731954427 0 0.051665738974360997 -0.016448751972492327 0 0.052017566938162868 -0.016581079182873628 0 0.051273133748431579 -0.016128159099654774 0 0.051256635888556328 -0.016056056731954427 0 0.051665738974360997 -0.016448751972492327 0 0.051273133748431579 -0.016128159099654774 0 0.051665738974360997 -0.016448751972492327 0 0.051501307735149278 -0.016539990413971264 0 0.051665738974360997 -0.016448751972492327 0 0.052257620219933222 -0.016993058179931585 0 0.052017566938162868 -0.016581079182873628 0 0.051665738974360997 -0.016448751972492327 0 0.051501307735149278 -0.016539990413971264 0 0.052257620219933222 -0.016993058179931585 0 0.051501307735149278 -0.016539990413971264 0 0.052348928004014722 -0.017150314365036036 0 0.052257620219933222 -0.016993058179931585 0 0.051501307735149278 -0.016539990413971264 0 0.051048584562664173 -0.016597427955671474 0 0.052348928004014722 -0.017150314365036036 0 0.049938938825965708 -0.014224377010691163 0 0.050638214252981283 -0.015513066800651183 0 0.051501307735149278 -0.016539990413971264 0 0.049283877551486756 -0.015624550341236909 0 0.051253717602992535 -0.016425098381105251 0 0.048679639284020707 -0.017011630072510667 0 0.051501307735149278 -0.016539990413971264 0 0.051048584562664173 -0.016597427955671474 0 0.048679639284020707 -0.017011630072510667 0 0.051048584562664173 -0.016597427955671474 0 0.049639201131257651 -0.016369060688637995 0 0.049589045403000152 -0.016133500846851646 0 0.048550105288951609 -0.015965431621042893 0 0.049639201131257651 -0.016369060688637995 0 0.049589045403000152 -0.016133500846851646 0 0.051048584562664173 -0.016597427955671474 0 0.049639201131257651 -0.016369060688637995 0 0.051136028368523302 -0.016942906439129393 0 0.051055700619972715 -0.016805905420426384 0 0.052785644959325639 -0.017569679030790222 0 0.051048584562664173 -0.016597427955671474 0 0.052348928004014722 -0.017150314365036036 0 0.053148025478741687 -0.018067278833063374 0 0.052785644959325639 -0.017569679030790222 0 0.052348928004014722 -0.017150314365036036 0 0.053148025478741687 -0.018067278833063374 0 0.052348928004014722 -0.017150314365036036 0 0.053126603263361785 -0.017635141990007333 0 0.053148025478741687 -0.018067278833063374 0 0.053126603263361785 -0.017635141990007333 0 0.05432442255544441 -0.01842881718549428 0 0.052764769289203879 -0.017418820039647443 0 0.055180712649048828 -0.017648918464949936 0 0.054511873041806588 -0.017744693213497708 0 0.053126603263361785 -0.017635141990007333 0 0.054511873041806588 -0.017744693213497708 0 0.05432442255544441 -0.01842881718549428 0 0.053126603263361785 -0.017635141990007333 0 0.052764769289203879 -0.017418820039647443 0 0.054511873041806588 -0.017744693213497708 0 0.053126603263361785 -0.017635141990007333 0 0.052764769289203879 -0.017418820039647443 0 0.052257620219933222 -0.016993058179931585 0 0.052348928004014722 -0.017150314365036036 0 0.053126603263361785 -0.017635141990007333 0 0.052257620219933222 -0.016993058179931585 0 0.052764769289203879 -0.017418820039647443 0 0.052257620219933222 -0.016993058179931585 0 0.052017566938162868 -0.016581079182873628 0 0.052764769289203879 -0.017418820039647443 0 0.052017566938162868 -0.016581079182873628 0 0.052166067502510641 -0.016598602156623569 0 0.052017566938162868 -0.016581079182873628 0 0.05192489002099971 -0.016377150530542835 0 0.052166067502510641 -0.016598602156623569 0 0.051491809229907919 -0.016158297166007762 0 0.052017566938162868 -0.016581079182873628 0 0.05192489002099971 -0.016377150530542835 0 0.055165901280357955 -0.016463064555954924 0 0.055556419020022334 -0.015250417323567699 0 0.052166067502510641 -0.016598602156623569 0 0.051710402900386289 -0.016768467295310355 0 0.052030153997898246 -0.016338184697774472 0 0.05192489002099971 -0.016377150530542835 0 0.052166067502510641 -0.016598602156623569 0 0.052030153997898246 -0.016338184697774472 0 0.052274309557133705 -0.017396187232874439 0 0.055165901280357955 -0.016463064555954924 0 0.052764769289203879 -0.017418820039647443 0 0.052166067502510641 -0.016598602156623569 0 0.051710402900386289 -0.016768467295310355 0 0.052764769289203879 -0.017418820039647443 0 0.055180712649048828 -0.017648918464949936 0 0.055016974443836721 -0.018060444909375917 0 0.055180712649048828 -0.017648918464949936 0 0.055273509670356567 -0.017187223198092051 0 0.055094976276951674 -0.017674200033335186 0 0.055165901280357955 -0.016463064555954924 0 0.056013147120269106 -0.01538036442543028 0 0.055273509670356567 -0.017187223198092051 0 0.055372566427636306 -0.017315490325602811 0 0.055547336741026097 -0.015801682358849781 0 0.055180712649048828 -0.017648918464949936 0 0.055273509670356567 -0.017187223198092051 0 0.055372566427636306 -0.017315490325602811 0 0.055033091303209165 -0.017015169211990276 0 0.055165901280357955 -0.016463064555954924 0 0.057837568612931392 -0.015792616447861486 0 0.056422045467861594 -0.014860971253339291 0 0.058833702230321257 -0.013263244055771435 0 0.054999940587966645 -0.013984833065206835 0 0.056422045467861594 -0.014860971253339291 0 0.056657036140692084 -0.012919458532498398 0 0.054999654551196028 -0.013986739138051187 0 0.055547336741026097 -0.015801682358849781 0 0.054999202095939455 -0.016523504085694547 0 0.054999897536220886 -0.013985436285574155 0 0.056013147120269106 -0.01538036442543028 0 0.055273509670356567 -0.017187223198092051 0 0.055547336741026097 -0.015801682358849781 0 0.054999202095939455 -0.016523504085694547 0 0.055273509670356567 -0.017187223198092051 0 0.054999202095939455 -0.016523504085694547 0 0.055142912119402046 -0.018085436690196775 0 0.054999202095939455 -0.016523504085694547 0 0.055142912119402046 -0.018085436690196775 0 0.054998710924314576 -0.019061879894781617 0 0.055142912119402046 -0.018085436690196775 0 0.055094976276951674 -0.017674200033335186 0 0.054511873041806588 -0.017744693213497708 0 0.055273509670356567 -0.017187223198092051 0 0.055142912119402046 -0.018085436690196775 0 0.055094976276951674 -0.017674200033335186 0 0.055180712649048828 -0.017648918464949936 0 0.055094976276951674 -0.017674200033335186 0 0.054511873041806588 -0.017744693213497708 0 0.055142912119402046 -0.018085436690196775 0 0.054511873041806588 -0.017744693213497708 0 0.05432442255544441 -0.01842881718549428 0 0.055142912119402046 -0.018085436690196775 0 0.05432442255544441 -0.01842881718549428 0 0.054870017164965298 -0.019482259186857906 0 0.055004141816718401 -0.021589732564227446 0 0.054998710924314576 -0.019061879894781617 0 0.054870017164965298 -0.019482259186857906 0 0.055142912119402046 -0.018085436690196775 0 0.054998710924314576 -0.019061879894781617 0 0.054870017164965298 -0.019482259186857906 0 0.054999148734429473 -0.0075336532410060063 0 0.055420490036459276 -0.0078107223922103119 0 0.054999990462441022 -0.0097650192505209232 0 0.054999148734429473 -0.0075336532410060063 0 0.055420490036459276 -0.0078107223922103119 0 0.055382631965213321 -0.0068757464818522381 0 0.055056121087700853 -0.0075712839218211219 0 0.055420490036459276 -0.0078107223922103119 0 0.055382631965213321 -0.0068757464818522381 0 0.055056121087700853 -0.0075712839218211219 0 0.055420490036459276 -0.0078107223922103119 0 0.054678743521111933 -0.0073758020962227805 0 0.055420490036459276 -0.0078107223922103119 0 0.055234966850694157 -0.007608821832231198 0 0.054678743521111933 -0.0073758020962227805 0 0.055420490036459276 -0.0078107223922103119 0 0.055234966850694157 -0.007608821832231198 0 0.054999990462441022 -0.0097650192505209232 0 0.056784714005590813 -0.008827630512700144 0 0.054999145943746365 -0.0097688718102633271 0 0.057427931869293888 -0.010305107217722412 0 0.054999927499659998 -0.0097695844427359794 0 0.054999968954354647 -0.011877258732638596 0 0.057427931869293888 -0.010305107217722412 0 0.054999968954354647 -0.011877258732638596 0 0.056657036140692084 -0.012919458532498398 0 0.054999940587966645 -0.013984833065206835 0 0.054999968954354647 -0.011877258732638596 0 0.056657036140692084 -0.012919458532498398 0 0.056422045467861594 -0.014860971253339291 0 0.056657036140692084 -0.012919458532498398 0 0.058833702230321257 -0.013263244055771435 0 0.057427931869293888 -0.010305107217722412 0 0.056657036140692084 -0.012919458532498398 0 0.058833702230321257 -0.013263244055771435 0 0.057427931869293888 -0.010305107217722412 0 0.058833702230321257 -0.013263244055771435 0 0.059778649361158426 -0.010740182130814104 0 0.056784714005590813 -0.008827630512700144 0 0.053793274388120885 -0.011092391377312039 0 0.055556419020022334 -0.015250417323567699 0 0.053793274388120885 -0.011092391377312039 0 0.05192489002099971 -0.016377150530542835 0 0.052030153997898246 -0.016338184697774472 0 0.051792139600706041 -0.016440783905044689 0 0.052030153997898246 -0.016338184697774472 0 0.051792139600706041 -0.016440783905044689 0 0.051962182302048951 -0.016719992480408657 0 0.051491809229907919 -0.016158297166007762 0 0.05192489002099971 -0.016377150530542835 0 0.051792139600706041 -0.016440783905044689 0 0.053793274388120885 -0.011092391377312039 0 0.050002125775288689 -0.013143633010569427 0 0.051792139600706041 -0.016440783905044689 0 0.051962182302048951 -0.016719992480408657 0 0.05127584158815468 -0.01666483891461774 0 0.050721609220772054 -0.0089476431031836039 0 0.050710191227020529 -0.0091741568257383086 0 0.049730892226229097 -0.0091919653415977465 0 0.053793274388120885 -0.011092391377312039 0 0.052098982649034051 -0.0077954731973755619 0 0.054129155445986503 -0.0066887588577760034 0 0.053372763497349741 -0.0072250508794216685 0 0.054678743521111933 -0.0073758020962227805 0 0.055234966850694157 -0.007608821832231198 0 0.054129155445986503 -0.0066887588577760034 0 0.054678743521111933 -0.0073758020962227805 0 0.053372763497349741 -0.0072250508794216685 0 0.054678743521111933 -0.0073758020962227805 0 0.054001884787236901 -0.0081748805969505279 0 0.055056121087700853 -0.0075712839218211219 0 0.054678743521111933 -0.0073758020962227805 0 0.054001884787236901 -0.0081748805969505279 0 0.053372763497349741 -0.0072250508794216685 0 0.05159363563926498 -0.0087504035876842939 0 0.054001884787236901 -0.0081748805969505279 0 0.052098982649034051 -0.0077954731973755619 0 0.051568982027455829 -0.0089967234568952767 0 0.050710191227020529 -0.0091741568257383086 0 0.049883836929941548 -0.0093540690374921548 0 0.05159363563926498 -0.0087504035876842939 0 0.049883836929941548 -0.0093540690374921548 0 0.049730892226229097 -0.0091919653415977465 0 0.048723335526089984 -0.0098673022711266538 0 0.050710191227020529 -0.0091741568257383086 0 0.049883836929941548 -0.0093540690374921548 0 0.049730892226229097 -0.0091919653415977465 0 0.051491809229907919 -0.016158297166007762 0 0.05127584158815468 -0.01666483891461774 0 0.050679648326759433 -0.015931035664989705 0 0.051491809229907919 -0.016158297166007762 0 0.051792139600706041 -0.016440783905044689 0 0.05127584158815468 -0.01666483891461774 0 0.049730892226229097 -0.0091919653415977465 0 0.04832995449269422 -0.010480088416543598 0 0.048723335526089984 -0.0098673022711266538 0 0.05127584158815468 -0.01666483891461774 0 0.050679648326759433 -0.015931035664989705 0 0.049840430852567098 -0.015985388510313201 0 0.050002125775288689 -0.013143633010569427 0 0.049386195459421363 -0.013238620843915217 0 0.049237792236340609 -0.014976813165372057 0 0.050679648326759433 -0.015931035664989705 0 0.049840430852567098 -0.015985388510313201 0 0.049237792236340609 -0.014976813165372057 0 0.049840430852567098 -0.015985388510313201 0 0.048429382847650762 -0.013508601984121002 0 0.048546898275079374 -0.014651488453228476 0 0.049237792236340609 -0.014976813165372057 0 0.048429382847650762 -0.013508601984121002 0 0.049386195459421363 -0.013238620843915217 0 0.048675739640400853 -0.013495152282251871 0 0.04832995449269422 -0.010480088416543598 0 0.048066266433583048 -0.010354751089918113 0 0.048429382847650762 -0.013508601984121002 0 0.04832995449269422 -0.010480088416543598 0 0.048066266433583048 -0.010354751089918113 0 0.048723335526089984 -0.0098673022711266538 0 0.049883836929941548 -0.0093540690374921548 0 0.048723335526089984 -0.0098673022711266538 0 0.04837060349690555 -0.0096383162297965334 0 0.048066266433583048 -0.010354751089918113 0 0.048723335526089984 -0.0098673022711266538 0 0.04837060349690555 -0.0096383162297965334 0 0.048066266433583048 -0.010354751089918113 0 0.04837060349690555 -0.0096383162297965334 0 0.048612719251349024 -0.0082334215987244445 0 0.048744201998660773 -0.0066964943611975752 0 0.048927018624318051 -0.0080385808181485316 0 0.048744201998660773 -0.0066964943611975752 0 0.050245519311268916 -0.0056999464450595023 0 0.048679796446109973 -0.0035181144117896143 0 0.04964283996735646 -0.0023148899239916316 0 0.05043250131429422 -0.0014578956567844097 0 0.048679796446109973 -0.0035181144117896143 0 0.048974256930182758 -0.0050677727952978006 0 0.048961899492437497 -0.0032860220100779554 0 0.048679796446109973 -0.0035181144117896143 0 0.04964283996735646 -0.0023148899239916316 0 0.048961899492437497 -0.0032860220100779554 0 0.049423523984823449 -0.0020924026139481264 0 0.04964283996735646 -0.0023148899239916316 0 0.048961899492437497 -0.0032860220100779554 0 0.050532461009021729 -0.0018869724364010559 0 0.049423523984823449 -0.0020924026139481264 0 0.050640988115296534 -0.0017755482202055073 0 0.049423523984823449 -0.0020924026139481264 0 0.04964283996735646 -0.0023148899239916316 0 0.050640988115296534 -0.0017755482202055073 0 0.04964283996735646 -0.0023148899239916316 0 0.050640988115296534 -0.0017755482202055073 0 0.051257695880459704 -0.0014401308922647419 0 0.051805007782114991 -0.0013228625000522146 0 0.050640988115296534 -0.0017755482202055073 0 0.051672974557050548 -0.0014517583131636953 0 0.051805007782114991 -0.0013228625000522146 0 0.051672974557050548 -0.0014517583131636953 0 0.052682104533069797 -0.0011445626131927336 0 0.050640988115296534 -0.0017755482202055073 0 0.051672974557050548 -0.0014517583131636953 0 0.051257695880459704 -0.0014401308922647419 0 0.051672974557050548 -0.0014517583131636953 0 0.051257695880459704 -0.0014401308922647419 0 0.052731853952774563 -0.0012235427437142904 0 0.051257695880459704 -0.0014401308922647419 0 0.05043250131429422 -0.0014578956567844097 0 0.052368319258767088 -0.00061045646530216951 0 0.050245519311268916 -0.0056999464450595023 0 0.052595419176595638 -0.0049510389239765494 0 0.04964283996735646 -0.0023148899239916316 0 0.051257695880459704 -0.0014401308922647419 0 0.05043250131429422 -0.0014578956567844097 0 0.049883836929941548 -0.0093540690374921548 0 0.04837060349690555 -0.0096383162297965334 0 0.04995907426542219 -0.0099237417590171614 0 0.049883836929941548 -0.0093540690374921548 0 0.04995907426542219 -0.0099237417590171614 0 0.05159363563926498 -0.0087504035876842939 0 0.04995907426542219 -0.0099237417590171614 0 0.05159363563926498 -0.0087504035876842939 0 0.052892365394022776 -0.009381497480756569 0 0.05159363563926498 -0.0087504035876842939 0 0.054001884787236901 -0.0081748805969505279 0 0.052892365394022776 -0.009381497480756569 0 0.055056121087700853 -0.0075712839218211219 0 0.054001884787236901 -0.0081748805969505279 0 0.055512928440447383 -0.0068779115375729718 0 0.054001884787236901 -0.0081748805969505279 0 0.052892365394022776 -0.009381497480756569 0 0.055512928440447383 -0.0068779115375729718 0 0.052368319258767088 -0.00061045646530216951 0 0.052731853952774563 -0.0012235427437142904 0 0.05417216959425171 -0.00091833580157836688 0 0.052595419176595638 -0.0049510389239765494 0 0.054535905982222958 -0.0038858786798249491 0 0.051257695880459704 -0.0014401308922647419 0 0.052368319258767088 -0.00061045646530216951 0 0.052731853952774563 -0.0012235427437142904 0 0.051672974557050548 -0.0014517583131636953 0 0.052731853952774563 -0.0012235427437142904 0 0.052682104533069797 -0.0011445626131927336 0 0.052731853952774563 -0.0012235427437142904 0 0.052682104533069797 -0.0011445626131927336 0 0.053663837950832176 -0.0012416916696856935 0 0.052731853952774563 -0.0012235427437142904 0 0.053663837950832176 -0.0012416916696856935 0 0.05417216959425171 -0.00091833580157836688 0 0.053663837950832176 -0.0012416916696856935 0 0.054839980450777433 -0.0013253855116501536 0 0.05417216959425171 -0.00091833580157836688 0 0.054217221323528596 -0.0011724126005891468 0 0.053663837950832176 -0.0012416916696856935 0 0.054839980450777433 -0.0013253855116501536 0 0.054998560040329367 0.0001924850734255744 0 0.054217221323528596 -0.0011724126005891468 0 0.054839980450777433 -0.0013253855116501536 0 0.054998560040329367 0.0001924850734255744 0 0.054839980450777433 -0.0013253855116501536 0 0.054998813256087478 -0.0030507957933712639 0 0.054839980450777433 -0.0013253855116501536 0 0.054998813256087478 -0.0030507957933712639 0 0.05417216959425171 -0.00091833580157836688 0 0.054999117314068209 -0.0030596228716114229 0 0.054535905982222958 -0.0038858786798249491 0 0.054999232955592378 -0.0030632793266795236 0 0.055512928440447383 -0.0068779115375729718 0 0.054999712210339821 -0.0052969196961848335 0 0.055056121087700853 -0.0075712839218211219 0 0.055512928440447383 -0.0068779115375729718 0 0.055382631965213321 -0.0068757464818522381 0 0.055512928440447383 -0.0068779115375729718 0 0.054999712210339821 -0.0052969196961848335 0 0.055382631965213321 -0.0068757464818522381 0 0.054999148734429473 -0.0075336532410060063 0 0.054999712210339821 -0.0052969196961848335 0 0.055382631965213321 -0.0068757464818522381 0 0.047855730372089005 -0.015493978213347658 0 0.046981837514697783 -0.015637604375635262 0 0.049916924401730671 -0.011837550017473091 0 0.051221183471680726 -0.012060002547730037 0 0.050022881755448993 -0.01361268818226995 0 0.049916924401730671 -0.011837550017473091 0 0.048149211695133483 -0.01346475192439669 0 0.048932235931562054 -0.011074825587676187 0 0.049916924401730671 -0.011837550017473091 0 0.050022881755448993 -0.01361268818226995 0 0.048149211695133483 -0.01346475192439669 0 0.049863275447717938 -0.010483227900491453 0 0.048932235931562054 -0.011074825587676187 0 0.049452839896711863 -0.0097480451193417209 0 0.049916924401730671 -0.011837550017473091 0 0.049863275447717938 -0.010483227900491453 0 0.048932235931562054 -0.011074825587676187 0 0.049916924401730671 -0.011837550017473091 0 0.049863275447717938 -0.010483227900491453 0 0.050713793058108116 -0.010619168164036758 0 0.049916924401730671 -0.011837550017473091 0 0.050713793058108116 -0.010619168164036758 0 0.051221183471680726 -0.012060002547730037 0 0.043163306109434772 -0.01705940307538217 0 0.043079087009872383 -0.017548774999842403 0 0.043116735547120436 -0.017718267358794407 0 0.050713793058108116 -0.010619168164036758 0 0.052003797286371667 -0.010850445931570096 0 0.051221183471680726 -0.012060002547730037 0 0.038651148201782233 -0.0061322740764461073 0 0.047855730372089005 -0.015493978213347658 0 0.036821163975108311 -0.0086474596187067453 0 0.03717881826225182 -0.0090404486498897058 0 0.037071186851731414 -0.0083061077713001818 0 0.043163306109434772 -0.01705940307538217 0 0.043223446526786932 -0.017486891314613062 0 0.043079087009872383 -0.017548774999842403 0 0.038651148201782233 -0.0061322740764461073 0 0.038666648596673327 -0.016532621429249977 0 0.043223446526786932 -0.017486891314613062 0 0.043079087009872383 -0.017548774999842403 0 0.042780088664182182 -0.017678256824773423 0 0.043079087009872383 -0.017548774999842403 0 0.043116735547120436 -0.017718267358794407 0 0.042780088664182182 -0.017678256824773423 0 0.038666648596673327 -0.016532621429249977 0 0.039992662905138102 -0.018484110556560199 0 0.036325723819564802 -0.018998722853854382 0 0.037083543523538237 -0.018924315237925718 0 0.036185346214933072 -0.018877922321335092 0 0.043116735547120436 -0.017718267358794407 0 0.042926350465243207 -0.017644937417722009 0 0.044000764821475878 -0.018005850121746648 0 0.043116735547120436 -0.017718267358794407 0 0.042926350465243207 -0.017644937417722009 0 0.042780088664182182 -0.017678256824773423 0 0.037083543523538237 -0.018924315237925718 0 0.038479689357279703 -0.018727532778452398 0 0.03715508747493422 -0.018760789524689424 0 0.039992662905138102 -0.018484110556560199 0 0.040322732435756278 -0.01769781425769117 0 0.042926350465243207 -0.017644937417722009 0 0.042780088664182182 -0.017678256824773423 0 0.042083033917746572 -0.017161294858943136 0 0.038479689357279703 -0.018727532778452398 0 0.03715508747493422 -0.018760789524689424 0 0.037656251088384884 -0.01798360663578898 0 0.042926350465243207 -0.017644937417722009 0 0.042083033917746572 -0.017161294858943136 0 0.043221924008869546 -0.016675463977233056 0 0.043221924008869546 -0.016675463977233056 0 0.044000764821475878 -0.018005850121746648 0 0.046940189260608618 -0.015794021996137504 0 0.042926350465243207 -0.017644937417722009 0 0.043221924008869546 -0.016675463977233056 0 0.044000764821475878 -0.018005850121746648 0 0.046981837514697783 -0.015637604375635262 0 0.047029741971032407 -0.015742243282121447 0 0.050022881755448993 -0.01361268818226995 0 0.046940189260608618 -0.015794021996137504 0 0.048149211695133483 -0.01346475192439669 0 0.046940189260608618 -0.015794021996137504 0 0.047480936360931973 -0.015128169628083639 0 0.048149211695133483 -0.01346475192439669 0 0.047480936360931973 -0.015128169628083639 0 0.048164391713063734 -0.013480100734649385 0 0.048239923161513439 -0.014225770758053934 0 0.048164391713063734 -0.013480100734649385 0 0.04852642400823378 -0.012451373948031242 0 0.048407892779954463 -0.012020023850527846 0 0.047480936360931973 -0.015128169628083639 0 0.048164391713063734 -0.013480100734649385 0 0.048149211695133483 -0.01346475192439669 0 0.048164391713063734 -0.013480100734649385 0 0.048149211695133483 -0.01346475192439669 0 0.048407892779954463 -0.012020023850527846 0 0.048546898275079374 -0.014651488453228476 0 0.048429382847650762 -0.013508601984121002 0 0.048239923161513439 -0.014225770758053934 0 0.048429382847650762 -0.013508601984121002 0 0.048239923161513439 -0.014225770758053934 0 0.04852642400823378 -0.012451373948031242 0 0.048164391713063734 -0.013480100734649385 0 0.048239923161513439 -0.014225770758053934 0 0.04852642400823378 -0.012451373948031242 0 0.048429382847650762 -0.013508601984121002 0 0.04852642400823378 -0.012451373948031242 0 0.048550436156044326 -0.010946679453318604 0 0.048066266433583048 -0.010354751089918113 0 0.048429382847650762 -0.013508601984121002 0 0.048550436156044326 -0.010946679453318604 0 0.04852642400823378 -0.012451373948031242 0 0.048550436156044326 -0.010946679453318604 0 0.048894487899692717 -0.01054580482898556 0 0.048550436156044326 -0.010946679453318604 0 0.048894487899692717 -0.01054580482898556 0 0.048612719251349024 -0.0082334215987244445 0 0.048066266433583048 -0.010354751089918113 0 0.048550436156044326 -0.010946679453318604 0 0.048612719251349024 -0.0082334215987244445 0 0.048149211695133483 -0.01346475192439669 0 0.048407892779954463 -0.012020023850527846 0 0.048932235931562054 -0.011074825587676187 0 0.04852642400823378 -0.012451373948031242 0 0.048894487899692717 -0.01054580482898556 0 0.048407892779954463 -0.012020023850527846 0 0.048894487899692717 -0.01054580482898556 0 0.048407892779954463 -0.012020023850527846 0 0.048438312248356562 -0.010675836427443354 0 0.048894487899692717 -0.01054580482898556 0 0.048438312248356562 -0.010675836427443354 0 0.048035638875225647 -0.0097712737427488577 0 0.048407892779954463 -0.012020023850527846 0 0.048438312248356562 -0.010675836427443354 0 0.048932235931562054 -0.011074825587676187 0 0.048438312248356562 -0.010675836427443354 0 0.048932235931562054 -0.011074825587676187 0 0.048706580377067911 -0.0094474003167734147 0 0.048932235931562054 -0.011074825587676187 0 0.048706580377067911 -0.0094474003167734147 0 0.049452839896711863 -0.0097480451193417209 0 0.048706580377067911 -0.0094474003167734147 0 0.049510187433293849 -0.0083309565579534374 0 0.049452839896711863 -0.0097480451193417209 0 0.048438312248356562 -0.010675836427443354 0 0.048706580377067911 -0.0094474003167734147 0 0.048035638875225647 -0.0097712737427488577 0 0.048706580377067911 -0.0094474003167734147 0 0.048035638875225647 -0.0097712737427488577 0 0.047818382479532032 -0.007835552660314311 0 0.048035638875225647 -0.0097712737427488577 0 0.047818382479532032 -0.007835552660314311 0 0.046791118569845143 -0.0088717771119868529 0 0.048706580377067911 -0.0094474003167734147 0 0.047818382479532032 -0.007835552660314311 0 0.048720162208226413 -0.0072443066154074583 0 0.048720162208226413 -0.0072443066154074583 0 0.050351694617081666 -0.0066436888980071027 0 0.049510187433293849 -0.0083309565579534374 0 0.048706580377067911 -0.0094474003167734147 0 0.048720162208226413 -0.0072443066154074583 0 0.049510187433293849 -0.0083309565579534374 0 0.048612719251349024 -0.0082334215987244445 0 0.048974256930182758 -0.0050677727952978006 0 0.050538235830321555 -0.0050489986188571295 0 0.048679796446109973 -0.0035181144117896143 0 0.048612719251349024 -0.0082334215987244445 0 0.048974256930182758 -0.0050677727952978006 0 0.048894487899692717 -0.01054580482898556 0 0.048612719251349024 -0.0082334215987244445 0 0.050538235830321555 -0.0050489986188571295 0 0.048894487899692717 -0.01054580482898556 0 0.048035638875225647 -0.0097712737427488577 0 0.046791118569845143 -0.0088717771119868529 0 0.048878700945483244 -0.010143716221489567 0 0.048615685764289436 -0.0069326881394444128 0 0.048615685764289436 -0.0069326881394444128 0 0.048030194213757857 -0.0040296259406212426 0 0.047818382479532032 -0.007835552660314311 0 0.046791118569845143 -0.0088717771119868529 0 0.046463191866232594 -0.0052845573352605238 0 0.050538235830321555 -0.0050489986188571295 0 0.048961899492437497 -0.0032860220100779554 0 0.049471335389506668 -0.002521097695260704 0 0.048974256930182758 -0.0050677727952978006 0 0.050538235830321555 -0.0050489986188571295 0 0.048961899492437497 -0.0032860220100779554 0 0.049423523984823449 -0.0020924026139481264 0 0.048961899492437497 -0.0032860220100779554 0 0.049471335389506668 -0.002521097695260704 0 0.04793896405608316 -0.0028312402435467215 0 0.048030194213757857 -0.0040296259406212426 0 0.04782339965955041 -0.0033540998026024911 0 0.04795105540206232 -0.0026273490348168336 0 0.046463191866232594 -0.0052845573352605238 0 0.04795105540206232 -0.0026273490348168336 0 0.049423523984823449 -0.0020924026139481264 0 0.049471335389506668 -0.002521097695260704 0 0.048720162208226413 -0.0072443066154074583 0 0.04873587038964268 -0.0046189782081060794 0 0.050351694617081666 -0.0066436888980071027 0 0.048720162208226413 -0.0072443066154074583 0 0.047921999360148855 -0.0057168377038048458 0 0.04873587038964268 -0.0046189782081060794 0 0.050339166237734108 -0.0062030768534222791 0 0.045811842206827845 -0.0020935227445764266 0 0.047818382479532032 -0.007835552660314311 0 0.046463191866232594 -0.0052845573352605238 0 0.047921999360148855 -0.0057168377038048458 0 0.047818382479532032 -0.007835552660314311 0 0.048720162208226413 -0.0072443066154074583 0 0.047921999360148855 -0.0057168377038048458 0 0.04782339965955041 -0.0033540998026024911 0 0.046463191866232594 -0.0052845573352605238 0 0.047921999360148855 -0.0057168377038048458 0 0.04782339965955041 -0.0033540998026024911 0 0.047921999360148855 -0.0057168377038048458 0 0.04873587038964268 -0.0046189782081060794 0 0.04782339965955041 -0.0033540998026024911 0 0.04873587038964268 -0.0046189782081060794 0 0.048920348482722753 -0.0038650139397865021 0 0.04873587038964268 -0.0046189782081060794 0 0.048920348482722753 -0.0038650139397865021 0 0.049460126115230867 -0.0053126087735268874 0 0.035702596953871603 0.0040170179559453501 0 0.03795946907454318 0.0046933659183736008 0 0.034390001914238813 0.005893798933465727 0 0.042953645422712003 0.0012339676149621004 0 0.045811842206827845 -0.0020935227445764266 0 0.03795946907454318 0.0046933659183736008 0 0.034390001914238813 0.005893798933465727 0 0.035876079110078264 0.0086930647988465171 0 0.033512375440753868 0.0031164356787755088 0 0.034390001914238813 0.005893798933465727 0 0.031067350348441079 0.0051869719079075125 0 0.034390001914238813 0.005893798933465727 0 0.031625096138302833 0.0085117244981132312 0 0.031067350348441079 0.0051869719079075125 0 0.034390001914238813 0.005893798933465727 0 0.031625096138302833 0.0085117244981132312 0 0.035876079110078264 0.0086930647988465171 0 0.050351694617081666 -0.0066436888980071027 0 0.049510187433293849 -0.0083309565579534374 0 0.050218047485916004 -0.0092675108814133812 0 0.045811842206827845 -0.0020935227445764266 0 0.051478424732246848 -0.011285068823704057 0 0.049623600230971579 -0.0075434114679994507 0 0.05096205681271012 -0.0090917327243414028 0 0.050218047485916004 -0.0092675108814133812 0 0.031625096138302833 0.0085117244981132312 0 0.035876079110078264 0.0086930647988465171 0 0.030990743618651354 0.012057955901893765 0 0.045811842206827845 -0.0020935227445764266 0 0.040120717287410984 0.0035034982078218065 0 0.049863275447717938 -0.010483227900491453 0 0.050713793058108116 -0.010619168164036758 0 0.050218047485916004 -0.0092675108814133812 0 0.050713793058108116 -0.010619168164036758 0 0.05096205681271012 -0.0090917327243414028 0 0.050218047485916004 -0.0092675108814133812 0 0.049863275447717938 -0.010483227900491453 0 0.049452839896711863 -0.0097480451193417209 0 0.050218047485916004 -0.0092675108814133812 0 0.049510187433293849 -0.0083309565579534374 0 0.049452839896711863 -0.0097480451193417209 0 0.050218047485916004 -0.0092675108814133812 0 0.026632870365600775 0.015312819774740102 0 0.024611224583140096 0.013041974638483975 0 0.027261122343581204 0.012216531140032478 0 0.024611224583140096 0.013041974638483975 0 0.027261122343581204 0.012216531140032478 0 0.0255611859998887 0.010228039457381688 0 0.038651148201782233 -0.0061322740764461073 0 0.031602599067034158 0.0023624542171788001 0 0.038651148201782233 -0.0061322740764461073 0 0.040120717287410984 0.0035034982078218065 0 0.050713793058108116 -0.010619168164036758 0 0.052003797286371667 -0.010850445931570096 0 0.05096205681271012 -0.0090917327243414028 0 0.026632870365600775 0.015312819774740102 0 0.030990743618651354 0.012057955901893765 0 0.027261122343581204 0.012216531140032478 0 0.031625096138302833 0.0085117244981132312 0 0.030990743618651354 0.012057955901893765 0 0.028570847006119029 0.010255445436797838 0 0.028570847006119029 0.010255445436797838 0 0.0255611859998887 0.010228039457381688 0 0.02770490591111676 0.0078867580620345604 0 0.030990743618651354 0.012057955901893765 0 0.027261122343581204 0.012216531140032478 0 0.028570847006119029 0.010255445436797838 0 0.027261122343581204 0.012216531140032478 0 0.028570847006119029 0.010255445436797838 0 0.0255611859998887 0.010228039457381688 0 0.024611224583140096 0.013041974638483975 0 0.0255611859998887 0.010228039457381688 0 0.022535708493284783 0.010021950345353111 0 0.0255611859998887 0.010228039457381688 0 0.024084339983895912 0.0074926865599449213 0 0.022535708493284783 0.010021950345353111 0 0.0255611859998887 0.010228039457381688 0 0.024084339983895912 0.0074926865599449213 0 0.02770490591111676 0.0078867580620345604 0 0.031625096138302833 0.0085117244981132312 0 0.02770490591111676 0.0078867580620345604 0 0.031067350348441079 0.0051869719079075125 0 0.031625096138302833 0.0085117244981132312 0 0.028570847006119029 0.010255445436797838 0 0.02770490591111676 0.0078867580620345604 0 0.02862512663947463 0.0039805868283595636 0 0.02770490591111676 0.0078867580620345604 0 0.031067350348441079 0.0051869719079075125 0 0.026352304484215015 0.0054832870931824261 0 0.027542301188374922 0.0079281770208337564 0 0.023824792638805273 0.0061290728844407352 0 0.024084339983895912 0.0074926865599449213 0 0.022586107025561172 0.0064750462719671458 0 0.023824792638805273 0.0061290728844407352 0 0.024084339983895912 0.0074926865599449213 0 0.02770490591111676 0.0078867580620345604 0 0.022586107025561172 0.0064750462719671458 0 0.022264607384002287 0.0063383804544711901 0 0.021895983638666048 0.0069060111393309783 0 0.025405019071862944 -0.0017743793017014546 0 0.029183752744138654 0.0004666485694406607 0 0.025405019071862944 -0.0017743793017014546 0 0.036496398051815725 -0.015853317743556073 0 0.023785687829992463 0.0013443106194796408 0 0.025405019071862944 -0.0017743793017014546 0 0.035064104705733928 -0.019253692700378799 0 0.03479393807699159 -0.018604668770295225 0 0.035469292619668358 -0.017855703309268778 0 0.03505627039315927 -0.0085508782719047327 0 0.036172451302662431 -0.0079325090564504909 0 0.036022137805885222 -0.0080774260473973607 0 0.036172451302662431 -0.0079325090564504909 0 0.036022137805885222 -0.0080774260473973607 0 0.037227611955235232 -0.0068621515716786353 0 0.024084339983895912 0.0074926865599449213 0 0.021895983638666048 0.0069060111393309783 0 0.022535708493284783 0.010021950345353111 0 0.024084339983895912 0.0074926865599449213 0 0.022586107025561172 0.0064750462719671458 0 0.021895983638666048 0.0069060111393309783 0 0.017944679345613841 0.0038337742104687118 0 0.018751044941871981 0.0031142114274067107 0 0.018806229139285837 0.0043132332598633007 0 0.017802334508325628 0.0046325471694917825 0 0.017944679345613841 0.0038337742104687118 0 0.018806229139285837 0.0043132332598633007 0 0.017802334508325628 0.0046325471694917825 0 0.017130436041101142 0.0043711258442935171 0 0.017944679345613841 0.0038337742104687118 0 0.025405019071862944 -0.0017743793017014546 0 0.026524729561129497 -0.0083312972974960153 0 0.035064104705733928 -0.019253692700378799 0 0.03479393807699159 -0.018604668770295225 0 0.034322169314544626 -0.019078608714651162 0 0.03479393807699159 -0.018604668770295225 0 0.034322169314544626 -0.019078608714651162 0 0.03427340630326367 -0.019013627577423666 0 0.026524729561129497 -0.0083312972974960153 0 0.025991312252670259 -0.0080987353870676012 0 0.034322169314544626 -0.019078608714651162 0 0.03427340630326367 -0.019013627577423666 0 0.033574482216276687 -0.019521287497400994 0 0.03427340630326367 -0.019013627577423666 0 0.033390708091963837 -0.019349845325375654 0 0.033574482216276687 -0.019521287497400994 0 0.03427340630326367 -0.019013627577423666 0 0.033850868818136759 -0.018974056742736733 0 0.033390708091963837 -0.019349845325375654 0 0.03479393807699159 -0.018604668770295225 0 0.03427340630326367 -0.019013627577423666 0 0.034943443494559093 -0.018579858329336951 0 0.03427340630326367 -0.019013627577423666 0 0.034943443494559093 -0.018579858329336951 0 0.033850868818136759 -0.018974056742736733 0 0.034943443494559093 -0.018579858329336951 0 0.033850868818136759 -0.018974056742736733 0 0.034621074521212394 -0.018683572056526983 0 0.034943443494559093 -0.018579858329336951 0 0.03542792451364541 -0.018640831960886717 0 0.034621074521212394 -0.018683572056526983 0 0.029183752744138654 0.0004666485694406607 0 0.033820307231344611 -0.0029667356780388727 0 0.037249024862537269 -0.0080958704600512191 0 0.037281854249410488 -0.0080272933267244058 0 0.037304052493814945 -0.0082878072657778506 0 0.035487258588136415 -0.010360472939796852 0 0.036088962398377701 -0.012970784669651359 0 0.033820307231344611 -0.0029667356780388727 0 0.035487258588136415 -0.010360472939796852 0 0.034077949626254309 -0.0054358079281679834 0 0.033820307231344611 -0.0029667356780388727 0 0.036496398051815725 -0.015853317743556073 0 0.035487258588136415 -0.010360472939796852 0 0.036172451302662431 -0.0079325090564504909 0 0.037227611955235232 -0.0068621515716786353 0 0.036672205466905333 -0.0073695261972008524 0 0.035469292619668358 -0.017855703309268778 0 0.034943443494559093 -0.018579858329336951 0 0.035470098573956381 -0.01774120248895731 0 0.034943443494559093 -0.018579858329336951 0 0.035470098573956381 -0.01774120248895731 0 0.035497752698663412 -0.018361300024262769 0 0.03479393807699159 -0.018604668770295225 0 0.035469292619668358 -0.017855703309268778 0 0.034943443494559093 -0.018579858329336951 0 0.034943443494559093 -0.018579858329336951 0 0.035497752698663412 -0.018361300024262769 0 0.03542792451364541 -0.018640831960886717 0 0.03717881826225182 -0.0090404486498897058 0 0.037071186851731414 -0.0083061077713001818 0 0.037304052493814945 -0.0082878072657778506 0 0.03724871613658981 -0.0081669066078946511 0 0.037249024862537269 -0.0080958704600512191 0 0.037304052493814945 -0.0082878072657778506 0 0.037071186851731414 -0.0083061077713001818 0 0.03724871613658981 -0.0081669066078946511 0 0.03727812106499416 -0.0080598846944030036 0 0.031602599067034158 0.0023624542171788001 0 0.033820307231344611 -0.0029667356780388727 0 0.037071186851731414 -0.0083061077713001818 0 0.03724871613658981 -0.0081669066078946511 0 0.037304052493814945 -0.0082878072657778506 0 0.035497752698663412 -0.018361300024262769 0 0.035783328425816531 -0.018644541044043412 0 0.03542792451364541 -0.018640831960886717 0 0.035875416858446203 -0.018732593518157762 0 0.035497752698663412 -0.018361300024262769 0 0.035783328425816531 -0.018644541044043412 0 0.038666648596673327 -0.016532621429249977 0 0.036088962398377701 -0.012970784669651359 0 0.035783328425816531 -0.018644541044043412 0 0.036185346214933072 -0.018877922321335092 0 0.035818872630778903 -0.018689950795699909 0 0.035875416858446203 -0.018732593518157762 0 0.035783328425816531 -0.018644541044043412 0 0.036185346214933072 -0.018877922321335092 0 0.038666648596673327 -0.016532621429249977 0 0.037474526307631685 -0.017477004179736143 0 0.036185346214933072 -0.018877922321335092 0 0.036116522072277633 -0.018739266112998362 0 0.035818872630778903 -0.018689950795699909 0 0.036185346214933072 -0.018877922321335092 0 0.036116522072277633 -0.018739266112998362 0 0.036565216975862354 -0.018843117894656605 0 0.037083543523538237 -0.018924315237925718 0 0.036185346214933072 -0.018877922321335092 0 0.036565216975862354 -0.018843117894656605 0 0.035971658808325487 -0.018722864761927464 0 0.034789066088413936 -0.018635336643066065 0 0.036116522072277633 -0.018739266112998362 0 0.035404147761403479 -0.018556909440924443 0 0.034513276645165736 -0.017761399103977889 0 0.036116522072277633 -0.018739266112998362 0 0.035818872630778903 -0.018689950795699909 0 0.035404147761403479 -0.018556909440924443 0 0.035783328425816531 -0.018644541044043412 0 0.035818872630778903 -0.018689950795699909 0 0.03542792451364541 -0.018640831960886717 0 0.035818872630778903 -0.018689950795699909 0 0.035404147761403479 -0.018556909440924443 0 0.03542792451364541 -0.018640831960886717 0 0.035404147761403479 -0.018556909440924443 0 0.03542792451364541 -0.018640831960886717 0 0.034621074521212394 -0.018683572056526983 0 0.033850868818136759 -0.018974056742736733 0 0.034621074521212394 -0.018683572056526983 0 0.033102647323497887 -0.018621004972796798 0 0.034621074521212394 -0.018683572056526983 0 0.034513276645165736 -0.017761399103977889 0 0.033102647323497887 -0.018621004972796798 0 0.034513276645165736 -0.017761399103977889 0 0.032759004847616201 -0.017694672663140485 0 0.033102647323497887 -0.018621004972796798 0 0.035404147761403479 -0.018556909440924443 0 0.034621074521212394 -0.018683572056526983 0 0.034513276645165736 -0.017761399103977889 0 0.035166639924851584 -0.01948420405890738 0 0.034225045829929426 -0.018486553160728773 0 0.035935590076668723 -0.018815972657484744 0 0.035166639924851584 -0.01948420405890738 0 0.034225045829929426 -0.018486553160728773 0 0.032900663110664169 -0.019576782257043353 0 0.034789066088413936 -0.018635336643066065 0 0.032846190368466137 -0.01863180284753975 0 0.034225045829929426 -0.018486553160728773 0 0.032676734307886576 -0.017620682200611765 0 0.034595363171777666 -0.017361942492026695 0 0.034225045829929426 -0.018486553160728773 0 0.035577947742652397 -0.018080671385972698 0 0.034595363171777666 -0.017361942492026695 0 0.034225045829929426 -0.018486553160728773 0 0.035577947742652397 -0.018080671385972698 0 0.035935590076668723 -0.018815972657484744 0 0.035577947742652397 -0.018080671385972698 0 0.036677006466454692 -0.018417204978617738 0 0.035935590076668723 -0.018815972657484744 0 0.036677006466454692 -0.018417204978617738 0 0.035935590076668723 -0.018815972657484744 0 0.036415396826009805 -0.018779473316380718 0 0.036677006466454692 -0.018417204978617738 0 0.03715508747493422 -0.018760789524689424 0 0.037656251088384884 -0.01798360663578898 0 0.036677006466454692 -0.018417204978617738 0 0.03715508747493422 -0.018760789524689424 0 0.036415396826009805 -0.018779473316380718 0 0.03715508747493422 -0.018760789524689424 0 0.036565216975862354 -0.018843117894656605 0 0.036415396826009805 -0.018779473316380718 0 0.037083543523538237 -0.018924315237925718 0 0.03715508747493422 -0.018760789524689424 0 0.036565216975862354 -0.018843117894656605 0 0.036116522072277633 -0.018739266112998362 0 0.036565216975862354 -0.018843117894656605 0 0.036415396826009805 -0.018779473316380718 0 0.036116522072277633 -0.018739266112998362 0 0.035935590076668723 -0.018815972657484744 0 0.036415396826009805 -0.018779473316380718 0 0.036116522072277633 -0.018739266112998362 0 0.035166639924851584 -0.01948420405890738 0 0.035935590076668723 -0.018815972657484744 0 0.030490696525862556 -0.018452803795041953 0 0.030730105415995784 -0.018558686407828588 0 0.030511129830565767 -0.018498936607490763 0 0.030490696525862556 -0.018452803795041953 0 0.029862477589995169 -0.018584356089738435 0 0.030570099079016283 -0.018679334003291682 0 0.030490696525862556 -0.018452803795041953 0 0.030730105415995784 -0.018558686407828588 0 0.030570099079016283 -0.018679334003291682 0 0.030490696525862556 -0.018452803795041953 0 0.028887620607090266 -0.017887116506032526 0 0.031139257501476135 -0.01882814151910716 0 0.030490696525862556 -0.018452803795041953 0 0.029862477589995169 -0.018584356089738435 0 0.028887620607090266 -0.017887116506032526 0 0.029862477589995169 -0.018584356089738435 0 0.028887620607090266 -0.017887116506032526 0 0.028195450994433883 -0.019097070215359422 0 0.025620851023307013 -0.022804366029379037 0 0.027509627699783001 -0.022835138570107025 0 0.022394445621636356 -0.027593556997820647 0 0.02320777056871268 -0.026342474980492046 0 0.024333311622087586 -0.02649792786217987 0 0.022394445621636356 -0.027593556997820647 0 0.02320777056871268 -0.026342474980492046 0 0.022514113633764796 -0.026063561489064115 0 0.022394445621636356 -0.027593556997820647 0 0.022514113633764796 -0.026063561489064115 0 0.021495238449328866 -0.026575715812465196 0 0.02320777056871268 -0.026342474980492046 0 0.022514113633764796 -0.026063561489064115 0 0.023683194265349254 -0.024993432812140687 0 0.024333311622087586 -0.02649792786217987 0 0.027418598654133527 -0.024141031490923691 0 0.025185573481549803 -0.024538437718839626 0 0.031139257501476135 -0.01882814151910716 0 0.030511129830565767 -0.018498936607490763 0 0.027418598654133527 -0.024141031490923691 0 0.02320777056871268 -0.026342474980492046 0 0.024333311622087586 -0.02649792786217987 0 0.023683194265349254 -0.024993432812140687 0 0.024333311622087586 -0.02649792786217987 0 0.025185573481549803 -0.024538437718839626 0 0.023683194265349254 -0.024993432812140687 0 0.030490696525862556 -0.018452803795041953 0 0.031139257501476135 -0.01882814151910716 0 0.030511129830565767 -0.018498936607490763 0 0.030699248325680134 -0.018830573989424972 0 0.029891918946239791 -0.020613656661851852 0 0.030511129830565767 -0.018498936607490763 0 0.026724117300759152 -0.024065520865197861 0 0.027418598654133527 -0.024141031490923691 0 0.030511129830565767 -0.018498936607490763 0 0.032676734307886576 -0.017620682200611765 0 0.031904746977863226 -0.018641986173518515 0 0.027509627699783001 -0.022835138570107025 0 0.027201123430430251 -0.023951885902517837 0 0.034225045829929426 -0.018486553160728773 0 0.032676734307886576 -0.017620682200611765 0 0.032933766259754568 -0.01857748999576822 0 0.032676734307886576 -0.017620682200611765 0 0.032933766259754568 -0.01857748999576822 0 0.031904746977863226 -0.018641986173518515 0 0.034225045829929426 -0.018486553160728773 0 0.032933766259754568 -0.01857748999576822 0 0.032900663110664169 -0.019576782257043353 0 0.032933766259754568 -0.01857748999576822 0 0.032900663110664169 -0.019576782257043353 0 0.031904746977863226 -0.018641986173518515 0 0.030730105415995784 -0.018558686407828588 0 0.032759004847616201 -0.017694672663140485 0 0.031907101883834721 -0.018497699146106925 0 0.030730105415995784 -0.018558686407828588 0 0.032900663110664169 -0.019576782257043353 0 0.031904746977863226 -0.018641986173518515 0 0.030730105415995784 -0.018558686407828588 0 0.030511129830565767 -0.018498936607490763 0 0.031904746977863226 -0.018641986173518515 0 0.030944040294485452 -0.018557866860756965 0 0.032846190368466137 -0.01863180284753975 0 0.031907101883834721 -0.018497699146106925 0 0.033102647323497887 -0.018621004972796798 0 0.031896139809784521 -0.018991192335778433 0 0.030730105415995784 -0.018558686407828588 0 0.031907101883834721 -0.018497699146106925 0 0.031179033733000131 -0.018738847409154737 0 0.031907101883834721 -0.018497699146106925 0 0.031896139809784521 -0.018991192335778433 0 0.031179033733000131 -0.018738847409154737 0 0.032759004847616201 -0.017694672663140485 0 0.031907101883834721 -0.018497699146106925 0 0.033102647323497887 -0.018621004972796798 0 0.033102647323497887 -0.018621004972796798 0 0.031896139809784521 -0.018991192335778433 0 0.032585431124910295 -0.019289812879125554 0 0.031896139809784521 -0.018991192335778433 0 0.031054018648590923 -0.019185837686784342 0 0.031515585995247508 -0.019432803628167777 0 0.031054018648590923 -0.019185837686784342 0 0.03034626567911226 -0.019601572162233006 0 0.031515585995247508 -0.019432803628167777 0 0.031896139809784521 -0.018991192335778433 0 0.031054018648590923 -0.019185837686784342 0 0.031179033733000131 -0.018738847409154737 0 0.031054018648590923 -0.019185837686784342 0 0.031179033733000131 -0.018738847409154737 0 0.030312698710228077 -0.019037795451203657 0 0.031179033733000131 -0.018738847409154737 0 0.030570099079016283 -0.018679334003291682 0 0.030312698710228077 -0.019037795451203657 0 0.030730105415995784 -0.018558686407828588 0 0.031179033733000131 -0.018738847409154737 0 0.030570099079016283 -0.018679334003291682 0 0.030312698710228077 -0.019037795451203657 0 0.03034626567911226 -0.019601572162233006 0 0.028195450994433883 -0.019097070215359422 0 0.0301322148210862 -0.022268135276217745 0 0.02778090770709581 -0.018071204964108835 0 0.029862477589995169 -0.018584356089738435 0 0.030312698710228077 -0.019037795451203657 0 0.028195450994433883 -0.019097070215359422 0 0.029862477589995169 -0.018584356089738435 0 0.030570099079016283 -0.018679334003291682 0 0.030312698710228077 -0.019037795451203657 0 0.031054018648590923 -0.019185837686784342 0 0.030312698710228077 -0.019037795451203657 0 0.03034626567911226 -0.019601572162233006 0 0.028001501258480929 -0.020614788432817131 0 0.027830970253638627 -0.020694865557562205 0 0.027697313775584584 -0.020524141574662216 0 0.028001501258480929 -0.020614788432817131 0 0.02786414456069132 -0.020535140258079562 0 0.027830970253638627 -0.020694865557562205 0 0.0301322148210862 -0.022268135276217745 0 0.02560636281326497 -0.010183949579993802 0 0.02560636281326497 -0.010183949579993802 0 0.026271185716016176 -0.011442682254013065 0 0.021104582636750593 0.00047063610323376558 0 0.023682275188895721 -0.00092681888544630736 0 0.024515897300785305 0.00067104798053420887 0 0.03034626567911226 -0.019601572162233006 0 0.031515585995247508 -0.019432803628167777 0 0.031302020194386625 -0.019835628888847819 0 0.031515585995247508 -0.019432803628167777 0 0.031302020194386625 -0.019835628888847819 0 0.031991749850931221 -0.019613746947638854 0 0.02560636281326497 -0.010183949579993802 0 0.019472043952308622 0.0051772946992878098 0 0.02560636281326497 -0.010183949579993802 0 0.026460634104142469 -0.0089333631428508593 0 0.022299046193195979 0.00054537109030042047 0 0.020048483579821964 0.0019341506108369638 0 0.021041996806689986 0.0028571397619354742 0 0.021104582636750593 0.00047063610323376558 0 0.02390705922391631 0.0024978299798550482 0 0.024515897300785305 0.00067104798053420887 0 0.033850868818136759 -0.018974056742736733 0 0.032585431124910295 -0.019289812879125554 0 0.033390708091963837 -0.019349845325375654 0 0.033850868818136759 -0.018974056742736733 0 0.033102647323497887 -0.018621004972796798 0 0.032585431124910295 -0.019289812879125554 0 0.031896139809784521 -0.018991192335778433 0 0.031515585995247508 -0.019432803628167777 0 0.032585431124910295 -0.019289812879125554 0 0.031515585995247508 -0.019432803628167777 0 0.031991749850931221 -0.019613746947638854 0 0.032585431124910295 -0.019289812879125554 0 0.031991749850931221 -0.019613746947638854 0 0.032585431124910295 -0.019289812879125554 0 0.032423631982914147 -0.019829931330897072 0 0.031302020194386625 -0.019835628888847819 0 0.031991749850931221 -0.019613746947638854 0 0.032423631982914147 -0.019829931330897072 0 0.032423631982914147 -0.019829931330897072 0 0.033390708091963837 -0.019349845325375654 0 0.033574482216276687 -0.019521287497400994 0 0.032585431124910295 -0.019289812879125554 0 0.032423631982914147 -0.019829931330897072 0 0.033390708091963837 -0.019349845325375654 0 0.020048483579821964 0.0019341506108369638 0 0.018751044941871981 0.0031142114274067107 0 0.019608513597985319 0.0033022712149643526 0 0.026460634104142469 -0.0089333631428508593 0 0.025991312252670259 -0.0080987353870676012 0 0.019744871046284376 0.0043446676813602798 0 0.020235085117545119 0.0035063143044733484 0 0.019902253175534401 0.0032218650081960857 0 0.020048483579821964 0.0019341506108369638 0 0.019608513597985319 0.0033022712149643526 0 0.021041996806689986 0.0028571397619354742 0 0.019608513597985319 0.0033022712149643526 0 0.019744871046284376 0.0043446676813602798 0 0.021041996806689986 0.0028571397619354742 0 0.020248593740172613 0.0033646718078510648 0 0.019472043952308622 0.0051772946992878098 0 0.018751044941871981 0.0031142114274067107 0 0.019608513597985319 0.0033022712149643526 0 0.018806229139285837 0.0043132332598633007 0 0.019608513597985319 0.0033022712149643526 0 0.019744871046284376 0.0043446676813602798 0 0.018806229139285837 0.0043132332598633007 0 0.019810592838923613 0.0034627066956939381 0 0.023841697977790333 0.0031721356952798515 0 0.021104582636750593 0.00047063610323376558 0 0.020235085117545119 0.0035063143044733484 0 0.02390705922391631 0.0024978299798550482 0 0.020235085117545119 0.0035063143044733484 0 0.020952392782241369 0.00417629462230129 0 0.021437432209142879 0.0034267851758322601 0 0.021104582636750593 0.00047063610323376558 0 0.020235085117545119 0.0035063143044733484 0 0.019902253175534401 0.0032218650081960857 0 0.020235085117545119 0.0035063143044733484 0 0.020333253205836729 0.004442742321240532 0 0.020952392782241369 0.00417629462230129 0 0.019744871046284376 0.0043446676813602798 0 0.020235085117545119 0.0035063143044733484 0 0.020333253205836729 0.004442742321240532 0 0.020952392782241369 0.00417629462230129 0 0.021880939501464757 0.0044200750393181007 0 0.021437432209142879 0.0034267851758322601 0 0.021880939501464757 0.0044200750393181007 0 0.021437432209142879 0.0034267851758322601 0 0.022041881636436146 0.0036937320893565425 0 0.021437432209142879 0.0034267851758322601 0 0.022041881636436146 0.0036937320893565425 0 0.022471119469254123 0.0032568122860124867 0 0.023841697977790333 0.0031721356952798515 0 0.019688669816011958 0.00045797976621387833 0 0.022041881636436146 0.0036937320893565425 0 0.022619527414631128 0.0037879201744698983 0 0.022471119469254123 0.0032568122860124867 0 0.023107322909270592 0.0043813726002837417 0 0.01423329063080153 0.0054695065329522612 0 0.021120706443948836 0.0053911960389406563 0 0.021301447208997838 0.0054486543824759145 0 0.021312675977452795 0.0052549684052479451 0 0.021880939501464757 0.0044200750393181007 0 0.022041881636436146 0.0036937320893565425 0 0.022619527414631128 0.0037879201744698983 0 -0.0033445476429425774 0.0056392857481377635 0 -0.0049610028197063383 0.0077865960164928113 0 -0.0019837223150666406 0.0098059351872374946 0 0.0090598778135584455 0.005749758575509121 0 0.01423329063080153 0.0054695065329522612 0 0.021467468618303211 0.005610505703484858 0 0.021301447208997838 0.0054486543824759145 0 0.021312675977452795 0.0052549684052479451 0 -0.0049610028197063383 0.0077865960164928113 0 -0.0046456356643478887 0.0097592859959260599 0 -0.0019837223150666406 0.0098059351872374946 0 -0.0049610028197063383 0.0077865960164928113 0 -0.0061528394551942723 0.008912994949916507 0 -0.0046456356643478887 0.0097592859959260599 0 -0.0046456356643478887 0.0097592859959260599 0 -0.0019837223150666406 0.0098059351872374946 0 -0.0049580536100193922 0.0115902927767515 0 -0.0061528394551942723 0.008912994949916507 0 -0.0046456356643478887 0.0097592859959260599 0 -0.0059282601336121399 0.010853727186943553 0 -0.0046456356643478887 0.0097592859959260599 0 -0.0059282601336121399 0.010853727186943553 0 -0.0049580536100193922 0.0115902927767515 0 0.013385607186489467 -0.00061025941937728663 0 0.013035872949212548 -0.00050098352142324788 0 0.013490971864613765 -0.00038849772895049921 0 0.01423329063080153 0.0054695065329522612 0 0.0034008599002282869 0.0056170963590576389 0 0.01423329063080153 0.0054695065329522612 0 0.019688669816011958 0.00045797976621387833 0 0.010993103110200769 -0.00022240568850514752 0 0.019688669816011958 0.00045797976621387833 0 0.01358116918061761 -0.00021295558312523172 0 0.013095271604695825 -0.00036599823725902788 0 0.014131154792747071 -0.00066730176335638182 0 0.013095271604695825 -0.00036599823725902788 0 0.013035872949212548 -0.00050098352142324788 0 0.013490971864613765 -0.00038849772895049921 0 0.01358116918061761 -0.00021295558312523172 0 0.013924693423070952 -6.4648663017769466e-05 0 0.014131154792747071 -0.00066730176335638182 0 0.013095271604695825 -0.00036599823725902788 0 0.013035872949212548 -0.00050098352142324788 0 0.012857218357383498 -0.0001841327133011414 0 0.013035872949212548 -0.00050098352142324788 0 0.012857218357383498 -0.0001841327133011414 0 0.012655479431335296 -0.00019307162048983216 0 0.013095271604695825 -0.00036599823725902788 0 0.012857218357383498 -0.0001841327133011414 0 0.013166333328571832 -5.8484011920010925e-06 0 0.01358116918061761 -0.00021295558312523172 0 0.013095271604695825 -0.00036599823725902788 0 0.013166333328571832 -5.8484011920010925e-06 0 0.012837303043634646 6.5654211914984657e-05 0 0.013166333328571832 -5.8484011920010925e-06 0 0.012924815732585779 0.00030075021904866806 0 0.012837303043634646 6.5654211914984657e-05 0 0.012924815732585779 0.00030075021904866806 0 0.012670392277552697 0.00020795055809295297 0 0.012857218357383498 -0.0001841327133011414 0 0.012837303043634646 6.5654211914984657e-05 0 0.012573826309016304 1.4244728513293461e-05 0 0.012857218357383498 -0.0001841327133011414 0 0.012837303043634646 6.5654211914984657e-05 0 0.013166333328571832 -5.8484011920010925e-06 0 0.012924815732585779 0.00030075021904866806 0 0.012946432612432507 0.00055969022618458338 0 0.01341160087648027 0.00057004383458455685 0 0.013166333328571832 -5.8484011920010925e-06 0 0.012924815732585779 0.00030075021904866806 0 0.01341160087648027 0.00057004383458455685 0 0.013166333328571832 -5.8484011920010925e-06 0 0.01360891481747982 0.00011115996597625918 0 0.01341160087648027 0.00057004383458455685 0 0.012924815732585779 0.00030075021904866806 0 0.012668595519105628 0.00047133751916855521 0 0.012946432612432507 0.00055969022618458338 0 0.012924815732585779 0.00030075021904866806 0 0.012670392277552697 0.00020795055809295297 0 0.012668595519105628 0.00047133751916855521 0 0.013924693423070952 -6.4648663017769466e-05 0 0.013984326724541862 0.00036634106408504408 0 0.014340265548798735 9.7480029721905264e-06 0 0.013924693423070952 -6.4648663017769466e-05 0 0.01360891481747982 0.00011115996597625918 0 0.013984326724541862 0.00036634106408504408 0 0.01358116918061761 -0.00021295558312523172 0 0.013924693423070952 -6.4648663017769466e-05 0 0.01360891481747982 0.00011115996597625918 0 0.01358116918061761 -0.00021295558312523172 0 0.013166333328571832 -5.8484011920010925e-06 0 0.01360891481747982 0.00011115996597625918 0 0.01360891481747982 0.00011115996597625918 0 0.013984326724541862 0.00036634106408504408 0 0.01341160087648027 0.00057004383458455685 0 0.013984326724541862 0.00036634106408504408 0 0.014340265548798735 9.7480029721905264e-06 0 0.014589788631169149 0.00059436960075502708 0 0.020832613070920721 0.00053120748731380304 0 0.023724372810333752 -0.0062208842896185586 0 0.026777829343556325 -0.00027233489229481529 0 0.025273502336744573 -0.00067228173122544179 0 0.02617533362609583 -0.0022334495138794808 0 0.023682275188895721 -0.00092681888544630736 0 0.025273502336744573 -0.00067228173122544179 0 0.02617533362609583 -0.0022334495138794808 0 0.026777829343556325 -0.00027233489229481529 0 0.025273502336744573 -0.00067228173122544179 0 0.024515897300785305 0.00067104798053420887 0 0.026271185716016176 -0.011442682254013065 0 0.023724372810333752 -0.0062208842896185586 0 0.027830970253638627 -0.020694865557562205 0 0.027417239956372522 -0.020471456826116462 0 0.026973283209439074 -0.020549320254980488 0 0.023682275188895721 -0.00092681888544630736 0 0.025273502336744573 -0.00067228173122544179 0 0.024515897300785305 0.00067104798053420887 0 0.02390705922391631 0.0024978299798550482 0 0.024515897300785305 0.00067104798053420887 0 0.027359977782392898 0.0016460167431013187 0 0.013924693423070952 -6.4648663017769466e-05 0 0.014340265548798735 9.7480029721905264e-06 0 0.014131154792747071 -0.00066730176335638182 0 0.026777829343556325 -0.00027233489229481529 0 0.024515897300785305 0.00067104798053420887 0 0.027359977782392898 0.0016460167431013187 0 0.020832613070920721 0.00053120748731380304 0 0.019688669816011958 0.00045797976621387833 0 -0.014835068411304088 0.011562254256839511 0 -0.014669035624920838 0.008063394838072311 0 -0.012658303194839285 0.010533835000195734 0 -0.016497142900390383 0.0093786238698712349 0 -0.016273301553701297 0.0075150665612226898 0 -0.018549840610574908 0.0070148704950790518 0 -0.018214966556921109 0.0073810541952495081 0 -0.017917845529832489 0.006910700027765922 0 -0.01796464549693037 0.0066583193066528986 0 -0.018216825067285971 0.0068124690097631875 0 -0.017917845529832489 0.006910700027765922 0 -0.014669035624920838 0.008063394838072311 0 -0.012463371064610205 0.0084422234604218764 0 -0.012658303194839285 0.010533835000195734 0 -0.013995854414743417 0.0070151364046340745 0 -0.014669035624920838 0.008063394838072311 0 -0.012463371064610205 0.0084422234604218764 0 -0.011920006131341893 0.0069921784739580811 0 -0.013995854414743417 0.0070151364046340745 0 -0.012463371064610205 0.0084422234604218764 0 -0.011920006131341893 0.0069921784739580811 0 -0.012463371064610205 0.0084422234604218764 0 -0.010330581847090653 0.0075465887565289436 0 -0.012463371064610205 0.0084422234604218764 0 -0.012658303194839285 0.010533835000195734 0 -0.010679741990508938 0.0099030676048345555 0 -0.014835068411304088 0.011562254256839511 0 -0.012658303194839285 0.010533835000195734 0 -0.012263117706534656 0.012330582812986343 0 -0.012658303194839285 0.010533835000195734 0 -0.011080333342941697 0.011414706522774294 0 -0.010679741990508938 0.0099030676048345555 0 -0.012658303194839285 0.010533835000195734 0 -0.011080333342941697 0.011414706522774294 0 -0.012263117706534656 0.012330582812986343 0 -0.011080333342941697 0.011414706522774294 0 -0.009287150933414803 0.011375326671789412 0 -0.010679741990508938 0.0099030676048345555 0 -0.009287150933414803 0.011375326671789412 0 -0.010679741990508938 0.0099030676048345555 0 -0.0082625284330655763 0.0096340796588415059 0 -0.010679741990508938 0.0099030676048345555 0 -0.0094346912336131291 0.0087714162028889701 0 -0.0082625284330655763 0.0096340796588415059 0 -0.010330581847090653 0.0075465887565289436 0 -0.0094346912336131291 0.0087714162028889701 0 -0.0075904582595844637 0.0074176921663837089 0 -0.010679741990508938 0.0099030676048345555 0 -0.010330581847090653 0.0075465887565289436 0 -0.0094346912336131291 0.0087714162028889701 0 -0.012463371064610205 0.0084422234604218764 0 -0.010679741990508938 0.0099030676048345555 0 -0.010330581847090653 0.0075465887565289436 0 -0.0094346912336131291 0.0087714162028889701 0 -0.0075904582595844637 0.0074176921663837089 0 -0.0082625284330655763 0.0096340796588415059 0 -0.0049610028197063383 0.0077865960164928113 0 -0.0061528394551942723 0.008912994949916507 0 -0.0075904582595844637 0.0074176921663837089 0 -0.0061528394551942723 0.008912994949916507 0 -0.0075904582595844637 0.0074176921663837089 0 -0.0082625284330655763 0.0096340796588415059 0 -0.0061528394551942723 0.008912994949916507 0 -0.0059282601336121399 0.010853727186943553 0 -0.0069258155331898353 0.010014631554395458 0 -0.0061528394551942723 0.008912994949916507 0 -0.0069258155331898353 0.010014631554395458 0 -0.0082625284330655763 0.0096340796588415059 0 -0.0069258155331898353 0.010014631554395458 0 -0.0082625284330655763 0.0096340796588415059 0 -0.0076729653279880468 0.011073713338396485 0 -0.009287150933414803 0.011375326671789412 0 -0.0082625284330655763 0.0096340796588415059 0 -0.0076729653279880468 0.011073713338396485 0 -0.0059282601336121399 0.010853727186943553 0 -0.0069258155331898353 0.010014631554395458 0 -0.0076729653279880468 0.011073713338396485 0 -0.0059282601336121399 0.010853727186943553 0 -0.0049580536100193922 0.0115902927767515 0 -0.0071478237356670674 0.012922497525910362 0 0.0034008599002282869 0.0056170963590576389 0 -0.0012274345959451876 0.0072259244753103335 0 -0.0080275603295729431 0.013600520138802783 0 -0.0012274345959451876 0.0072259244753103335 0 0.013035872949212548 -0.00050098352142324788 0 0.012291688239118798 -0.00015080143203791146 0 0.012655479431335296 -0.00019307162048983216 0 -0.0059282601336121399 0.010853727186943553 0 -0.0076729653279880468 0.011073713338396485 0 -0.0079310969421396427 0.013487768759262485 0 -0.009287150933414803 0.011375326671789412 0 -0.0076729653279880468 0.011073713338396485 0 -0.0079310969421396427 0.013487768759262485 0 0.012291688239118798 -0.00015080143203791146 0 0.01249476428793903 -5.0388386576317431e-05 0 0.012655479431335296 -0.00019307162048983216 0 0.012857218357383498 -0.0001841327133011414 0 0.012655479431335296 -0.00019307162048983216 0 0.012573826309016304 1.4244728513293461e-05 0 0.01249476428793903 -5.0388386576317431e-05 0 0.012655479431335296 -0.00019307162048983216 0 0.012573826309016304 1.4244728513293461e-05 0 9.9727446260540229e-05 0.0063837585165495026 0 0.0031244401940121683 0.0016113466653721951 0 0.00086034930070508122 0.00043151713375242474 0 -0.0012274345959451876 0.0072259244753103335 0 -0.002568311026092159 0.0027610412739755758 0 0.012291688239118798 -0.00015080143203791146 0 0.01249476428793903 -5.0388386576317431e-05 0 0.012453675698234563 0.00021157285524989739 0 -0.0012274345959451876 0.0072259244753103335 0 0.0067343128583400936 -0.0016379331689317239 0 0.012837303043634646 6.5654211914984657e-05 0 0.012573826309016304 1.4244728513293461e-05 0 0.012670392277552697 0.00020795055809295297 0 0.012291688239118798 -0.00015080143203791146 0 0.012453675698234563 0.00021157285524989739 0 0.012191882618406443 0.00063489205473709546 0 0.01249476428793903 -5.0388386576317431e-05 0 0.012573826309016304 1.4244728513293461e-05 0 0.012453675698234563 0.00021157285524989739 0 0.012573826309016304 1.4244728513293461e-05 0 0.012453675698234563 0.00021157285524989739 0 0.012670392277552697 0.00020795055809295297 0 0.012453675698234563 0.00021157285524989739 0 0.012668595519105628 0.00047133751916855521 0 0.012191882618406443 0.00063489205473709546 0 0.012453675698234563 0.00021157285524989739 0 0.012670392277552697 0.00020795055809295297 0 0.012668595519105628 0.00047133751916855521 0 -0.0079310969421396427 0.013487768759262485 0 -0.010853135756048854 0.015245204174463449 0 -0.010455691302388834 0.012942908303873872 0 -0.0012274345959451876 0.0072259244753103335 0 -0.010033476724199795 0.010284057109202663 0 -0.010853135756048854 0.015245204174463449 0 -0.010455691302388834 0.012942908303873872 0 -0.011614254979788475 0.013750400412793773 0 -0.0026256674961025626 0.0057166297872533337 0 -0.0043665142721374221 0.0083960229163502348 0 -0.0056630405988471024 0.0077433340940285204 0 -0.002568311026092159 0.0027610412739755758 0 -0.010033476724199795 0.010284057109202663 0 -0.009287150933414803 0.011375326671789412 0 -0.0079310969421396427 0.013487768759262485 0 -0.010455691302388834 0.012942908303873872 0 -0.011080333342941697 0.011414706522774294 0 -0.009287150933414803 0.011375326671789412 0 -0.010455691302388834 0.012942908303873872 0 -0.014835068411304088 0.011562254256839511 0 -0.012263117706534656 0.012330582812986343 0 -0.013042030248209654 0.013971510193299758 0 -0.011080333342941697 0.011414706522774294 0 -0.010455691302388834 0.012942908303873872 0 -0.012263117706534656 0.012330582812986343 0 -0.010455691302388834 0.012942908303873872 0 -0.012263117706534656 0.012330582812986343 0 -0.011614254979788475 0.013750400412793773 0 -0.012263117706534656 0.012330582812986343 0 -0.011614254979788475 0.013750400412793773 0 -0.013042030248209654 0.013971510193299758 0 -0.010033476724199795 0.010284057109202663 0 -0.01358509520555656 0.010072220847327827 0 -0.011519613659267021 0.014722947227866148 0 -0.013042030248209654 0.013971510193299758 0 -0.013285040602791067 0.0158996312818643 0 -0.010033476724199795 0.010284057109202663 0 -0.012435610677542218 0.014168132382103052 0 -0.010853135756048854 0.015245204174463449 0 -0.011614254979788475 0.013750400412793773 0 -0.013042030248209654 0.013971510193299758 0 -0.013042030248209654 0.013971510193299758 0 -0.014851498221793845 0.014572692014031352 0 -0.013285040602791067 0.0158996312818643 0 -0.014835068411304088 0.011562254256839511 0 -0.013042030248209654 0.013971510193299758 0 -0.014851498221793845 0.014572692014031352 0 -0.016497142900390383 0.0093786238698712349 0 -0.016675926293505679 0.011455822719086123 0 -0.01857653898518705 0.0075927171905093302 0 -0.018214966556921109 0.0073810541952495081 0 -0.018321709238069431 0.0078271836993827927 0 -0.016295889347061273 0.0083681637565011409 0 -0.015137807962697447 0.0078068531387107841 0 -0.012911980037091077 0.0090793409820645477 0 -0.017941345489560473 0.0090960240766975453 0 -0.016295889347061273 0.0083681637565011409 0 -0.012911980037091077 0.0090793409820645477 0 -0.016295889347061273 0.0083681637565011409 0 -0.015137807962697447 0.0078068531387107841 0 -0.016384799766971523 0.0077040516032244356 0 -0.016295889347061273 0.0083681637565011409 0 -0.017048337649994624 0.0079985222560780087 0 -0.016384799766971523 0.0077040516032244356 0 -0.015137807962697447 0.0078068531387107841 0 -0.014307838733913581 0.0070695943258260131 0 -0.012911980037091077 0.0090793409820645477 0 -0.015137807962697447 0.0078068531387107841 0 -0.014307838733913581 0.0070695943258260131 0 -0.015724213826592247 0.0068948303288494965 0 -0.014307838733913581 0.0070695943258260131 0 -0.015724213826592247 0.0068948303288494965 0 -0.014755769878209353 0.0062009009303491801 0 -0.015724213826592247 0.0068948303288494965 0 -0.016384799766971523 0.0077040516032244356 0 -0.016466437961250944 0.0071415026200055557 0 -0.015724213826592247 0.0068948303288494965 0 -0.017005733713045888 0.0067805136767577065 0 -0.014755769878209353 0.0062009009303491801 0 -0.015137807962697447 0.0078068531387107841 0 -0.015724213826592247 0.0068948303288494965 0 -0.016384799766971523 0.0077040516032244356 0 -0.017048337649994624 0.0079985222560780087 0 -0.016384799766971523 0.0077040516032244356 0 -0.016466437961250944 0.0071415026200055557 0 -0.017048337649994624 0.0079985222560780087 0 -0.016466437961250944 0.0071415026200055557 0 -0.017005733713045888 0.0067805136767577065 0 -0.015724213826592247 0.0068948303288494965 0 -0.016466437961250944 0.0071415026200055557 0 -0.017005733713045888 0.0067805136767577065 0 -0.015800705936132257 0.011269936521136715 0 -0.01358509520555656 0.010072220847327827 0 -0.016675926293505679 0.011455822719086123 0 -0.015800705936132257 0.011269936521136715 0 -0.014851498221793845 0.014572692014031352 0 -0.015019268020288823 0.016992719274009773 0 -0.013285040602791067 0.0158996312818643 0 -0.017005733713045888 0.0067805136767577065 0 -0.014755769878209353 0.0062009009303491801 0 -0.013791467157865188 0.0043304000256859827 0 -0.014755769878209353 0.0062009009303491801 0 -0.012895160457314005 0.0059468323239987957 0 -0.013791467157865188 0.0043304000256859827 0 -0.010329363840933184 0.0019893343697439253 0 -0.013791467157865188 0.0043304000256859827 0 -0.011879532229991527 0.0047248240673018454 0 -0.012895160457314005 0.0059468323239987957 0 -0.013791467157865188 0.0043304000256859827 0 -0.011879532229991527 0.0047248240673018454 0 -0.011430101145090183 0.0029314036421717927 0 -0.0045959977689820257 0.0010999459116390327 0 -0.012895160457314005 0.0059468323239987957 0 -0.011879532229991527 0.0047248240673018454 0 -0.0099350842117183237 0.0048202024497725898 0 -0.012895160457314005 0.0059468323239987957 0 -0.012911980037091077 0.0090793409820645477 0 -0.0099350842117183237 0.0048202024497725898 0 -0.014307838733913581 0.0070695943258260131 0 -0.012895160457314005 0.0059468323239987957 0 -0.012911980037091077 0.0090793409820645477 0 0.00058787153018701453 -0.014663254740141992 0 -0.0045959977689820257 0.0010999459116390327 0 -0.014307838733913581 0.0070695943258260131 0 -0.014755769878209353 0.0062009009303491801 0 -0.012895160457314005 0.0059468323239987957 0 0.003868590847311071 -0.012522442321967231 0 0.0021067262103145043 -0.012297854787001164 0 0.0028303203047915513 -0.010811501799588398 0 0.00058787153018701453 -0.014663254740141992 0 0.010353622530894903 -0.022795859325989133 0 0.0098316070674194529 -0.031147507500715321 0 0.012802636033552575 -0.031468530970186002 0 0.01110711659557426 -0.030261115068358914 0 0.0021067262103145043 -0.012297854787001164 0 0.0028303203047915513 -0.010811501799588398 0 0.0018480050118766566 -0.010891810978664497 0 -0.010329363840933184 0.0019893343697439253 0 -0.011879532229991527 0.0047248240673018454 0 -0.009882655020169823 0.0048535112313894376 0 -0.0085916486360209012 0.0028605246849672588 0 -0.010329363840933184 0.0019893343697439253 0 -0.009882655020169823 0.0048535112313894376 0 -0.002568311026092159 0.0027610412739755758 0 -0.0045959977689820257 0.0010999459116390327 0 -0.002568311026092159 0.0027610412739755758 0 0.0067343128583400936 -0.0016379331689317239 0 -0.0010872779302180567 -0.00039187281698749207 0 0.0013578723112472348 -0.0014145124742652301 0 0.0027577549698492229 -0.00017739679091721293 0 0.00067926907888958652 -0.0031493061324994265 0 -0.0010872779302180567 -0.00039187281698749207 0 0.0013578723112472348 -0.0014145124742652301 0 0.00067926907888958652 -0.0031493061324994265 0 0.0013578723112472348 -0.0014145124742652301 0 0.0030791422261085212 -0.0019387024700786781 0 -0.0045959977689820257 0.0010999459116390327 0 0.0065729891186654182 -0.0090623553290576381 0 0.0013578723112472348 -0.0014145124742652301 0 0.0027577549698492229 -0.00017739679091721293 0 0.0030791422261085212 -0.0019387024700786781 0 0.0074094808377772351 -0.0075763720216356339 0 0.0077780074749829948 -0.0095884529169070181 0 0.012321436697366829 -0.0073083925179966052 0 0.0065729891186654182 -0.0090623553290576381 0 0.0067343128583400936 -0.0016379331689317239 0 0.0067343128583400936 -0.0016379331689317239 0 0.014654108260446897 -0.011684982816166102 0 0.012668595519105628 0.00047133751916855521 0 0.012191882618406443 0.00063489205473709546 0 0.012785412886419129 0.00090017439848367445 0 0.011425342232703519 -0.019235292781200335 0 0.012506850292016918 -0.018019869462031265 0 0.013675118652652689 -0.019138276572498458 0 0.0065729891186654182 -0.0090623553290576381 0 0.014654108260446897 -0.011684982816166102 0 0.010353622530894903 -0.022795859325989133 0 0.014454127785352159 -0.023784765114969297 0 0.010950733751889546 -0.016666873506629865 0 0.012506850292016918 -0.018019869462031265 0 0.013992979954766978 -0.017043877534865203 0 0.012982313337738452 -0.029989990547448889 0 0.014309817327415398 -0.029030561619956027 0 0.015090498349536064 -0.03027224183192594 0 0.010950733751889546 -0.016666873506629865 0 0.011425342232703519 -0.019235292781200335 0 0.012506850292016918 -0.018019869462031265 0 0.012506850292016918 -0.018019869462031265 0 0.013675118652652689 -0.019138276572498458 0 0.013992979954766978 -0.017043877534865203 0 0.010353622530894903 -0.022795859325989133 0 0.0065729891186654182 -0.0090623553290576381 0 0.012982313337738452 -0.029989990547448889 0 0.014309817327415398 -0.029030561619956027 0 0.012671864714305196 -0.028450411664925606 0 0.014309817327415398 -0.029030561619956027 0 0.014565063228834564 -0.027180002600413401 0 0.012671864714305196 -0.028450411664925606 0 0.014565063228834564 -0.027180002600413401 0 0.012252199548760565 -0.02719267906758982 0 0.012671864714305196 -0.028450411664925606 0 0.014565063228834564 -0.027180002600413401 0 0.012252199548760565 -0.02719267906758982 0 0.013716408800939578 -0.025744802467988947 0 0.012212801746694564 -0.02695152438524798 0 0.01281234273275221 -0.030298179570879821 0 0.012252199548760565 -0.02719267906758982 0 0.012515023215979842 -0.029507735535414678 0 0.010527618556083617 -0.028712165817583415 0 0.010353622530894903 -0.022795859325989133 0 0.01281234273275221 -0.030298179570879821 0 0.012802636033552575 -0.031468530970186002 0 0.012515023215979842 -0.029507735535414678 0 0.01110711659557426 -0.030261115068358914 0 0.012515023215979842 -0.029507735535414678 0 0.01110711659557426 -0.030261115068358914 0 0.010527618556083617 -0.028712165817583415 0 0.01110711659557426 -0.030261115068358914 0 0.010527618556083617 -0.028712165817583415 0 0.0088229625132043403 -0.029767255645044052 0 0.0098316070674194529 -0.031147507500715321 0 0.01110711659557426 -0.030261115068358914 0 0.0088229625132043403 -0.029767255645044052 0 0.00058787153018701453 -0.014663254740141992 0 0.01187011773688648 -0.034283418094623826 0 0.010527618556083617 -0.028712165817583415 0 0.008458891039320739 -0.028443306959488209 0 0.0088229625132043403 -0.029767255645044052 0 0.010527618556083617 -0.028712165817583415 0 0.008458891039320739 -0.028443306959488209 0 0.0098792718545991885 -0.026974093258933286 0 0.012252199548760565 -0.02719267906758982 0 0.010527618556083617 -0.028712165817583415 0 0.0098792718545991885 -0.026974093258933286 0 0.0070300486427341598 -0.029327288776444211 0 0.008458891039320739 -0.028443306959488209 0 0.0088229625132043403 -0.029767255645044052 0 0.0065659634923604104 -0.028117783662194466 0 0.008458891039320739 -0.028443306959488209 0 0.0076999662750988447 -0.02622454650195034 0 0.0065659634923604104 -0.028117783662194466 0 0.0070300486427341598 -0.029327288776444211 0 0.008458891039320739 -0.028443306959488209 0 0.0070300486427341598 -0.029327288776444211 0 0.0063493796680551421 -0.030941635072104415 0 0.0088229625132043403 -0.029767255645044052 0 0.0063493796680551421 -0.030941635072104415 0 0.0096810110992572758 -0.03110191407052032 0 0.0088229625132043403 -0.029767255645044052 0 -0.0062853144338712186 -0.010107581828531463 0 0.00058787153018701453 -0.014663254740141992 0 0.019659636762457907 -0.021980724399500516 0 0.022993165013752641 -0.024162089321567434 0 0.017477081812903923 -0.030598168607144368 0 0.018078063612576554 -0.028786052938858327 0 0.020236243920047876 -0.029046164803618865 0 0.02426957550962169 -0.019764211588262047 0 0.023311407202839786 -0.019611698912071259 0 0.025867575260404653 -0.018606787567394804 0 0.02569685007312119 -0.019696965011373687 0 0.027022768417469992 -0.019642553597221266 0 0.025651464872091311 -0.020855487956090331 0 0.02569685007312119 -0.019696965011373687 0 0.025651464872091311 -0.020855487956090331 0 0.02426957550962169 -0.019764211588262047 0 0.02569685007312119 -0.019696965011373687 0 0.02426957550962169 -0.019764211588262047 0 0.025867575260404653 -0.018606787567394804 0 0.02569685007312119 -0.019696965011373687 0 0.027022768417469992 -0.019642553597221266 0 0.025867575260404653 -0.018606787567394804 0 0.028195450994433883 -0.019097070215359422 0 0.027022768417469992 -0.019642553597221266 0 0.025867575260404653 -0.018606787567394804 0 0.028195450994433883 -0.019097070215359422 0 0.027022768417469992 -0.019642553597221266 0 0.027553650578903813 -0.020267111297738154 0 0.027022768417469992 -0.019642553597221266 0 0.027553650578903813 -0.020267111297738154 0 0.025651464872091311 -0.020855487956090331 0 0.027553650578903813 -0.020267111297738154 0 0.027417239956372522 -0.020471456826116462 0 0.026909420874675408 -0.020073476046497205 0 0.028001501258480929 -0.020614788432817131 0 0.028195450994433883 -0.019097070215359422 0 0.027553650578903813 -0.020267111297738154 0 0.027148739433415954 -0.020317560761004962 0 0.026800173416393416 -0.02017725471033914 0 0.028001501258480929 -0.020614788432817131 0 0.027553650578903813 -0.020267111297738154 0 0.027697313775584584 -0.020524141574662216 0 0.027553650578903813 -0.020267111297738154 0 0.027697313775584584 -0.020524141574662216 0 0.027417239956372522 -0.020471456826116462 0 0.027830970253638627 -0.020694865557562205 0 0.027697313775584584 -0.020524141574662216 0 0.027417239956372522 -0.020471456826116462 0 0.023724372810333752 -0.0062208842896185586 0 0.020523646127470957 -0.014948870277386159 0 0.026973283209439074 -0.020549320254980488 0 0.026909420874675408 -0.020073476046497205 0 0.025916401390016535 -0.020056859971074158 0 0.027417239956372522 -0.020471456826116462 0 0.026973283209439074 -0.020549320254980488 0 0.026909420874675408 -0.020073476046497205 0 0.013984326724541862 0.00036634106408504408 0 0.014589788631169149 0.00059436960075502708 0 0.01387840962508907 0.00093760862296957375 0 0.025651464872091311 -0.020855487956090331 0 0.023287950792644653 -0.021114035776763376 0 0.02426957550962169 -0.019764211588262047 0 0.026800173416393416 -0.02017725471033914 0 0.020523646127470957 -0.014948870277386159 0 0.013984326724541862 0.00036634106408504408 0 0.01387840962508907 0.00093760862296957375 0 0.01341160087648027 0.00057004383458455685 0 0.023260694585933578 -0.018467660873747148 0 0.020523646127470957 -0.014948870277386159 0 0.021997372998477017 -0.020466344700788917 0 0.023214567838138408 -0.021103915449121151 0 0.019032753795265856 -0.021200362206543227 0 0.021997372998477017 -0.020466344700788917 0 0.019032753795265856 -0.021200362206543227 0 0.022930290892592905 -0.019461497548100559 0 0.020523646127470957 -0.014948870277386159 0 0.014654108260446897 -0.011684982816166102 0 0.01387840962508907 0.00093760862296957375 0 0.01341160087648027 0.00057004383458455685 0 0.012785412886419129 0.00090017439848367445 0 0.014654108260446897 -0.011684982816166102 0 0.019659636762457907 -0.021980724399500516 0 0.012668595519105628 0.00047133751916855521 0 0.012946432612432507 0.00055969022618458338 0 0.012785412886419129 0.00090017439848367445 0 0.012946432612432507 0.00055969022618458338 0 0.01341160087648027 0.00057004383458455685 0 0.012785412886419129 0.00090017439848367445 0 0.013675118652652689 -0.019138276572498458 0 0.013992979954766978 -0.017043877534865203 0 0.017096943953689131 -0.017482998653945616 0 0.014309817327415398 -0.029030561619956027 0 0.015090498349536064 -0.03027224183192594 0 0.016399652820537847 -0.029279281445821231 0 0.014454127785352159 -0.023784765114969297 0 0.019659636762457907 -0.021980724399500516 0 0.015090498349536064 -0.03027224183192594 0 0.017477081812903923 -0.030598168607144368 0 0.016399652820537847 -0.029279281445821231 0 0.023287950792644653 -0.021114035776763376 0 0.02426957550962169 -0.019764211588262047 0 0.022930290892592905 -0.019461497548100559 0 0.023379986444571829 -0.021239808298268967 0 0.019659636762457907 -0.021980724399500516 0 0.021997372998477017 -0.020466344700788917 0 0.023287950792644653 -0.021114035776763376 0 0.022930290892592905 -0.019461497548100559 0 0.017477081812903923 -0.030598168607144368 0 0.018078063612576554 -0.028786052938858327 0 0.016399652820537847 -0.029279281445821231 0 0.018078063612576554 -0.028786052938858327 0 0.017054692326581682 -0.027310939547071415 0 0.019046513484353492 -0.027428946113844065 0 0.018078063612576554 -0.028786052938858327 0 0.016399652820537847 -0.029279281445821231 0 0.017054692326581682 -0.027310939547071415 0 0.014565063228834564 -0.027180002600413401 0 0.016399652820537847 -0.029279281445821231 0 0.017054692326581682 -0.027310939547071415 0 0.014309817327415398 -0.029030561619956027 0 0.014565063228834564 -0.027180002600413401 0 0.016399652820537847 -0.029279281445821231 0 0.014565063228834564 -0.027180002600413401 0 0.017054692326581682 -0.027310939547071415 0 0.015946680889877229 -0.025342703027708118 0 0.017054692326581682 -0.027310939547071415 0 0.018236165564152744 -0.025806402053440126 0 0.015946680889877229 -0.025342703027708118 0 0.017054692326581682 -0.027310939547071415 0 0.019046513484353492 -0.027428946113844065 0 0.018236165564152744 -0.025806402053440126 0 0.020021702996608916 -0.02633909947879419 0 0.019046513484353492 -0.027428946113844065 0 0.018236165564152744 -0.025806402053440126 0 0.020021702996608916 -0.02633909947879419 0 0.019046513484353492 -0.027428946113844065 0 0.020725591289490499 -0.027491303361159226 0 0.019046513484353492 -0.027428946113844065 0 0.020236243920047876 -0.029046164803618865 0 0.020725591289490499 -0.027491303361159226 0 0.018078063612576554 -0.028786052938858327 0 0.019046513484353492 -0.027428946113844065 0 0.020236243920047876 -0.029046164803618865 0 0.022394445621636356 -0.027593556997820647 0 0.020236243920047876 -0.029046164803618865 0 0.020725591289490499 -0.027491303361159226 0 0.025620851023307013 -0.022804366029379037 0 0.022993165013752641 -0.024162089321567434 0 0.028887620607090266 -0.017887116506032526 0 0.028195450994433883 -0.019097070215359422 0 0.025867575260404653 -0.018606787567394804 0 0.022394445621636356 -0.027593556997820647 0 0.020725591289490499 -0.027491303361159226 0 0.021495238449328866 -0.026575715812465196 0 0.020021702996608916 -0.02633909947879419 0 0.021495238449328866 -0.026575715812465196 0 0.021500358631571074 -0.024852103814412007 0 0.022514113633764796 -0.026063561489064115 0 0.021495238449328866 -0.026575715812465196 0 0.021500358631571074 -0.024852103814412007 0 0.020021702996608916 -0.02633909947879419 0 0.020725591289490499 -0.027491303361159226 0 0.021495238449328866 -0.026575715812465196 0 0.021500358631571074 -0.024852103814412007 0 0.020285529199869572 -0.022762443938003672 0 0.019617594203964538 -0.024639116601871132 0 0.020021702996608916 -0.02633909947879419 0 0.021500358631571074 -0.024852103814412007 0 0.019617594203964538 -0.024639116601871132 0 0.021500358631571074 -0.024852103814412007 0 0.020285529199869572 -0.022762443938003672 0 0.022765704291372795 -0.023336534281704562 0 0.020285529199869572 -0.022762443938003672 0 0.019617594203964538 -0.024639116601871132 0 0.017820223681011927 -0.023987146701714618 0 0.020021702996608916 -0.02633909947879419 0 0.019617594203964538 -0.024639116601871132 0 0.018236165564152744 -0.025806402053440126 0 0.019617594203964538 -0.024639116601871132 0 0.018236165564152744 -0.025806402053440126 0 0.017820223681011927 -0.023987146701714618 0 0.018236165564152744 -0.025806402053440126 0 0.015946680889877229 -0.025342703027708118 0 0.017820223681011927 -0.023987146701714618 0 0.014565063228834564 -0.027180002600413401 0 0.015946680889877229 -0.025342703027708118 0 0.013716408800939578 -0.025744802467988947 0 0.015946680889877229 -0.025342703027708118 0 0.015090178525263963 -0.023218345680625901 0 0.013716408800939578 -0.025744802467988947 0 0.015946680889877229 -0.025342703027708118 0 0.017820223681011927 -0.023987146701714618 0 0.015090178525263963 -0.023218345680625901 0 0.01767072285284655 -0.023991611353392464 0 0.015245180380282353 -0.023177780000756584 0 0.017820223681011927 -0.023987146701714618 0 0.015306154978371279 -0.023110956587433801 0 0.016738247842681298 -0.021504715415387149 0 0.017820223681011927 -0.023987146701714618 0 0.016738247842681298 -0.021504715415387149 0 0.018884437075680247 -0.020992201388299228 0 0.015306154978371279 -0.023110956587433801 0 0.016738247842681298 -0.021504715415387149 0 0.014792866180764716 -0.021020483803499898 0 0.016738247842681298 -0.021504715415387149 0 0.014792866180764716 -0.021020483803499898 0 0.016345213328014502 -0.019951434961586689 0 0.016738247842681298 -0.021504715415387149 0 0.018884437075680247 -0.020992201388299228 0 0.018265289097796188 -0.019243946678263419 0 0.018884437075680247 -0.020992201388299228 0 0.019812664469900508 -0.019857665436361617 0 0.020707016190405585 -0.021116888138215377 0 0.018884437075680247 -0.020992201388299228 0 0.019812664469900508 -0.019857665436361617 0 0.018265289097796188 -0.019243946678263419 0 0.020285529199869572 -0.022762443938003672 0 0.020707016190405585 -0.021116888138215377 0 0.02253566355942295 -0.021636644067048939 0 0.020285529199869572 -0.022762443938003672 0 0.018884437075680247 -0.020992201388299228 0 0.020707016190405585 -0.021116888138215377 0 0.020285529199869572 -0.022762443938003672 0 0.017820223681011927 -0.023987146701714618 0 0.018884437075680247 -0.020992201388299228 0 0.0076999662750988447 -0.02622454650195034 0 0.009928362892990001 -0.024953473808280821 0 0.0083215651125908858 -0.0230808616810378 0 0.008458891039320739 -0.028443306959488209 0 0.0076999662750988447 -0.02622454650195034 0 0.0098792718545991885 -0.026974093258933286 0 0.0076999662750988447 -0.02622454650195034 0 0.0098792718545991885 -0.026974093258933286 0 0.009928362892990001 -0.024953473808280821 0 0.0098792718545991885 -0.026974093258933286 0 0.009928362892990001 -0.024953473808280821 0 0.011410840533847525 -0.025919239146964743 0 0.012252199548760565 -0.02719267906758982 0 0.0098792718545991885 -0.026974093258933286 0 0.011410840533847525 -0.025919239146964743 0 0.009928362892990001 -0.024953473808280821 0 0.012206987094135388 -0.024401081206611306 0 0.011410840533847525 -0.025919239146964743 0 0.009928362892990001 -0.024953473808280821 0 0.012206987094135388 -0.024401081206611306 0 0.010548770909079129 -0.023170066271053027 0 0.012206987094135388 -0.024401081206611306 0 0.011410840533847525 -0.025919239146964743 0 0.013716408800939578 -0.025744802467988947 0 0.012252199548760565 -0.02719267906758982 0 0.011410840533847525 -0.025919239146964743 0 0.013716408800939578 -0.025744802467988947 0 0.015090178525263963 -0.023218345680625901 0 0.012206987094135388 -0.024401081206611306 0 0.013716408800939578 -0.025744802467988947 0 0.015245180380282353 -0.023177780000756584 0 0.012624684971938364 -0.022364060060393473 0 0.015306154978371279 -0.023110956587433801 0 0.014792866180764716 -0.021020483803499898 0 0.013050284393609156 -0.022488766512968512 0 0.015090178525263963 -0.023218345680625901 0 0.012206987094135388 -0.024401081206611306 0 0.012298033559397674 -0.022290545842042448 0 0.014792866180764716 -0.021020483803499898 0 0.013050284393609156 -0.022488766512968512 0 0.012858140089694322 -0.020145953441785144 0 0.013050284393609156 -0.022488766512968512 0 0.0099079676408168563 -0.021373763833656592 0 0.012858140089694322 -0.020145953441785144 0 0.012206987094135388 -0.024401081206611306 0 0.012298033559397674 -0.022290545842042448 0 0.010548770909079129 -0.023170066271053027 0 0.009928362892990001 -0.024953473808280821 0 0.010548770909079129 -0.023170066271053027 0 0.0083215651125908858 -0.0230808616810378 0 0.012298033559397674 -0.022290545842042448 0 0.010548770909079129 -0.023170066271053027 0 0.0099079676408168563 -0.021373763833656592 0 0.012624684971938364 -0.022364060060393473 0 0.010062389221182888 -0.021394233682749293 0 0.0099079676408168563 -0.021373763833656592 0 0.0083386171579349147 -0.021614297674454237 0 0.0083215651125908858 -0.0230808616810378 0 0.0099079676408168563 -0.021373763833656592 0 0.0083386171579349147 -0.021614297674454237 0 0.0086891107277729616 -0.020260508449009153 0 0.010548770909079129 -0.023170066271053027 0 0.0099079676408168563 -0.021373763833656592 0 0.0083215651125908858 -0.0230808616810378 0 0.0095696565058616418 -0.021390389702672027 0 0.010857252059278415 -0.020138477084328421 0 0.011491541211052388 -0.020861351105450503 0 0.0095696565058616418 -0.021390389702672027 0 0.0095786676542106812 -0.019968295392544525 0 0.010857252059278415 -0.020138477084328421 0 0.0099079676408168563 -0.021373763833656592 0 0.0086891107277729616 -0.020260508449009153 0 0.010149053610896491 -0.019290203451328477 0 0.0077325426674144113 -0.018909159952349829 0 0.0086891107277729616 -0.020260508449009153 0 0.010149053610896491 -0.019290203451328477 0 0.0081909738502760933 -0.02101660436038141 0 0.010830597154056069 -0.020065465181226937 0 0.0095696565058616418 -0.021390389702672027 0 0.009501792414999502 -0.021579811342702711 0 0.011491541211052388 -0.020861351105450503 0 0.0099079676408168563 -0.021373763833656592 0 0.010149053610896491 -0.019290203451328477 0 0.012858140089694322 -0.020145953441785144 0 0.010830597154056069 -0.020065465181226937 0 0.012566522647669356 -0.020156512649446415 0 0.010857252059278415 -0.020138477084328421 0 0.011491541211052388 -0.020861351105450503 0 0.012515639486450944 -0.019188863669389811 0 0.011491541211052388 -0.020861351105450503 0 0.012858140089694322 -0.020145953441785144 0 0.012515639486450944 -0.019188863669389811 0 0.012858140089694322 -0.020145953441785144 0 0.0148863205329361 -0.019389674241471002 0 0.012515639486450944 -0.019188863669389811 0 0.014792866180764716 -0.021020483803499898 0 0.012858140089694322 -0.020145953441785144 0 0.0148863205329361 -0.019389674241471002 0 0.012782549327864358 -0.017406694113025849 0 0.01444805163477785 -0.018656497024328207 0 0.012515639486450944 -0.019188863669389811 0 0.0148863205329361 -0.019389674241471002 0 0.01444805163477785 -0.018656497024328207 0 0.012515639486450944 -0.019188863669389811 0 0.013694716796738938 -0.017956488626394311 0 0.014406082348824796 -0.018676416857482833 0 0.01458437413228335 -0.018375662545351237 0 0.01444805163477785 -0.018656497024328207 0 0.015203322279677911 -0.018272071529867755 0 0.012782549327864358 -0.017406694113025849 0 0.012515639486450944 -0.019188863669389811 0 0.011556323314240266 -0.017970765498212131 0 0.010857252059278415 -0.020138477084328421 0 0.012515639486450944 -0.019188863669389811 0 0.01067193130816071 -0.018899178466693235 0 0.012515639486450944 -0.019188863669389811 0 0.011556323314240266 -0.017970765498212131 0 0.01067193130816071 -0.018899178466693235 0 0.011556323314240266 -0.017970765498212131 0 0.010246987914821941 -0.017695700273436046 0 0.01067193130816071 -0.018899178466693235 0 0.0095786676542106812 -0.019968295392544525 0 0.010857252059278415 -0.020138477084328421 0 0.01067193130816071 -0.018899178466693235 0 0.018265289097796188 -0.019243946678263419 0 0.017845905852993064 -0.018524641340183678 0 0.019815242953887754 -0.018132663876550215 0 0.018265289097796188 -0.019243946678263419 0 0.016772056163474613 -0.019048723488409407 0 0.017845905852993064 -0.018524641340183678 0 0.019812664469900508 -0.019857665436361617 0 0.018265289097796188 -0.019243946678263419 0 0.019815242953887754 -0.018132663876550215 0 0.018265289097796188 -0.019243946678263419 0 0.016345213328014502 -0.019951434961586689 0 0.016772056163474613 -0.019048723488409407 0 0.016738247842681298 -0.021504715415387149 0 0.018265289097796188 -0.019243946678263419 0 0.016345213328014502 -0.019951434961586689 0 0.014792866180764716 -0.021020483803499898 0 0.0148863205329361 -0.019389674241471002 0 0.016345213328014502 -0.019951434961586689 0 0.0148863205329361 -0.019389674241471002 0 0.016345213328014502 -0.019951434961586689 0 0.016772056163474613 -0.019048723488409407 0 0.016772056163474613 -0.019048723488409407 0 0.016140704790062362 -0.018451436450174902 0 0.017845905852993064 -0.018524641340183678 0 0.0148863205329361 -0.019389674241471002 0 0.01444805163477785 -0.018656497024328207 0 0.016140704790062362 -0.018451436450174902 0 0.0148863205329361 -0.019389674241471002 0 0.016772056163474613 -0.019048723488409407 0 0.016140704790062362 -0.018451436450174902 0 0.01444805163477785 -0.018656497024328207 0 0.015203322279677911 -0.018272071529867755 0 0.016140704790062362 -0.018451436450174902 0 0.016366646605520729 -0.018025046461934539 0 0.015203322279677911 -0.018272071529867755 0 0.016140704790062362 -0.018451436450174902 0 0.016366646605520729 -0.018025046461934539 0 0.016140704790062362 -0.018451436450174902 0 0.017845905852993064 -0.018524641340183678 0 0.016366646605520729 -0.018025046461934539 0 0.017146732201575855 -0.018080561696868492 0 0.017845905852993064 -0.018524641340183678 0 0.017845905852993064 -0.018524641340183678 0 0.018847393050230681 -0.018832943203608208 0 0.019815242953887754 -0.018132663876550215 0 0.017146732201575855 -0.018080561696868492 0 0.017845905852993064 -0.018524641340183678 0 0.018253066065033588 -0.018504134270232477 0 0.017845905852993064 -0.018524641340183678 0 0.018253066065033588 -0.018504134270232477 0 0.018847393050230681 -0.018832943203608208 0 0.018253066065033588 -0.018504134270232477 0 0.019133351025242027 -0.019048481293397038 0 0.018847393050230681 -0.018832943203608208 0 0.018253066065033588 -0.018504134270232477 0 0.019553753247544124 -0.018674913523165068 0 0.019133351025242027 -0.019048481293397038 0 0.019553753247544124 -0.018674913523165068 0 0.019133351025242027 -0.019048481293397038 0 0.020050221813399868 -0.019181219546656799 0 0.019133351025242027 -0.019048481293397038 0 0.019223967876740401 -0.019396281231406829 0 0.020050221813399868 -0.019181219546656799 0 0.019133351025242027 -0.019048481293397038 0 0.019223967876740401 -0.019396281231406829 0 0.018847393050230681 -0.018832943203608208 0 0.019223967876740401 -0.019396281231406829 0 0.018847393050230681 -0.018832943203608208 0 0.019815242953887754 -0.018132663876550215 0 0.022157642176596739 -0.016824894926954184 0 0.019973916849664253 -0.017984362332790466 0 0.024950666060485283 -0.014031540647685548 0 0.019815242953887754 -0.018132663876550215 0 0.02517656212582766 -0.016451590947839934 0 0.019815242953887754 -0.018132663876550215 0 0.02517656212582766 -0.016451590947839934 0 0.023631517633464546 -0.018625128514980584 0 0.02517656212582766 -0.016451590947839934 0 0.023631517633464546 -0.018625128514980584 0 0.02627499219527819 -0.018043712516203073 0 0.019815242953887754 -0.018132663876550215 0 0.023631517633464546 -0.018625128514980584 0 0.021865951062918738 -0.019897144310322197 0 0.019812664469900508 -0.019857665436361617 0 0.019815242953887754 -0.018132663876550215 0 0.021865951062918738 -0.019897144310322197 0 0.02891859980516746 -0.01680645294153563 0 0.02627499219527819 -0.018043712516203073 0 0.028307644733987343 -0.01838861514911053 0 0.02891859980516746 -0.01680645294153563 0 0.02627499219527819 -0.018043712516203073 0 0.027298142293501644 -0.016106947206721532 0 0.02517656212582766 -0.016451590947839934 0 0.02627499219527819 -0.018043712516203073 0 0.027298142293501644 -0.016106947206721532 0 0.02517656212582766 -0.016451590947839934 0 0.027298142293501644 -0.016106947206721532 0 0.026856987414471831 -0.014253913217344184 0 0.024950666060485283 -0.014031540647685548 0 0.02517656212582766 -0.016451590947839934 0 0.026856987414471831 -0.014253913217344184 0 0.02891859980516746 -0.01680645294153563 0 0.027298142293501644 -0.016106947206721532 0 0.029244902766140717 -0.014994829849618689 0 0.027298142293501644 -0.016106947206721532 0 0.029244902766140717 -0.014994829849618689 0 0.026856987414471831 -0.014253913217344184 0 0.029244902766140717 -0.014994829849618689 0 0.026856987414471831 -0.014253913217344184 0 0.030335298614419939 -0.01258894620799509 0 0.027080412656168784 -0.014209533310040342 0 0.029053548261362687 -0.01369672560102634 0 0.026856987414471831 -0.014253913217344184 0 0.027704737536225609 -0.014221426518597039 0 0.027807890771288448 -0.014608590785104018 0 0.019223967876740401 -0.019396281231406829 0 0.020050221813399868 -0.019181219546656799 0 0.021667191741984282 -0.019757734286981486 0 0.022157642176596739 -0.016824894926954184 0 0.024621285941588498 -0.016976060056570461 0 0.024950666060485283 -0.014031540647685548 0 0.026856987414471831 -0.014253913217344184 0 0.027704737536225609 -0.014221426518597039 0 0.019553753247544124 -0.018674913523165068 0 0.021041514177001359 -0.018709743071001428 0 0.020050221813399868 -0.019181219546656799 0 0.021041514177001359 -0.018709743071001428 0 0.020050221813399868 -0.019181219546656799 0 0.021667191741984282 -0.019757734286981486 0 0.022629591155203427 -0.018116889275554673 0 0.021041514177001359 -0.018709743071001428 0 0.021667191741984282 -0.019757734286981486 0 0.027684425090769051 -0.016081132113040617 0 0.027423378077176031 -0.015893710795898897 0 0.027807890771288448 -0.014608590785104018 0 0.026026039258590278 -0.017430430946258343 0 0.024621285941588498 -0.016976060056570461 0 0.030217111769574246 -0.014395316048595827 0 0.029053548261362687 -0.01369672560102634 0 0.024456723235057327 -0.018837227217136168 0 0.022629591155203427 -0.018116889275554673 0 0.021667191741984282 -0.019757734286981486 0 0.027684425090769051 -0.016081132113040617 0 0.027704737536225609 -0.014221426518597039 0 0.027807890771288448 -0.014608590785104018 0 0.033150488313204496 -0.012785036410771486 0 0.032158284343559038 -0.013273487155084772 0 0.030335298614419939 -0.01258894620799509 0 0.033150488313204496 -0.012785036410771486 0 0.032999613980425731 -0.013038619348910378 0 0.032158284343559038 -0.013273487155084772 0 0.033150488313204496 -0.012785036410771486 0 0.032999613980425731 -0.013038619348910378 0 0.033259439127570144 -0.012853563612312264 0 0.032999613980425731 -0.013038619348910378 0 0.032158284343559038 -0.013273487155084772 0 0.033192749145187703 -0.013539965976857259 0 0.032158284343559038 -0.013273487155084772 0 0.030335298614419939 -0.01258894620799509 0 0.031090414693841044 -0.014277379690962336 0 0.029244902766140717 -0.014994829849618689 0 0.030335298614419939 -0.01258894620799509 0 0.031090414693841044 -0.014277379690962336 0 0.032335139582721113 -0.01502339083491841 0 0.03147263882407788 -0.013863138685984917 0 0.033259439127570144 -0.012853563612312264 0 0.032335139582721113 -0.01502339083491841 0 0.030300055558597605 -0.014476203390424372 0 0.03147263882407788 -0.013863138685984917 0 0.032335139582721113 -0.01502339083491841 0 0.033150488313204496 -0.012785036410771486 0 0.033259439127570144 -0.012853563612312264 0 0.029740915238395373 -0.015946585017867426 0 0.030217111769574246 -0.014395316048595827 0 0.033192749145187703 -0.013539965976857259 0 0.033259439127570144 -0.012853563612312264 0 0.034707286832076648 -0.014273616884170323 0 0.032999613980425731 -0.013038619348910378 0 0.033192749145187703 -0.013539965976857259 0 0.033259439127570144 -0.012853563612312264 0 0.030202918123077183 -0.013502286721165177 0 0.03147263882407788 -0.013863138685984917 0 0.033259439127570144 -0.012853563612312264 0 0.033850085854652601 -0.013172887926560349 0 0.033409236746290628 -0.012907802866564434 0 0.037245157666888656 -0.012673151562970832 0 0.033259439127570144 -0.012853563612312264 0 0.034707286832076648 -0.014273616884170323 0 0.030300055558597605 -0.014476203390424372 0 0.030202918123077183 -0.013502286721165177 0 0.03147263882407788 -0.013863138685984917 0 0.037245157666888656 -0.012673151562970832 0 0.037128148592733466 -0.014252422139873148 0 0.034707286832076648 -0.014273616884170323 0 0.033192749145187703 -0.013539965976857259 0 0.034707286832076648 -0.014273616884170323 0 0.032336399841613968 -0.014525805308229492 0 0.034707286832076648 -0.014273616884170323 0 0.032968254413604771 -0.015926773926742022 0 0.03510223862025031 -0.016308708228526751 0 0.034707286832076648 -0.014273616884170323 0 0.036912357525381724 -0.015417619789518557 0 0.03510223862025031 -0.016308708228526751 0 0.037128148592733466 -0.014252422139873148 0 0.034707286832076648 -0.014273616884170323 0 0.036912357525381724 -0.015417619789518557 0 0.031090414693841044 -0.014277379690962336 0 0.032336399841613968 -0.014525805308229492 0 0.030973703908510973 -0.015754019109190082 0 0.029244902766140717 -0.014994829849618689 0 0.031090414693841044 -0.014277379690962336 0 0.030973703908510973 -0.015754019109190082 0 0.034707286832076648 -0.014273616884170323 0 0.032336399841613968 -0.014525805308229492 0 0.032968254413604771 -0.015926773926742022 0 0.032158284343559038 -0.013273487155084772 0 0.033192749145187703 -0.013539965976857259 0 0.032336399841613968 -0.014525805308229492 0 0.032158284343559038 -0.013273487155084772 0 0.031090414693841044 -0.014277379690962336 0 0.032336399841613968 -0.014525805308229492 0 0.032336399841613968 -0.014525805308229492 0 0.032968254413604771 -0.015926773926742022 0 0.030973703908510973 -0.015754019109190082 0 0.032968254413604771 -0.015926773926742022 0 0.030973703908510973 -0.015754019109190082 0 0.030628361217370979 -0.017760224018457008 0 0.02891859980516746 -0.01680645294153563 0 0.030973703908510973 -0.015754019109190082 0 0.030628361217370979 -0.017760224018457008 0 0.02891859980516746 -0.01680645294153563 0 0.029244902766140717 -0.014994829849618689 0 0.030973703908510973 -0.015754019109190082 0 0.032968254413604771 -0.015926773926742022 0 0.030628361217370979 -0.017760224018457008 0 0.033166764958681101 -0.018017360195652581 0 0.033166764958681101 -0.018017360195652581 0 0.030870779879089993 -0.020240381393015792 0 0.033774026359618278 -0.021568293463800462 0 0.030628361217370979 -0.017760224018457008 0 0.033166764958681101 -0.018017360195652581 0 0.030870779879089993 -0.020240381393015792 0 0.030628361217370979 -0.017760224018457008 0 0.030870779879089993 -0.020240381393015792 0 0.028879838329687494 -0.019719132058007811 0 0.030870779879089993 -0.020240381393015792 0 0.028636056468181854 -0.021571810030508856 0 0.028879838329687494 -0.019719132058007811 0 0.036912357525381724 -0.015417619789518557 0 0.03510223862025031 -0.016308708228526751 0 0.037289694729076124 -0.016575140158158294 0 0.03510223862025031 -0.016308708228526751 0 0.035477977491593628 -0.01785860417738503 0 0.037289694729076124 -0.016575140158158294 0 0.033166764958681101 -0.018017360195652581 0 0.03510223862025031 -0.016308708228526751 0 0.035477977491593628 -0.01785860417738503 0 0.032968254413604771 -0.015926773926742022 0 0.033166764958681101 -0.018017360195652581 0 0.03510223862025031 -0.016308708228526751 0 0.033166764958681101 -0.018017360195652581 0 0.035477977491593628 -0.01785860417738503 0 0.033774026359618278 -0.021568293463800462 0 0.035477977491593628 -0.01785860417738503 0 0.037289694729076124 -0.016575140158158294 0 0.037147445204597666 -0.017892864846303837 0 0.037147445204597666 -0.017892864846303837 0 0.036102121103021162 -0.017397878891545614 0 0.037656251088384884 -0.01798360663578898 0 0.03689665650076162 -0.018137875272897803 0 0.034852536220024731 -0.019445426007782138 0 0.035477977491593628 -0.01785860417738503 0 0.037147445204597666 -0.017892864846303837 0 0.033774026359618278 -0.021568293463800462 0 0.036677006466454692 -0.018417204978617738 0 0.036102121103021162 -0.017397878891545614 0 0.037656251088384884 -0.01798360663578898 0 0.035577947742652397 -0.018080671385972698 0 0.036677006466454692 -0.018417204978617738 0 0.036102121103021162 -0.017397878891545614 0 0.030870779879089993 -0.020240381393015792 0 0.030206228003841654 -0.023684088911811015 0 0.028636056468181854 -0.021571810030508856 0 0.030870779879089993 -0.020240381393015792 0 0.033774026359618278 -0.021568293463800462 0 0.030206228003841654 -0.023684088911811015 0 0.035577947742652397 -0.018080671385972698 0 0.036102121103021162 -0.017397878891545614 0 0.034595363171777666 -0.017361942492026695 0 0.034852536220024731 -0.019445426007782138 0 0.03232617506154857 -0.02050179683859862 0 0.030206228003841654 -0.023684088911811015 0 0.02781360848874119 -0.023210841134165411 0 0.028636056468181854 -0.021571810030508856 0 0.026724117300759152 -0.024065520865197861 0 0.030206228003841654 -0.023684088911811015 0 0.02781360848874119 -0.023210841134165411 0 0.029891918946239791 -0.020613656661851852 0 0.03232617506154857 -0.02050179683859862 0 0.026724117300759152 -0.024065520865197861 0 0.02781360848874119 -0.023210841134165411 0 0.027134621439623682 -0.023689788504027826 0 0.02781360848874119 -0.023210841134165411 0 0.026898557852723621 -0.02261201940582307 0 0.027134621439623682 -0.023689788504027826 0 0.02781360848874119 -0.023210841134165411 0 0.028636056468181854 -0.021571810030508856 0 0.026898557852723621 -0.02261201940582307 0 0.028636056468181854 -0.021571810030508856 0 0.026898557852723621 -0.02261201940582307 0 0.027272862382272108 -0.02086382969273463 0 0.026898557852723621 -0.02261201940582307 0 0.025561763354953807 -0.022753754475765268 0 0.025925434062778085 -0.021514915735574191 0 0.026898557852723621 -0.02261201940582307 0 0.027272862382272108 -0.02086382969273463 0 0.025925434062778085 -0.021514915735574191 0 0.026898557852723621 -0.02261201940582307 0 0.025561763354953807 -0.022753754475765268 0 0.026177945753938878 -0.02372861854905671 0 0.026898557852723621 -0.02261201940582307 0 0.026177945753938878 -0.02372861854905671 0 0.027134621439623682 -0.023689788504027826 0 0.026177945753938878 -0.02372861854905671 0 0.027134621439623682 -0.023689788504027826 0 0.027418598654133527 -0.024141031490923691 0 0.026724117300759152 -0.024065520865197861 0 0.027134621439623682 -0.023689788504027826 0 0.027418598654133527 -0.024141031490923691 0 0.026177945753938878 -0.02372861854905671 0 0.027418598654133527 -0.024141031490923691 0 0.025185573481549803 -0.024538437718839626 0 0.023683194265349254 -0.024993432812140687 0 0.024380424747656334 -0.023600171560876019 0 0.022765704291372795 -0.023336534281704562 0 0.025185573481549803 -0.024538437718839626 0 0.023683194265349254 -0.024993432812140687 0 0.024380424747656334 -0.023600171560876019 0 0.026177945753938878 -0.02372861854905671 0 0.025185573481549803 -0.024538437718839626 0 0.024380424747656334 -0.023600171560876019 0 0.025561763354953807 -0.022753754475765268 0 0.026177945753938878 -0.02372861854905671 0 0.024380424747656334 -0.023600171560876019 0 0.022514113633764796 -0.026063561489064115 0 0.021500358631571074 -0.024852103814412007 0 0.023683194265349254 -0.024993432812140687 0 0.021500358631571074 -0.024852103814412007 0 0.023683194265349254 -0.024993432812140687 0 0.022765704291372795 -0.023336534281704562 0 0.020285529199869572 -0.022762443938003672 0 0.022765704291372795 -0.023336534281704562 0 0.02253566355942295 -0.021636644067048939 0 0.022765704291372795 -0.023336534281704562 0 0.024311472737141314 -0.022266634604187208 0 0.02253566355942295 -0.021636644067048939 0 0.025561763354953807 -0.022753754475765268 0 0.024380424747656334 -0.023600171560876019 0 0.024311472737141314 -0.022266634604187208 0 0.024380424747656334 -0.023600171560876019 0 0.022765704291372795 -0.023336534281704562 0 0.024311472737141314 -0.022266634604187208 0 0.025561763354953807 -0.022753754475765268 0 0.024311472737141314 -0.022266634604187208 0 0.025925434062778085 -0.021514915735574191 0 0.024807907988745961 -0.020276685584790177 0 0.02253566355942295 -0.021636644067048939 0 0.021865951062918738 -0.019897144310322197 0 0.024311472737141314 -0.022266634604187208 0 0.024807907988745961 -0.020276685584790177 0 0.02253566355942295 -0.021636644067048939 0 0.024311472737141314 -0.022266634604187208 0 0.024807907988745961 -0.020276685584790177 0 0.025925434062778085 -0.021514915735574191 0 0.020707016190405585 -0.021116888138215377 0 0.02253566355942295 -0.021636644067048939 0 0.021865951062918738 -0.019897144310322197 0 0.019812664469900508 -0.019857665436361617 0 0.020707016190405585 -0.021116888138215377 0 0.021865951062918738 -0.019897144310322197 0 0.023631517633464546 -0.018625128514980584 0 0.02627499219527819 -0.018043712516203073 0 0.024807907988745961 -0.020276685584790177 0 0.023631517633464546 -0.018625128514980584 0 0.024807907988745961 -0.020276685584790177 0 0.021865951062918738 -0.019897144310322197 0 0.02627499219527819 -0.018043712516203073 0 0.028307644733987343 -0.01838861514911053 0 0.026945618460373539 -0.019849421507405311 0 0.02627499219527819 -0.018043712516203073 0 0.024807907988745961 -0.020276685584790177 0 0.026945618460373539 -0.019849421507405311 0 0.02891859980516746 -0.01680645294153563 0 0.030628361217370979 -0.017760224018457008 0 0.028307644733987343 -0.01838861514911053 0 0.030628361217370979 -0.017760224018457008 0 0.028307644733987343 -0.01838861514911053 0 0.028879838329687494 -0.019719132058007811 0 0.028307644733987343 -0.01838861514911053 0 0.028879838329687494 -0.019719132058007811 0 0.026945618460373539 -0.019849421507405311 0 0.028636056468181854 -0.021571810030508856 0 0.028879838329687494 -0.019719132058007811 0 0.027272862382272108 -0.02086382969273463 0 0.028879838329687494 -0.019719132058007811 0 0.027272862382272108 -0.02086382969273463 0 0.026945618460373539 -0.019849421507405311 0 0.027272862382272108 -0.02086382969273463 0 0.025925434062778085 -0.021514915735574191 0 0.026945618460373539 -0.019849421507405311 0 0.024807907988745961 -0.020276685584790177 0 0.025925434062778085 -0.021514915735574191 0 0.026945618460373539 -0.019849421507405311 0 
</DataArray>
</PointData>
<CellData Scalars="region_id,cross_section_updated," Vectors="" Tensors="stress,">
<DataArray type="Float64" Name="region_id" format="ascii">
5 5 5 5 5 6 5 5 5 5 5 5 5 5 5 5 5 5 5 5 5 5 5 6 5 6 5 5 5 5 6 6 5 5 6 5 5 6 6 5 5 5 5 5 5 5 6 6 5 5 5 5 6 5 5 6 5 5 5 5 5 6 5 5 5 5 5 5 5 5 6 5 6 5 6 5 5 5 5 5 6 5 5 5 5 6 6 5 5 5 5 5 5 6 5 5 5 5 6 5 5 6 5 5 5 6 6 5 5 5 5 5 5 5 6 5 6 5 5 6 5 5 6 5 5 5 6 5 5 6 5 5 5 5 5 6 5 5 5 6 5 5 5 5 6 6 5 6 5 5 5 6 5 5 5 5 5 5 5 5 5 6 5 5 5 5 5 5 5 5 5 5 5 6 5 5 5 5 6 5 5 5 5 6 5 5 5 6 6 5 5 5 6 5 5 5 5 5 5 5 6 5 5 6 6 5 5 5 5 5 5 5 5 5 5 5 5 5 5 5 5 5 5 5 6 5 5 6 5 5 5 5 6 5 5 5 5 5 5 5 5 5 5 5 5 5 6 6 5 5 5 5 6 5 5 5 5 5 5 5 6 6 5 5 5 5 5 5 5 5 5 5 5 5 5 5 5 5 6 5 6 5 5 5 6 5 5 6 5 5 5 6 5 6 5 5 5 5 5 6 5 5 5 5 5 5 5 5 5 5 5 5 5 5 6 5 5 5 5 5 5 5 6 5 5 6 5 5 6 5 6 5 5 6 5 5 5 6 5 5 5 5 5 5 5 6 5 6 6 5 5 5 6 5 5 5 5 6 5 5 6 5 5 5 5 5 5 5 5 6 5 5 5 5 5 5 5 5 5 5 5 5 5 5 5 5 5 5 5 5 5 5 5 5 5 6 5 5 5 5 5 5 5 6 5 5 5 5 6 5 5 5 5 5 5 5 5 5 5 5 5 5 6 5 5 5 5 6 6 5 6 6 5 5 5 5 5 6 5 6 6 5 5 5 5 5 6 5 5 6 5 5 5 5 6 6 5 6 5 5 5 5 5 5 5 5 5 5 5 5 5 5 5 5 5 6 6 5 5 5 5 5 5 6 5 5 5 5 6 5 6 5 6 5 5 5 5 6 5 5 6 6 5 5 6 6 5 6 6 5 6 5 5 6 5 6 5 5 6 5 5 5 5 5 5 5 5 5 6 6 5 6 5 5 5 6 5 5 5 5 6 5 6 5 6 5 6 5 5 5 6 5 5 6 5 6 5 5 5 5 5 5 5 5 5 5 5 5 5 5 5 6 5 6 5 5 5 5 6 5 6 6 5 5 5 5 5 5 5 5 6 6 5 5 5 5 5 5 5 5 5 5 5 5 5 5 5 5 5 5 5 6 5 5 5 5 5 5 5 5 5 5 6 5 5 5 6 5 5 5 5 5 5 5 5 6 6 5 5 5 5 5 5 6 5 5 5 6 5 6 6 6 5 5 6 5 5 5 5 6 5 5 5 5 6 5 6 6 5 5 5 5 6 5 5 5 5 5 5 5 5 5 5 5 6 5 5 5 5 5 5 5 5 5 6 5 6 5 5 5 5 5 6 5 5 5 5 5 5 5 6 5 5 5 5 5 5 6 5 5 5 5 5 6 5 5 5 5 5 5 5 6 5 6 5 5 5 6 5 5 5 5 6 5 5 5 5 5 6 5 5 5 5 6 5 6 5 6 6 5 5 5 5 5 5 5 6 5 5 5 6 5 5 5 5 6 6 5 6 5 5 5 5 5 5 5 6 5 6 6 5 5 5 5 5 5 5 5 5 5 5 5 5 6 6 5 5 5 5 5 5 5 5 5 5 5 5 6 5 5 5 5 5 6 5 5 5 6 5 5 6 6 5 5 6 5 5 5 5 5 5 5 5 6 5 5 5 5 5 5 6 5 5 5 5 6 5 5 5 6 5 5 6 5 5 5 5 5 5 5 6 6 5 5 6 5 6 5 5 6 6 5 6 5 5 5 6 5 5 6 5 5 5 5 6 5 6 5 6 5 5 6 6 5 6 5 5 5 5 6 5 6 6 5 5 5 6 6 6 6 5 5 5 5 5 6 5 5 5 5 5 5 5 5 5 5 5 5 5 6 5 6 6 5 5 5 5 5 5 5 5 5 5 5 5 5 5 5 5 5 5 5 5 5 5 5 5 5 6 5 6 5 5 5 5 5 5 5 5 6 5 5 5 5 5 5 5 5 5 5 5 5 6 5 5 5 5 5 5 6 5 5 5 5 6 5 6 6 5 5 5 5 5 5 5 5 5 5 5 5 5 5 5 5 5 5 6 5 5 5 6 5 5 5 5 5 5 6 5 5 5 5 5 5 5 5 5 5 6 5 5 5 5 5 5 5 5 5 6 5 5 5 5 5 5 6 5 5 6 5 5 5 5 5 6 5 5 5 6 5 5 6 5 5 5 5 5 5 5 5 5 5 5 5 6 5 6 5 5 6 5 5 5 5 6 5 6 5 6 5 5 5 5 5 5 5 5 5 5 6 5 5 5 5 5 5 6 6 5 5 5 5 5 5 5 6 6 5 5 6 6 5 5 5 5 5 6 5 5 6 5 5 6 5 5 5 5 5 5 6 5 6 5 5 5 5 5 5 6 5 5 6 5 5 5 5 5 5 5 5 5 6 6 5 5 5 5 6 5 5 6 5 5 5 5 5 5 5 5 5 6 5 5 5 6 5 5 5 5 5 6 5 5 5 6 6 5 5 5 5 5 5 5 6 5 5 5 5 5 6 5 5 6 6 6 5 5 5 5 6 5 5 6 6 5 5 5 5 5 5 6 6 6 5 5 5 5 5 5 6 5 6 5 5 5 5 5 5 5 5 5 6 5 5 5 5 5 5 5 5 5 5 5 5 5 5 6 5 6 6 5 6 5 5 6 5 5 5 5 5 5 5 5 5 5 5 5 5 5 5 5 6 5 5 5 5 5 5 5 5 5 5 5 5 5 5 6 5 5 5 5 6 5 5 5 6 5 5 5 5 5 5 5 5 5 5 6 5 5 5 5 5 6 5 6 5 5 5 5 6 5 5 5 5 6 5 5 5 5 5 5 5 5 6 5 5 5 5 5 5 5 5 5 5 5 6 5 5 5 5 5 6 5 6 5 5 5 5 5 5 5 5 5 6 5 5 5 5 5 5 5 5 5 5 5 5 5 5 5 5 6 5 5 5 5 6 6 5 5 5 5 6 5 5 5 6 6 5 5 5 5 5 5 5 5 6 5 5 5 5 5 5 5 5 5 5 5 5 6 6 5 5 5 5 5 5 5 5 5 5 5 5 5 5 5 5 5 5 5 5 5 5 5 5 5 5 5 5 5 5 5 5 5 5 6 5 5 5 5 5 5 5 5 5 5 6 5 5 5 5 5 6 5 5 5 5 5 5 5 5 5 5 5 5 5 5 5 5 6 5 5 5 5 5 5 5 5 5 5 5 5 6 5 5 5 5 5 5 5 6 5 5 5 5 5 5 5 5 5 5 5 5 5 5 5 5 5 6 5 5 5 5 5 5 5 5 5 5 5 5 5 5 5 5 5 5 5 5 5 5 6 5 6 5 5 5 5 6 5 5 5 5 5 6 5 5 5 5 5 5 5 5 5 5 5 5 5 5 5 6 5 5 6 5 5 5 5 5 5 5 5 5 5 5 5 5 5 5 5 6 5 5 5 5 5 5 5 5 5 5 5 5 5 5 5 5 5 5 6 6 5 5 5 5 5 5 5 6 6 5 5 5 6 5 6 5 6 5 5 6 6 6 5 6 5 6 6 5 5 5 6 5 5 5 5 5 5 6 5 5 5 5 5 5 5 5 5 5 6 5 5 5 5 5 5 5 5 5 5 5 5 6 5 5 5 5 5 5 5 5 6 6 5 6 5 5 5 6 6 5 5 5 5 5 5 5 5 5 5 6 5 5 5 5 5 6 5 5 6 5 5 5 5 5 6 5 5 5 5 5 5 5 6 5 5 5 6 5 5 5 6 5 5 6 5 6 5 5 5 5 5 5 5 6 5 5 6 5 6 5 5 5 5 5 5 5 5 6 5 5 5 6 5 5 5 5 5 6 5 5 6 5 5 5 5 6 5 6 5 6 5 5 5 5 5 5 5 5 5 5 5 5 5 6 5 5 6 5 5 6 5 5 6 6 5 5 6 5 5 5 5 5 6 5 5 5 5 5 5 5 5 5 5 5 5 5 5 5 5 5 5 5 5 5 5 5 5 5 5 5 5 5 5 5 5 5 6 5 5 5 5 5 5 6 6 5 5 5 5 5 6 5 5 5 5 5 5 5 5 5 5 5 5 5 5 5 5 5 5 5 5 5 5 5 5 5 5 6 5 5 5 6 5 6 5 5 5 5 5 5 5 5 5 5 5 5 5 5 5 5 5 5 5 5 5 5 5 5 5 5 5 5 5 5 5 5 5 6 5 5 5 5 5 5 5 5 5 5 5 5 5 5 5 5 5 5 6 6 6 5 5 5 6 5 6 5 5 5 5 6 6 5 5 5 5 5 5 6 6 5 5 5 5 5 5 5 5 5 5 5 5 5 5 6 5 5 5 5 5 5 5 5 5 5 5 5 5 5 5 5 5 5 5 5 5 5 5 5 5 5 5 5 5 5 5 5 5 5 5 5 5 5 5 5 5 5 5 5 5 5 5 5 5 5 5 5 5 6 5 5 5 5 5 5 5 5 5 6 5 5 5 5 5 6 5 5 5 5 5 6 5 5 5 5 5 5 6 5 5 5 5 5 5 5 5 5 6 5 5 6 6 5 5 6 6 5 6 5 5 5 6 6 5 6 5 5 5 6 5 6 5 6 5 5 6 6 6 5 5 5 5 5 5 5 5 5 6 5 5 5 6 5 5 6 5 6 5 5 6 5 5 5 5 5 5 5 6 5 5 6 5 5 6 5 5 5 5 5 6 5 5 6 5 5 5 6 5 5 6 5 5 5 5 5 6 5 5 5 5 6 5 5 5 5 5 5 5 5 6 6 6 6 5 6 6 5 6 5 5 5 5 5 5 5 6 6 5 5 5 6 5 5 5 5 5 5 5 5 5 5 5 5 5 5 6 6 5 5 5 5 5 5 5 6 5 6 5 6 5 5 5 5 5 5 5 5 5 5 5 5 5 5 5 5 5 5 5 5 5 5 5 5 5 5 5 5 5 5 6 5 5 5 5 5 5 5 5 5 5 5 5 5 5 5 5 5 5 5 5 5 5 5 5 5 5 5 5 5 5 5 5 6 5 5 5 5 5 5 5 5 6 5 5 5 5 5 6 6 5 5 5 6 6 5 5 6 5 5 6 5 5 5 5 5 6 5 5 5 6 5 5 5 5 6 5 6 5 5 5 5 5 6 5 5 5 5 6 5 5 5 5 5 5 6 5 5 5 6 5 5 5 5 5 5 5 5 6 5 5 5 5 5 5 5 5 5 5 5 5 5 5 5 5 5 5 5 5 5 5 5 5 5 5 5 5 5 5 5 5 5 5 5 5 5 5 5 5 5 5 6 5 5 5 6 5 5 5 5 5 5 5 5 5 5 6 5 5 5 5 5 5 5 5 5 5 5 5 5 5 5 5 5 5 5 5 5 5 5 5 5 5 5 5 5 5 6 5 5 5 5 5 6 5 5 5 5 5 5 6 5 5 5 6 5 5 5 5 5 6 5 5 5 5 5 5 6 5 5 6 5 6 5 6 5 5 6 5 6 5 5 5 5 5 5 5 5 6 5 6 5 5 5 6 5 5 5 6 5 5 5 5 5 5 5 5 5 5 5 5 5 5 5 5 5 5 5 5 5 5 5 5 5 5 6 5 5 5 6 5 5 5 5 5 5 5 6 5 5 5 5 5 6 5 5 5 5 5 5 5 5 5 5 5 5 5 5 5 5 5 5 5 5 5 5 5 5 5 5 5 5 6 5 5 5 5 5 6 6 6 5 6 5 5 5 5 5 5 5 6 5 5 6 5 5 5 6 5 6 5 5 5 5 5 5 5 5 5 5 5 5 6 5 5 6 5 5 6 5 5 5 5 5 5 5 6 5 5 5 5 5 5 5 5 5 5 5 5 5 5 5 5 5 5 5 5 5 5 5 5 5 5 5 5 5 6 5 5 5 6 5 5 5 5 5 5 6 5 5 5 5 5 6 5 5 6 5 5 5 5 5 5 5 5 5 5 5 6 5 5 5 5 5 5 5 5 5 5 5 5 5 5 5 5 5 5 5 5 5 5 5 5 5 6 6 5 5 5 5 5 5 5 6 5 5 5 5 5 5 5 5 5 5 6 5 5 5 5 6 5 5 5 5 5 5 5 5 5 5 6 5 5 6 5 5 5 6 5 5 5 5 5 5 5 6 5 5 5 6 5 5 5 5 5 6 5 5 5 5 5 5 6 5 5 5 6 5 5 5 5 5 5 5 6 5 6 5 5 6 5 6 5 6 5 5 6 5 5 5 5 6 5 5 6 5 5 5 5 6 5 5 5 5 5 6 5 5 5 5 5 5 5 5 6 5 5 5 5 5 5 5 5 6 5 6 5 5 5 5 5 5 6 5 5 6 5 6 5 6 5 6 5 5 5 5 5 5 6 5 5 5 5 5 5 6 5 5 6 5 5 5 5 6 5 5 5 5 6 5 5 5 5 5 6 5 6 6 5 5 6 6 5 5 5 5 5 5 5 5 5 5 5 5 5 5 5 5 5 5 5 5 5 5 5 5 5 5 5 5 5 5 5 5 5 5 5 5 5 5 5 5 5 5 5 5 5 5 5 5 5 6 5 5 6 6 5 5 5 5 5 5 5 5 6 5 5 6 5 5 5 5 5 6 5 5 5 5 5 5 5 5 5 5 5 5 5 6 5 5 5 5 5 5 5 5 5 5 5 5 6 5 5 6 5 6 5 5 5 5 5 5 5 5 6 6 5 6 5 5 6 5 6 6 5 5 5 5 5 5 6 5 5 5 5 5 6 5 6 5 5 5 6 5 5 6 5 6 5 5 5 5 6 5 5 5 6 5 5 5 5 5 5 5 5 5 5 6 5 5 5 6 5 5 5 5 5 5 5 6 5 5 5 5 5 5 5 5 5 5 6 6 5 5 5 5 5 6 5 5 5 6 5 5 5 5 6 5 5 5 5 6 5 5 5 5 5 6 5 6 5 6 5 6 5 5 5 6 5 5 5 6 5 5 5 5 5 5 5 5 5 5 5 6 5 5 5 6 5 6 5 6 5 5 5 6 5 5 5 5 5 6 5 5 5 5 5 5 5 5 5 5 5 5 5 5 5 5 6 5 5 5 5 5 5 5 5 5 5 5 5 5 5 5 5 5 5 5 5 5 5 5 5 5 5 5 5 5 5 6 5 5 5 5 6 5 5 5 5 5 5 5 5 5 5 5 5 5 5 5 5 5 5 5 5 5 5 5 5 5 5 5 5 5 5 5 6 6 5 5 5 5 5 5 5 5 5 5 5 5 5 5 5 5 5 6 5 5 5 5 5 5 5 5 5 5 5 5 5 5 5 5 5 6 5 5 5 5 6 5 5 6 5 6 5 5 5 5 6 5 5 6 5 6 5 5 5 6 6 5 5 5 5 6 6 5 5 5 5 5 5 6 5 5 5 5 6 5 5 6 5 5 6 6 5 5 5 5 6 5 5 6 5 5 5 5 5 5 5 5 5 5 5 5 5 5 5 5 6 5 5 5 5 6 5 5 6 5 6 5 5 5 5 5 5 5 5 5 5 5 5 5 5 5 5 5 5 5 5 6 5 6 5 5 6 5 5 5 6 6 5 5 6 5 6 5 6 6 6 5 5 5 6 5 5 5 5 6 5 5 5 5 5 5 6 5 5 5 5 5 5 5 5 6 5 5 5 5 5 5 5 5 5 5 5 5 5 5 5 5 5 5 5 5 5 5 5 5 5 5 5 6 5 5 5 5 5 5 5 5 5 5 5 5 5 5 5 5 5 5 5 6 5 5 5 5 5 5 5 6 5 5 5 5 5 5 5 5 6 5 6 5 5 5 5 5 5 5 5 5 5 5 5 5 5 5 5 5 5 5 5 5 5 5 5 5 6 5 5 5 5 5 5 5 5 5 5 5 5 5 5 5 5 5 6 5 5 5 5 6 6 5 5 5 5 6 5 5 5 5 5 5 5 5 5 5 5 5 5 5 5 5 5 5 5 5 5 5 5 5 5 5 5 5 5 5 5 5 5 5 5 5 5 5 5 5 5 5 5 6 5 5 5 5 5 5 5 5 5 6 5 5 5 5 5 6 5 5 6 5 6 5 5 5 5 5 5 5 6 5 5 5 5 5 5 5 5 5 5 6 5 5 5 5 5 6 5 5 5 5 5 5 5 5 5 5 5 5 5 5 5 5 5 5 5 5 5 5 5 5 5 5 5 5 5 5 5 5 5 5 5 5 5 5 5 5 5 5 5 5 5 5 6 5 5 5 6 5 5 5 6 5 5 5 5 6 5 5 5 5 5 5 5 6 5 5 5 5 5 6 6 5 5 5 6 5 5 5 5 6 5 5 5 5 6 6 5 5 5 6 5 5 6 5 6 5 5 5 5 6 5 5 6 5 5 6 6 5 5 6 5 5 6 5 6 5 6 6 5 5 6 5 5 5 5 5 6 5 6 5 5 5 5 5 5 5 5 5 5 5 5 5 5 5 5 5 5 5 5 5 5 5 5 5 5 5 6 6 5 5 6 5 5 5 6 5 5 5 6 6 5 5 5 6 5 6 5 5 5 5 6 5 5 5 6 5 5 5 5 5 6 6 5 5 5 5 5 5 5 5 5 5 5 6 5 5 6 6 5 5 5 5 5 5 5 5 5 5 5 5 5 5 6 5 6 5 5 5 5 5 5 5 6 5 5 5 5 5 5 5 5 5 5 5 6 5 5 6 5 5 6 5 5 5 5 5 5 5 5 5 6 6 5 5 5 5 5 5 5 5 5 5 5 6 5 5 5 5 5 5 5 5 5 5 5 5 5 5 5 6 5 5 5 5 5 5 5 5 5 5 6 5 5 5 5 5 5 5 6 5 5 5 5 5 5 6 5 5 5 5 5 5 5 5 5 5 5 6 5 5 5 5 5 6 5 5 5 6 5 5 5 5 5 5 5 5 5 5 5 5 5 5 5 6 5 5 6 5 6 5 5 5 5 5 5 5 6 6 5 5 5 6 5 5 5 5 5 5 5 5 5 5 5 5 6 5 6 5 6 5 5 5 5 5 5 6 5 5 5 6 5 5 5 5 5 5 6 5 5 5 5 5 5 5 5 5 5 5 5 5 5 5 5 5 5 5 5 5 5 5 5 5 5 5 5 6 5 5 5 5 5 5 5 5 6 5 6 5 6 5 5 5 5 5 5 5 5 5 5 5 5 5 5 5 5 5 5 5 5 5 5 5 5 5 5 5 5 5 5 5 6 6 5 5 6 6 5 6 5 5 5 5 5 5 6 5 6 5 5 5 5 5 5 5 5 5 5 5 5 5 5 5 5 5 5 5 5 5 5 5 5 5 5 5 5 5 5 5 5 5 5 5 5 5 5 5 5 5 5 5 5 5 5 6 5 5 5 5 5 5 5 5 5 5 6 5 5 5 5 5 5 5 5 5 5 5 5 5 5 5 5 5 5 5 5 5 5 5 5 5 5 5 5 5 5 5 5 5 5 5 5 5 5 5 5 5 5 5 5 5 5 5 5 5 5 5 5 5 5 5 5 5 5 5 5 5 5 5 5 5 5 5 5 5 5 5 5 5 5 5 5 5 6 5 5 5 5 5 5 6 5 5 5 5 6 5 5 6 5 5 5 5 5 5 5 5 5 5 5 5 5 5 5 5 5 5 5 5 5 5 5 5 5 5 5 5 5 5 5 5 5 5 5 5 5 5 5 6 5 5 5 5 5 5 5 5 5 6 5 5 5 5 5 5 5 5 5 5 5 5 5 5 5 5 5 5 6 5 5 5 5 5 5 5 5 6 5 5 5 5 5 5 5 5 5 5 5 5 5 5 5 5 5 5 5 5 5 5 5 5 5 5 5 5 5 5 6 6 6 5 5 5 5 5 5 6 5 5 5 5 5 5 5 5 5 5 5 5 5 5 5 5 5 5 5 5 5 5 6 5 5 5 6 6 5 5 6 5 5 5 5 5 5 5 5 5 6 6 5 5 6 5 6 5 6 5 5 6 5 5 5 5 5 5 5 5 5 5 5 5 5 5 5 5 5 5 5 6 5 5 5 5 5 5 5 5 5 5 5 5 5 5 5 6 5 6 5 5 6 6 5 5 5 5 5 5 5 5 5 5 6 5 6 5 5 6 6 5 5 5 5 6 5 6 5 5 5 5 5 6 5 5 5 5 5 5 5 5 5 5 5 5 5 5 6 5 5 5 5 5 5 5 5 5 5 5 6 5 5 5 6 5 6 5 5 5 5 6 5 5 6 6 5 6 5 5 6 5 5 5 6 5 5 5 6 5 6 5 6 5 5 5 5 5 5 5 5 6 5 5 6 5 5 5 5 5 6 5 5 5 5 5 5 5 5 6 5 5 5 5 5 5 5 5 6 5 5 5 5 6 5 5 6 5 5 5 5 6 5 5 5 5 5 5 5 5 6 5 5 5 5 6 5 5 5 6 6 5 6 5 5 5 6 5 5 5 6 5 5 6 5 5 5 6 5 5 5 5 5 5 5 5 6 6 5 6 5 5 5 6 5 5 5 6 5 6 5 5 5 6 6 5 5 6 5 6 5 5 5 5 5 5 5 5 5 5 5 5 5 5 5 5 5 6 5 6 5 5 5 5 5 5 5 6 5 5 5 5 5 5 6 5 5 5 5 5 6 5 5 5 5 5 5 5 5 5 5 5 5 5 5 5 5 5 5 6 5 5 5 6 5 5 5 5 5 5 5 6 5 5 5 5 6 6 5 5 5 5 5 6 5 5 5 5 5 5 5 5 5 5 5 5 5 5 6 5 5 6 5 5 5 5 5 5 6 6 5 5 5 5 5 5 5 5 5 5 5 5 6 5 5 5 5 5 5 5 5 5 5 5 6 5 5 6 5 5 5 5 5 5 5 5 6 5 5 5 6 6 5 5 5 5 5 5 5 5 5 5 5 5 5 5 5 5 5 5 5 5 5 5 5 5 5 5 5 5 5 5 5 5 5 5 5 5 5 5 5 5 5 5 5 5 5 5 5 5 5 5 5 5 6 5 5 5 6 5 5 6 5 5 5 5 5 5 5 6 5 5 5 5 5 5 5 6 5 5 5 5 5 5 5 6 5 5 5 5 5 5 5 5 5 5 5 5 5 5 5 5 5 6 5 5 5 5 5 5 5 5 5 6 5 5 5 5 5 5 5 5 5 5 5 5 5 5 5 5 5 5 5 5 5 5 5 5 5 5 5 5 5 5 5 5 5 5 5 5 5 5 5 5 5 5 5 5 5 5 5 5 6 5 5 5 5 5 5 5 5 5 5 5 6 5 6 6 5 5 6 5 5 5 6 6 6 5 6 5 6 5 6 5 5 6 5 5 5 6 6 5 5 5 5 5 5 5 5 5 5 5 5 5 5 5 5 5 5 5 5 5 5 5 5 5 5 5 5 5 6 5 5 5 6 6 5 5 5 5 6 5 6 5 5 6 5 5 5 6 5 6 5 5 5 5 5 5 5 5 5 5 5 5 5 5 5 5 6 5 5 5 5 6 6 5 5 6 5 5 5 5 5 5 5 5 5 6 5 5 5 5 5 5 5 5 5 5 5 6 5 5 5 5 5 5 6 6 5 5 5 5 6 5 5 5 5 5 5 5 5 5 5 5 5 5 5 5 5 5 6 5 5 6 5 5 5 5 5 5 5 5 5 5 5 5 6 5 5 5 5 5 5 5 5 6 5 5 5 5 6 5 5 5 6 5 5 5 5 5 5 5 5 5 5 5 5 5 6 5 5 5 5 5 5 5 5 5 5 5 5 5 5 5 5 5 5 5 5 5 5 5 5 5 5 5 5 5 5 6 6 5 5 5 5 5 5 5 5 5 5 5 5 6 5 5 5 5 5 5 6 5 5 5 6 5 5 6 5 6 5 5 6 6 5 5 5 5 5 5 5 5 5 5 5 5 5 5 5 5 5 5 6 5 5 5 5 5 5 5 5 5 5 5 5 5 6 5 5 5 5 5 6 5 5 5 5 5 5 5 5 5 5 5 5 5 5 5 5 5 5 5 5 5 5 5 5 5 5 5 5 5 5 6 5 6 5 5 5 5 6 5 5 5 5 5 6 5 5 5 5 5 5 5 5 5 5 5 5 5 5 5 5 5 6 5 5 5 5 6 5 5 5 5 5 5 5 5 5 5 5 5 5 5 5 5 5 5 5 6 5 5 5 5 5 5 5 5 5 5 5 5 5 5 5 5 5 5 5 6 5 5 5 5 5 5 5 5 5 6 5 5 5 5 5 5 5 5 5 5 5 5 5 5 5 5 5 5 5 5 5 5 5 5 5 5 5 5 5 5 5 5 5 5 5 5 5 5 5 5 5 5 5 5 5 5 5 5 5 5 5 5 5 5 5 5 5 5 6 5 5 5 5 5 6 5 5 5 5 5 5 5 5 5 5 5 5 5 5 5 5 5 6 5 6 6 5 5 5 5 6 6 5 5 5 5 5 5 5 5 5 5 5 5 5 5 5 5 5 6 5 5 5 5 5 6 5 5 5 5 6 5 5 5 6 5 5 6 5 5 5 5 5 5 5 5 5 5 5 6 5 5 5 5 5 5 5 5 5 5 5 5 5 5 5 5 5 5 5 5 5 5 5 5 5 5 5 5 5 5 5 5 5 5 5 5 5 5 5 5 5 5 5 5 5 5 6 5 5 5 5 5 5 6 5 5 5 5 5 5 5 5 5 6 5 5 6 5 5 5 5 5 6 5 5 6 5 5 5 5 5 5 5 6 5 5 5 5 5 5 5 5 5 5 5 6 5 5 5 5 5 5 5 5 5 5 5 6 5 5 6 5 5 5 5 5 6 5 5 5 5 5 5 5 5 6 5 5 5 5 5 5 5 5 5 5 5 5 5 5 5 5 5 5 5 5 5 5 5 5 5 5 5 5 5 5 5 5 5 5 5 5 5 6 5 6 5 5 5 5 5 5 5 5 5 5 5 5 5 5 5 6 6 5 5 5 5 5 5 5 6 5 6 5 5 6 5 6 5 5 5 5 5 5 5 5 5 5 5 5 5 5 5 5 5 6 5 5 5 6 5 5 5 5 5 5 5 6 5 5 5 5 5 5 5 5 5 5 6 5 5 6 5 5 6 5 5 5 5 5 5 5 5 5 5 5 6 5 5 5 5 5 6 5 5 5 5 5 5 5 5 5 6 5 6 5 5 5 5 5 5 5 5 5 5 6 5 5 5 5 5 6 5 5 5 6 5 5 5 6 6 5 6 5 5 6 5 6 5 5 5 6 5 5 6 6 5 5 5 6 5 5 5 6 5 5 5 5 5 5 5 5 5 5 5 5 5 5 5 5 5 5 5 5 5 6 5 5 5 5 6 6 6 5 5 5 5 6 6 6 5 6 5 5 6 5 5 6 5 5 5 6 5 5 5 5 5 5 5 5 5 5 5 5 5 5 5 5 6 5 5 6 5 5 5 5 5 5 6 5 5 5 5 5 6 5 6 5 5 5 5 6 5 5 5 6 5 5 5 5 5 5 5 5 5 5 5 5 6 5 5 5 5 6 5 5 5 5 5 5 6 5 5 5 5 5 5 5 5 5 6 5 5 6 5 5 5 5 5 5 5 5 5 5 5 5 5 5 5 5 5 6 5 5 5 5 6 5 5 5 5 5 6 5 5 5 5 6 5 5 6 5 6 5 5 6 5 5 5 5 5 6 5 6 5 5 5 5 5 5 5 5 5 5 5 5 5 6 5 5 5 6 5 6 5 5 6 5 5 6 5 5 5 6 5 5 5 6 5 5 5 5 5 5 6 6 5 5 5 5 6 5 5 5 6 5 5 5 5 6 6 5 5 5 5 5 5 5 5 6 5 5 6 5 5 5 5 6 5 5 5 5 5 5 6 5 5 6 5 5 5 5 6 5 5 5 5 5 5 6 5 5 5 5 5 6 5 5 5 5 5 5 6 5 5 6 5 5 5 5 5 5 5 5 6 5 5 5 6 5 5 5 5 5 5 5 5 5 6 5 5 5 5 5 5 5 5 5 5 5 5 5 5 5 5 5 5 5 5 6 5 6 5 6 5 5 5 5 5 5 5 5 6 5 5 5 5 5 5 5 5 5 5 5 5 6 5 5 5 5 5 5 5 6 5 5 5 5 5 5 5 5 6 5 5 5 5 5 6 5 5 5 5 6 5 5 5 5 5 5 5 5 5 5 5 5 5 5 5 5 5 5 5 5 5 5 5 5 5 5 5 5 5 5 5 5 5 5 6 5 5 5 5 5 6 5 5 5 5 5 5 5 5 6 5 5 5 5 5 5 5 5 5 5 5 5 5 5 5 5 6 5 6 5 5 5 5 5 5 5 5 5 5 5 5 5 5 5 5 5 6 5 6 5 5 6 5 5 6 5 5 5 6 5 5 5 5 5 5 5 5 5 5 5 5 5 6 5 5 6 5 5 5 6 6 5 5 5 6 6 5 6 5 6 5 5 5 5 5 5 5 6 5 5 5 5 5 5 5 5 5 6 5 5 6 5 5 5 5 5 5 5 5 6 5 5 5 5 6 5 5 5 6 5 6 6 5 5 5 5 5 5 5 5 5 5 5 5 5 5 5 5 5 5 5 5 5 5 5 5 6 5 5 5 5 6 6 5 5 5 5 5 5 6 5 5 6 5 6 5 5 5 5 5 5 5 5 5 5 6 5 5 5 5 5 5 5 5 5 5 6 6 5 5 6 5 5 5 5 5 5 5 5 5 5 5 6 5 5 5 5 5 5 5 5 5 5 5 5 5 5 5 5 5 5 5 5 5 5 5 5 5 5 5 5 5 5 6 5 6 5 5 5 5 5 5 5 5 5 5 5 5 5 5 6 5 5 5 5 5 5 5 5 5 5 5 5 5 5 5 5 5 5 5 5 5 5 5 5 5 5 6 5 5 5 5 5 5 5 5 5 5 5 5 5 5 6 5 5 5 5 5 5 5 5 5 5 5 5 5 5 5 6 5 5 6 5 5 5 6 5 5 5 5 5 6 5 5 5 5 5 5 5 5 5 5 5 5 5 5 5 5 6 5 5 5 5 5 5 5 5 5 5 5 5 5 5 5 5 5 6 5 5 5 5 5 5 5 5 5 5 5 5 5 5 5 5 5 5 5 5 5 5 5 5 5 5 5 5 5 6 5 5 5 5 6 5 5 5 5 5 5 5 6 5 5 5 5 5 5 5 5 5 6 5 5 5 5 5 5 5 5 5 5 5 5 6 5 5 5 5 5 5 5 6 5 5 5 6 5 5 5 5 5 5 5 5 5 5 5 5 5 5 5 5 5 5 5 5 5 5 5 6 5 5 5 5 5 5 5 5 5 5 5 5 5 6 5 6 5 5 5 5 5 5 5 5 5 5 5 5 5 5 5 6 6 5 5 5 5 5 5 6 6 5 5 5 5 5 5 5 5 5 5 5 5 5 5 5 5 5 5 5 5 6 5 5 5 6 5 5 5 5 5 6 5 6 5 5 5 5 5 5 5 5 5 5 5 6 5 5 5 5 6 5 5 5 5 5 5 5 5 5 5 5 5 5 5 6 5 5 6 5 5 5 5 6 5 5 5 6 5 5 5 5 5 5 5 5 5 5 6 5 5 5 5 5 5 5 5 5 5 5 6 5 5 5 5 5 5 5 5 5 6 5 5 5 5 6 6 5 6 5 5 5 6 5 5 5 5 5 5 6 5 5 5 5 5 5 5 5 5 5 5 5 6 5 5 5 5 5 5 6 5 5 5 5 5 5 5 5 5 6 5 5 5 5 6 6 5 5 5 5 5 5 5 5 5 5 5 5 5 5 5 5 5 5 5 5 5 5 5 5 5 5 5 5 5 5 5 5 5 5 5 5 5 5 5 5 5 5 5 5 5 5 5 5 5 5 5 5 5 5 5 5 5 6 6 5 5 5 5 5 5 5 5 6 5 6 5 5 5 5 5 6 5 5 5 5 5 6 5 5 5 5 5 5 5 5 6 6 5 5 5 5 5 5 6 5 6 5 5 5 5 5 5 5 5 5 5 5 5 5 5 5 5 5 5 5 5 5 5 5 5 5 5 5 5 5 5 5 5 5 5 5 5 5 5 5 5 5 5 5 5 6 5 5 5 5 5 5 5 5 5 5 5 5 5 6 5 5 5 6 5 5 6 5 5 5 5 5 5 5 5 5 5 5 5 5 5 5 5 5 5 5 5 5 6 5 5 5 5 6 5 5 6 5 5 5 5 6 5 5 5 5 5 6 5 5 5 5 5 5 5 6 5 5 5 5 5 5 5 5 5 6 6 5 5 5 6 5 5 6 5 6 5 5 5 5 5 5 5 5 5 5 5 5 5 5 5 5 5 5 5 5 5 6 5 5 5 5 5 5 5 5 6 5 6 6 5 6 6 5 5 6 6 5 5 5 6 6 5 5 5 5 5 6 5 5 5 6 6 6 5 5 6 5 5 5 5 6 5 6 5 5 5 5 5 5 5 5 6 5 5 5 6 6 5 5 6 6 5 5 5 6 5 5 5 5 5 6 5 5 5 6 5 5 5 5 5 5 5 5 5 5 5 5 5 6 5 6 5 6 5 6 5 6 5 5 5 5 5 6 6 5 5 5 5 5 5 5 6 6 5 5 6 5 6 6 5 6 5 5 6 5 5 5 5 5 6 5 5 5 6 5 6 5 5 5 5 5 5 5 5 5 5 5 5 5 5 6 6 5 5 5 5 5 5 5 5 5 5 5 5 5 5 5 5 5 5 5 6 5 5 6 5 5 5 5 6 5 5 5 5 6 5 5 6 5 6 5 5 5 5 5 5 5 5 5 5 5 5 5 5 5 5 5 5 6 5 5 5 5 6 5 6 5 5 5 5 5 5 5 5 5 5 5 5 5 5 5 5 5 5 5 5 5 5 5 5 5 5 5 5 5 5 5 5 5 5 5 6 6 5 6 5 5 5 6 5 5 5 5 6 5 5 5 5 6 5 5 5 5 5 5 5 5 5 5 5 6 5 6 5 5 6 5 5 6 5 5 5 5 5 5 5 5 5 5 5 5 5 5 5 5 6 5 5 5 5 5 5 5 5 6 5 5 5 5 5 5 5 5 5 6 5 5 5 5 5 5 5 5 5 5 6 5 5 5 5 5 5 5 5 5 5 5 5 6 5 5 6 5 5 5 5 5 6 5 6 5 5 5 5 5 5 5 5 5 5 6 5 5 6 5 5 5 6 5 5 5 6 5 5 5 5 5 5 6 5 5 5 5 5 5 5 5 6 5 5 5 5 5 5 5 5 5 6 6 5 5 5 5 5 5 5 5 5 5 5 5 5 5 5 5 5 5 5 5 5 5 5 5 5 5 5 5 5 5 5 5 5 6 5 5 5 5 5 5 5 5 5 5 5 5 5 5 5 5 6 5 5 5 5 5 5 5 5 5 5 5 5 5 5 5 5 5 5 5 5 5 5 5 5 5 5 5 5 5 5 5 6 5 5 5 5 5 6 6 5 5 5 5 6 5 5 5 6 5 6 5 5 5 5 5 5 5 5 5 5 5 5 5 6 5 5 5 5 5 5 5 5 5 5 5 6 5 5 5 6 5 5 5 6 5 5 5 5 5 5 5 5 5 5 5 5 5 5 5 6 5 5 5 5 5 5 6 5 5 5 5 5 5 5 5 5 5 5 5 5 5 5 5 5 5 5 6 5 5 5 5 5 5 5 5 5 5 5 6 5 5 6 5 6 5 6 6 5 5 5 5 5 6 5 5 5 5 5 5 5 5 5 5 5 5 5 5 5 5 5 5 5 5 6 5 5 5 5 5 5 5 5 5 5 5 5 5 5 5 6 5 5 5 5 5 5 5 5 5 5 5 5 5 5 5 5 5 6 5 5 5 5 5 6 5 5 5 5 5 5 5 5 6 5 5 5 5 6 5 5 6 5 5 5 5 6 5 5 5 5 5 5 6 5 6 5 5 5 5 5 5 5 5 5 5 5 5 5 5 5 5 5 5 5 5 5 5 5 5 5 5 5 5 5 5 5 5 5 5 5 5 5 5 5 5 5 5 6 5 5 5 5 6 5 5 6 5 5 5 5 5 5 5 5 5 5 5 5 5 5 5 6 5 5 5 5 5 5 5 5 5 5 5 5 5 5 5 5 5 5 5 5 5 5 5 5 5 5 5 6 5 6 5 5 5 5 5 5 5 5 5 5 5 5 6 5 5 5 5 5 6 5 5 5 6 5 5 5 5 5 5 5 6 5 5 5 5 6 5 5 5 5 5 5 5 5 5 6 5 5 5 5 5 5 5 5 5 5 5 5 5 5 5 5 5 5 5 5 5 5 6 5 6 5 5 5 5 5 5 5 5 5 6 5 5 5 5 5 5 5 5 5 5 5 5 5 5 5 5 5 5 5 5 5 5 5 5 5 5 5 5 5 5 5 5 5 5 5 5 5 5 5 5 5 5 5 5 5 5 6 5 5 5 5 5 6 5 5 5 5 5 5 5 5 5 5 5 5 5 5 5 5 5 5 5 5 5 5 5 6 5 5 5 6 5 5 5 5 5 5 6 5 5 5 5 6 5 5 5 5 5 5 5 5 5 5 5 5 6 5 5 5 5 5 5 5 5 5 5 5 5 5 6 5 5 6 5 5 5 5 5 5 6 5 5 5 5 5 5 6 6 5 5 6 5 5 5 5 5 5 6 5 5 5 5 5 5 5 5 5 5 5 5 5 5 5 5 5 5 5 5 5 5 5 6 5 5 5 6 5 5 5 5 5 5 5 6 5 5 5 5 5 5 5 5 5 5 6 5 5 5 5 5 5 5 5 5 5 5 5 5 5 5 5 6 5 6 5 5 5 6 5 6 5 5 5 5 6 5 5 6 6 5 6 5 5 5 5 6 6 5 5 5 6 5 5 5 5 5 5 5 5 5 5 5 5 5 6 5 5 5 5 6 5 6 5 6 5 6 5 5 5 5 5 6 5 5 5 5 5 5 5 5 5 5 6 5 6 5 5 5 5 5 5 5 5 5 5 5 5 5 5 5 5 5 5 5 5 5 5 5 5 5 5 6 6 5 5 5 5 6 5 6 5 5 5 5 5 5 6 5 5 5 5 5 5 5 5 5 5 5 6 5 5 5 5 5 5 6 5 6 5 5 5 5 5 6 5 5 5 6 5 5 5 5 6 5 5 5 5 6 5 5 5 5 5 5 5 5 5 5 5 5 5 5 5 5 5 5 5 5 5 5 6 5 5 5 5 5 5 5 5 5 5 5 5 5 5 6 5 5 5 6 5 5 5 5 5 5 5 5 6 5 5 6 5 5 5 5 5 5 5 5 5 5 5 5 5 5 6 6 5 6 6 5 5 5 5 5 6 5 6 6 6 5 5 5 5 5 6 5 5 5 5 6 5 5 5 6 5 5 6 6 5 6 5 5 5 5 6 5 5 6 5 5 5 5 5 5 5 5 5 5 5 5 5 5 5 5 5 5 5 5 6 5 6 6 5 5 5 5 6 5 5 5 5 5 5 6 5 5 6 5 5 5 5 5 5 5 6 5 5 5 5 5 5 6 5 5 6 5 5 5 5 6 5 5 5 5 6 5 5 5 5 5 5 5 5 5 5 6 5 5 6 5 5 5 5 5 5 5 6 5 5 5 5 5 5 5 6 5 5 5 5 5 5 6 5 6 5 6 5 5 5 5 5 5 6 6 5 6 6 5 5 6 5 5 6 5 6 5 5 5 5 6 5 5 6 5 5 5 5 5 5 5 6 5 5 5 6 5 5 5 5 5 5 5 5 5 5 5 5 5 5 6 5 5 6 5 5 5 6 5 5 5 5 5 5 6 5 5 5 5 6 5 5 5 6 5 5 5 5 5 5 5 5 5 6 5 5 5 6 5 5 5 5 5 5 6 5 5 6 6 5 5 6 5 5 5 5 5 5 5 6 5 5 5 6 5 5 5 6 6 5 6 5 5 5 5 6 5 5 6 5 5 5 6 5 5 5 5 5 5 5 5 5 5 5 5 5 6 5 5 6 5 5 6 5 5 5 5 5 6 5 5 5 6 5 6 5 5 6 5 5 5 6 6 5 5 5 5 5 5 5 5 5 5 5 6 5 5 5 5 5 6 6 5 5 5 5 5 5 5 6 5 5 6 5 5 5 5 5 5 5 5 6 5 5 5 5 5 5 5 5 5 5 5 6 5 5 5 5 5 5 5 6 5 5 5 5 5 5 5 5 5 5 5 5 5 5 5 5 5 5 5 5 5 5 5 5 5 5 5 6 5 6 5 5 5 5 6 5 5 5 5 5 5 6 5 5 6 5 5 6 5 5 5 5 5 5 5 5 5 5 5 5 5 6 5 5 5 5 6 5 5 5 5 5 5 6 6 5 5 5 5 5 5 5 5 5 5 5 5 6 5 5 5 6 6 5 5 5 5 5 6 5 5 5 5 5 5 5 5 6 5 5 5 6 5 5 5 5 5 6 5 5 5 5 5 5 5 5 5 5 5 6 5 5 5 5 5 5 5 5 5 6 5 5 6 5 6 5 5 6 5 6 5 5 5 5 6 5 5 5 6 6 5 5 5 5 5 5 5 5 5 5 5 5 5 5 5 5 5 5 5 5 5 5 5 6 5 5 6 5 5 5 5 5 5 5 5 5 5 5 5 5 5 5 5 5 5 6 5 5 5 5 5 5 5 5 5 5 5 5 5 5 5 5 5 5 5 6 5 5 5 5 5 5 5 5 5 5 5 5 5 5 5 5 6 5 5 5 6 5 5 5 5 5 5 6 5 5 6 5 5 6 5 5 5 5 5 5 5 6 5 5 5 5 6 5 5 5 5 5 5 5 5 5 5 5 5 5 5 6 5 5 5 5 5 5 5 5 5 5 5 5 5 5 5 5 5 5 5 5 5 5 5 5 6 5 5 5 5 6 5 5 5 5 5 5 5 5 5 5 5 5 5 6 5 5 6 5 5 5 6 5 5 6 5 5 5 6 5 5 5 5 5 5 5 5 5 5 5 5 5 5 5 5 6 5 5 5 5 5 5 6 6 5 5 5 6 5 5 6 5 5 5 5 5 6 5 5 5 5 5 5 5 6 5 5 5 6 5 5 5 5 5 6 6 5 5 5 5 5 5 5 5 5 5 5 5 6 5 5 5 5 5 5 5 5 6 5 5 5 5 5 5 5 5 5 6 5 5 5 5 6 5 5 5 5 5 5 5 5 5 6 5 5 6 5 5 6 5 5 5 5 6 5 5 5 5 5 6 5 5 5 5 5 5 5 5 5 5 5 5 5 5 5 5 5 5 5 5 5 5 5 5 5 5 5 5 5 5 5 5 6 6 5 5 5 5 6 5 5 5 5 6 5 5 5 5 5 5 5 6 5 5 5 5 5 6 5 5 6 5 5 5 5 5 5 6 6 5 5 5 5 5 5 5 5 5 5 5 5 6 5 5 5 6 6 6 5 5 5 5 5 5 5 5 6 5 5 6 5 5 5 5 5 5 5 6 5 6 6 6 6 5 5 5 5 5 5 5 5 6 5 5 5 6 5 5 6 5 5 5 6 5 5 5 5 5 5 5 5 5 5 5 6 5 5 5 5 5 5 5 5 5 5 5 5 5 5 5 5 5 5 6 5 5 5 5 5 5 5 5 5 6 5 5 6 5 5 5 5 5 5 5 6 5 5 5 5 5 5 5 5 5 5 5 5 6 5 5 5 5 5 6 6 5 5 5 6 6 5 5 5 5 5 5 5 5 5 5 5 6 5 5 5 6 5 5 6 5 5 5 5 5 5 5 5 6 5 6 5 5 5 6 5 5 5 5 5 5 5 6 6 6 5 5 5 5 5 5 5 5 5 5 5 5 5 5 5 5 5 5 5 5 5 5 6 5 5 5 6 5 5 5 5 5 6 5 6 5 5 5 5 5 5 5 5 5 5 5 5 5 5 5 5 5 5 5 5 5 5 5 5 5 6 6 5 5 5 5 5 5 5 6 5 6 5 5 5 5 5 5 5 6 5 5 6 5 5 5 5 5 5 6 5 6 5 5 5 6 5 5 5 5 5 5 5 5 5 5 5 5 5 5 6 6 5 5 5 5 5 6 5 5 5 6 5 5 6 5 5 5 5 6 6 5 5 5 6 5 5 6 6 5 5 6 6 5 5 5 5 6 5 5 5 5 6 5 6 5 5 5 5 6 5 5 5 5 5 5 5 5 6 6 5 5 5 5 5 5 5 5 5 5 5 6 5 5 5 6 5 5 5 5 6 5 6 5 5 6 5 6 5 5 5 5 6 5 5 6 5 5 5 5 5 5 5 5 5 5 5 5 5 5 6 5 5 5 5 5 5 5 5 5 5 5 5 5 5 5 6 5 5 5 5 5 5 5 5 5 5 5 5 5 5 5 5 5 5 5 5 6 5 5 5 5 5 5 5 6 5 5 5 5 5 5 5 6 5 5 6 5 5 5 5 5 5 6 5 5 5 5 5 5 5 5 5 5 5 5 5 5 5 5 5 5 5 5 5 5 5 5 5 5 5 5 5 6 5 5 5 5 5 5 5 5 5 5 5 5 5 6 5 5 6 5 5 5 5 5 6 6 5 5 5 5 5 5 5 5 5 5 5 6 5 5 5 6 5 5 5 5 5 5 5 5 5 5 5 5 5 5 5 5 5 5 5 5 5 5 5 5 5 5 5 5 6 5 5 5 5 5 5 6 5 5 6 5 5 5 5 5 5 5 5 5 5 5 5 5 5 5 5 5 5 5 5 5 5 5 5 5 5 5 5 5 5 5 5 5 5 5 5 5 5 
</DataArray>
<DataArray type="Float64" Name="stress" NumberOfComponents="9" format="ascii">
713.71517327974288 -4344.8266852264496 0 -4344.8266852264496 2017.9982324879675 0 0 0 0 3170.0950662926771 -3186.9762412605269 0 -3186.9762412605269 0.88127803686074913 0 0 0 0 -3.7852976147260051 -4249.025176218187 0 -4249.025176218187 3485.4837640531769 0 0 0 0 -1035.2352486608434 -1161.9878828177607 0 -1161.9878828177607 2347.5266870089108 0 0 0 0 -1251.0903341600788 -2990.4705847776931 0 -2990.4705847776931 5947.6702111610066 0 0 0 0 14.169798814175692 -13.162195662227688 0 -13.162195662227688 9.0338415990102305 0 0 0 0 4528.0826579830609 -2702.3119465792406 0 -2702.3119465792406 252.26135900148074 0 0 0 0 517.99211568612373 -571.17635932964913 0 -571.17635932964913 686.23181797447614 0 0 0 0 1831.6688572260318 -982.93023184119374 0 -982.93023184119374 565.42190559598384 0 0 0 0 2208.2254512525978 -2864.0434336601757 0 -2864.0434336601757 1882.6073449870455 0 0 0 0 2917.2671500987199 -228.39991756895324 0 -228.39991756895324 -230.24051382602192 0 0 0 0 4367.1539704902971 -2206.6286772841413 0 -2206.6286772841413 165.49405103104073 0 0 0 0 1898.5887499496166 -3102.6880986834731 0 -3102.6880986834731 3271.9530968188451 0 0 0 0 2087.0369576188386 -3017.5166740006098 0 -3017.5166740006098 3268.9873282373592 0 0 0 0 3100.6365112396306 -1092.8414564782142 0 -1092.8414564782142 -194.66484394471627 0 0 0 0 7658.1578395544639 -3173.4123433842251 0 -3173.4123433842251 670.73940074224083 0 0 0 0 4537.5275128162029 -1457.8172021356586 0 -1457.8172021356586 1985.9450349629624 0 0 0 0 2154.8758859392838 -3668.9982895413268 0 -3668.9982895413268 4519.2355436027865 0 0 0 0 971.23226625729876 -795.26209556404865 0 -795.26209556404865 2.7697595402860316 0 0 0 0 1413.8949404809537 -1461.1492284011401 0 -1461.1492284011401 595.7438253620785 0 0 0 0 3314.1038666217646 -4573.3485764328798 0 -4573.3485764328798 3738.9364375616133 0 0 0 0 2377.0786085913278 -2391.0750496124092 0 -2391.0750496124092 1320.3211839943251 0 0 0 0 -36.192028048739303 -783.42503282072721 0 -783.42503282072721 1318.9016182138439 0 0 0 0 -7.5878022448630986 -2.25445248394972 0 -2.25445248394972 1.9760080813355216 0 0 0 0 8.021977362826874 -151.5421437540972 0 -151.5421437540972 649.82207841366471 0 0 0 0 -3.3302637866144096 -5.8141888137246269 0 -5.8141888137246269 -1.5523678265823264 0 0 0 0 -83.172877449658699 38.170446269476088 0 38.170446269476088 137.61688696173951 0 0 0 0 3.3513603996798338 -45.170746780633635 0 -45.170746780633635 2.8950104174145963 0 0 0 0 -919.51017352155759 601.46619246948103 0 601.46619246948103 2318.8112105815817 0 0 0 0 -963.80390230778721 393.59843929394265 0 393.59843929394265 1988.9668708586469 0 0 0 0 -34.985414287877404 -31.214552817965057 0 -31.214552817965057 -5.8753452972953824 0 0 0 0 -10.821105410903613 -1.9893113194561352 0 -1.9893113194561352 0.9164520680509316 0 0 0 0 -17.735507889432483 -760.17083903029561 0 -760.17083903029561 -1691.8943040403537 0 0 0 0 -1814.1233305666829 -156.61104935099138 0 -156.61104935099138 1822.5003760549007 0 0 0 0 -42.979680869641783 -50.170658305655564 0 -50.170658305655564 1.7900929220074886 0 0 0 0 29.445997222006554 -46.257168582713348 0 -46.257168582713348 14.065191718720598 0 0 0 0 32.624077892818605 -39.753961595321016 0 -39.753961595321016 18.060033318353817 0 0 0 0 6.9849489671618699 -21.401175526579038 0 -21.401175526579038 -10.303671968845379 0 0 0 0 24.525573928250935 -16.424257183167526 0 -16.424257183167526 -16.665089097484497 0 0 0 0 -229.67901580056059 191.49551424139645 0 191.49551424139645 -5.3602395876660012 0 0 0 0 492.81045896971773 -509.9950408091463 0 -509.9950408091463 308.59227975399699 0 0 0 0 -10.967278903262923 283.87842207265203 0 283.87842207265203 -143.28975892301969 0 0 0 0 239.80288056581048 -246.1744545323163 0 -246.1744545323163 -26.422666059050243 0 0 0 0 25.321516144380439 -47.964601756204502 0 -47.964601756204502 12.670896317955339 0 0 0 0 92.288169228704646 -123.4891975079081 0 -123.4891975079081 89.267369173234329 0 0 0 0 32.216412281919474 -60.175981057751414 0 -60.175981057751414 20.035200774495024 0 0 0 0 -13.162159224775507 -18.39954656104851 0 -18.39954656104851 -1.5706083298022122 0 0 0 0 13.033202665902024 -18.711743249485153 0 -18.711743249485153 -33.893102716102533 0 0 0 0 19.375464009004645 -55.049414893655921 0 -55.049414893655921 22.269340836297488 0 0 0 0 -1059.9796223139128 630.68627448892221 0 630.68627448892221 -1342.0097754937888 0 0 0 0 25.132611728302436 -51.597237999550998 0 -51.597237999550998 17.58465269964654 0 0 0 0 -384.80322012424585 -772.1274800318788 0 -772.1274800318788 -885.93422977940645 0 0 0 0 17.84867464903077 -52.479325080335926 0 -52.479325080335926 10.004753812049501 0 0 0 0 -376.71125026373193 -258.77143225587497 0 -258.77143225587497 882.76515773625579 0 0 0 0 -61.269940822501667 821.05682122090366 0 821.05682122090366 435.09084195434116 0 0 0 0 14.981512358554525 -3.0779709590652828 0 -3.0779709590652828 1.9760146786456403 0 0 0 0 120.75567199761281 81.268260645796545 0 81.268260645796545 -526.91466741223121 0 0 0 0 -388.03815082117217 -591.25049014744582 0 -591.25049014744582 828.26851146222907 0 0 0 0 -274.81900941312051 -840.9726163194573 0 -840.9726163194573 -510.57225453446154 0 0 0 0 -93.436815305205528 -493.53077709946956 0 -493.53077709946956 -1574.7941718312213 0 0 0 0 -149.7702926381462 -888.86191535752005 0 -888.86191535752005 -744.94203720591031 0 0 0 0 14.225379551942467 -17.530942608509847 0 -17.530942608509847 26.613132486158975 0 0 0 0 -301.69702476430393 -365.02997764093743 0 -365.02997764093743 2354.7183309767279 0 0 0 0 286.04388318424026 453.82738112893639 0 453.82738112893639 43.457804874604335 0 0 0 0 -43.235991265799385 -234.01304118205735 0 -234.01304118205735 2245.4017798834029 0 0 0 0 -55.771892923221458 -44.278205532260472 0 -44.278205532260472 857.91282663092716 0 0 0 0 194.08179898103117 -86.954901224118657 0 -86.954901224118657 296.54510880549788 0 0 0 0 -114.98987235495588 -116.76312482339563 0 -116.76312482339563 296.42537199011713 0 0 0 0 179.64193903827982 75.565579282905674 0 75.565579282905674 -244.39776380328112 0 0 0 0 41.561859422101406 -69.842656534885464 0 -69.842656534885464 45.492950435349485 0 0 0 0 -8.023645823833931 -30.370761676912821 0 -30.370761676912821 -11.411460540766598 0 0 0 0 44.856202040740754 -79.390835251222597 0 -79.390835251222597 36.238227655005176 0 0 0 0 5.6559673096088545 -34.874984233877228 0 -34.874984233877228 -20.671164427822021 0 0 0 0 391.82489745493513 -844.22312595114636 0 -844.22312595114636 314.47489611644414 0 0 0 0 19.341610770743557 -52.356312034231991 0 -52.356312034231991 62.720802940812064 0 0 0 0 21.790855667961296 -409.05539708015567 0 -409.05539708015567 -195.1087845984257 0 0 0 0 424.91024125076365 -303.70818700065138 0 -303.70818700065138 335.67461859417381 0 0 0 0 220.24829164147377 319.78780962794553 0 319.78780962794553 135.30651703478361 0 0 0 0 -193.40035083085604 -13.914958713210581 0 -13.914958713210581 -128.41863501165062 0 0 0 0 -141.76959761764738 248.79394239767862 0 248.79394239767862 83.619953409375739 0 0 0 0 -40.742599708487944 -52.462945438875579 0 -52.462945438875579 -17.767531590360022 0 0 0 0 -529.45342911424814 -146.71181102411356 0 -146.71181102411356 -65.756878549756948 0 0 0 0 -37.43000899621984 152.39660877035931 0 152.39660877035931 10.744642469748214 0 0 0 0 -10.32318826802657 -65.050805284023227 0 -65.050805284023227 14.138525038317312 0 0 0 0 21.310880479955813 -54.315393621014664 0 -54.315393621014664 14.253712525242008 0 0 0 0 14.341233814949817 -38.238849895846712 0 -38.238849895846712 25.905469370955302 0 0 0 0 28.955135500766801 -69.649795397407416 0 -69.649795397407416 4.0750635760974205 0 0 0 0 -13.849357115032035 -148.69736845447187 0 -148.69736845447187 -22.026178564876318 0 0 0 0 27.141394985781517 -13.814213933248539 0 -13.814213933248539 36.64738473376201 0 0 0 0 7.6214342360035516 29.613969441590598 0 29.613969441590598 255.51941479068773 0 0 0 0 1.2839874017136026 -49.748595367504095 0 -49.748595367504095 -49.638484983646777 0 0 0 0 66.660976691491669 26.978820474891108 0 26.978820474891108 -217.27736766179441 0 0 0 0 77.157113846362336 -170.7235389497946 0 -170.7235389497946 46.76218548140605 0 0 0 0 -38.340162715724148 -57.870060536463939 0 -57.870060536463939 -18.278416019961639 0 0 0 0 -3.527578617031395 -2.469324460507778 0 -2.469324460507778 -52.237567002681317 0 0 0 0 -257.50033937534317 -65.074558447580785 0 -65.074558447580785 184.07016787584871 0 0 0 0 324.92100706801284 -544.87050175617333 0 -544.87050175617333 -68.364598169864621 0 0 0 0 -386.98814390707412 -388.2723450793128 0 -388.2723450793128 601.45927807257976 0 0 0 0 12.503585548849472 -33.189349685358749 0 -33.189349685358749 28.567770756662753 0 0 0 0 17.258402601837588 -62.525632271270297 0 -62.525632271270297 25.602420348499436 0 0 0 0 37.007621332799317 -51.030243837449234 0 -51.030243837449234 9.2822367988410406 0 0 0 0 1.5163644467423865 -23.974772893709485 0 -23.974772893709485 0.55512964505032869 0 0 0 0 -1086.746893954929 701.97553183184937 0 701.97553183184937 -730.21484386106022 0 0 0 0 15.55868991373427 -38.487018388601427 0 -38.487018388601427 13.786515996209346 0 0 0 0 77.607341099053883 -86.494935922397417 0 -86.494935922397417 28.342219010053668 0 0 0 0 13.715357782127484 -29.873758636340753 0 -29.873758636340753 32.147984385116331 0 0 0 0 -8.3746350550668467 -22.80548597710083 0 -22.80548597710083 6.6837853911896445 0 0 0 0 4.7414917488786159 -52.093491630759672 0 -52.093491630759672 9.5255961793627648 0 0 0 0 72.878319429528347 -57.48926871626918 0 -57.48926871626918 4.8551645097904839 0 0 0 0 28.014532960020006 -68.853902626142371 0 -68.853902626142371 50.008155740601069 0 0 0 0 -15.347747940970294 -34.094444968694006 0 -34.094444968694006 68.605020521790721 0 0 0 0 42.719453180528944 -89.602075482805958 0 -89.602075482805958 78.431357687863056 0 0 0 0 18.021541183192312 -33.678521185614954 0 -33.678521185614954 31.328467370418366 0 0 0 0 -56.694311560000642 -4.0648443386744475 0 -4.0648443386744475 91.164749828516506 0 0 0 0 7.1390066248466724 -42.892133601703677 0 -42.892133601703677 23.458001718655311 0 0 0 0 87.148854645900428 -22.379276143503375 0 -22.379276143503375 64.996206597948913 0 0 0 0 -19.860711522104168 -48.151133917880259 0 -48.151133917880259 53.565164965067993 0 0 0 0 -85.52198091178434 -40.286090940935537 0 -40.286090940935537 155.77928190154489 0 0 0 0 139.59036669705529 -58.904734674317297 0 -58.904734674317297 40.033066884148866 0 0 0 0 -17.057303919942285 3.8870449485481373 0 3.8870449485481373 12.136271755658697 0 0 0 0 -36.006088853253459 -53.913730940243113 0 -53.913730940243113 1.2773964054213138 0 0 0 0 -1.0625199866044568 -80.651014638257038 0 -80.651014638257038 -29.518380940455245 0 0 0 0 -30.081985235941431 -51.358095430897151 0 -51.358095430897151 -13.936322179049967 0 0 0 0 -5.3366904579161201 -60.485825951211154 0 -60.485825951211154 14.084190476372896 0 0 0 0 -119.14126346769626 -82.372672343539307 0 -82.372672343539307 552.24786416751158 0 0 0 0 -68.04342812608229 -95.117055492548388 0 -95.117055492548388 -118.10104534871061 0 0 0 0 7.4234570549252794 3.0123558435266773 0 3.0123558435266773 -2.4571172438247686 0 0 0 0 -114.1952266432636 -58.929170225528651 0 -58.929170225528651 -117.24111475879909 0 0 0 0 -626.27515201468486 -346.75055665739637 0 -346.75055665739637 813.33421502221609 0 0 0 0 5.4788429433079955 -15.906077807593419 0 -15.906077807593419 3.4305276854414046 0 0 0 0 -85.547963551507564 -93.06823334042565 0 -93.06823334042565 90.705312937338022 0 0 0 0 1.547156550368527 -68.034499713088735 0 -68.034499713088735 5.5220882452704245 0 0 0 0 -0.85526564862811938 -52.52264410929638 0 -52.52264410929638 -94.110345842447714 0 0 0 0 -10.772567766602151 -45.153259292259463 0 -45.153259292259463 -2.4461145809327718 0 0 0 0 48.306261962512508 -104.8465743907509 0 -104.8465743907509 -47.219647853256902 0 0 0 0 12.351576599306952 -28.298378405700532 0 -28.298378405700532 20.495167744186404 0 0 0 0 -104.58123018220067 -97.532289593189489 0 -97.532289593189489 -14.401829934438865 0 0 0 0 -30.542185703256109 -60.354243716874407 0 -60.354243716874407 3.4968903003609739 0 0 0 0 -109.02668594579154 -121.6621788393968 0 -121.6621788393968 -71.371941869758302 0 0 0 0 8.6082491156212626 -53.605982339678121 0 -53.605982339678121 10.887865736167498 0 0 0 0 94.029719078971539 -90.236971420330519 0 -90.236971420330519 25.61784221756534 0 0 0 0 91.035031709907344 -86.762676557613304 0 -86.762676557613304 28.320720243849792 0 0 0 0 97.864315173064824 -86.659093513415428 0 -86.659093513415428 27.795663329219678 0 0 0 0 103.06111412431346 -75.825647736273822 0 -75.825647736273822 38.107627537305234 0 0 0 0 8.6791033317340407 -15.409058397169758 0 -15.409058397169758 -11.396330943457542 0 0 0 0 2.8132410938681573 -83.706763172032723 0 -83.706763172032723 28.922196181940478 0 0 0 0 200.05813258382841 -28.113117453758605 0 -28.113117453758605 -123.20213504944695 0 0 0 0 23.626109068513863 -11.751698998262896 0 -11.751698998262896 -0.043012269501446099 0 0 0 0 277.94306562631391 -100.3589437144401 0 -100.3589437144401 164.89961499367473 0 0 0 0 224.88220816719422 -775.18835557713783 0 -775.18835557713783 1160.3336462156731 0 0 0 0 10.507365807250608 -211.93943297761143 0 -211.93943297761143 255.89581249785078 0 0 0 0 4.2986362682843833 -5.2589585127655027 0 -5.2589585127655027 7.6748625865747044 0 0 0 0 -0.019079812147538178 -16.868117615595111 0 -16.868117615595111 8.1098552761541214 0 0 0 0 -552.54024120539543 -1411.0909637620789 0 -1411.0909637620789 2285.8507546179608 0 0 0 0 -252.08026910389162 301.58058206667556 0 301.58058206667556 2567.4945668478322 0 0 0 0 -995.58997456058569 -817.65529960291315 0 -817.65529960291315 1902.1758828867169 0 0 0 0 163.6092732300749 -1212.8462364012667 0 -1212.8462364012667 924.53872030515777 0 0 0 0 -267.30827758190571 -1526.8937395466128 0 -1526.8937395466128 1373.5541300352634 0 0 0 0 0.43186811278383708 -1670.1825525081963 0 -1670.1825525081963 1135.9170821941225 0 0 0 0 -309.17061275723972 -411.02107211720431 0 -411.02107211720431 132.27673446486006 0 0 0 0 -0.78877973191912598 -1528.7222905197236 0 -1528.7222905197236 -1121.3026688615937 0 0 0 0 17.149080701489822 -10.746449305256235 0 -10.746449305256235 4.0940658149541775 0 0 0 0 4452.5454072768043 -4243.0919549396203 0 -4243.0919549396203 -1492.8034228204051 0 0 0 0 -356.13654010480968 -1588.8788899333158 0 -1588.8788899333158 2688.3716602123895 0 0 0 0 -7.8684371294802986 -1526.3415302953217 0 -1526.3415302953217 2267.3631837492285 0 0 0 0 983.31371782874339 -505.65734476569924 0 -505.65734476569924 724.21297689893981 0 0 0 0 218.89484671660466 -319.9906757567951 0 -319.9906757567951 1142.8798421842948 0 0 0 0 263.74318798800232 -125.9101641770103 0 -125.9101641770103 41.468611872347537 0 0 0 0 -184.43763194599887 -52.712252050696407 0 -52.712252050696407 938.23636508200434 0 0 0 0 111.84917834663065 296.45329561029212 0 296.45329561029212 -293.6517287279712 0 0 0 0 -619.62543345839367 -727.56596965603239 0 -727.56596965603239 1478.2213497361518 0 0 0 0 2971.9836191508221 -946.74238599519595 0 -946.74238599519595 564.58609235601034 0 0 0 0 -283.33653066048282 258.30922618525801 0 258.30922618525801 127.93360452895286 0 0 0 0 9.1054392905501231 -13.77206760965035 0 -13.77206760965035 17.443074410257509 0 0 0 0 -12.712109531450551 -230.41959472193412 0 -230.41959472193412 -543.03235573356505 0 0 0 0 5168.3862013415783 1408.4044141615886 0 1408.4044141615886 -2251.7853684046131 0 0 0 0 1699.348127613368 -780.21295058896067 0 -780.21295058896067 107.10211973006517 0 0 0 0 -169.33557501411997 -270.49867255330901 0 -270.49867255330901 364.41610505996505 0 0 0 0 7.5830940539165681 -35.092736926053107 0 -35.092736926053107 38.044782458139366 0 0 0 0 434.36983987364511 -1500.3406443181811 0 -1500.3406443181811 995.67634354735492 0 0 0 0 3005.0953042409747 -3175.5282653598042 0 -3175.5282653598042 1856.0593196523841 0 0 0 0 -508.89630731466423 -62.98901937136543 0 -62.98901937136543 -885.01848812852404 0 0 0 0 -182.85998759718495 1217.4317361815774 0 1217.4317361815774 -314.83990822515261 0 0 0 0 -98.79550045650673 -34.342152686691662 0 -34.342152686691662 -9.3691589463021501 0 0 0 0 -1577.6000106209103 -162.72222670845804 0 -162.72222670845804 620.56082943418733 0 0 0 0 54.567816663795384 -144.40573974043946 0 -144.40573974043946 564.26991444634041 0 0 0 0 -1281.8641737931757 -376.92564288454014 0 -376.92564288454014 1053.7234371734958 0 0 0 0 -77.173379020165925 -44.222473671588318 0 -44.222473671588318 -14.476801032507638 0 0 0 0 -24.855345163995835 -3.7132232122850723 0 -3.7132232122850723 14.807199442718911 0 0 0 0 -1036.7978549491381 -149.47293829720002 0 -149.47293829720002 -420.01084242571233 0 0 0 0 -1335.1511373706244 207.41108262159742 0 207.41108262159742 521.64239768416155 0 0 0 0 -245.74976858028094 550.93563706360874 0 550.93563706360874 1839.0625218297937 0 0 0 0 -0.65080391262259241 -21.396592990391184 0 -21.396592990391184 -6.1105114608513968 0 0 0 0 -195.55160050823179 -45.016857845330378 0 -45.016857845330378 -310.24747625004966 0 0 0 0 144.76998719696712 -606.56939237815095 0 -606.56939237815095 -425.82532528496813 0 0 0 0 -54.184312201177818 -625.39319788863941 0 -625.39319788863941 185.9952429588302 0 0 0 0 -31.134457472682698 -256.89316056968528 0 -256.89316056968528 84.275838054840278 0 0 0 0 1011.9338874909809 -1517.182145551531 0 -1517.182145551531 -967.43763140970259 0 0 0 0 -780.98879765499441 -280.33225454065541 0 -280.33225454065541 1125.8640864272893 0 0 0 0 -1225.7916966766643 -113.48139913337945 0 -113.48139913337945 1108.7306054015935 0 0 0 0 -53.314530009225166 -29.120928148454198 0 -29.120928148454198 -11.766337878634687 0 0 0 0 23.458387521211989 -309.11999335775909 0 -309.11999335775909 95.300528520601802 0 0 0 0 -146.7337319865037 28.556353377665801 0 28.556353377665801 221.93347097671358 0 0 0 0 -16.166702684651526 -0.092527616971580073 0 -0.092527616971580073 4.0262263640462379 0 0 0 0 4.9208782096094126 3.2496481966006172 0 3.2496481966006172 -4.596291362581951 0 0 0 0 323.22887415644072 -330.89993212387344 0 -330.89993212387344 0.0015992483240552247 0 0 0 0 -39.783410101259506 -368.42767271396224 0 -368.42767271396224 223.57289578896598 0 0 0 0 -74.090738993210834 -269.83874331008701 0 -269.83874331008701 191.83909726442653 0 0 0 0 -64.752310301235411 -271.75768624510965 0 -271.75768624510965 191.38295032616588 0 0 0 0 -130.51616792161076 -173.98973719698552 0 -173.98973719698552 56.628785981563851 0 0 0 0 -52.478918795008212 -293.2664869260625 0 -293.2664869260625 26.648461612989195 0 0 0 0 -314.46269798887079 -313.38310871295107 0 -313.38310871295107 262.64730069524376 0 0 0 0 -629.35853638433036 -115.35881349246483 0 -115.35881349246483 142.11592229249072 0 0 0 0 -513.55232397804502 -522.724917861633 0 -522.724917861633 585.68729296393576 0 0 0 0 -172.18001171429933 -557.59650678744947 0 -557.59650678744947 251.57705726288259 0 0 0 0 16.2113559004938 -585.72942855404108 0 -585.72942855404108 0.96281902347630366 0 0 0 0 -147.12276537873549 -510.5616635272745 0 -510.5616635272745 211.54532936000032 0 0 0 0 -40.47604470414808 -537.33701926669892 0 -537.33701926669892 113.03385421185521 0 0 0 0 150.891274770358 -697.56135619916313 0 -697.56135619916313 186.41235374876123 0 0 0 0 -65.349559475565911 -739.23980844730249 0 -739.23980844730249 482.14415890467353 0 0 0 0 60.987649905822764 -538.30626938927162 0 -538.30626938927162 406.37184008519398 0 0 0 0 275.45712352223927 -666.6981291261327 0 -666.6981291261327 483.2245025045122 0 0 0 0 -184.85506587525015 -591.08321521457401 0 -591.08321521457401 573.57130657788366 0 0 0 0 58.716227978424286 -80.704511275333061 0 -80.704511275333061 181.06013189470104 0 0 0 0 -7.900898924825924 -5.1003510818490554 0 -5.1003510818490554 -1.3959548548533718 0 0 0 0 488.77002675004769 -328.26391632665764 0 -328.26391632665764 635.2343354110053 0 0 0 0 199.97119004023261 -552.65356535554747 0 -552.65356535554747 502.59714327912297 0 0 0 0 -70.639535052119072 -38.239549249247716 0 -38.239549249247716 -3.1542630423708058 0 0 0 0 -586.47708495138795 122.04604969790671 0 122.04604969790671 365.98624976039173 0 0 0 0 -1517.7736023458419 -889.58098764298484 0 -889.58098764298484 -236.3044142566614 0 0 0 0 -587.00081384606892 -792.4345733361406 0 -792.4345733361406 1860.1357191835996 0 0 0 0 -2262.4506574637489 -1930.4046992057702 0 -1930.4046992057702 -631.03538329691219 0 0 0 0 -13.948641176450991 0.010677050161234547 0 0.010677050161234547 7.9643383770629157 0 0 0 0 -492.67329596125637 -1080.7572436388291 0 -1080.7572436388291 1040.9867743768264 0 0 0 0 161.06649890846893 -112.57921394444566 0 -112.57921394444566 525.5929023490753 0 0 0 0 -194.40327578768483 -94.542697813245468 0 -94.542697813245468 713.50364101559535 0 0 0 0 -738.69750875055615 -1079.2941703764227 0 -1079.2941703764227 -842.94220556117943 0 0 0 0 770.17876706508105 -655.95805297947663 0 -655.95805297947663 -781.20901861746097 0 0 0 0 -358.57869591191411 -806.12877674863557 0 -806.12877674863557 83.781190171808703 0 0 0 0 754.64703821655712 159.37023095713812 0 159.37023095713812 876.48307863122318 0 0 0 0 -1094.3248082668288 157.87852616401506 0 157.87852616401506 974.5569861918425 0 0 0 0 432.96035506183398 192.33407617575722 0 192.33407617575722 -580.09359769678122 0 0 0 0 914.75726834676971 -860.48697817053835 0 -860.48697817053835 -242.34459083003458 0 0 0 0 371.89681360026589 -806.10344415856525 0 -806.10344415856525 -187.25795729018864 0 0 0 0 224.19036956389027 -1165.1103229128785 0 -1165.1103229128785 287.35577069068677 0 0 0 0 588.10193316760706 299.83606107061496 0 299.83606107061496 975.60685284349893 0 0 0 0 -5.6136115067947685 -9.3858054752739122 0 -9.3858054752739122 -3.4589959920966322 0 0 0 0 -0.045423252667035285 -7.4518565254991813 0 -7.4518565254991813 -5.8106085262121212 0 0 0 0 -438.24262951465789 -621.58572660011123 0 -621.58572660011123 211.75888575307908 0 0 0 0 349.08854751769104 -7.4235505043470766 0 -7.4235505043470766 -720.80171995912679 0 0 0 0 -613.88989200332435 329.10036975631374 0 329.10036975631374 -419.7658470843744 0 0 0 0 398.53302730073483 -551.22151473892336 0 -551.22151473892336 -280.73854881193256 0 0 0 0 -12.994092599436726 -15.499340003133 0 -15.499340003133 -5.312925508693084 0 0 0 0 135.63030453503598 -492.80479846688104 0 -492.80479846688104 305.59597685103654 0 0 0 0 -209.38772088331461 -494.17034689054708 0 -494.17034689054708 -117.81069332850166 0 0 0 0 387.25414186166017 192.60595498742077 0 192.60595498742077 1026.6391244334809 0 0 0 0 -1.9890811718942132 -860.01063559163595 0 -860.01063559163595 1350.4173450675153 0 0 0 0 -58.077457036826672 28.313837133202469 0 28.313837133202469 343.37704196112463 0 0 0 0 28.111019482079428 -13.441351220033539 0 -13.441351220033539 -614.79517403540376 0 0 0 0 -422.36651666171383 -467.75722651393153 0 -467.75722651393153 2077.4504930747207 0 0 0 0 -22.750866948157068 -0.41169036468824061 0 -0.41169036468824061 10.477322751408934 0 0 0 0 -40.148372373800555 -36.006210691318529 0 -36.006210691318529 0.63568422830940641 0 0 0 0 296.60861751163611 103.11276035587071 0 103.11276035587071 1211.524239869148 0 0 0 0 551.27564547397924 -24.162802525061124 0 -24.162802525061124 918.64995150454342 0 0 0 0 19.898797932080925 -446.31815268163336 0 -446.31815268163336 889.83092251227572 0 0 0 0 120.50309361508698 -184.81036513022264 0 -184.81036513022264 1218.8421580627755 0 0 0 0 -38.862088221794693 -677.19481969090702 0 -677.19481969090702 570.64992060462828 0 0 0 0 -48.791419277345994 -336.1033886774967 0 -336.1033886774967 343.48373747199366 0 0 0 0 -704.20870375786035 -653.08778789908683 0 -653.08778789908683 234.09689423321106 0 0 0 0 -147.97042400624196 -651.02240520510531 0 -651.02240520510531 -2.622113342222292 0 0 0 0 -1504.4685073876171 308.48120923483657 0 308.48120923483657 146.5214643360523 0 0 0 0 -908.11410980950313 176.40263053402305 0 176.40263053402305 1026.4618059514032 0 0 0 0 -64.358758086716989 -542.56546275981236 0 -542.56546275981236 357.56463360600901 0 0 0 0 -358.35889728852635 -337.17152436401375 0 -337.17152436401375 1136.7337664015358 0 0 0 0 387.84740630493616 -561.24769851958263 0 -561.24769851958263 484.35649052468943 0 0 0 0 -341.5056257256656 -170.06976928905351 0 -170.06976928905351 -186.18307717269636 0 0 0 0 -865.59449215181667 1272.7908412752186 0 1272.7908412752186 -1354.9924459140166 0 0 0 0 19.753258252836531 -342.69560146929871 0 -342.69560146929871 0.014906887081451714 0 0 0 0 -4.7570874833886592 -2.6501591541152152 0 -2.6501591541152152 -4.3066038691061408 0 0 0 0 -199.34479769595782 199.90491305868454 0 199.90491305868454 185.18025405306253 0 0 0 0 3.0152197267355518 -0.81313167543873988 0 -0.81313167543873988 -4.4930567726661934 0 0 0 0 23.610747633356368 -195.18622026906814 0 -195.18622026906814 -63.489599263048149 0 0 0 0 -521.66115346488459 1094.4182747625346 0 1094.4182747625346 -468.45052223055973 0 0 0 0 419.88569571066182 -503.34188445095788 0 -503.34188445095788 128.66882874988369 0 0 0 0 -23.617421655031649 -8.7153692612951659 0 -8.7153692612951659 -3.4435875390469164 0 0 0 0 -184.1972591697122 340.15353536183829 0 340.15353536183829 -303.35847403929802 0 0 0 0 -214.54236373503227 -913.89526316063711 0 -913.89526316063711 -1538.5292065514004 0 0 0 0 -4.4651926890122127 -4.6610131124509735 0 -4.6610131124509735 -2.7128065106049064 0 0 0 0 111.9755766192975 882.95878821439692 0 882.95878821439692 1867.3721108807367 0 0 0 0 -1182.5917992583272 -0.5741622571949847 0 -0.5741622571949847 1457.7380465769093 0 0 0 0 887.63148581577116 -10.171164798244718 0 -10.171164798244718 382.08059075521305 0 0 0 0 -20.157720409532772 -7.1406928052259104 0 -7.1406928052259104 9.3854561356699548 0 0 0 0 -724.51590312850021 -143.60334544425132 0 -143.60334544425132 2535.535680618239 0 0 0 0 -21.48314349600588 -16.313635976073101 0 -16.313635976073101 2.8736704086599953 0 0 0 0 -12.779061442357488 -82.683867697953247 0 -82.683867697953247 5.7999843664947548 0 0 0 0 375.32906454760814 -111.81048840793665 0 -111.81048840793665 -1416.8492287113841 0 0 0 0 -748.47190962696914 541.2711204381776 0 541.2711204381776 681.23938657753752 0 0 0 0 -461.97248760146613 837.44614084697241 0 837.44614084697241 -388.06350757100154 0 0 0 0 1231.9750518698129 577.8226872421219 0 577.8226872421219 -887.66422834605328 0 0 0 0 -6.231152020306979 -8.762908889580558 0 -8.762908889580558 -2.7767125351904554 0 0 0 0 -1091.441081992205 -741.09748492063954 0 -741.09748492063954 1102.294674433273 0 0 0 0 52.665431176661514 -45.062442802009173 0 -45.062442802009173 -2155.379536073684 0 0 0 0 436.01810797216604 -291.60901203000685 0 -291.60901203000685 -731.91327903795172 0 0 0 0 -152.29213269724278 -1246.6274588953529 0 -1246.6274588953529 -62.508142089725879 0 0 0 0 268.68562471156474 -231.01126899325754 0 -231.01126899325754 132.03129286883632 0 0 0 0 -701.12927772235707 -1372.7747710447584 0 -1372.7747710447584 -810.6186884585768 0 0 0 0 -946.79160983429756 -832.68871422827942 0 -832.68871422827942 -28.670992729261343 0 0 0 0 -331.63315063674236 -1076.8274926492304 0 -1076.8274926492304 -1527.2244139446993 0 0 0 0 -726.26213066128548 -573.9621772300743 0 -573.9621772300743 -656.40467324981 0 0 0 0 -627.09537744097179 -411.33151423576055 0 -411.33151423576055 56.807544991432223 0 0 0 0 -605.85296904062852 -230.75463978532935 0 -230.75463978532935 -979.82671053835656 0 0 0 0 -349.3602819784428 -457.39178187106154 0 -457.39178187106154 951.98709773669543 0 0 0 0 360.63635686150519 -2281.1580472210517 0 -2281.1580472210517 -274.11508003278868 0 0 0 0 31.811922928667627 -159.77769078753772 0 -159.77769078753772 -804.68614905406866 0 0 0 0 15.153634537059588 -5.3448822840044272 0 -5.3448822840044272 1.8373282487639653 0 0 0 0 -91.166991653532023 461.71790295980463 0 461.71790295980463 306.92196057271212 0 0 0 0 -125.49513467107317 49.830527733342024 0 49.830527733342024 -399.41948772341129 0 0 0 0 39.502724978665356 -264.71649823138432 0 -264.71649823138432 -439.53924352509785 0 0 0 0 4.8847291986166965 -167.33089305672911 0 -167.33089305672911 -158.92633583083807 0 0 0 0 -384.98505787024624 -305.89699698911863 0 -305.89699698911863 -417.92305447036051 0 0 0 0 -154.82808773288343 -46.027860220579896 0 -46.027860220579896 -185.92494192987215 0 0 0 0 -28.76392572914483 -58.011591424077778 0 -58.011591424077778 33.668399561734986 0 0 0 0 24.558036319459234 -42.035910297307225 0 -42.035910297307225 35.663592828709511 0 0 0 0 -16.237676738121081 -171.2921293520194 0 -171.2921293520194 -164.27109855958042 0 0 0 0 -126.67731632016512 -223.49771976953343 0 -223.49771976953343 56.982164112967439 0 0 0 0 14.302022646175089 -43.966641824469207 0 -43.966641824469207 43.496990712322457 0 0 0 0 28.363996011306881 -111.15197940101643 0 -111.15197940101643 51.795354595320532 0 0 0 0 127.59080814574554 -49.600472053905833 0 -49.600472053905833 -119.22314663675934 0 0 0 0 1.3325357075360387 -102.8522487281064 0 -102.8522487281064 99.143711233998488 0 0 0 0 136.67381156713236 -278.89012186630862 0 -278.89012186630862 338.92921017468325 0 0 0 0 -18.613199841383903 -23.858226863357658 0 -23.858226863357658 32.540293661114276 0 0 0 0 48.046854499785695 -94.671491553963278 0 -94.671491553963278 64.830461744917557 0 0 0 0 121.76338249740365 -211.04333525983384 0 -211.04333525983384 95.450340327755839 0 0 0 0 -11.038487204270723 -59.326120634529531 0 -59.326120634529531 -57.382431088709382 0 0 0 0 193.2489525173296 -284.33237634781108 0 -284.33237634781108 119.52486134448554 0 0 0 0 33.378701844165334 -67.392169239472423 0 -67.392169239472423 -111.0308231877716 0 0 0 0 150.19898853282211 -193.84971664255136 0 -193.84971664255136 104.10428519907873 0 0 0 0 13.517954170671572 -75.565175591172817 0 -75.565175591172817 -54.072552131791383 0 0 0 0 56.84278947635903 -343.78017371591704 0 -343.78017371591704 136.45196222802042 0 0 0 0 -38.228341235284461 -149.15603661429486 0 -149.15603661429486 180.70083637209609 0 0 0 0 271.9676337128185 -224.38260057773732 0 -224.38260057773732 -201.23183037751005 0 0 0 0 -37.353704626206309 -229.22486180435226 0 -229.22486180435226 16.8994664518832 0 0 0 0 145.84745747047418 -121.56979056054115 0 -121.56979056054115 -32.988837989913009 0 0 0 0 -111.63080787248327 -179.91591385379434 0 -179.91591385379434 92.22854738686874 0 0 0 0 578.61084673643927 -310.20492521108827 0 -310.20492521108827 -109.98304517403449 0 0 0 0 3.4649676400945566 -19.542771347431639 0 -19.542771347431639 -26.237435936350153 0 0 0 0 128.97526329689572 -209.55346336391085 0 -209.55346336391085 9.3722102551255375 0 0 0 0 28.232308211767702 -50.323398057402777 0 -50.323398057402777 41.485100655823203 0 0 0 0 -3.9197447613961458 -52.680437430439184 0 -52.680437430439184 -64.91835424947115 0 0 0 0 -41.933003567988635 -136.83333950400993 0 -136.83333950400993 -56.550425758323399 0 0 0 0 -62.048412648371595 -161.77636162843555 0 -161.77636162843555 -8.7633054068428464 0 0 0 0 -75.676049937508651 -146.76520601208904 0 -146.76520601208904 -47.212393520010664 0 0 0 0 -41.006007155107937 -65.867733564548587 0 -65.867733564548587 -29.716685518524599 0 0 0 0 -138.03884909129556 130.16689992789179 0 130.16689992789179 -79.752592529752292 0 0 0 0 -217.47322706056366 -127.2184468112373 0 -127.2184468112373 98.156135799828917 0 0 0 0 -248.72400591129554 -380.10107893450186 0 -380.10107893450186 26.805740766212693 0 0 0 0 158.90287863323465 -54.490615356626222 0 -54.490615356626222 -229.56518534244969 0 0 0 0 -1.0990927777988588 -69.274437370005657 0 -69.274437370005657 24.832898490634818 0 0 0 0 -26.90913108906534 -204.88610929342394 0 -204.88610929342394 -21.69087888550348 0 0 0 0 190.42008875106694 -429.90126779473212 0 -429.90126779473212 -64.997014670429053 0 0 0 0 -19.604656727818963 -48.766825267944 0 -48.766825267944 -76.354506236127008 0 0 0 0 65.750522302521858 -185.54000407399144 0 -185.54000407399144 -279.10530531516997 0 0 0 0 61.732782840626896 -355.79149179081287 0 -355.79149179081287 -143.82193949329667 0 0 0 0 -9.0565674537792802 -281.36531122314045 0 -281.36531122314045 61.706429538200609 0 0 0 0 77.322281644912437 -86.54333077854244 0 -86.54333077854244 9.5125970296212472 0 0 0 0 97.81091378594283 -235.46889790514251 0 -235.46889790514251 -230.15259541280102 0 0 0 0 113.89063840161543 -156.16151396528585 0 -156.16151396528585 -60.00976705737412 0 0 0 0 163.89313837047666 -113.4984386676806 0 -113.4984386676806 -250.53630306385458 0 0 0 0 150.03798205096973 -35.88828986918088 0 -35.88828986918088 -119.00596497725928 0 0 0 0 47.010968324703811 -17.100654496478398 0 -17.100654496478398 -8.5694005772384365 0 0 0 0 79.145810915797483 -197.66710916045122 0 -197.66710916045122 -328.77838475216413 0 0 0 0 172.33387498697266 -114.60912817472126 0 -114.60912817472126 -250.96606039861217 0 0 0 0 179.70276355548413 -134.37915488795261 0 -134.37915488795261 -374.32084383972688 0 0 0 0 99.403458279422921 -173.41116640296605 0 -173.41116640296605 115.34057902995846 0 0 0 0 117.66656625780161 -212.9680257923028 0 -212.9680257923028 80.825687057251344 0 0 0 0 187.31623565877089 -122.30476029519923 0 -122.30476029519923 -296.15332951000892 0 0 0 0 -35.731653510825709 -184.19176065694046 0 -184.19176065694046 -266.79966533026891 0 0 0 0 -199.01664137412445 80.891548063256778 0 80.891548063256778 -177.90765945019666 0 0 0 0 -127.65335444570519 -122.80945933394833 0 -122.80945933394833 -75.046531875064829 0 0 0 0 -451.41598809001152 81.961871792998863 0 81.961871792998863 -411.49033248831984 0 0 0 0 -111.4259461219699 71.077833040479163 0 71.077833040479163 -385.49632551381364 0 0 0 0 -439.36547944427002 248.4192994722398 0 248.4192994722398 -345.44377981322759 0 0 0 0 -571.82130243853317 117.068320818129 0 117.068320818129 -379.02434977632947 0 0 0 0 -336.30807285185438 170.45392992231064 0 170.45392992231064 -388.27146345822985 0 0 0 0 -297.91632634802954 254.34312997816596 0 254.34312997816596 -409.58502420474542 0 0 0 0 -84.946971723082243 -305.83073651423911 0 -305.83073651423911 57.018179586855695 0 0 0 0 -48.993641763692722 -85.21056012599729 0 -85.21056012599729 110.95352057903074 0 0 0 0 -35.779894885781687 -84.557897316059098 0 -84.557897316059098 108.9485898912535 0 0 0 0 -50.351359660970047 -93.649449869742966 0 -93.649449869742966 107.4286179561168 0 0 0 0 -51.913947331253439 -112.64099552464904 0 -112.64099552464904 91.272174790094141 0 0 0 0 -17.468052217795048 -97.839812981255818 0 -97.839812981255818 91.596882284036838 0 0 0 0 -51.436605485214386 -89.12038067181129 0 -89.12038067181129 111.94473935756832 0 0 0 0 -55.676045279251412 -94.371963006153237 0 -94.371963006153237 107.43427633331157 0 0 0 0 -29.941016392607708 -106.50674918387085 0 -106.50674918387085 91.356242790294345 0 0 0 0 -90.839045616274234 -95.864053755358327 0 -95.864053755358327 110.79295206596726 0 0 0 0 -45.580128965318494 -61.781199802758181 0 -61.781199802758181 -33.45523450974963 0 0 0 0 192.48796148016118 -90.730893959989771 0 -90.730893959989771 -350.45195648889057 0 0 0 0 161.19125188462203 -54.345079871243797 0 -54.345079871243797 -300.29492987296544 0 0 0 0 181.23022569296882 -76.787317483220249 0 -76.787317483220249 -345.8790974864969 0 0 0 0 166.71652031678241 -57.174058034725022 0 -57.174058034725022 -327.40629183209967 0 0 0 0 194.32393697428051 -106.45429969450925 0 -106.45429969450925 -341.9338961779722 0 0 0 0 3.352013040377642 -64.565435578406323 0 -64.565435578406323 103.51011439703871 0 0 0 0 356.10995838051895 -486.00015403685393 0 -486.00015403685393 -985.26743120598258 0 0 0 0 -43.417493177843596 -62.430542097331113 0 -62.430542097331113 -9.9504772911947263 0 0 0 0 -45.936645489826333 -42.342282836441882 0 -42.342282836441882 116.71238378141425 0 0 0 0 10.496296370140044 -209.92198227095651 0 -209.92198227095651 -844.24190835928312 0 0 0 0 -14.135045200659079 -71.862626754038502 0 -71.862626754038502 102.56744437818998 0 0 0 0 -46.533375150407664 -83.065356199920643 0 -83.065356199920643 61.123761156632099 0 0 0 0 -9.1819872803565374 -1.7384641204008986 0 -1.7384641204008986 0.149975736771637 0 0 0 0 26.381984416919295 -86.990810721355956 0 -86.990810721355956 66.682006504153833 0 0 0 0 143.31489321067056 -124.79803734063171 0 -124.79803734063171 77.892666121129878 0 0 0 0 -34.48896310600685 -78.229008725145832 0 -78.229008725145832 121.86055139215796 0 0 0 0 10.437507764378097 -103.55231743061449 0 -103.55231743061449 122.02308184414869 0 0 0 0 -59.943959181458922 -59.142064115207177 0 -59.142064115207177 95.794372312549967 0 0 0 0 -87.672551712836139 -70.691270004550461 0 -70.691270004550461 109.59746702011034 0 0 0 0 -34.35300186049426 -68.815583886229433 0 -68.815583886229433 109.33367928778171 0 0 0 0 -66.914065140241291 -83.38750925817294 0 -83.38750925817294 111.05349665769609 0 0 0 0 -53.580942821514327 -82.778863120074675 0 -82.778863120074675 110.28031560382806 0 0 0 0 -864.23866548061778 -65.182494160646456 0 -65.182494160646456 -307.11048219451914 0 0 0 0 -534.55934372064075 28.829289411587524 0 28.829289411587524 -419.67664557771059 0 0 0 0 281.08219814687618 -523.20552193722688 0 -523.20552193722688 -663.03725399257382 0 0 0 0 465.94424962066114 -684.37440124695422 0 -684.37440124695422 -823.11404953045712 0 0 0 0 -86.660345770537631 -49.272495574492041 0 -49.272495574492041 8.8221728503283998 0 0 0 0 428.69613172830759 -461.87209083223024 0 -461.87209083223024 -729.78836915839929 0 0 0 0 38.422273098491132 -647.73402750000241 0 -647.73402750000241 -810.52233097073622 0 0 0 0 -61.262229461281095 -88.594972265360411 0 -88.594972265360411 64.012400100834384 0 0 0 0 -422.1298683174391 416.31097226304701 0 416.31097226304701 -2437.8308469473268 0 0 0 0 -60.945800565426651 -66.233411674989071 0 -66.233411674989071 -6.1805470160853133 0 0 0 0 -149.47140371791303 -14.494502114060822 0 -14.494502114060822 29.550948022254147 0 0 0 0 -141.2227815699589 -191.97358540131245 0 -191.97358540131245 158.94186130227172 0 0 0 0 -50.717694957712638 -156.90660657389233 0 -156.90660657389233 -29.369555139598969 0 0 0 0 -62.148528947356098 -24.792172659344033 0 -24.792172659344033 8.9058784410250951 0 0 0 0 -48.187357029531086 -177.14458104463847 0 -177.14458104463847 9.137564803208079 0 0 0 0 -78.691107304109664 -253.42097244475008 0 -253.42097244475008 48.263595431344584 0 0 0 0 -50.854594368358789 -181.29997161687425 0 -181.29997161687425 13.71847653776058 0 0 0 0 35.491589012486656 -285.03416329091306 0 -285.03416329091306 -166.97394101257669 0 0 0 0 53.504952765157213 -1.8968484347860795 0 -1.8968484347860795 -154.49050468319911 0 0 0 0 -58.740839153867157 -50.822465728749115 0 -50.822465728749115 -13.713780252713207 0 0 0 0 -74.814421838906128 -75.145407428732142 0 -75.145407428732142 68.242742440837901 0 0 0 0 15.498049040663631 -18.495196208689492 0 -18.495196208689492 -17.377428110101675 0 0 0 0 -20.321588105842395 -78.826060427393088 0 -78.826060427393088 -32.473181728931763 0 0 0 0 -5.226204755002982 -126.52917384677858 0 -126.52917384677858 -11.020854768925346 0 0 0 0 -74.173261141358353 -178.37651452207592 0 -178.37651452207592 -94.294957210804569 0 0 0 0 7.0321576565293071 -88.281574746968545 0 -88.281574746968545 -4.6376401448505931 0 0 0 0 -49.596005860636069 -144.10427891637664 0 -144.10427891637664 -2.6082576928019989 0 0 0 0 -67.392048204936145 -86.209887361110304 0 -86.209887361110304 31.368240044306731 0 0 0 0 28.440542145824793 -63.072219025429661 0 -63.072219025429661 36.733452720656942 0 0 0 0 -102.86190966634604 -139.96046199936245 0 -139.96046199936245 -49.726737859411514 0 0 0 0 -45.142780449517886 -168.86992598835786 0 -168.86992598835786 -37.027885956980754 0 0 0 0 70.782418569165614 -74.5042230064862 0 -74.5042230064862 0.27638387919580509 0 0 0 0 -38.002436312934151 -156.85537987733551 0 -156.85537987733551 -65.145462767279241 0 0 0 0 -65.984210919486941 -112.05089739378309 0 -112.05089739378309 -45.133815967245027 0 0 0 0 117.70337260576252 -134.87826888825657 0 -134.87826888825657 -180.10617881423968 0 0 0 0 -102.22429179886166 -194.56805480946565 0 -194.56805480946565 87.353437310317531 0 0 0 0 -11.400719611852708 -20.374384265194522 0 -20.374384265194522 14.172304517094219 0 0 0 0 30.944242935966287 -43.740954778692071 0 -43.740954778692071 40.49180980978241 0 0 0 0 -83.265868124028202 -244.29568467467107 0 -244.29568467467107 -31.471984411939047 0 0 0 0 34.162364804874144 -88.255744048131817 0 -88.255744048131817 20.5561808276953 0 0 0 0 -194.21512437973479 -274.16312747973279 0 -274.16312747973279 -30.977854523713177 0 0 0 0 -292.04530870551162 -551.28874414655729 0 -551.28874414655729 -169.46174208665616 0 0 0 0 -170.44790036724748 -309.40841235879634 0 -309.40841235879634 13.905783487366534 0 0 0 0 -50.931318969438962 -150.25346242315572 0 -150.25346242315572 -49.533613450403209 0 0 0 0 191.74520135270052 -167.63972380383348 0 -167.63972380383348 -681.62499377870699 0 0 0 0 -341.27958363994571 -663.80609902371361 0 -663.80609902371361 -270.91169968144095 0 0 0 0 -400.59785931182 -509.96935360948555 0 -509.96935360948555 25.446502225080621 0 0 0 0 -451.98886743555335 -623.35254677583362 0 -623.35254677583362 -94.897087754856329 0 0 0 0 -441.08963980082262 -602.72024889850582 0 -602.72024889850582 83.559858230713871 0 0 0 0 -369.97325627987675 -622.96900524958619 0 -622.96900524958619 59.305089641624363 0 0 0 0 -701.21258389686989 -642.10017652761599 0 -642.10017652761599 167.97265040426282 0 0 0 0 -570.19255568152937 -289.12812200823464 0 -289.12812200823464 255.17352815897902 0 0 0 0 -357.06891555200673 -332.71911298943451 0 -332.71911298943451 12.568614880738096 0 0 0 0 -282.32684177020747 -156.95384403762 0 -156.95384403762 34.583146498684073 0 0 0 0 -1116.4736463148365 -360.17768229625653 0 -360.17768229625653 246.04132245712754 0 0 0 0 -485.67109781117369 56.696592056032387 0 56.696592056032387 257.0376672889397 0 0 0 0 166.1487096443671 -125.57634913461516 0 -125.57634913461516 -426.0927744656874 0 0 0 0 -7.944266171540149 -20.53848521680348 0 -20.53848521680348 2.0900046588685424 0 0 0 0 -85.893789374149861 -35.879629068415142 0 -35.879629068415142 -9.0964387585477766 0 0 0 0 -1248.5088408333224 -845.82764048292302 0 -845.82764048292302 178.10287450329633 0 0 0 0 -89.17640435373778 -423.31309110511211 0 -423.31309110511211 -296.42762870324077 0 0 0 0 -846.81745849874744 -867.90523343423047 0 -867.90523343423047 -61.489591074700002 0 0 0 0 65.176197081185819 -31.564175969120697 0 -31.564175969120697 -84.113125744624995 0 0 0 0 148.01506365581008 124.1229646606007 0 124.1229646606007 3.3802822235593339 0 0 0 0 -26.241653788791155 -4.1622584395809099 0 -4.1622584395809099 -85.736654201427882 0 0 0 0 39.824229536098613 -35.997362803388413 0 -35.997362803388413 -10.783958753119137 0 0 0 0 -4.1586680579930544 -102.2517788305413 0 -102.2517788305413 -86.437873705850507 0 0 0 0 -505.87044042150956 -11.960361605859362 0 -11.960361605859362 -249.96235050191171 0 0 0 0 124.60561783076628 -100.83020907129685 0 -100.83020907129685 -93.912809286990523 0 0 0 0 246.94241114503529 -59.568226280534873 0 -59.568226280534873 -446.83735604553658 0 0 0 0 14.593448447238146 -1.3517454568234477 0 -1.3517454568234477 -7.3239127753465425 0 0 0 0 88.091301640495658 22.491793999448419 0 22.491793999448419 -425.93880902066303 0 0 0 0 19.233793313854022 -25.83245941939191 0 -25.83245941939191 -8.7686280501436613 0 0 0 0 36.331981053102936 -134.4820139458534 0 -134.4820139458534 -16.697604517597938 0 0 0 0 -20.159706245136093 -64.738050668606775 0 -64.738050668606775 -58.001555952884814 0 0 0 0 43.490701185030048 -165.93063275621171 0 -165.93063275621171 -75.966155284637352 0 0 0 0 41.111105001411488 -50.51467457714898 0 -50.51467457714898 -98.416255660995375 0 0 0 0 51.677294767607236 -40.600832824944519 0 -40.600832824944519 -164.62172050739173 0 0 0 0 -138.78477449837419 -262.24445348795416 0 -262.24445348795416 32.734385676274542 0 0 0 0 91.554482414888014 -90.959225994641187 0 -90.959225994641187 36.15525458482108 0 0 0 0 -230.74492681756146 -393.30279283980781 0 -393.30279283980781 63.717571198474616 0 0 0 0 -421.88039686798879 -244.57941403246878 0 -244.57941403246878 -91.921469840817736 0 0 0 0 -32.441886107935943 -19.77272635817522 0 -19.77272635817522 11.229518952600557 0 0 0 0 0.60213042719521859 -21.689779029216112 0 -21.689779029216112 4.7904796543530637 0 0 0 0 17.358549434357656 -33.463900806553283 0 -33.463900806553283 30.143959719280247 0 0 0 0 -32.125939971429034 -113.93433278778684 0 -113.93433278778684 -36.118438448291272 0 0 0 0 2.8783174474022815 -28.754942746011437 0 -28.754942746011437 11.797993717563429 0 0 0 0 -0.7482050832688969 -11.727495661550961 0 -11.727495661550961 6.993776036373049 0 0 0 0 305.44200587236264 -75.046854702966812 0 -75.046854702966812 -32.021038009410404 0 0 0 0 52.041979066023018 -49.504919200450217 0 -49.504919200450217 7.2575049358588331 0 0 0 0 63.28478216222279 -49.883257405136291 0 -49.883257405136291 -19.368880903372371 0 0 0 0 -36.106116827148071 -106.63034368658555 0 -106.63034368658555 -32.231459844406345 0 0 0 0 24.011129002314846 4.9061358684758218 0 4.9061358684758218 -0.3952081076668037 0 0 0 0 -42.95819424471847 -121.07284021006126 0 -121.07284021006126 -36.418859310768312 0 0 0 0 13.211367185926065 -80.533649623394012 0 -80.533649623394012 -87.406519945478067 0 0 0 0 -4.8808347699709529 -58.955902040958208 0 -58.955902040958208 -6.5626876751693999 0 0 0 0 47.146433104237076 -170.86073896888411 0 -170.86073896888411 -59.841772493717144 0 0 0 0 12.415657842527764 -75.798373633820859 0 -75.798373633820859 -41.945175187119887 0 0 0 0 103.81500617769052 -150.63183827902321 0 -150.63183827902321 55.834620030451333 0 0 0 0 -63.120210657805728 -93.762123059685109 0 -93.762123059685109 -0.61110957432538271 0 0 0 0 6.6632304643923064 -154.09201537583749 0 -154.09201537583749 19.776808460309269 0 0 0 0 -40.073887438164093 -153.59365794123732 0 -153.59365794123732 148.05008804275712 0 0 0 0 22.19013351832109 -114.04223443010414 0 -114.04223443010414 -58.679304866120219 0 0 0 0 -20.045099564013071 -75.912714379592217 0 -75.912714379592217 71.676092847032123 0 0 0 0 28.258481409939122 -247.03263217261701 0 -247.03263217261701 -145.61892525812436 0 0 0 0 -194.58665386870416 -270.51099794195034 0 -270.51099794195034 -49.397008899468346 0 0 0 0 -97.919286307551374 -126.07484912963264 0 -126.07484912963264 -127.5268519653182 0 0 0 0 -80.698903211923607 -164.42871150509745 0 -164.42871150509745 -58.346348109305836 0 0 0 0 -32.766575658068177 -203.6938880916714 0 -203.6938880916714 -245.79981968678476 0 0 0 0 -37.75299399238429 -139.5296528484032 0 -139.5296528484032 -137.51072894743993 0 0 0 0 -79.362423440281063 -115.70785150492583 0 -115.70785150492583 73.519242215820711 0 0 0 0 28.027201019102421 -45.814234908305352 0 -45.814234908305352 10.671411971764087 0 0 0 0 -69.668941439304035 -133.72471412102459 0 -133.72471412102459 -69.933656385488575 0 0 0 0 151.58346546342767 -24.968966086783865 0 -24.968966086783865 -64.608127223988561 0 0 0 0 -54.220247736564488 -106.88583298633603 0 -106.88583298633603 27.639227691746783 0 0 0 0 -89.34298194830626 -216.09790146275918 0 -216.09790146275918 -78.840900643001078 0 0 0 0 -0.79985780196147971 -123.03405552740151 0 -123.03405552740151 -103.88405566283473 0 0 0 0 39.021389982496515 -60.41390897719392 0 -60.41390897719392 65.751754674135213 0 0 0 0 -202.4625993436639 -176.75622839741482 0 -176.75622839741482 1.9617859065547236 0 0 0 0 4.8650943457396352 -158.40716709547269 0 -158.40716709547269 66.414917735644849 0 0 0 0 26.764887495888615 -76.265941233303238 0 -76.265941233303238 2.3294978768244619 0 0 0 0 -4.4877719939249801 -155.08791685773758 0 -155.08791685773758 -145.84328081988497 0 0 0 0 10.28446522592435 -18.828483642401267 0 -18.828483642401267 1.2976137302796928 0 0 0 0 -204.06732303870376 1.1218755704467185 0 1.1218755704467185 33.44814353773836 0 0 0 0 22.634515180333267 -27.709004376553139 0 -27.709004376553139 -1.3875372925751321 0 0 0 0 82.952549742578412 -57.353776306546933 0 -57.353776306546933 -19.261556519260921 0 0 0 0 69.993124081257037 -44.68660653156293 0 -44.68660653156293 -19.441371654648208 0 0 0 0 2.4996326925465837 -115.26887773591443 0 -115.26887773591443 -18.328326033675694 0 0 0 0 1.9457418546787721 -63.042573276085051 0 -63.042573276085051 -33.593635545329903 0 0 0 0 29.975778329113382 -119.44361358460446 0 -119.44361358460446 -18.318711295760295 0 0 0 0 36.168165812014195 -89.234041991949198 0 -89.234041991949198 0.3029536443791585 0 0 0 0 42.564225821282889 -130.04746395760958 0 -130.04746395760958 -74.843605818692595 0 0 0 0 17.441815918817696 -69.758319270448084 0 -69.758319270448084 -4.9671989983143874 0 0 0 0 343.55183069184568 -215.96698638449743 0 -215.96698638449743 -230.43235110028763 0 0 0 0 10.180843884983915 -85.790198775968747 0 -85.790198775968747 -55.703228737307654 0 0 0 0 53.073160595796253 -80.041898592995125 0 -80.041898592995125 -58.997943944894757 0 0 0 0 -23.01752474686873 -113.81782213864972 0 -113.81782213864972 -66.882144028510083 0 0 0 0 43.967337764037268 -43.947261865558588 0 -43.947261865558588 -39.646257982737211 0 0 0 0 -15.241245789080494 -84.945519364436223 0 -84.945519364436223 -76.740063780147466 0 0 0 0 -59.490893402209622 -89.887204387814563 0 -89.887204387814563 -63.386243105524045 0 0 0 0 41.147259401535848 -99.682067020752584 0 -99.682067020752584 -66.031485022453126 0 0 0 0 24.115502720684162 -42.105010981518717 0 -42.105010981518717 14.665867623712984 0 0 0 0 84.730176287477661 -125.09375558669853 0 -125.09375558669853 -60.192210258537671 0 0 0 0 183.77328866606695 -42.81179633436841 0 -42.81179633436841 -205.97252088194 0 0 0 0 46.042287820040656 -45.975852776806278 0 -45.975852776806278 -202.5042835692293 0 0 0 0 -138.00051911488845 -1.7468356491663144 0 -1.7468356491663144 382.13921342905087 0 0 0 0 -119.11789882973244 -308.34007668556296 0 -308.34007668556296 105.9315188242872 0 0 0 0 -59.014492984009848 -164.32164928106067 0 -164.32164928106067 -17.624549647895037 0 0 0 0 -18.116555248961959 -43.987129411761998 0 -43.987129411761998 -125.83969952752523 0 0 0 0 279.31713049317477 -216.63705449934787 0 -216.63705449934787 -82.166452731151367 0 0 0 0 8.7141936898769927 -276.64151544697961 0 -276.64151544697961 -144.66717851003341 0 0 0 0 -12.539937777171872 -120.57842006264673 0 -120.57842006264673 -102.52663282430149 0 0 0 0 -172.53088516897697 -22.167208224105707 0 -22.167208224105707 523.30660079610243 0 0 0 0 8.5261131901374938 -0.56332601481079791 0 -0.56332601481079791 0.6618966372259365 0 0 0 0 51.41616012747545 -266.93933735340397 0 -266.93933735340397 456.70802274932794 0 0 0 0 44.067396318762661 -82.800310986721669 0 -82.800310986721669 18.829790939604663 0 0 0 0 30.343657810648438 325.92090708339674 0 325.92090708339674 516.06114612527745 0 0 0 0 -202.13225110884014 -140.52976384189787 0 -140.52976384189787 56.829031978821149 0 0 0 0 4.3499289967876393 22.238770910089443 0 22.238770910089443 -97.980472659808584 0 0 0 0 57.429175356170163 -148.7449969152367 0 -148.7449969152367 60.212004876692845 0 0 0 0 -8.6710984195804031 -53.667424555294133 0 -53.667424555294133 7.0549256289201026 0 0 0 0 118.4524731365309 -149.98147624916237 0 -149.98147624916237 84.766779067766038 0 0 0 0 17.003911033104714 -140.47090624653649 0 -140.47090624653649 16.991555461554924 0 0 0 0 50.203643468269149 -29.228162876209836 0 -29.228162876209836 -35.690526033216742 0 0 0 0 75.473893638198206 -127.08761461613176 0 -127.08761461613176 7.8730899736401625 0 0 0 0 110.47405652100861 -71.380857130337972 0 -71.380857130337972 -88.158352523561916 0 0 0 0 78.517262320558075 -72.870104355053627 0 -72.870104355053627 -87.970396848391829 0 0 0 0 80.55534804542549 -114.84247458784375 0 -114.84247458784375 -26.170403827681184 0 0 0 0 101.75800752422583 -113.83864060931955 0 -113.83864060931955 -26.289777334022801 0 0 0 0 451.98649211241718 -327.14708215804785 0 -327.14708215804785 -276.83857436376275 0 0 0 0 -19.523448625346646 -275.23974587038538 0 -275.23974587038538 -179.24112189874722 0 0 0 0 -12.049377422779799 -71.671063158984907 0 -71.671063158984907 33.349980645914911 0 0 0 0 46.619941949624135 -76.026475118660045 0 -76.026475118660045 31.582436591219675 0 0 0 0 2.8067775794839633 -3.1312816952083722 0 -3.1312816952083722 -0.034496251883041396 0 0 0 0 -53.961555538648099 -456.46614714388079 0 -456.46614714388079 217.44808207737515 0 0 0 0 -161.86734702502145 206.00707447963214 0 206.00707447963214 -189.55992627175146 0 0 0 0 87.528676174988504 -284.02127079342608 0 -284.02127079342608 141.02363249856717 0 0 0 0 89.512308226607274 -146.10442723761662 0 -146.10442723761662 48.871745072974591 0 0 0 0 49.932737981576793 -162.84828509603994 0 -162.84828509603994 50.122159406892024 0 0 0 0 59.620788172236644 -226.93202763402951 0 -226.93202763402951 188.55020009198051 0 0 0 0 16.44174966722494 -128.78906081912282 0 -128.78906081912282 133.5029848186241 0 0 0 0 116.10659547806426 -227.9914809488364 0 -227.9914809488364 68.803359962330433 0 0 0 0 27.71202713099774 -237.74221636870061 0 -237.74221636870061 121.62725962702825 0 0 0 0 64.882611431967234 -200.93215833240538 0 -200.93215833240538 58.912025853453088 0 0 0 0 56.849429181391315 -233.772868841952 0 -233.772868841952 155.30058874694805 0 0 0 0 97.815113488584757 -262.00311730180692 0 -262.00311730180692 89.683225662040059 0 0 0 0 175.34482731731259 -204.20152733457508 0 -204.20152733457508 34.384914255948388 0 0 0 0 -153.15274073855835 -59.93320247468364 0 -59.93320247468364 89.611686070027645 0 0 0 0 15.225225048721768 -89.223657775757601 0 -89.223657775757601 -19.318993896602478 0 0 0 0 -117.58110541429778 -4.9888096851718728 0 -4.9888096851718728 14.069586031517247 0 0 0 0 -217.76323571195826 -4.8871258483704878 0 -4.8871258483704878 56.603624922245217 0 0 0 0 -162.30763124211808 41.197917168206914 0 41.197917168206914 -18.13546032839804 0 0 0 0 -24.073197802936193 -91.424056302756071 0 -91.424056302756071 -79.997438621307083 0 0 0 0 3.3995206748676878 -7.1820547724440189 0 -7.1820547724440189 2.8436862460337409 0 0 0 0 -24.03810011659516 1.4861659506641445 0 1.4861659506641445 -50.96242766668729 0 0 0 0 -114.04139355816733 -174.76824477664013 0 -174.76824477664013 125.88839835238468 0 0 0 0 -122.73659393531852 30.476857184490655 0 30.476857184490655 -8.3884350360203825 0 0 0 0 20.68100980404779 51.937295109707065 0 51.937295109707065 -117.47513316292316 0 0 0 0 -58.522854557726532 -68.409368604612609 0 -68.409368604612609 -144.64219584684179 0 0 0 0 -41.576430501154391 -74.078720153447648 0 -74.078720153447648 -149.07821839294957 0 0 0 0 -40.458422407973558 -66.34516870018706 0 -66.34516870018706 -101.27617103144439 0 0 0 0 -29.087444423290435 -90.850072713103145 0 -90.850072713103145 -67.568906118989617 0 0 0 0 -56.48075229107053 -53.04591745261132 0 -53.04591745261132 -65.208538614897407 0 0 0 0 -146.57573987470823 -69.506153210443699 0 -69.506153210443699 -15.743031470148708 0 0 0 0 34.739128953683519 -27.946637669158747 0 -27.946637669158747 3.1842329230855739 0 0 0 0 28.1591287827614 -93.102076054128702 0 -93.102076054128702 -48.305074343079468 0 0 0 0 -83.911151097854599 2.4154306406489923 0 2.4154306406489923 38.553903525280475 0 0 0 0 28.785251033492386 -17.720720982302737 0 -17.720720982302737 -34.001255150240468 0 0 0 0 9.0682603883819866 -33.642641915565633 0 -33.642641915565633 2.6173404519597625 0 0 0 0 -44.007444331451552 -89.078171626468247 0 -89.078171626468247 -19.612898823075739 0 0 0 0 -7.8737907551694661 -93.972526164063311 0 -93.972526164063311 -54.624499151846976 0 0 0 0 -24.860571412893478 -105.12819884157216 0 -105.12819884157216 -33.166555396725016 0 0 0 0 -0.35288527653756319 -71.393849931364457 0 -71.393849931364457 -22.723062771096011 0 0 0 0 -35.47754885739414 -118.65087104967097 0 -118.65087104967097 -13.382870249188272 0 0 0 0 -18.581046499777585 -107.82571123505477 0 -107.82571123505477 -63.125333332907758 0 0 0 0 45.054607840771496 -51.851586198397854 0 -51.851586198397854 39.344781455816701 0 0 0 0 74.259873966715531 -68.929263087913569 0 -68.929263087913569 34.175169752401416 0 0 0 0 39.874580966303256 -32.494045062801945 0 -32.494045062801945 -22.931917504231222 0 0 0 0 26.482618310335852 -74.098083430022342 0 -74.098083430022342 20.318769967515834 0 0 0 0 -33.341532636608463 -123.11359089190228 0 -123.11359089190228 -38.112137440752122 0 0 0 0 78.050751460847096 -64.518470861017704 0 -64.518470861017704 12.220231399260228 0 0 0 0 42.181820761907147 -33.258167827691068 0 -33.258167827691068 111.69283075685962 0 0 0 0 52.982785821746802 -22.470987224871351 0 -22.470987224871351 -20.43266070431855 0 0 0 0 72.413490460632602 -19.034612259558344 0 -19.034612259558344 -21.077555624202432 0 0 0 0 81.802697540391819 -29.2100001732706 0 -29.2100001732706 -167.34204761192086 0 0 0 0 23.365419197671997 -38.505293649400357 0 -38.505293649400357 -24.519661010369902 0 0 0 0 45.283903876203112 -96.831419414134871 0 -96.831419414134871 -12.386515827372932 0 0 0 0 10.571040277776774 -48.973168369833729 0 -48.973168369833729 -12.112194369256031 0 0 0 0 35.388155712833395 -48.09172394989946 0 -48.09172394989946 -43.878553615075361 0 0 0 0 20.268320473056619 -26.842154749478581 0 -26.842154749478581 -21.411996329131199 0 0 0 0 -222.33239353590761 -140.87873908586334 0 -140.87873908586334 -76.677150673582219 0 0 0 0 23.912995466475934 -34.578873306942683 0 -34.578873306942683 0.85860654675582282 0 0 0 0 3.4717047655981901 -94.15595925461831 0 -94.15595925461831 2.064851136792214 0 0 0 0 -8.4712472538686541 -7.6137432682511132 0 -7.6137432682511132 5.0943253482223554 0 0 0 0 102.30937090086081 -43.515113133853447 0 -43.515113133853447 2.5829527191526722 0 0 0 0 -314.87036671016904 -142.82380405580443 0 -142.82380405580443 82.328371187468292 0 0 0 0 38.145830202523697 -82.29118541575582 0 -82.29118541575582 27.380379135975147 0 0 0 0 14.939641065357137 -48.988768905866891 0 -48.988768905866891 13.099057245824952 0 0 0 0 41.044163541388116 -93.946054543819628 0 -93.946054543819628 62.740069369974663 0 0 0 0 24.271236532891635 -109.87485912704142 0 -109.87485912704142 -66.773403329851135 0 0 0 0 -17.013540704123443 -112.56604139813135 0 -112.56604139813135 -22.139343501112307 0 0 0 0 -6.944516238175197 -45.087572842572911 0 -45.087572842572911 -34.693818881673707 0 0 0 0 -4.7765491507016122 -67.872815214628645 0 -67.872815214628645 75.390447847501491 0 0 0 0 -2.9639479886973277 -56.599310190737015 0 -56.599310190737015 -100.13075824234693 0 0 0 0 30.466522767354036 -14.691444428615796 0 -14.691444428615796 28.988437488587806 0 0 0 0 219.28138003655476 14.20825605711434 0 14.20825605711434 -105.01461580938485 0 0 0 0 70.285228344567059 -69.869129828714065 0 -69.869129828714065 -58.971766055303846 0 0 0 0 56.946630676422501 -38.460893476687488 0 -38.460893476687488 -26.494760727859102 0 0 0 0 56.824504453762529 -49.152589073290784 0 -49.152589073290784 -43.422015016479605 0 0 0 0 56.501080404477278 -69.233089815742346 0 -69.233089815742346 -53.730874292970384 0 0 0 0 108.78951526783931 -90.927881284616888 0 -90.927881284616888 35.892730157123879 0 0 0 0 100.62515918003919 -205.39522849757486 0 -205.39522849757486 77.838414557627402 0 0 0 0 31.001067882491043 -46.799717362020601 0 -46.799717362020601 21.049169057019753 0 0 0 0 0.072581551197799854 -99.671029582212213 0 -99.671029582212213 118.78634910838446 0 0 0 0 3.9563230123870596 -13.452021910605282 0 -13.452021910605282 -0.028048077564562846 0 0 0 0 -166.29879633069504 -13.816165667885798 0 -13.816165667885798 353.03638037266501 0 0 0 0 -55.21004893463396 55.954519000741129 0 55.954519000741129 -132.15221352485241 0 0 0 0 -29.965852947505482 52.45534636094726 0 52.45534636094726 -30.035408348863712 0 0 0 0 -38.34560113446787 -10.988047787584946 0 -10.988047787584946 60.316872795825475 0 0 0 0 -146.22504655306693 -157.39952303359314 0 -157.39952303359314 -86.570437612244859 0 0 0 0 -23.372420993080596 -80.780109884071862 0 -80.780109884071862 -129.25179212322109 0 0 0 0 -18.157830299533089 -55.996670120141061 0 -55.996670120141061 -93.353339659312041 0 0 0 0 -31.593615874855459 -122.57183352202264 0 -122.57183352202264 -287.72655714134453 0 0 0 0 514.57370807580446 -229.87785873121175 0 -229.87785873121175 -140.87901066563063 0 0 0 0 -87.491635369020514 -7.681002347933827 0 -7.681002347933827 42.423509102060052 0 0 0 0 -239.00397980527487 -86.588000819494482 0 -86.588000819494482 4.97208468025201 0 0 0 0 3.6968097548219703 2.0647069421918331 0 2.0647069421918331 -7.205302303559364 0 0 0 0 60.110660263861064 -99.06504526093704 0 -99.06504526093704 -90.163861032706336 0 0 0 0 -72.095127341890475 -239.08559223506018 0 -239.08559223506018 -288.25256061989057 0 0 0 0 21.415708953252761 -88.80421709586517 0 -88.80421709586517 -78.888624365456053 0 0 0 0 150.62352521391585 35.316469500845415 0 35.316469500845415 -419.88412408457953 0 0 0 0 75.392736970883561 66.110955185009516 0 66.110955185009516 11.727756781561766 0 0 0 0 102.1140013139302 419.27443846634014 0 419.27443846634014 140.15333040821133 0 0 0 0 -51.742830762697849 -19.213747347705066 0 -19.213747347705066 357.46473777762731 0 0 0 0 46.289389343612129 8.5408064430375816 0 8.5408064430375816 17.660160825296771 0 0 0 0 107.50296923061251 -92.219404890645819 0 -92.219404890645819 47.170027290347207 0 0 0 0 4.5259019314161435 -10.454984731861174 0 -10.454984731861174 3.6046814994282386 0 0 0 0 121.75353310717037 -186.12158262012963 0 -186.12158262012963 195.3483975380077 0 0 0 0 37.223648781752274 -26.130833546810038 0 -26.130833546810038 -36.378561589783459 0 0 0 0 279.25367445827578 380.64673199471872 0 380.64673199471872 -174.8540534704116 0 0 0 0 27.050181790713395 -71.387007208340947 0 -71.387007208340947 72.173116884645424 0 0 0 0 431.75918787231785 -395.75367150382954 0 -395.75367150382954 -394.96389128320152 0 0 0 0 -172.0384897581971 -62.587138234928716 0 -62.587138234928716 22.811532941850601 0 0 0 0 -101.526995869237 -17.700943674193695 0 -17.700943674193695 50.832418359939766 0 0 0 0 3.8612094748053778 1.9149597532944256 0 1.9149597532944256 -7.0337896904762829 0 0 0 0 -16.521998598356731 -77.421410326584009 0 -77.421410326584009 -16.423889009558479 0 0 0 0 -118.79767350539623 -117.14706318544631 0 -117.14706318544631 -31.648900520929601 0 0 0 0 667.78094532445539 -61.822204431562568 0 -61.822204431562568 -227.30804242956219 0 0 0 0 -39.054851229302585 -124.84391942784714 0 -124.84391942784714 11.420900876866654 0 0 0 0 266.62288763280958 -169.47335155503606 0 -169.47335155503606 -339.93069910691338 0 0 0 0 -29.890658708096453 -125.27220228276201 0 -125.27220228276201 -12.376279604126466 0 0 0 0 -34.886029932473321 -80.18688303710951 0 -80.18688303710951 -55.226718204809004 0 0 0 0 74.436002443858342 -33.683355941521455 0 -33.683355941521455 -30.523155952739529 0 0 0 0 -37.777406610490289 -81.949020619809744 0 -81.949020619809744 20.376888922877697 0 0 0 0 289.79272560855316 -450.96243795092596 0 -450.96243795092596 125.27850978368951 0 0 0 0 95.910393348014622 -146.79473515129507 0 -146.79473515129507 -9.2735654642310692 0 0 0 0 98.794164990977151 -184.20519647698165 0 -184.20519647698165 46.298909121217548 0 0 0 0 33.672112417552853 -138.11737347504095 0 -138.11737347504095 53.16872062827133 0 0 0 0 -65.846636592276582 -118.90952454874321 0 -118.90952454874321 -407.65593015888589 0 0 0 0 77.758627548635857 -47.174876275705117 0 -47.174876275705117 -24.239293991083343 0 0 0 0 -71.781508509087416 -424.64591787050642 0 -424.64591787050642 -240.7071227467095 0 0 0 0 609.84317593216838 -710.74390954012051 0 -710.74390954012051 -18.011162742992383 0 0 0 0 576.48948182701133 -432.54093109940004 0 -432.54093109940004 -277.26068035559729 0 0 0 0 101.24512838225746 -268.95135318339453 0 -268.95135318339453 122.53640324782464 0 0 0 0 111.95008721729391 -334.78997034447093 0 -334.78997034447093 -290.04269492215462 0 0 0 0 -2.9299278330864524 0.0095283955943443743 0 0.0095283955943443743 7.2650967864963434 0 0 0 0 -33.146342658408685 -50.269539520799299 0 -50.269539520799299 -22.385983228348778 0 0 0 0 101.79342460078624 543.81146354547491 0 543.81146354547491 72.173888804361923 0 0 0 0 -21.661220541951479 -67.718253961691516 0 -67.718253961691516 -43.954636869544629 0 0 0 0 -33.320419048628537 -32.717757260594226 0 -32.717757260594226 -73.228858752452652 0 0 0 0 -3.8462012831441825 2.9800810749948141 0 2.9800810749948141 -28.474678883037996 0 0 0 0 -10.392178854090162 -21.723597612566664 0 -21.723597612566664 -140.9867521985143 0 0 0 0 -11.406561712735311 0.37024513784376722 0 0.37024513784376722 -28.45572245673975 0 0 0 0 70.074562957358964 -47.396956693773191 0 -47.396956693773191 -6.6230171932783719 0 0 0 0 181.62287438093335 80.209339413842827 0 80.209339413842827 -20.137380157248117 0 0 0 0 16.059507327148481 -8.183910373455177 0 -8.183910373455177 3.602567660863599 0 0 0 0 -405.40316850607633 -369.19919980382838 0 -369.19919980382838 93.487062070489628 0 0 0 0 40.248539615768095 -54.171307119780977 0 -54.171307119780977 31.371017595520243 0 0 0 0 308.49070546054281 -224.73546041456575 0 -224.73546041456575 -67.830652120282139 0 0 0 0 147.71850866671474 -6.4250166297002096 0 -6.4250166297002096 -35.53449877219424 0 0 0 0 187.70637381961569 22.966730929823825 0 22.966730929823825 -76.155032025533728 0 0 0 0 -732.29944692521531 -45.658982914683293 0 -45.658982914683293 -145.35053844591312 0 0 0 0 -303.9572599056919 -492.24084899261652 0 -492.24084899261652 23.637971288058907 0 0 0 0 547.13250912385411 130.18415633356199 0 130.18415633356199 1.27196334987093 0 0 0 0 20.280893906556415 -2.688208630399231 0 -2.688208630399231 0.87335099264731753 0 0 0 0 324.37032256690873 -126.26642264423572 0 -126.26642264423572 -13.715190291768522 0 0 0 0 0.61188275574750151 -33.185682451388857 0 -33.185682451388857 680.43521011153643 0 0 0 0 -409.82503304829743 -103.23193465542806 0 -103.23193465542806 192.28973189555109 0 0 0 0 505.93332896817083 264.65781625480486 0 264.65781625480486 -191.8149085312034 0 0 0 0 60.142617361445446 -86.237906450915034 0 -86.237906450915034 101.12699436402181 0 0 0 0 -10.142905253098355 -49.831211677540637 0 -49.831211677540637 -5.9229924633946212 0 0 0 0 42.742506283568218 -68.800330657199083 0 -68.800330657199083 -72.264177832905261 0 0 0 0 33.265307491619751 -77.615493204693848 0 -77.615493204693848 -8.4572595594800077 0 0 0 0 -175.86900465274812 -117.10664394350169 0 -117.10664394350169 19.042830084181332 0 0 0 0 58.630246416549198 -52.477525880429312 0 -52.477525880429312 -43.465334983826324 0 0 0 0 8.4484795024997652 -27.566249593875625 0 -27.566249593875625 -35.387524848405604 0 0 0 0 -213.41586008973536 -50.355520785531553 0 -50.355520785531553 -0.39776753657497466 0 0 0 0 -15.602378724198154 -54.107796908633759 0 -54.107796908633759 -12.243992082246734 0 0 0 0 -399.72191927186213 -162.09780419561866 0 -162.09780419561866 124.67393695390638 0 0 0 0 3.8629301542022745 -3.4788685818367071 0 -3.4788685818367071 0.89030971170325302 0 0 0 0 -8.6829965696275906 -7.0036107937551435 0 -7.0036107937551435 -5.7740045416438761 0 0 0 0 407.1176573340781 -260.99520794065029 0 -260.99520794065029 364.56662678500288 0 0 0 0 -114.28958425935707 -271.00785175026977 0 -271.00785175026977 163.30516313223052 0 0 0 0 -207.63460548646981 -53.957809214960434 0 -53.957809214960434 51.905246249807533 0 0 0 0 -187.86990296590375 -84.030030887312023 0 -84.030030887312023 -8.9482209840207361 0 0 0 0 594.09155772473605 -138.78036745078134 0 -138.78036745078134 39.866415045922622 0 0 0 0 509.39798657680512 -331.20297836468671 0 -331.20297836468671 89.453993304690812 0 0 0 0 -158.70889652031474 -16.388104408120853 0 -16.388104408120853 -3.4104475012718467 0 0 0 0 -2.043400120211345 -5.2945629192490173 0 -5.2945629192490173 10.378149884642767 0 0 0 0 -0.22537396005108409 -736.47837976067149 0 -736.47837976067149 34.712873917218531 0 0 0 0 -236.54408445696754 45.777456374162284 0 45.777456374162284 -0.11614688532426953 0 0 0 0 -325.18461541010765 9.2520427562922123 0 9.2520427562922123 44.342823463433888 0 0 0 0 6.902926842969606 -11.159047856371387 0 -11.159047856371387 1.8158302398778119 0 0 0 0 165.5963649055484 -53.741358146173297 0 -53.741358146173297 -0.85699987881525885 0 0 0 0 -141.3573677847744 -412.64781496929209 0 -412.64781496929209 -13.57129373024668 0 0 0 0 288.24820645881118 422.74103143120738 0 422.74103143120738 -376.51287835476978 0 0 0 0 0.014067774579455482 -19.48728106317251 0 -19.48728106317251 13.540733870395343 0 0 0 0 -4.6305306805329565 -5.6149575106434213 0 -5.6149575106434213 2.2537133776945666 0 0 0 0 6.5998196762893144 -17.029222328894235 0 -17.029222328894235 17.928005214560869 0 0 0 0 -3.438343611167511 -16.989570437173825 0 -16.989570437173825 12.054666884272592 0 0 0 0 -4.2059246702862083 -13.572509569208592 0 -13.572509569208592 -17.22095001624831 0 0 0 0 15.480597754241899 -96.855414280820696 0 -96.855414280820696 284.90370074409475 0 0 0 0 83.945885097165501 -70.84322794175273 0 -70.84322794175273 11.107481303362874 0 0 0 0 85.278640846372582 -44.203519475966459 0 -44.203519475966459 -0.76937438691675197 0 0 0 0 112.64933830834343 -110.04813166130771 0 -110.04813166130771 44.16377969016321 0 0 0 0 97.335180870824843 -68.621664249065361 0 -68.621664249065361 3.4241739407589193 0 0 0 0 32.894904339707864 -34.242975080116594 0 -34.242975080116594 41.034855127931223 0 0 0 0 1.4499772351809952 -47.705617947411156 0 -47.705617947411156 -0.16904554105713032 0 0 0 0 -12.121523696936066 -48.85416489199838 0 -48.85416489199838 1.9922123099850069 0 0 0 0 66.72958582713909 -78.339328042813577 0 -78.339328042813577 10.520626810226531 0 0 0 0 8.8944204355861984 -32.872968634510983 0 -32.872968634510983 23.337192462901555 0 0 0 0 -21.513556551748735 -50.023842764927451 0 -50.023842764927451 -13.023923148519543 0 0 0 0 -38.410972939425847 -93.025172336252581 0 -93.025172336252581 4.469280551636075 0 0 0 0 -5.9840549663786078 -76.128595941372623 0 -76.128595941372623 44.646578293817583 0 0 0 0 26.311133403738495 -95.729890178248752 0 -95.729890178248752 3.8088111078686779 0 0 0 0 -37.23074018486659 -70.217222610041063 0 -70.217222610041063 9.1078813934582286 0 0 0 0 -1.4970215834327973 -58.271462259595864 0 -58.271462259595864 5.5592551610134251 0 0 0 0 49.716620419911123 -100.70205318165608 0 -100.70205318165608 32.921017413609661 0 0 0 0 9.5070462328149006 -108.27157945414365 0 -108.27157945414365 38.288898863414943 0 0 0 0 11.725278187630465 -59.296593698178185 0 -59.296593698178185 -13.768605436387588 0 0 0 0 8.4779954589321278 -103.66939265890687 0 -103.66939265890687 15.867443006885878 0 0 0 0 17.565306977354339 -103.75213351113052 0 -103.75213351113052 62.814437909975823 0 0 0 0 47.438980797483964 -88.118559788729726 0 -88.118559788729726 18.476012821833137 0 0 0 0 40.142574772427906 -136.89151627186948 0 -136.89151627186948 57.406293943487981 0 0 0 0 110.78333112884866 -68.228154483364051 0 -68.228154483364051 -125.40104860989959 0 0 0 0 -4.7285934574077828 -10.950919498996655 0 -10.950919498996655 15.481405600376718 0 0 0 0 -2.2019279104349607 -35.24130562374512 0 -35.24130562374512 -53.371337195645225 0 0 0 0 106.88540957108489 -79.469117881053535 0 -79.469117881053535 -157.81456991715822 0 0 0 0 -108.83656799443997 -14.533675209240755 0 -14.533675209240755 389.67221102362964 0 0 0 0 68.93682907751645 -126.36343081299128 0 -126.36343081299128 -10.246668641862925 0 0 0 0 106.02467899967451 -142.29911412762885 0 -142.29911412762885 -54.288710655302566 0 0 0 0 101.98513095959788 -122.24695357907331 0 -122.24695357907331 -101.48197280077147 0 0 0 0 105.6204555140539 -100.52884927856576 0 -100.52884927856576 -75.156676404818427 0 0 0 0 103.52494088908861 -112.07976021368268 0 -112.07976021368268 -140.96275904861977 0 0 0 0 -45.824231036269339 -171.88254318463441 0 -171.88254318463441 -91.120713042560965 0 0 0 0 -0.74113621894503012 -128.18219783392851 0 -128.18219783392851 -49.09226937040512 0 0 0 0 60.193066744628595 -152.24443427813821 0 -152.24443427813821 -178.02905719878618 0 0 0 0 14.442968583323818 -89.753976025534939 0 -89.753976025534939 7.0847683791944291 0 0 0 0 88.30621512705693 -102.83402582620329 0 -102.83402582620329 -43.412375654595962 0 0 0 0 -1.0690738994342155 -41.400040293395108 0 -41.400040293395108 -41.2609546279744 0 0 0 0 49.154486310391803 14.37653819735533 0 14.37653819735533 -14.47812247776892 0 0 0 0 185.93937172732331 -343.09912813185292 0 -343.09912813185292 -338.26631547737634 0 0 0 0 -49.644774014930135 4.0340985455567306 0 4.0340985455567306 -13.443385655555176 0 0 0 0 74.860191111147287 -44.775949720075005 0 -44.775949720075005 29.121541456064733 0 0 0 0 114.57518862809229 -13.414250035973964 0 -13.414250035973964 -4.9798628974531312 0 0 0 0 5.6523604362106425 -18.378408751791255 0 -18.378408751791255 5.9849275746649369 0 0 0 0 92.483392256603111 -195.18059638576233 0 -195.18059638576233 71.686376592967463 0 0 0 0 132.46952041517943 -58.083667031183722 0 -58.083667031183722 13.806754786324746 0 0 0 0 175.55409965655417 -157.97326771906592 0 -157.97326771906592 -1.5329526254499797 0 0 0 0 -25.614385184486963 -50.622907265504864 0 -50.622907265504864 -12.652587075875715 0 0 0 0 -9.4142037996498402 -89.234504689302412 0 -89.234504689302412 -3.8174606416650931 0 0 0 0 -31.489881312547368 -62.719924001241452 0 -62.719924001241452 12.420175578634371 0 0 0 0 -5.9073355794810709 -65.644747574033858 0 -65.644747574033858 16.688565774578137 0 0 0 0 -16.101590909395554 -45.867218334198412 0 -45.867218334198412 -30.150495500089733 0 0 0 0 15.651914486552414 -69.613793885646373 0 -69.613793885646373 -7.4871627596294275 0 0 0 0 -69.424980109746684 -133.64092455385617 0 -133.64092455385617 -67.772591424454731 0 0 0 0 -41.126566489505649 -49.815158482369213 0 -49.815158482369213 -20.197748595099256 0 0 0 0 -36.988612159701006 -12.053939122468364 0 -12.053939122468364 -14.291278453136329 0 0 0 0 93.320647975539032 16.248565259078532 0 16.248565259078532 -61.772141924637253 0 0 0 0 37.329256131633883 -76.125296271731713 0 -76.125296271731713 -141.04663775261724 0 0 0 0 -28.559331554228265 24.52494374955495 0 24.52494374955495 263.73657188480138 0 0 0 0 -65.846499147250142 -68.102103710554729 0 -68.102103710554729 46.615428416829673 0 0 0 0 -51.606704203572008 -61.417365454391984 0 -61.417365454391984 -18.575066464733936 0 0 0 0 276.00976736773509 -28.347978826934764 0 -28.347978826934764 21.722557244327618 0 0 0 0 281.57469920348376 -314.29716458092298 0 -314.29716458092298 95.518220782832941 0 0 0 0 3.4693545452716705 -3.4766258369127172 0 -3.4766258369127172 4.9208452079114977 0 0 0 0 691.7765172028594 -107.42839410697343 0 -107.42839410697343 -6.4268634983745869 0 0 0 0 -220.35871973398025 -381.12502313029654 0 -381.12502313029654 261.26927133258141 0 0 0 0 -50.552415007488889 -164.81491232847657 0 -164.81491232847657 415.74886426815647 0 0 0 0 380.68052248648019 -406.31326172139234 0 -406.31326172139234 213.34328059021936 0 0 0 0 95.539832826631027 217.29796751195681 0 217.29796751195681 -41.187397309542575 0 0 0 0 38.586932517761852 -104.47387073613527 0 -104.47387073613527 -325.84134078337956 0 0 0 0 5.3463460330702901 -2.6251079394729047 0 -2.6251079394729047 -0.80543852727171839 0 0 0 0 -167.33985965441389 -655.79690139353625 0 -655.79690139353625 229.56938823002156 0 0 0 0 430.30810217499675 98.710765506861208 0 98.710765506861208 -143.58952248025162 0 0 0 0 137.80210272897966 -28.495520245291118 0 -28.495520245291118 -143.62915175051825 0 0 0 0 38.635649824331267 -115.91684063737966 0 -115.91684063737966 -218.3487123297964 0 0 0 0 10.012383920508398 -5.6167904314685586 0 -5.6167904314685586 -0.28349397458231351 0 0 0 0 -135.4612561421236 -232.15546994617762 0 -232.15546994617762 -265.30231215451204 0 0 0 0 49.957792845116273 -192.76433377213243 0 -192.76433377213243 -293.34649609375629 0 0 0 0 -6.2137268954475076 -322.75485949147128 0 -322.75485949147128 -98.463813358277548 0 0 0 0 127.51272167216393 -59.987869843350509 0 -59.987869843350509 -7.2905568857551089 0 0 0 0 10.963205181920785 -105.60009202286528 0 -105.60009202286528 -154.57862608506548 0 0 0 0 424.64830789949337 -455.41075098019792 0 -455.41075098019792 140.57119069022156 0 0 0 0 139.98734095821555 -50.536031112804025 0 -50.536031112804025 -1.0531218631227262 0 0 0 0 162.552176590616 -383.33318286001304 0 -383.33318286001304 -268.24470583051516 0 0 0 0 180.3950758514984 -8.1010720346821472 0 -8.1010720346821472 -67.439457604661584 0 0 0 0 125.99743265082361 -162.36257414067222 0 -162.36257414067222 -223.13617063745914 0 0 0 0 165.58995530514221 -14.534997073591512 0 -14.534997073591512 -33.286452773863857 0 0 0 0 156.73988143890165 -30.837055898191466 0 -30.837055898191466 -52.509373420267366 0 0 0 0 -93.316373545570968 68.562086353204904 0 68.562086353204904 17.762829454470193 0 0 0 0 16.755674993357388 -38.903245835157577 0 -38.903245835157577 -8.6609153269064336 0 0 0 0 13.098005474473325 -12.007831581995163 0 -12.007831581995163 5.654199034568876 0 0 0 0 3.0867348987028151 -7.997752346372522 0 -7.997752346372522 -18.451280108531989 0 0 0 0 14.632822513682186 -24.118436676453712 0 -24.118436676453712 -11.224937372739078 0 0 0 0 195.1222773535701 -74.246328536559304 0 -74.246328536559304 -106.65177567544379 0 0 0 0 26.101249440352476 -7.8543550688623611 0 -7.8543550688623611 -3.8435679166066166 0 0 0 0 101.41553693963215 -86.645101142930798 0 -86.645101142930798 0.68207123869433417 0 0 0 0 24.173219756966347 -12.940241312860962 0 -12.940241312860962 -20.398505210143924 0 0 0 0 46.963653945887927 -43.051785845651466 0 -43.051785845651466 -17.903111210718635 0 0 0 0 -29.180430349777453 -49.167360494087916 0 -49.167360494087916 -32.496528417919762 0 0 0 0 8.8501080776991614 -37.127613739532137 0 -37.127613739532137 -15.635288796688087 0 0 0 0 1.5275664360345615 -52.682616666046954 0 -52.682616666046954 -30.203045822444295 0 0 0 0 109.04017897564336 -93.539658993220655 0 -93.539658993220655 -22.167586911615217 0 0 0 0 6.7980309816108928 -0.98648927033576683 0 -0.98648927033576683 0.1206794622637517 0 0 0 0 -33.516760691651143 -61.695080082077766 0 -61.695080082077766 -20.780817908049357 0 0 0 0 -29.368447356500837 -50.252114264578267 0 -50.252114264578267 -22.037906300436589 0 0 0 0 6.5418627188191749 -41.973939212846744 0 -41.973939212846744 -16.530303122575788 0 0 0 0 8.5217662431064127 -23.752062343278752 0 -23.752062343278752 -2.0955433881397596 0 0 0 0 -16.904382893641014 -45.890318039149861 0 -45.890318039149861 -14.808552892165608 0 0 0 0 117.58775251434417 83.970686007825861 0 83.970686007825861 -334.4934341905755 0 0 0 0 -24.434152011208425 -32.924606069826723 0 -32.924606069826723 -15.122855269336839 0 0 0 0 -82.071995405451162 -128.74305228034791 0 -128.74305228034791 -112.28172001775238 0 0 0 0 228.3226635158353 -318.53647464750247 0 -318.53647464750247 -29.323356465611141 0 0 0 0 454.59664690440695 -86.035799975081318 0 -86.035799975081318 -311.41124710204895 0 0 0 0 84.21191678019386 -71.235083263920387 0 -71.235083263920387 -26.277330369266565 0 0 0 0 18.145577131196319 -44.933963394861337 0 -44.933963394861337 -35.136804462355713 0 0 0 0 -10.005369545717258 -61.034206836964586 0 -61.034206836964586 -2.6095509694423527 0 0 0 0 3.2771528277169324 -33.515028758254118 0 -33.515028758254118 -32.409525475372561 0 0 0 0 39.290467551734764 -28.662609083141433 0 -28.662609083141433 -14.999777139208163 0 0 0 0 -22.694281824046186 -30.869913633994059 0 -30.869913633994059 4.0160204958204417 0 0 0 0 0.27096640999700977 -114.12247104538547 0 -114.12247104538547 125.95497585731209 0 0 0 0 116.82591042714193 -32.019054972042795 0 -32.019054972042795 -36.984205123793799 0 0 0 0 -2.5638896951591619 -0.65491280451263378 0 -0.65491280451263378 2.9314942000118549 0 0 0 0 -3.1324957879012914 -14.321162862262725 0 -14.321162862262725 9.5597565048062449 0 0 0 0 -89.631915298377862 -125.87429823112325 0 -125.87429823112325 -6.6311227340629557 0 0 0 0 -11.782785934401772 -18.516817552641896 0 -18.516817552641896 -5.5639900987000033 0 0 0 0 0.63435468747047707 -19.307838143009576 0 -19.307838143009576 -5.356202493479941 0 0 0 0 -2.5498947359665181 -30.70482398923923 0 -30.70482398923923 -9.5502655007803696 0 0 0 0 -4.41260328842327 -22.712035525055398 0 -22.712035525055398 -7.2070634107440128 0 0 0 0 17.237359044287587 -47.537226194835966 0 -47.537226194835966 34.638241533059045 0 0 0 0 -1.1940647649330671 -15.195005117475887 0 -15.195005117475887 -4.7929966178259633 0 0 0 0 -0.0039956321706995368 -15.570743553405919 0 -15.570743553405919 -20.794964281369175 0 0 0 0 3.5851518335383048 -20.232414741677815 0 -20.232414741677815 -12.008099519557845 0 0 0 0 2.1893551335730876 -3.7582202100839197 0 -3.7582202100839197 -8.2124784900164514 0 0 0 0 37.702007207059069 39.931639185902895 0 39.931639185902895 -22.417071036150446 0 0 0 0 -2.6242503394514642 -15.833112953838281 0 -15.833112953838281 -15.762638602900552 0 0 0 0 8.4225981465424411 -13.792182272794889 0 -13.792182272794889 -13.303082093741978 0 0 0 0 1.7724779651242706 -14.946247634774295 0 -14.946247634774295 -15.370870341107718 0 0 0 0 4.1408590873579101 -11.947647357484925 0 -11.947647357484925 -22.800195809752722 0 0 0 0 -2.971256854578769 3.7748662824913026 0 3.7748662824913026 -4.9551428119140439 0 0 0 0 13.303140126096139 -16.055405499625863 0 -16.055405499625863 4.8970590470322293 0 0 0 0 -9.1824884795350954 -33.69231011399097 0 -33.69231011399097 -7.800195581119624 0 0 0 0 60.234484855202027 -104.81128361797892 0 -104.81128361797892 -9.0319167551642749 0 0 0 0 -131.5968928571383 -77.306288116495125 0 -77.306288116495125 143.91494943595899 0 0 0 0 22.524048101389781 -52.922798050218262 0 -52.922798050218262 -7.3123740200953762 0 0 0 0 192.70042940012354 -128.52441951977744 0 -128.52441951977744 -17.80536716345523 0 0 0 0 0.76621084337530831 -7.8764299094101489 0 -7.8764299094101489 -36.535067636989879 0 0 0 0 20.241381816318608 -10.701372884428565 0 -10.701372884428565 -56.661909901951731 0 0 0 0 0.30313030501740779 0.88780927788026387 0 0.88780927788026387 7.4883388731686864 0 0 0 0 86.707647250739683 -220.17791338921052 0 -220.17791338921052 153.12065918957524 0 0 0 0 -0.82653500852757134 -1.7810931271487789 0 -1.7810931271487789 6.3240143345883553 0 0 0 0 -116.47443942536484 142.44780139217619 0 142.44780139217619 178.6292402121835 0 0 0 0 -81.47486230469076 -100.1320383582497 0 -100.1320383582497 344.4623353916686 0 0 0 0 -68.003567196523363 -40.580990823794309 0 -40.580990823794309 -3.2619489293138031 0 0 0 0 -111.92442878705333 207.6265266318369 0 207.6265266318369 24.934862067021641 0 0 0 0 299.8488724516792 31.014152881194605 0 31.014152881194605 -2087.9652774483839 0 0 0 0 20.013765531693934 -33.283999767976638 0 -33.283999767976638 -926.42973488020652 0 0 0 0 235.80596430241712 -52.807100911428279 0 -52.807100911428279 -937.70566232390775 0 0 0 0 -194.700530614733 -567.87695111407083 0 -567.87695111407083 -1646.6229304347362 0 0 0 0 56.382066801830661 267.88891022277312 0 267.88891022277312 -840.8245744316082 0 0 0 0 -0.56959825710268319 -3.9054106549107246 0 -3.9054106549107246 -14.071295272347726 0 0 0 0 257.04160046670586 67.787594679670292 0 67.787594679670292 -52.744574457203271 0 0 0 0 8.158552641506617 -2.7916526914158624 0 -2.7916526914158624 -7.7851656719317361 0 0 0 0 0.98764019232336864 -3.0331288438471233 0 -3.0331288438471233 -0.6353187015020012 0 0 0 0 -62.590762317006011 -113.38867251075135 0 -113.38867251075135 -75.4610240673519 0 0 0 0 7.4116546041695983 40.606365991938219 0 40.606365991938219 -564.86825077779213 0 0 0 0 54.833381328673568 -384.00712882373045 0 -384.00712882373045 -632.83388217846459 0 0 0 0 -95.57966872669931 -426.33620901196628 0 -426.33620901196628 -566.46467244688392 0 0 0 0 21.285037557376199 -244.50561063361056 0 -244.50561063361056 -1104.9063187696738 0 0 0 0 -15.149195870410949 -565.62841308477175 0 -565.62841308477175 -456.27209043402399 0 0 0 0 -113.8944041859213 -471.90082063826412 0 -471.90082063826412 -99.017422918081138 0 0 0 0 -18.739240082960805 -652.20617963007817 0 -652.20617963007817 -370.9531328075027 0 0 0 0 -567.00634645592072 -834.17671676477585 0 -834.17671676477585 -527.02082955058722 0 0 0 0 0.046537196627468802 -326.4269629978844 0 -326.4269629978844 -1903.9445483252493 0 0 0 0 -130.17283085425152 -1165.5644477087917 0 -1165.5644477087917 -1677.7777775162249 0 0 0 0 97.022097356239101 -791.01764057530818 0 -791.01764057530818 -768.43310416926761 0 0 0 0 33.429494516283739 -646.90985930037641 0 -646.90985930037641 -803.08068837584142 0 0 0 0 -95.629443416342838 -849.52186178245756 0 -849.52186178245756 -14.183466309557843 0 0 0 0 2.652329170901794 -994.3203578099492 0 -994.3203578099492 -561.15669714069372 0 0 0 0 -50.340844122692943 -734.71716592199664 0 -734.71716592199664 -293.05530820631975 0 0 0 0 -132.74827464444388 -940.0993505294191 0 -940.0993505294191 330.31678857268707 0 0 0 0 80.087134891073219 -548.05976099641703 0 -548.05976099641703 -227.28054514394717 0 0 0 0 -425.23597783275181 -549.76056077352769 0 -549.76056077352769 -223.67036233637191 0 0 0 0 0.14769500339752994 -912.29639271583437 0 -912.29639271583437 1299.8594429432997 0 0 0 0 183.97262351217796 -839.7733149859414 0 -839.7733149859414 177.81347376307531 0 0 0 0 -242.78098482207861 -758.16993843179807 0 -758.16993843179807 1518.1280368715379 0 0 0 0 64.92980072950013 136.60283283992248 0 136.60283283992248 1324.3382951185922 0 0 0 0 -223.66493047599215 421.88055704451835 0 421.88055704451835 2733.6254974127733 0 0 0 0 -0.0025855437270365655 -32.074452988719713 0 -32.074452988719713 -112.42754366906593 0 0 0 0 0.69676050024645519 -11.523897758807763 0 -11.523897758807763 -22.56529578060001 0 0 0 0 -120.54133724889834 -14.639927971809811 0 -14.639927971809811 789.71813860958719 0 0 0 0 -9.2383196435246191 -45.435705771006639 0 -45.435705771006639 49.486987186220716 0 0 0 0 -73.74824459728552 -167.47644159002812 0 -167.47644159002812 660.15377433897811 0 0 0 0 -149.46064826755901 -503.67885380178632 0 -503.67885380178632 126.89336565478879 0 0 0 0 -227.58372822598903 -471.4329378563707 0 -471.4329378563707 993.35311295217252 0 0 0 0 -175.9941596511344 -599.50463600302101 0 -599.50463600302101 414.23341045860434 0 0 0 0 -197.45043373038061 -438.74215933475534 0 -438.74215933475534 406.23359054666071 0 0 0 0 -120.07144589984091 -451.10359213487936 0 -451.10359213487936 -110.71471504429792 0 0 0 0 -35.066422365314793 -90.581772298399301 0 -90.581772298399301 226.98940436950033 0 0 0 0 -27.661930619826308 -246.63502644692198 0 -246.63502644692198 -213.62958867668021 0 0 0 0 -2.2994714450688889 -51.629662028729065 0 -51.629662028729065 58.048777231595309 0 0 0 0 -82.508533761472791 -143.05007282587758 0 -143.05007282587758 176.12300254334332 0 0 0 0 -67.312254333399324 -181.73491287733441 0 -181.73491287733441 -32.922295137090259 0 0 0 0 -100.06202890205896 -195.07701336899936 0 -195.07701336899936 -38.891722481946999 0 0 0 0 -109.93924179917667 -142.34984116230135 0 -142.34984116230135 -10.118151820620369 0 0 0 0 -28.994016949145589 -134.65101772475737 0 -134.65101772475737 -15.713335539593857 0 0 0 0 -58.963424413581379 -250.33433284095281 0 -250.33433284095281 -21.305540841054608 0 0 0 0 161.99900863590301 -146.74063203083551 0 -146.74063203083551 -20.088077614672329 0 0 0 0 134.52865584663232 -211.77821417887935 0 -211.77821417887935 -58.322348238933046 0 0 0 0 177.19190357608022 -22.005780592073279 0 -22.005780592073279 -144.35474959568819 0 0 0 0 0.0093244844174478203 -27.05879927897513 0 -27.05879927897513 -111.94919598920023 0 0 0 0 425.14908299577655 -124.87695739187529 0 -124.87695739187529 -106.20865747323842 0 0 0 0 49.041657145946374 -87.114864869201938 0 -87.114864869201938 -171.3181972758357 0 0 0 0 -1.4264448113578396 -25.992372923130404 0 -25.992372923130404 -95.535615888457301 0 0 0 0 3.998130661148025 -28.652842504022829 0 -28.652842504022829 -112.09042704936292 0 0 0 0 78.972169569984544 -117.69781051135396 0 -117.69781051135396 -229.57200847365675 0 0 0 0 8.3173028996097855 -97.511413743435241 0 -97.511413743435241 -148.40394404670951 0 0 0 0 -44.289351609462756 -175.79694390449367 0 -175.79694390449367 -157.1674670905777 0 0 0 0 -37.974237372312928 -195.02467838287339 0 -195.02467838287339 -121.1074397179209 0 0 0 0 -42.484938298146517 -211.0680188032934 0 -211.0680188032934 -231.85714795501553 0 0 0 0 -23.746452248275318 -45.979377719820604 0 -45.979377719820604 -79.969468307426922 0 0 0 0 -102.88601216496318 -224.28114194137379 0 -224.28114194137379 -244.28451063674038 0 0 0 0 -86.145530901671009 -128.54143784265193 0 -128.54143784265193 -126.84459975789287 0 0 0 0 -94.149197917751735 -106.44634852780109 0 -106.44634852780109 -177.82756157494077 0 0 0 0 -4.955048915639054 -170.63271320694548 0 -170.63271320694548 -125.64107215178046 0 0 0 0 -20.204385618390461 -57.532525747356061 0 -57.532525747356061 -61.699275489139744 0 0 0 0 -18.932364009640878 -142.10830420948332 0 -142.10830420948332 -78.43792892052079 0 0 0 0 9.0039418781153131 -68.636008333784559 0 -68.636008333784559 47.919707902746012 0 0 0 0 6.0388326453627315 -55.751448099281596 0 -55.751448099281596 62.025323979185785 0 0 0 0 -44.142311403091298 -172.07971989515863 0 -172.07971989515863 -29.918982247279928 0 0 0 0 -29.98533757176483 -176.02540901729299 0 -176.02540901729299 -107.82975232350873 0 0 0 0 -43.383087384630926 -170.50437079907351 0 -170.50437079907351 -101.28086581115349 0 0 0 0 -15.599584052775754 -273.81906176604753 0 -273.81906176604753 -112.41734999839196 0 0 0 0 -2.5658808294101618 -247.87159599429651 0 -247.87159599429651 -211.99584372794197 0 0 0 0 -54.776966703080689 -330.46688529947278 0 -330.46688529947278 -174.42622423732973 0 0 0 0 -78.319351383761386 -326.09191417604961 0 -326.09191417604961 74.445034161042713 0 0 0 0 44.485924279371829 -270.97202810506678 0 -270.97202810506678 -273.88449259180925 0 0 0 0 49.95529849853483 -372.54413031512377 0 -372.54413031512377 -165.08030060621968 0 0 0 0 67.742744605871849 -303.04783298075927 0 -303.04783298075927 -230.10924767838878 0 0 0 0 -44.331642755365465 -231.16171603747352 0 -231.16171603747352 -219.53253390923055 0 0 0 0 54.38131379353581 -229.80680950084206 0 -229.80680950084206 -297.05370265962483 0 0 0 0 -1.1739036310791562 -244.25277277421264 0 -244.25277277421264 -224.66804169693205 0 0 0 0 -142.7899521413201 -227.81906289132894 0 -227.81906289132894 -190.91149858175777 0 0 0 0 -44.376860762400611 -229.6351416203064 0 -229.6351416203064 -253.90432085357315 0 0 0 0 -111.61308991981787 -246.56809102115403 0 -246.56809102115403 -259.37400308455108 0 0 0 0 -121.66953491553431 -193.92447590955271 0 -193.92447590955271 -248.51926585374167 0 0 0 0 -99.032164297241252 -241.31155244905676 0 -241.31155244905676 -240.33541530753428 0 0 0 0 -34.572435512029529 -24.966803582513137 0 -24.966803582513137 2.0282697416367057 0 0 0 0 -131.35361730080331 -204.28092006701263 0 -204.28092006701263 -271.0794183605758 0 0 0 0 -133.06579131958279 -239.20885694514254 0 -239.20885694514254 -257.98177926824428 0 0 0 0 -21.581919629184995 -56.508574940678955 0 -56.508574940678955 -68.298418617199786 0 0 0 0 22.14623827019966 -5.0339492022253012 0 -5.0339492022253012 -18.92116644497699 0 0 0 0 -152.10822822153568 -192.42550711517106 0 -192.42550711517106 -248.10660422431829 0 0 0 0 -37.480739757127594 -220.57093627117865 0 -220.57093627117865 -269.07793894197675 0 0 0 0 77.768446343252435 -284.42232025486555 0 -284.42232025486555 -268.8072422746045 0 0 0 0 -27.11118826890015 -135.47913776081987 0 -135.47913776081987 -270.31275646516588 0 0 0 0 110.01881004573079 -244.7860623837114 0 -244.7860623837114 -294.32570473826308 0 0 0 0 -114.19479608174879 -148.94837062348233 0 -148.94837062348233 -266.68365786943286 0 0 0 0 1.6600106771004448 -3.1472295160603139 0 -3.1472295160603139 -6.8656921436260347 0 0 0 0 -46.744338854274247 -17.54630500341591 0 -17.54630500341591 477.27188435071002 0 0 0 0 148.13469325070037 -124.92395129536999 0 -124.92395129536999 -350.2087560036598 0 0 0 0 350.28372668096563 -297.06609225749708 0 -297.06609225749708 77.999200751190074 0 0 0 0 -13.873907033295836 -201.90734740917105 0 -201.90734740917105 421.85844606636965 0 0 0 0 -99.349268109916011 -108.09015737122536 0 -108.09015737122536 -13.835851102718152 0 0 0 0 -37.943468620971544 -120.3341758014576 0 -120.3341758014576 -62.90678262559959 0 0 0 0 -4.2603719567414373 -238.65394420488155 0 -238.65394420488155 72.634247223435523 0 0 0 0 -126.13619553169701 -95.719511420633353 0 -95.719511420633353 46.537552438028797 0 0 0 0 -68.570457232650369 -82.607992012759496 0 -82.607992012759496 5.6105865054778405 0 0 0 0 -37.489577573724091 -11.670857909470215 0 -11.670857909470215 159.87453278483372 0 0 0 0 -20.822958224338436 -7.0628368558690013 0 -7.0628368558690013 2.7643590419182758 0 0 0 0 52.754436279414222 -44.375528777018189 0 -44.375528777018189 91.494886553206015 0 0 0 0 2.3416816006501904 -536.57779142379513 0 -536.57779142379513 -342.87274185896968 0 0 0 0 135.89374580199365 -450.61420948463638 0 -450.61420948463638 -434.75330209017193 0 0 0 0 46.11001832583861 -456.72538786681434 0 -456.72538786681434 -253.91798345811549 0 0 0 0 196.87778458540561 -367.10309005952877 0 -367.10309005952877 -347.96983148592699 0 0 0 0 172.64004830483464 -376.40473429144913 0 -376.40473429144913 -66.760226685699308 0 0 0 0 325.33811963864719 -321.42003230090813 0 -321.42003230090813 -351.33120567401056 0 0 0 0 367.23641074742773 -130.85596791781427 0 -130.85596791781427 -13.814324654642405 0 0 0 0 -134.05419357742903 -673.38335082436606 0 -673.38335082436606 -560.71856362605467 0 0 0 0 4.1837861930431473 -0.74946130514646825 0 -0.74946130514646825 -3.8552719710724261 0 0 0 0 577.06708019365033 245.70898659472005 0 245.70898659472005 28.542794554014108 0 0 0 0 386.64774153177859 -161.47536409015083 0 -161.47536409015083 -79.70191177984816 0 0 0 0 280.14386729084072 12.289355085531497 0 12.289355085531497 -161.84593012635742 0 0 0 0 178.53956492649741 -8.8673370347969467 0 -8.8673370347969467 -36.044760749191482 0 0 0 0 -80.658429809323934 -364.74942906050546 0 -364.74942906050546 -126.98012112272409 0 0 0 0 110.42089203145588 -99.842790216673166 0 -99.842790216673166 -58.865661708230618 0 0 0 0 124.96975358772983 -54.809674108924575 0 -54.809674108924575 -7.1472774145285598 0 0 0 0 288.5837628099107 -63.551470548954967 0 -63.551470548954967 -171.91731945257925 0 0 0 0 -49.466107690124772 -130.27130171504541 0 -130.27130171504541 20.299416956142522 0 0 0 0 137.32501449886968 -49.836884049653747 0 -49.836884049653747 -1.6190541809600347 0 0 0 0 52.792232678424625 -306.2422475037074 0 -306.2422475037074 -249.50763148058468 0 0 0 0 113.95758313059923 -39.004656464901927 0 -39.004656464901927 -207.37872065935608 0 0 0 0 121.54461001528307 -122.07560792213326 0 -122.07560792213326 -305.48345159301243 0 0 0 0 -115.66475445544347 -72.860423993697623 0 -72.860423993697623 -26.703515400266042 0 0 0 0 -69.887480777877499 -128.49532594594348 0 -128.49532594594348 -147.68066600785824 0 0 0 0 9.0044150677362609 -5.2207339965554098 0 -5.2207339965554098 -0.21856620955691142 0 0 0 0 -59.716866616527113 -424.3532665608991 0 -424.3532665608991 -303.60059495949827 0 0 0 0 -306.41015056797187 -88.251235184005054 0 -88.251235184005054 -42.14504133794253 0 0 0 0 89.54009464365663 -140.28524275374366 0 -140.28524275374366 -70.050586587385624 0 0 0 0 29.450306526615449 -9.5880841329697262 0 -9.5880841329697262 -7.0091877158265561 0 0 0 0 -385.66996820602071 -308.73345632674227 0 -308.73345632674227 -100.04581997430796 0 0 0 0 228.05357201342122 7.9733538550208323 0 7.9733538550208323 -111.40497430989126 0 0 0 0 4.6418857048263931 -2.2321318441233302 0 -2.2321318441233302 -1.0471629707489569 0 0 0 0 35.234098200133303 -47.234793655748945 0 -47.234793655748945 -76.477698635797424 0 0 0 0 7.6874372756719822 -117.63472356444981 0 -117.63472356444981 -105.06070046835521 0 0 0 0 -71.951624127817922 -93.697315298733884 0 -93.697315298733884 -79.115379916998791 0 0 0 0 10.168387229205109 -142.10740127990721 0 -142.10740127990721 -88.030178527580574 0 0 0 0 5.4221965623437427 -121.4097778651485 0 -121.4097778651485 -111.1341213452979 0 0 0 0 -15.288606400310528 -141.32554910278122 0 -141.32554910278122 -73.57974201397883 0 0 0 0 -22.313394478464033 -147.99767955717834 0 -147.99767955717834 -77.537581622571452 0 0 0 0 -18.769148243271047 -156.66357072501705 0 -156.66357072501705 -72.618800875468878 0 0 0 0 -10.947317248443142 -161.50373713627414 0 -161.50373713627414 -103.95974948417279 0 0 0 0 105.62158514294424 -144.17776365300233 0 -144.17776365300233 -132.53206494165352 0 0 0 0 31.869658682495356 -132.64965726002993 0 -132.64965726002993 -115.60372809116598 0 0 0 0 44.868556514789816 -173.92242821279797 0 -173.92242821279797 -103.86444434487203 0 0 0 0 12.863486784226495 -29.997899676352631 0 -29.997899676352631 -28.77036944211963 0 0 0 0 29.866873100661905 -53.126474544718803 0 -53.126474544718803 -3.9705214684800012 0 0 0 0 -2.0967801674636064 -34.248382789751432 0 -34.248382789751432 -19.097489145304451 0 0 0 0 -23.569210279907566 -145.53749346580298 0 -145.53749346580298 -45.526288843801012 0 0 0 0 -38.956334938848158 -152.77053950951813 0 -152.77053950951813 -70.030048687352974 0 0 0 0 19.605391126214954 -19.136169209094362 0 -19.136169209094362 -13.960868629755396 0 0 0 0 -78.529177039861679 -147.65828258905094 0 -147.65828258905094 12.411833769583609 0 0 0 0 -22.517344693857012 -166.37964451518928 0 -166.37964451518928 -84.001006272344966 0 0 0 0 -15.478919408662478 -160.9806721781315 0 -160.9806721781315 -97.149026921746554 0 0 0 0 -37.704168154741637 -145.86702398517809 0 -145.86702398517809 -101.64837728719431 0 0 0 0 30.717823106215974 -47.464401574955446 0 -47.464401574955446 -24.039278563573617 0 0 0 0 20.291350264800712 -15.09679891372798 0 -15.09679891372798 -26.473522957967361 0 0 0 0 43.521240944805811 -21.142597107160242 0 -21.142597107160242 -38.667100399559928 0 0 0 0 -189.22897624023608 -115.87909453569591 0 -115.87909453569591 -51.468768610640836 0 0 0 0 -51.873959309450754 -68.058752119619214 0 -68.058752119619214 -39.873064585153401 0 0 0 0 -165.76795167161617 -142.90231939523073 0 -142.90231939523073 -67.740214944577019 0 0 0 0 -94.921126911613101 -172.93457706499976 0 -172.93457706499976 -109.12125052914053 0 0 0 0 82.98627316771308 -147.7009959257266 0 -147.7009959257266 -125.68518473762379 0 0 0 0 -36.165890730568208 -198.43614222919859 0 -198.43614222919859 -103.33848416608816 0 0 0 0 92.903907994739711 -216.32627603935543 0 -216.32627603935543 -123.29113867170236 0 0 0 0 -121.74439682092634 -280.25224781980796 0 -280.25224781980796 -94.655341176199727 0 0 0 0 184.14463836226787 -359.93011547729657 0 -359.93011547729657 -210.9005041802302 0 0 0 0 319.10302270523971 -144.74038136142917 0 -144.74038136142917 -226.48248293437791 0 0 0 0 -104.85105282237055 70.017730539129843 0 70.017730539129843 -63.550083848758732 0 0 0 0 -11.334672290682647 -228.60899667552439 0 -228.60899667552439 -188.87867870828632 0 0 0 0 -45.517920375524426 -69.803131385952895 0 -69.803131385952895 -40.196771998381791 0 0 0 0 -214.57186135905795 -140.32138253487574 0 -140.32138253487574 -110.2236904737365 0 0 0 0 -28.407466902339365 -187.97090744686648 0 -187.97090744686648 -203.51937862380873 0 0 0 0 -119.12966448313091 -174.38653911363508 0 -174.38653911363508 -197.7400222904871 0 0 0 0 -80.529196654708358 -244.44404181537175 0 -244.44404181537175 -192.27610422445287 0 0 0 0 -30.772730275260983 -204.31184949457747 0 -204.31184949457747 -226.76926449459279 0 0 0 0 -35.334081694250926 -195.35130568299792 0 -195.35130568299792 -221.02900173325179 0 0 0 0 6.9536684659755981 -4.0863606044433425 0 -4.0863606044433425 -0.082527915666503304 0 0 0 0 -7.603996091229476 -12.99193287820502 0 -12.99193287820502 7.8321159102649034 0 0 0 0 -35.334081694483757 -195.35130568299792 0 -195.35130568299792 -221.02900173325907 0 0 0 0 -120.95237267909852 -190.2359281085196 0 -190.2359281085196 -127.63781530573033 0 0 0 0 -35.334081694483757 -195.35130568305431 0 -195.35130568305431 -221.02900173322996 0 0 0 0 -46.554330483340891 -184.04320043336338 0 -184.04320043336338 -217.58983937615994 0 0 0 0 -207.18940310171456 -187.29909536674677 0 -187.29909536674677 -166.60018128044612 0 0 0 0 -141.20629369337985 -232.21623700238342 0 -232.21623700238342 -186.55547723954078 0 0 0 0 -25.225357159859414 -186.41890867558686 0 -186.41890867558686 -182.89105371236656 0 0 0 0 3.4017401656961965 -42.376280986779179 0 -42.376280986779179 4.4005458813455931 0 0 0 0 34.944841674467057 -41.206577109160648 0 -41.206577109160648 -14.266309496871571 0 0 0 0 10.397973103569257 -167.17094949426556 0 -167.17094949426556 -216.96897820130835 0 0 0 0 -17.73760685994057 -59.433645955206885 0 -59.433645955206885 -43.306946792115923 0 0 0 0 10.129409763367676 -59.016922343451967 0 -59.016922343451967 -22.656171194571755 0 0 0 0 13.186748037432778 -46.852721665946824 0 -46.852721665946824 -1.969005603633839 0 0 0 0 7.7654626681760419 -92.962787301104981 0 -92.962787301104981 -28.172104400824537 0 0 0 0 -0.87045420479262248 -86.148822757013477 0 -86.148822757013477 -70.514632389960752 0 0 0 0 -28.950995334307663 -85.567446034379827 0 -85.567446034379827 -25.06622330729806 0 0 0 0 -45.943936564290198 -60.076405860803789 0 -60.076405860803789 -22.912166896210692 0 0 0 0 -6.6216540151508525 -59.08626520411417 0 -59.08626520411417 -68.392126344217104 0 0 0 0 48.432198973267887 -51.725508646860163 0 -51.725508646860163 -33.711763799737241 0 0 0 0 -291.66997370339232 -94.505915287409152 0 -94.505915287409152 -74.314859548465392 0 0 0 0 -133.30713150171505 -109.91045928850144 0 -109.91045928850144 24.938342675610329 0 0 0 0 22.37845932171706 -34.61558275993626 0 -34.61558275993626 19.96543006111412 0 0 0 0 34.378133233476547 -71.971670705821452 0 -71.971670705821452 -72.337109476473415 0 0 0 0 -44.855945102272017 -358.39613308774142 0 -358.39613308774142 -237.73600418574642 0 0 0 0 8.0945796182535332 -28.429878641602677 0 -28.429878641602677 4.3798540031694984 0 0 0 0 -159.56353102697176 -258.47279688997514 0 -258.47279688997514 -156.10595671583724 0 0 0 0 3.1099791836531949 -55.834192354897823 0 -55.834192354897823 -11.553854755766224 0 0 0 0 33.214421515382128 -87.751622490846785 0 -87.751622490846785 2.1269147213679389 0 0 0 0 111.19476849063358 -103.99657505046343 0 -103.99657505046343 -40.92671145710483 0 0 0 0 5.3773781203781255 -99.478372373552702 0 -99.478372373552702 104.4064930671957 0 0 0 0 70.410262475459604 -65.139828029499768 0 -65.139828029499768 -63.472062779503176 0 0 0 0 12.919144873464063 -14.396907035256056 0 -14.396907035256056 -1.3273599320513512 0 0 0 0 49.122337899461854 -120.58921375799764 0 -120.58921375799764 70.770858843272435 0 0 0 0 6.8123313237393859 1.3451087428723696 0 1.3451087428723696 -0.28396399645747294 0 0 0 0 23.503950521509978 -240.7468910429634 0 -240.7468910429634 677.90466095956072 0 0 0 0 212.54584371630699 164.6689573950689 0 164.6689573950689 3.0307068660913501 0 0 0 0 516.51758854649961 1.6050232768247952 0 1.6050232768247952 -130.33376627842563 0 0 0 0 419.10179967482691 -278.10673885904362 0 -278.10673885904362 -1.2789815237920266 0 0 0 0 -110.06832443513849 -146.18305798668734 0 -146.18305798668734 256.68069491067217 0 0 0 0 -265.74213460104511 86.193702090045917 0 86.193702090045917 -44.920876098345616 0 0 0 0 -1.691968119339208 -9.4617551622601752 0 -9.4617551622601752 -9.1897706849755139 0 0 0 0 -31.954500495659886 -45.011912555230083 0 -45.011912555230083 -61.49445128433581 0 0 0 0 -158.15711876575369 -203.50968831997307 0 -203.50968831997307 83.919944348159333 0 0 0 0 5.781354153811634 -4.8788963535016023 0 -4.8788963535016023 -3.2250748749527531 0 0 0 0 -324.1341553704915 -285.55249600963452 0 -285.55249600963452 -160.40770958895155 0 0 0 0 131.4418861502636 -172.42992165295254 0 -172.42992165295254 -43.828915582926129 0 0 0 0 -213.86548096117622 -215.72629180803415 0 -215.72629180803415 -235.16689860859697 0 0 0 0 173.35101531097826 -96.481040624931666 0 -96.481040624931666 22.779353468293266 0 0 0 0 305.97132630534179 -138.18653530801748 0 -138.18653530801748 -55.38647901560762 0 0 0 0 245.22328299470246 -109.51859994020924 0 -109.51859994020924 -127.02601661787048 0 0 0 0 299.43046975807374 -22.531272156433261 0 -22.531272156433261 -41.292457098519662 0 0 0 0 329.60260722150269 -25.696558694748092 0 -25.696558694748092 -133.24699198440339 0 0 0 0 290.75813820929034 -80.318797943953541 0 -80.318797943953541 -95.770805380434467 0 0 0 0 -0.38474462121615716 -3.4068094356020495 0 -3.4068094356020495 -0.79064831928604207 0 0 0 0 -2.3536313581075916 -33.076091589500237 0 -33.076091589500237 -4.1538512274743198 0 0 0 0 240.79971728285454 -114.02050694461468 0 -114.02050694461468 -12.283077135522035 0 0 0 0 0.27693459701549727 -60.349659004565183 0 -60.349659004565183 102.67643713213874 0 0 0 0 -587.80435128046884 -159.01501289565567 0 -159.01501289565567 43.246240473265061 0 0 0 0 73.982758093279699 16.799053004211601 0 16.799053004211601 -96.366122003950295 0 0 0 0 -0.73290530179228597 -1.5318270431357917 0 -1.5318270431357917 -3.3156782017337889 0 0 0 0 16.168473108853505 -242.86976427178888 0 -242.86976427178888 -310.83033751456969 0 0 0 0 -140.16577828103982 -95.157076729508844 0 -95.157076729508844 9.9543580888930592 0 0 0 0 6.648815258892725 -7.2358221042673279 0 -7.2358221042673279 -9.5772116215568133 0 0 0 0 45.291989813791588 -31.265552187278445 0 -31.265552187278445 -6.5326782378033386 0 0 0 0 93.352464627358131 -73.593523417792312 0 -73.593523417792312 -56.477153279131016 0 0 0 0 212.50281093173908 -418.2100311484437 0 -418.2100311484437 -151.51725517575687 0 0 0 0 169.6062892835107 -326.68493845365811 0 -326.68493845365811 -313.57753169224816 0 0 0 0 359.64163650490809 -96.313892614596625 0 -96.313892614596625 -138.73835585246479 0 0 0 0 338.55714257179352 -30.139470996384262 0 -30.139470996384262 -4.9845551867474569 0 0 0 0 188.55913475235866 -179.45545788375966 0 -179.45545788375966 -80.69655558829254 0 0 0 0 833.93109523368184 -56.816603059640329 0 -56.816603059640329 -176.96462476783017 0 0 0 0 -646.21362415231124 -499.41002404220853 0 -499.41002404220853 -138.03466458454204 0 0 0 0 3.0261512295651301 -3.3205523663934002 0 -3.3205523663934002 -2.1952353065730392 0 0 0 0 -166.18972719064914 -569.88380973945459 0 -569.88380973945459 -200.58411211569182 0 0 0 0 -377.06316713002161 -192.2373667888387 0 -192.2373667888387 -200.55986278678756 0 0 0 0 -132.34384319544188 -214.97540566068346 0 -214.97540566068346 -259.60298250287451 0 0 0 0 3.7167147854931386 -0.044986964808714447 0 -0.044986964808714447 -2.2488721482571634 0 0 0 0 -277.77137314845459 -200.5655670980841 0 -200.5655670980841 -251.78597022412578 0 0 0 0 -25.939851372484554 -219.79824014481119 0 -219.79824014481119 27.376129530930484 0 0 0 0 -82.715565780817997 128.23539464014539 0 128.23539464014539 238.26542140309903 0 0 0 0 12.301156303889002 -98.858951026595605 0 -98.858951026595605 97.347735012153862 0 0 0 0 -241.97724332405414 -239.06188712370658 0 -239.06188712370658 131.4502799537222 0 0 0 0 42.993114034785862 -69.766358786563359 0 -69.766358786563359 69.303553048077404 0 0 0 0 36.434497196431039 -168.4559360626954 0 -168.4559360626954 56.319656351475714 0 0 0 0 -134.80568116686482 -61.079670257930047 0 -61.079670257930047 116.66222765835118 0 0 0 0 425.30015316253412 -1885.2031540390471 0 -1885.2031540390471 185.46524161620255 0 0 0 0 50.096410748940372 -82.97288709605354 0 -82.97288709605354 90.77502774628104 0 0 0 0 14.223199201020805 -11.616588144850709 0 -11.616588144850709 6.4550825138014822 0 0 0 0 -203.24730602095951 -95.258601447604178 0 -95.258601447604178 -101.31088540597966 0 0 0 0 83.707474162365543 -147.79373651858623 0 -147.79373651858623 -40.29734310431013 0 0 0 0 -21.505129830300575 -237.5736705325653 0 -237.5736705325653 36.297083700063013 0 0 0 0 394.70713408132724 -142.55304557590716 0 -142.55304557590716 -68.233984691883961 0 0 0 0 153.37120216994663 -268.13613442363203 0 -268.13613442363203 137.49227838177467 0 0 0 0 80.598849009824335 -52.919674359982309 0 -52.919674359982309 223.26359421249072 0 0 0 0 -203.49206067320483 -17.39137644002767 0 -17.39137644002767 152.80946083564777 0 0 0 0 10.936187451974419 -14.530645099156573 0 -14.530645099156573 -3.2436326780989475 0 0 0 0 30.619135185479536 12.171663667035318 0 12.171663667035318 87.367921857709007 0 0 0 0 -64.528396229885402 -70.747463349724967 0 -70.747463349724967 99.732647136217565 0 0 0 0 -46.811406042063027 -93.189265994886227 0 -93.189265994886227 79.914126051851781 0 0 0 0 -107.90854190390382 -132.65463634434127 0 -132.65463634434127 112.47174062407794 0 0 0 0 -266.63081100373165 -233.93455243509834 0 -233.93455243509834 49.113064979152114 0 0 0 0 38.928668828123989 -65.703450705846379 0 -65.703450705846379 28.515321292290238 0 0 0 0 -69.56821673194645 -160.03412703767685 0 -160.03412703767685 -11.346423700652849 0 0 0 0 -51.460173056111671 -73.267863583081635 0 -73.267863583081635 -8.2609090769692557 0 0 0 0 -34.631636829546736 -88.021677326738711 0 -88.021677326738711 2.4475352521603924 0 0 0 0 10.62627374503333 -85.832588504260258 0 -85.832588504260258 -29.22050554263209 0 0 0 0 -1.7147670542034348 -56.115583207577743 0 -56.115583207577743 -79.979179896897335 0 0 0 0 -141.51349815825233 -222.16184170729684 0 -222.16184170729684 -248.41563117116129 0 0 0 0 -61.139552916405592 -276.33744304129868 0 -276.33744304129868 -280.71874509602276 0 0 0 0 -182.07726067025214 -222.19467366975732 0 -222.19467366975732 -292.40325551078422 0 0 0 0 -191.59677407692652 -268.9526839454993 0 -268.9526839454993 -252.77065339017281 0 0 0 0 21.102941054254018 -32.208416440291757 0 -32.208416440291757 -37.228597070873519 0 0 0 0 -209.2133088317496 -290.4434399672682 0 -290.4434399672682 -247.93305663937645 0 0 0 0 -243.45002897502854 -234.70122901288414 0 -234.70122901288414 -239.91675904582371 0 0 0 0 14.232633436861761 -22.164009827543737 0 -22.164009827543737 -21.979350751151117 0 0 0 0 -32.617782033046012 -68.745119920200978 0 -68.745119920200978 -26.722935919618834 0 0 0 0 -12.554222042206675 -97.05323968529774 0 -97.05323968529774 -2.7074400869605597 0 0 0 0 13.287528161366936 -80.435748415839043 0 -80.435748415839043 -77.913162642216776 0 0 0 0 19.078799936803989 -103.54481118184049 0 -103.54481118184049 -75.683526303910185 0 0 0 0 -7.2668820854160003 -111.10144745392608 0 -111.10144745392608 -25.020755772849952 0 0 0 0 80.909247844712809 -8.3342149815725861 0 -8.3342149815725861 -21.101602468057536 0 0 0 0 35.089420317177428 -53.409574354118377 0 -53.409574354118377 38.740597160998732 0 0 0 0 19.971890484712674 -8.9447649410244026 0 -8.9447649410244026 -0.68283011406317939 0 0 0 0 -63.846789964664595 -96.279470371748559 0 -96.279470371748559 -36.688068260533839 0 0 0 0 43.749453561971848 -70.93217733886695 0 -70.93217733886695 -94.150614553804246 0 0 0 0 -14.275720588804688 -84.909877690035501 0 -84.909877690035501 30.359356197033776 0 0 0 0 4.3852445070806425 -105.59697966998283 0 -105.59697966998283 53.284562897202704 0 0 0 0 44.51973871307564 -98.024999457702506 0 -98.024999457702506 4.9379952501258231 0 0 0 0 25.11262414304656 -80.863583780657791 0 -80.863583780657791 14.745543818891747 0 0 0 0 -22.509017879434396 -116.16410800044105 0 -116.16410800044105 18.114787145881564 0 0 0 0 52.394321918543937 -43.972039929519269 0 -43.972039929519269 4.439861104288866 0 0 0 0 48.795636647474765 -58.675212689781432 0 -58.675212689781432 35.875620059448352 0 0 0 0 -183.85052234168688 -102.93558975547785 0 -102.93558975547785 92.31141831927016 0 0 0 0 -8.2886428045821958 -9.3184726397535513 0 -9.3184726397535513 5.8295874717560565 0 0 0 0 -154.90930101784761 -164.58988848111039 0 -164.58988848111039 -198.09133727473909 0 0 0 0 -101.75317560962867 -195.50644800096052 0 -195.50644800096052 -183.997071715934 0 0 0 0 -50.02262366656214 -157.5516228855704 0 -157.5516228855704 44.07369085934846 0 0 0 0 -3.7460549473180436 -43.590466440504315 0 -43.590466440504315 40.45594929746585 0 0 0 0 -85.44442545788479 -169.01785197064783 0 -169.01785197064783 -13.290451969742207 0 0 0 0 -19.965948591299821 -143.32451741714613 0 -143.32451741714613 -36.200549642701844 0 0 0 0 -63.593045199697372 -103.85384329560111 0 -103.85384329560111 18.286413939851627 0 0 0 0 -30.082938639301574 -377.17360080341655 0 -377.17360080341655 -630.79182558206776 0 0 0 0 -39.816968453495065 -333.69271807843558 0 -333.69271807843558 -678.48414850414565 0 0 0 0 38.862972194358406 -30.229231845568307 0 -30.229231845568307 25.73688939959646 0 0 0 0 -22.54274628109124 -113.35189164382291 0 -113.35189164382291 -119.0088350985352 0 0 0 0 -10.976006463286467 -154.78551935567521 0 -154.78551935567521 -90.012791941946489 0 0 0 0 -59.317555798916146 -115.82007639500534 0 -115.82007639500534 -120.64547717440837 0 0 0 0 -32.100646647508256 -189.98193625159547 0 -189.98193625159547 -88.430675336174318 0 0 0 0 -540.83585084305378 -541.08255194619551 0 -541.08255194619551 -49.849469507978483 0 0 0 0 -134.66622307711805 -270.60825033881122 0 -270.60825033881122 -598.34610450127775 0 0 0 0 -219.16253596238676 -489.558800034059 0 -489.558800034059 -603.52303693846898 0 0 0 0 15.145402915892191 -484.20513475776215 0 -484.20513475776215 -334.45156175473039 0 0 0 0 7.6579002763319295 -280.6702377005206 0 -280.6702377005206 -435.14138711133774 0 0 0 0 90.38432309802738 -17.335428844178068 0 -17.335428844178068 -720.08807661264791 0 0 0 0 -689.58585949649569 -177.24673902115182 0 -177.24673902115182 -204.66219456475486 0 0 0 0 -175.97036018304061 -64.325670310902296 0 -64.325670310902296 -211.76385966016241 0 0 0 0 129.54399432888022 -55.728708046143311 0 -55.728708046143311 -231.51650233940859 0 0 0 0 -536.18348012810748 -647.37514113096006 0 -647.37514113096006 -249.9997612833904 0 0 0 0 -11.285754928747963 -10.117952524631932 0 -10.117952524631932 -13.051375315097394 0 0 0 0 -110.44611434215039 -227.70534858308201 0 -227.70534858308201 -202.12113536917605 0 0 0 0 -41.821220516061032 -63.194816058544262 0 -63.194816058544262 -48.476472194981874 0 0 0 0 7.6625950913937118 -7.0143937787813115 0 -7.0143937787813115 -10.208567900283322 0 0 0 0 188.20933181551663 -169.0016898067164 0 -169.0016898067164 -498.90735965470731 0 0 0 0 -57.691285883377333 -60.413681234981908 0 -60.413681234981908 -46.808615829204982 0 0 0 0 264.24128402443603 -98.139787002862363 0 -98.139787002862363 -106.63261193793386 0 0 0 0 38.35781070496887 -37.100531528186366 0 -37.100531528186366 -94.14071780737504 0 0 0 0 14.594858734756656 -11.50295017117098 0 -11.50295017117098 -3.4498975055591314 0 0 0 0 -34.490174975246191 -129.96687007491047 0 -129.96687007491047 -4.6063617975614761 0 0 0 0 120.41214443862737 -159.07506822010177 0 -159.07506822010177 426.84985762876045 0 0 0 0 276.44857640581904 -660.54036759153416 0 -660.54036759153416 578.24208095953395 0 0 0 0 -237.27814543258864 142.82568100658295 0 142.82568100658295 1100.8253674347798 0 0 0 0 387.07348218042171 78.97150013888637 0 78.97150013888637 -43.54500756677669 0 0 0 0 239.41573928194703 -465.77953522571187 0 -465.77953522571187 2228.1214014047719 0 0 0 0 353.75696389214136 -832.40276487669257 0 -832.40276487669257 1222.4391341222649 0 0 0 0 179.93143664760282 130.66018156767723 0 130.66018156767723 2168.2953013927076 0 0 0 0 -50.288787598838098 -638.11530032085011 0 -638.11530032085011 1686.8933760009179 0 0 0 0 238.17326883663191 -892.23061279894398 0 -892.23061279894398 1302.4125470090532 0 0 0 0 77.016358094493626 -524.58446879768303 0 -524.58446879768303 1384.8081293965342 0 0 0 0 93.181487034016754 -388.72826612554331 0 -388.72826612554331 1615.8376121906049 0 0 0 0 -28.453105160326231 70.891016199832848 0 70.891016199832848 2506.6226261443367 0 0 0 0 -287.22305856650928 -768.72195097602821 0 -768.72195097602821 2236.3236273583607 0 0 0 0 -315.46578994748415 -205.3128032108998 0 -205.3128032108998 1859.7694202468642 0 0 0 0 -22.337604385415034 -99.11119927133646 0 -99.11119927133646 -258.08061992756211 0 0 0 0 7.1740843247912949 -3.264175275252029 0 -3.264175275252029 2.3769927133063575 0 0 0 0 3.262856537126936 -164.57924753148893 0 -164.57924753148893 -349.57000394750003 0 0 0 0 -265.20365181923989 -335.44314952477617 0 -335.44314952477617 -271.08044037220407 0 0 0 0 367.58896945172455 -908.00916065066804 0 -908.00916065066804 134.61422167841761 0 0 0 0 273.35093331878306 -322.76696800070908 0 -322.76696800070908 -305.51839942820106 0 0 0 0 -255.14853098646563 -807.9433119004301 0 -807.9433119004301 832.39763169281741 0 0 0 0 -57.117264132539276 -901.33316896895849 0 -901.33316896895849 211.7611752473149 0 0 0 0 -206.25608792062849 -401.68535314295559 0 -401.68535314295559 -271.78790139748094 0 0 0 0 -233.93656220581033 -632.59761064595727 0 -632.59761064595727 305.5276492948941 0 0 0 0 137.47227783847484 -82.289203505062687 0 -82.289203505062687 652.52937504159195 0 0 0 0 -355.85834130250441 -473.60730128088085 0 -473.60730128088085 343.11522840527596 0 0 0 0 -437.93905275340512 -198.76137703347695 0 -198.76137703347695 409.94844860995454 0 0 0 0 243.54767640010687 403.65186138403851 0 403.65186138403851 959.11880391756745 0 0 0 0 398.56127751833992 -566.38172294388801 0 -566.38172294388801 1361.9206833382241 0 0 0 0 186.81208768811484 297.33540900989033 0 297.33540900989033 844.53923492849026 0 0 0 0 -10.838733830871661 -9.3843745310199438 0 -9.3843745310199438 10.376726074565676 0 0 0 0 25.888458505040035 647.82162095122021 0 647.82162095122021 130.85159274914975 0 0 0 0 -592.90576627424889 -1022.2147974587966 0 -1022.2147974587966 50.215261548908529 0 0 0 0 155.66965445125243 -103.59830434180355 0 -103.59830434180355 -581.3353177114742 0 0 0 0 -258.98560517426085 -304.85243860563014 0 -304.85243860563014 233.72979168915435 0 0 0 0 -15.951747487222121 -42.921152439437151 0 -42.921152439437151 10.165365782992133 0 0 0 0 -352.89704375363362 -139.80881387120905 0 -139.80881387120905 295.40012026429281 0 0 0 0 1485.697433928086 -845.96152323093702 0 -845.96152323093702 -4193.2751493514215 0 0 0 0 42.714901689643739 31.199403078722241 0 31.199403078722241 425.57554940618911 0 0 0 0 -1.2930294032321399 -32.095956327168729 0 -32.095956327168729 7.4217558429822157 0 0 0 0 33.559404641448054 -310.08457509309937 0 -310.08457509309937 -2805.5010312433142 0 0 0 0 233.64118246600265 -438.6594120900503 0 -438.6594120900503 737.65996883784737 0 0 0 0 88.630034996254835 -450.49051316919144 0 -450.49051316919144 887.89217793374064 0 0 0 0 231.24302587250713 -529.87220012852697 0 -529.87220012852697 849.02262465367539 0 0 0 0 -589.18016758249723 -998.16816187179006 0 -998.16816187179006 817.51110527007563 0 0 0 0 77.302671451128845 -330.86244338980146 0 -330.86244338980146 119.98511463922523 0 0 0 0 132.20840470882831 125.78079784931369 0 125.78079784931369 -539.44470935577726 0 0 0 0 182.67953681753716 -181.88655509102097 0 -181.88655509102097 -789.02625259631202 0 0 0 0 18.876556593400892 264.33164891184668 0 264.33164891184668 51.170261355031187 0 0 0 0 -4.5334293728810735 -904.96314904885162 0 -904.96314904885162 -709.00060335062699 0 0 0 0 -3.4475769708984103 -4.8668214016408626 0 -4.8668214016408626 5.574404477050563 0 0 0 0 -185.69108860183042 -373.67468844219945 0 -373.67468844219945 157.2404323324707 0 0 0 0 -65.189797771294252 -95.712215059674236 0 -95.712215059674236 37.156374418107589 0 0 0 0 -43.103594881686149 -91.475950099284091 0 -91.475950099284091 25.521635629600496 0 0 0 0 -42.361946846079263 -74.297151239122229 0 -74.297151239122229 39.164301891065406 0 0 0 0 -34.135147014839731 -88.612802791262595 0 -88.612802791262595 7.5470142032427248 0 0 0 0 -27.98568810937968 -50.775179106409119 0 -50.775179106409119 8.7760877882140456 0 0 0 0 -41.813389165341505 -317.1909537638511 0 -317.1909537638511 59.345861748984134 0 0 0 0 37.040135407458536 -72.165027083062569 0 -72.165027083062569 42.54688261158153 0 0 0 0 45.196962937807257 -105.24186898372716 0 -105.24186898372716 71.225990662566801 0 0 0 0 116.16692864699871 -107.51831409125225 0 -107.51831409125225 -35.603671782013407 0 0 0 0 -1559.2028336172152 -222.36491380069486 0 -222.36491380069486 434.05830655129648 0 0 0 0 536.56978162690939 -75.727227575728648 0 -75.727227575728648 -93.704524517509071 0 0 0 0 9.4771038291735863 -0.96248938269414452 0 -0.96248938269414452 -2.7003659540630718 0 0 0 0 362.95988201274304 -386.41561871099043 0 -386.41561871099043 55.738860121227845 0 0 0 0 -1222.2565326113399 -457.08172204659718 0 -457.08172204659718 394.38599644930127 0 0 0 0 -97.451326671987772 -453.82863735163846 0 -453.82863735163846 -78.710751764854649 0 0 0 0 128.30944432958495 -74.555160224761039 0 -74.555160224761039 -65.716165992661274 0 0 0 0 103.80560705723371 -67.816744097879948 0 -67.816744097879948 3.885656449499467 0 0 0 0 163.16220364489709 -67.476015931206348 0 -67.476015931206348 -30.33493011309838 0 0 0 0 257.31089350111142 -21.101529827183924 0 -21.101529827183924 -51.345978719296113 0 0 0 0 -1480.4878495828598 666.30850455548307 0 666.30850455548307 -58.476316682646939 0 0 0 0 -317.2233392024209 -869.31585514323899 0 -869.31585514323899 63.739704728742254 0 0 0 0 323.38290572506958 -64.273759216031976 0 -64.273759216031976 -429.31757424123771 0 0 0 0 251.26917382003739 527.43984949235755 0 527.43984949235755 -1387.3867624708741 0 0 0 0 -645.62639548938023 897.95746918791201 0 897.95746918791201 -1009.6518812718441 0 0 0 0 -5770.5431018130621 1298.5281693981628 0 1298.5281693981628 -195.87744400627344 0 0 0 0 85.942953301802049 -41.435898905238105 0 -41.435898905238105 -48.14043079049182 0 0 0 0 730.0774003448314 -1059.5714308540673 0 -1059.5714308540673 20.682648229308597 0 0 0 0 -87.708017842436675 -418.76815460513126 0 -418.76815460513126 -343.29282642499675 0 0 0 0 -185.55794342428999 -549.99516628821311 0 -549.99516628821311 48.225779656143459 0 0 0 0 -950.32742637611227 54.874535065975579 0 54.874535065975579 876.8001397484627 0 0 0 0 -465.77845394279575 -104.11905217095455 0 -104.11905217095455 322.34241519139914 0 0 0 0 -543.91364359430736 -116.00526740716441 0 -116.00526740716441 482.29885960446791 0 0 0 0 -601.12275029689772 36.844362873949649 0 36.844362873949649 86.649535724159705 0 0 0 0 -888.72617760061985 112.30315637239755 0 112.30315637239755 70.407701906053262 0 0 0 0 -514.08883240149589 -218.57305215436372 0 -218.57305215436372 530.58543998720688 0 0 0 0 10.39389902545372 -956.07025529086218 0 -956.07025529086218 -1171.5221970946677 0 0 0 0 -321.88402888225392 470.82617512056459 0 470.82617512056459 807.92620217411331 0 0 0 0 -11.162446838852645 -2.2847725217167181 0 -2.2847725217167181 3.4681563212787916 0 0 0 0 42.405866786255501 112.3668565333337 0 112.3668565333337 -1127.9214991659755 0 0 0 0 -384.94736847851891 146.22985926021556 0 146.22985926021556 128.96323955575645 0 0 0 0 -205.87348368292442 -178.90065923361908 0 -178.90065923361908 -812.06058861663041 0 0 0 0 -615.62072443534271 -376.70204676919366 0 -376.70204676919366 915.33798006392499 0 0 0 0 148.35304852901027 -41.618794346222785 0 -41.618794346222785 -419.33303125265684 0 0 0 0 -15.927204241222114 -11.784300297070061 0 -11.784300297070061 15.822854944820847 0 0 0 0 -462.00220909592463 601.87370988448311 0 601.87370988448311 954.7530647330542 0 0 0 0 -50.449838244241505 -51.294307157864317 0 -51.294307157864317 13.18359550321598 0 0 0 0 404.09633721970022 520.30082652655437 0 520.30082652655437 -28.518673240832868 0 0 0 0 455.3340716525563 -435.27700473856203 0 -435.27700473856203 -148.94740887570151 0 0 0 0 616.98300290462794 -575.33085048302928 0 -575.33085048302928 -33.849470516033762 0 0 0 0 -320.091448330204 143.1974969980547 0 143.1974969980547 567.91027655635207 0 0 0 0 371.04280217958149 -683.98297721632298 0 -683.98297721632298 290.39042230543782 0 0 0 0 -218.18544463935541 -381.82683616368013 0 -381.82683616368013 682.99782067649539 0 0 0 0 -256.72402670420706 28.835488861852355 0 28.835488861852355 -29.587304771805975 0 0 0 0 -159.79742996868254 -606.34335172326564 0 -606.34335172326564 8.6675291522842599 0 0 0 0 -163.79152530687861 -413.15132495744001 0 -413.15132495744001 178.64621492488914 0 0 0 0 -31.622779123444047 0.24632518466934528 0 0.24632518466934528 5.2418151194098908 0 0 0 0 -26.43495100189466 -752.58524620321623 0 -752.58524620321623 -667.8196162703498 0 0 0 0 -28.76721850814647 -65.763358476962821 0 -65.763358476962821 322.87082331652073 0 0 0 0 -295.43567783664912 495.33328983735237 0 495.33328983735237 -644.4829657782293 0 0 0 0 -763.60832657769788 -429.56192420029674 0 -429.56192420029674 -141.30297073678707 0 0 0 0 383.41272693233623 -79.093312173697086 0 -79.093312173697086 -149.33964815960462 0 0 0 0 79.984788198256865 -227.8011660430202 0 -227.8011660430202 355.68682678103232 0 0 0 0 114.58182770514395 -120.01794145720442 0 -120.01794145720442 273.65708201491725 0 0 0 0 -219.00576400673162 -82.511967635189649 0 -82.511967635189649 89.732107518664634 0 0 0 0 -153.02072218153626 73.416542880905126 0 73.416542880905126 211.48615549737497 0 0 0 0 -316.34032902997569 179.89619829144522 0 179.89619829144522 -219.64550430436611 0 0 0 0 -12.222390757116955 -166.88316115428825 0 -166.88316115428825 -697.51488717936627 0 0 0 0 -330.6419529242703 -78.527904929060242 0 -78.527904929060242 159.4025993457326 0 0 0 0 -21.003441572887823 271.81951202496202 0 271.81951202496202 148.72653473758498 0 0 0 0 -449.95733826576179 -265.77126251865911 0 -265.77126251865911 -82.449144115755189 0 0 0 0 4.5695380271645263 -88.478926999818214 0 -88.478926999818214 -77.021019672832836 0 0 0 0 -95.499020321818534 -393.1559936694357 0 -393.1559936694357 -452.79327430956982 0 0 0 0 -60.313546747465637 -2.3947413592229267 0 -2.3947413592229267 17.955398230473065 0 0 0 0 -55.448396003965172 -92.003541867657987 0 -92.003541867657987 23.958302537881536 0 0 0 0 -123.13547445531003 -237.77890287894843 0 -237.77890287894843 -64.282146767914128 0 0 0 0 -187.76985075717675 -199.54435261663639 0 -199.54435261663639 -65.418666903662597 0 0 0 0 -202.1808855002746 -299.92178471096486 0 -299.92178471096486 150.42223323991493 0 0 0 0 -6.4320691471122018 -75.129490763757985 0 -75.129490763757985 25.517180242243541 0 0 0 0 28.212392645024508 -56.798750291908277 0 -56.798750291908277 42.183114533632846 0 0 0 0 -59.913835713530716 -86.119199108522025 0 -86.119199108522025 31.202150908957265 0 0 0 0 -54.705568954836053 -89.486020274085604 0 -89.486020274085604 32.350434118874546 0 0 0 0 55.111985686336993 -22.403693429521709 0 -22.403693429521709 -161.85023495148789 0 0 0 0 55.87516035943554 -63.652748840777079 0 -63.652748840777079 165.92020826214713 0 0 0 0 -19.510236139512756 -22.628439100206805 0 -22.628439100206805 74.928558097891269 0 0 0 0 966.05216649969043 -792.86275459975013 0 -792.86275459975013 495.9750530709789 0 0 0 0 -173.2472110488452 -78.568438327725744 0 -78.568438327725744 69.454190437449142 0 0 0 0 20.518126050301362 234.84181945590535 0 234.84181945590535 256.61322581230434 0 0 0 0 -110.08846481938576 -66.059406688526906 0 -66.059406688526906 58.585772728491811 0 0 0 0 -28.113392183047935 -99.996468070591249 0 -99.996468070591249 3.4784261630366871 0 0 0 0 -123.91541441951995 -149.76115242104106 0 -149.76115242104106 25.807910496463592 0 0 0 0 -178.52761915177689 -138.46268836351737 0 -138.46268836351737 133.2516453713688 0 0 0 0 -190.1222941732849 -151.33342672444996 0 -151.33342672444996 121.64143942440569 0 0 0 0 167.36664448614465 83.437076736056042 0 83.437076736056042 137.94811909512646 0 0 0 0 333.73222613526741 55.908286682781181 0 55.908286682781181 121.9055973446666 0 0 0 0 305.73696742235188 -139.5676068925095 0 -139.5676068925095 247.61636521419859 0 0 0 0 -140.58037758449791 -0.8003997627638455 0 -0.8003997627638455 219.90639159046623 0 0 0 0 -164.5761957874638 -264.70619616415206 0 -264.70619616415206 555.88369392206369 0 0 0 0 1.9621730300041236 8.0725255532754279 0 8.0725255532754279 18.558032031684458 0 0 0 0 274.45630229651579 -272.86757033598496 0 -272.86757033598496 47.174304759922961 0 0 0 0 -34.540694934024941 -296.94750792424747 0 -296.94750792424747 396.32773253084815 0 0 0 0 -354.07503379878472 -94.992497553741487 0 -94.992497553741487 80.630792550331535 0 0 0 0 -285.10488866030937 -258.74234646436889 0 -258.74234646436889 401.67140740153627 0 0 0 0 -142.13918932936213 -132.80119693711413 0 -132.80119693711413 -145.78569478001737 0 0 0 0 -569.02574896831356 -309.67625999171196 0 -309.67625999171196 120.95397363863231 0 0 0 0 -199.98468565364601 -111.90293323366677 0 -111.90293323366677 133.34099737082352 0 0 0 0 -712.27486897222116 -326.55253608247563 0 -326.55253608247563 -54.110765018957636 0 0 0 0 -596.37487894146761 -466.58337582348963 0 -466.58337582348963 -349.00560393384967 0 0 0 0 -1007.3826752054592 -625.9319914173625 0 -625.9319914173625 -206.24938511627624 0 0 0 0 -908.90363473100297 -677.93832090127762 0 -677.93832090127762 -553.71862213160239 0 0 0 0 -458.83846078807255 -331.82649365037469 0 -331.82649365037469 -308.19518081521983 0 0 0 0 -15.440999024845951 -27.566426879030082 0 -27.566426879030082 8.3140715121744577 0 0 0 0 -83.656233078151843 -39.997385780699439 0 -39.997385780699439 31.032003963900838 0 0 0 0 -187.72659202868817 -245.43633708161906 0 -245.43633708161906 81.002350720329559 0 0 0 0 -496.76082903327188 9.2298738539393526 0 9.2298738539393526 517.47748008362851 0 0 0 0 -483.33723069806001 211.43275862220617 0 211.43275862220617 373.61535074781932 0 0 0 0 -578.2667202274024 -156.49498815743027 0 -156.49498815743027 284.08274334933958 0 0 0 0 -143.20579776659724 257.52976814069916 0 257.52976814069916 -6.4282183155955863 0 0 0 0 -771.28994623519247 -409.82791414719031 0 -409.82791414719031 -146.64215561750461 0 0 0 0 -290.40723230558797 -109.71401118281574 0 -109.71401118281574 -333.02074913668912 0 0 0 0 -1469.1610588613548 -1081.9564902307516 0 -1081.9564902307516 -518.30829212701246 0 0 0 0 -857.8098341418081 -675.18941471559265 0 -675.18941471559265 -446.992808004381 0 0 0 0 -610.21620436024386 -1570.1827064855715 0 -1570.1827064855715 -1706.0671695959072 0 0 0 0 -413.90008234928246 -747.40638363854669 0 -747.40638363854669 -1162.9430333320561 0 0 0 0 80.264310124999611 -261.65637037116539 0 -261.65637037116539 -863.05739066757815 0 0 0 0 -1057.5813491762383 -1196.2064417438796 0 -1196.2064417438796 -885.21318111053006 0 0 0 0 -2760.5110249905119 -927.81961961115371 0 -927.81961961115371 -399.24584803773269 0 0 0 0 -1364.634647873314 -1288.8364717730308 0 -1288.8364717730308 -789.24920794708305 0 0 0 0 -1417.9092213684053 -849.0065664768174 0 -849.0065664768174 -352.46060758254885 0 0 0 0 -588.39838865737693 -720.55568698457455 0 -720.55568698457455 -619.66573683257229 0 0 0 0 -1802.5099422752319 -1007.399849661005 0 -1007.399849661005 -333.53226761011683 0 0 0 0 -1835.2257567440993 -1169.5002689916719 0 -1169.5002689916719 -878.33231114800742 0 0 0 0 -2030.8099618749984 -974.82710523172955 0 -974.82710523172955 -288.15922866541587 0 0 0 0 -1822.9838417178617 -1260.1800510479056 0 -1260.1800510479056 -475.59939197284075 0 0 0 0 -1491.4894102578546 -1164.600719371072 0 -1164.600719371072 -455.64777136438533 0 0 0 0 -1487.9281250828062 -1195.8514978695484 0 -1195.8514978695484 -601.10515027192491 0 0 0 0 -1870.5641113646852 -1142.1996445463656 0 -1142.1996445463656 -304.927085452131 0 0 0 0 -1546.3333174572617 -854.4691350271288 0 -854.4691350271288 -95.009651864022999 0 0 0 0 -826.48364599171327 -692.30255451827588 0 -692.30255451827588 -350.52754098576679 0 0 0 0 -1298.5222121808329 -1116.0493643109264 0 -1116.0493643109264 -572.05884738720943 0 0 0 0 -1140.3032212616672 -645.4052408601076 0 -645.4052408601076 -185.0000252029804 0 0 0 0 -969.23379944925546 -310.54445282859376 0 -310.54445282859376 119.69618118210863 0 0 0 0 -233.02039024479745 47.154066160483794 0 47.154066160483794 -5.4825837062222433 0 0 0 0 -1466.3509225164307 -219.36127379814661 0 -219.36127379814661 110.49971742745947 0 0 0 0 -730.49075946864468 -502.21457577552911 0 -502.21457577552911 -254.36869126676467 0 0 0 0 3127.4609851601999 -1688.6742392434021 0 -1688.6742392434021 1639.8865469560915 0 0 0 0 2845.030471441496 -2352.5269733111363 0 -2352.5269733111363 1029.1303313069366 0 0 0 0 -5.0822291854068098 -16.440471453301086 0 -16.440471453301086 36.885480446118194 0 0 0 0 3376.7628292482696 -1523.3028657204159 0 -1523.3028657204159 279.96993420998206 0 0 0 0 503.49409730141633 -20.105456557455454 0 -20.105456557455454 -510.10670722250961 0 0 0 0 -421.7274499732157 -513.18963308437742 0 -513.18963308437742 -461.34711664227325 0 0 0 0 140.99879846493423 -552.6033292508846 0 -552.6033292508846 -1256.1964436066273 0 0 0 0 -354.3975933163747 383.83912751269327 0 383.83912751269327 -1512.3725846996185 0 0 0 0 -91.58191897287179 -1148.6300295585565 0 -1148.6300295585565 -2436.4221770614204 0 0 0 0 1524.7323683135692 409.43405746932103 0 409.43405746932103 -3100.5527345710652 0 0 0 0 207.11204798350809 102.48559147743981 0 102.48559147743981 -176.60052416270219 0 0 0 0 -1739.7052455791563 -2227.0982292703907 0 -2227.0982292703907 -434.09437706389781 0 0 0 0 59.700682773895096 -2248.4496831263427 0 -2248.4496831263427 -1067.0988507935417 0 0 0 0 7.2115409143033276 -14.108357721261655 0 -14.108357721261655 20.410947989195879 0 0 0 0 -3861.1133329424338 -2219.6324583218648 0 -2219.6324583218648 -107.43049063245462 0 0 0 0 5513.018677981956 507.75777609020338 0 507.75777609020338 -748.79426579074152 0 0 0 0 1774.5783623373427 -1825.834267565032 0 -1825.834267565032 199.24161386493256 0 0 0 0 1272.1796954309248 -604.0655451341554 0 -604.0655451341554 412.92272344646153 0 0 0 0 2680.4567465547516 184.41529632629499 0 184.41529632629499 -969.3321038832164 0 0 0 0 21.444268520961828 -46.475269918014988 0 -46.475269918014988 61.569051304780359 0 0 0 0 -2480.109878369607 -1425.4840062647309 0 -1425.4840062647309 -402.46997195587392 0 0 0 0 1527.2733204325195 -766.89634769223835 0 -766.89634769223835 -1711.8555718930584 0 0 0 0 -284.6732705423201 -1068.3241921325748 0 -1068.3241921325748 -631.24179531173354 0 0 0 0 204.08279011957347 -1324.9265248787933 0 -1324.9265248787933 448.34102772220126 0 0 0 0 76.316422327785403 -900.17740577992447 0 -900.17740577992447 -963.40250718031712 0 0 0 0 -277.31266617763322 -1009.927182840901 0 -1009.927182840901 -1044.7767183157546 0 0 0 0 -463.78374224503204 -1004.9012713720215 0 -1004.9012713720215 -980.02780931483449 0 0 0 0 -463.91275405845226 -1074.0853147883745 0 -1074.0853147883745 -1509.0915115411308 0 0 0 0 -315.13595607715979 -439.03651253814417 0 -439.03651253814417 -1567.5217122324339 0 0 0 0 -353.96534854755737 -580.17049947274154 0 -580.17049947274154 -1152.1668775721848 0 0 0 0 -352.87977669958127 -602.84433643898956 0 -602.84433643898956 -1612.5681448211717 0 0 0 0 -301.44858778985508 -305.94784504539899 0 -305.94784504539899 -1930.9411858006033 0 0 0 0 -87.069529170767055 -32.239870767085449 0 -32.239870767085449 -1917.7169207587158 0 0 0 0 -279.18768811546033 -454.28433110521382 0 -454.28433110521382 -1580.4939289731292 0 0 0 0 -391.50277814400033 -1782.4848723397174 0 -1782.4848723397174 -4570.9562520121226 0 0 0 0 22.345450666971374 -525.74583707036459 0 -525.74583707036459 -3073.4489163592821 0 0 0 0 3.7710785870730206 1.4313411739287005 0 1.4313411739287005 -6.9900342056422415 0 0 0 0 544.40773864430957 968.8460240782947 0 968.8460240782947 549.88112709605321 0 0 0 0 86.058952955296263 -397.30515441805892 0 -397.30515441805892 -2183.0705702289679 0 0 0 0 -20.074924392189132 -229.82690960557011 0 -229.82690960557011 -1965.6770589399957 0 0 0 0 13.314910134184174 -489.21158039778311 0 -489.21158039778311 -2122.4143766769057 0 0 0 0 -124.1131196761562 -625.75007021871352 0 -625.75007021871352 -1786.48550227995 0 0 0 0 -137.38027077989682 -751.28441557655378 0 -751.28441557655378 -2373.7127421498535 0 0 0 0 -262.9201709148474 -922.22677051664232 0 -922.22677051664232 -1962.5021537252881 0 0 0 0 -326.16791584665771 -1275.7274705665463 0 -1275.7274705665463 -2626.180951811983 0 0 0 0 -451.40847873561142 -1465.0425714964076 0 -1465.0425714964076 -2013.0810866167024 0 0 0 0 -475.32466690671572 -1210.7789655974841 0 -1210.7789655974841 -1104.8409609436676 0 0 0 0 -935.64886633859714 -1480.0221765043034 0 -1480.0221765043034 -1172.0821131859425 0 0 0 0 -302.576166649058 -1982.5404082905643 0 -1982.5404082905643 -1542.8402507281085 0 0 0 0 -1.7618663484280432 -8.1080646782993782 0 -8.1080646782993782 -4.0215722290180604 0 0 0 0 -306.84131145734136 -2308.9425107552574 0 -2308.9425107552574 -272.94711331739381 0 0 0 0 470.12333337536256 -2018.0449530566884 0 -2018.0449530566884 -3830.5921053928396 0 0 0 0 -194.07150251223356 -1722.9271213313536 0 -1722.9271213313536 1347.0131440950138 0 0 0 0 -253.62198717799038 -1985.800772164685 0 -1985.800772164685 -3160.1797130839973 0 0 0 0 -529.57912939583184 -1511.5640836776195 0 -1511.5640836776195 -1594.244746700751 0 0 0 0 -252.52491070149699 -1789.8172764566627 0 -1789.8172764566627 -2519.7718656445295 0 0 0 0 -343.45274348469684 -1871.0122247401657 0 -1871.0122247401657 1638.4527337437855 0 0 0 0 -2.0944678801859027 -7.4578120632221996 0 -7.4578120632221996 -3.3871828265106938 0 0 0 0 757.5205084921472 -1536.7551117744511 0 -1536.7551117744511 -3157.8134580843503 0 0 0 0 821.95985061003012 -2279.3256164608779 0 -2279.3256164608779 -3428.303965560553 0 0 0 0 2.161869912975817 -2777.1763276212705 0 -2777.1763276212705 -2052.8201489879266 0 0 0 0 415.13354443840217 -1729.600813707274 0 -1729.600813707274 -3072.7554211154293 0 0 0 0 -6.5147575436567422 -3061.0065417773076 0 -3061.0065417773076 -5244.489564490068 0 0 0 0 1549.6392007040413 -1959.7349865337173 0 -1959.7349865337173 -8722.9257121506562 0 0 0 0 1022.7117203445814 -2338.6176107102501 0 -2338.6176107102501 -4946.1664901322729 0 0 0 0 1552.3927537963609 -1398.8802240888281 0 -1398.8802240888281 -5061.4098234983967 0 0 0 0 1294.7010383337038 -1180.7881023050008 0 -1180.7881023050008 -5070.5566177564851 0 0 0 0 588.18448955414351 -1721.0919993764019 0 -1721.0919993764019 -4259.2338228125682 0 0 0 0 1062.9994070173125 -1245.1602152451078 0 -1245.1602152451078 -4044.6838123718676 0 0 0 0 650.55390387841908 -366.23112438938642 0 -366.23112438938642 -3689.767147488913 0 0 0 0 638.27360852016136 -976.24021106761916 0 -976.24021106761916 -3909.8388907565918 0 0 0 0 853.016081197944 -74.90317104869564 0 -74.90317104869564 -3368.1187051056186 0 0 0 0 362.16830993670737 444.07457591245156 0 444.07457591245156 -3297.6812546127367 0 0 0 0 630.94648306100862 764.52094147344633 0 764.52094147344633 -3975.0445123431668 0 0 0 0 1118.4812983276643 181.99678573332312 0 181.99678573332312 -5250.1989484263431 0 0 0 0 -0.12048861156016244 -3.5887144382466545 0 -3.5887144382466545 -37.480535141107197 0 0 0 0 468.75631284578412 1711.6500821609343 0 1711.6500821609343 -3750.8771593344941 0 0 0 0 0.048507774559425315 -9.0499191174388685 0 -9.0499191174388685 -57.444391164695844 0 0 0 0 1087.3695807980839 740.82284983039426 0 740.82284983039426 -3973.8781258237141 0 0 0 0 1085.2344259888087 715.19937020818952 0 715.19937020818952 -4161.8641928287107 0 0 0 0 854.08209885808174 1530.77200846707 0 1530.77200846707 -4476.7823433970352 0 0 0 0 1295.1547286461428 1236.6730080187572 0 1236.6730080187572 -7220.9771523836498 0 0 0 0 -236.90524400523282 -1249.5498697107078 0 -1249.5498697107078 -2522.956854604161 0 0 0 0 -16.888775912753772 -1093.473414941162 0 -1093.473414941162 -3137.4247009499559 0 0 0 0 -16.713295933092013 -1090.2309666071601 0 -1090.2309666071601 -3172.4089932820139 0 0 0 0 -377.19492785143666 -950.04248542704545 0 -950.04248542704545 -2953.3629293611657 0 0 0 0 222.87424267528695 -1599.3561634042985 0 -1599.3561634042985 -3015.6937862513264 0 0 0 0 -121.41754856378247 -1262.5509042340473 0 -1262.5509042340473 -3206.1572924639804 0 0 0 0 544.42461911872306 -1554.7468142018738 0 -1554.7468142018738 -3590.6380292149374 0 0 0 0 437.13610632566269 -1072.9661158026281 0 -1072.9661158026281 -3666.0056011446159 0 0 0 0 294.50023887312273 -931.65611297692453 0 -931.65611297692453 -3211.4685806526659 0 0 0 0 -129.30131731499569 -944.7076345498017 0 -944.7076345498017 -3201.7239159710812 0 0 0 0 -65.496698567760177 -159.14576209821007 0 -159.14576209821007 -2757.7440354602795 0 0 0 0 164.84020380908623 -554.31565460460774 0 -554.31565460460774 -2930.7758637788284 0 0 0 0 162.04562101241754 -563.75946457486907 0 -563.75946457486907 -2746.5630029720792 0 0 0 0 -466.44434260838898 -1171.6090687563155 0 -1171.6090687563155 -3025.4141046878854 0 0 0 0 -155.59578490186686 -950.51677664469378 0 -950.51677664469378 -2904.0859972444068 0 0 0 0 533.77209741558181 147.70251061070257 0 147.70251061070257 107.7890604178283 0 0 0 0 3.1637961914609036 -1.5105023401737867 0 -1.5105023401737867 -15.549891144158751 0 0 0 0 -268.52300790097797 -931.18978829361049 0 -931.18978829361049 -2897.2534378735363 0 0 0 0 -21.750276510062292 6.7721996197680312 0 6.7721996197680312 -8.1849890361781075 0 0 0 0 -439.60483960798592 -362.25348645296936 0 -362.25348645296936 -1886.9754194548491 0 0 0 0 -813.08262828890292 -708.08091300685987 0 -708.08091300685987 -662.00574333869804 0 0 0 0 -318.51256771472981 -980.98393618198452 0 -980.98393618198452 -2722.749292026032 0 0 0 0 -262.08274225503555 -962.19882412574611 0 -962.19882412574611 -3414.8322235740234 0 0 0 0 -3.0749883619988623 2.657882612588935 0 2.657882612588935 -4.5454071410424737 0 0 0 0 -187.41785933120991 -454.88911038184074 0 -454.88911038184074 -1883.9347359079197 0 0 0 0 -42.266699441941455 4.7925868186628406 0 4.7925868186628406 -17.668453749019136 0 0 0 0 -47.613994447841833 -27.030413724865809 0 -27.030413724865809 -11.486878266421172 0 0 0 0 -43.081797450431623 51.733274096814057 0 51.733274096814057 25.719116806623333 0 0 0 0 133.47105448503862 -333.62615647146049 0 -333.62615647146049 -128.65893025988635 0 0 0 0 -41.97964900770944 -29.36567693790866 0 -29.36567693790866 -18.782692113353178 0 0 0 0 -56.164460208456148 -14.15133452227019 0 -14.15133452227019 56.635081952966175 0 0 0 0 -68.788721961464034 19.428248271309258 0 19.428248271309258 73.218631501236814 0 0 0 0 -40.062392815514613 22.728850230147998 0 22.728850230147998 49.749225664602818 0 0 0 0 -82.686417902368703 -3.4496513307924488 0 -3.4496513307924488 67.49825457316183 0 0 0 0 -53.70231526135467 -18.186444445353231 0 -18.186444445353231 19.604657155840869 0 0 0 0 294.01209618596477 1703.3149569294787 0 1703.3149569294787 -1456.5928609623006 0 0 0 0 0.0024684697564225644 -9.3005575219012826 0 -9.3005575219012826 -58.808123869879637 0 0 0 0 170.85760186886182 805.69534296517941 0 805.69534296517941 -2176.0084647091808 0 0 0 0 774.14015014842153 1358.4508852547228 0 1358.4508852547228 -2330.1713145547292 0 0 0 0 -241.95837346563349 1267.600644896962 0 1267.600644896962 820.68411582633689 0 0 0 0 -519.99118788272608 12.429313397066608 0 12.429313397066608 -362.75257069612371 0 0 0 0 -518.87052719626809 -198.2086103577667 0 -198.2086103577667 -1761.3903727381266 0 0 0 0 162.02355747391994 850.69600791690527 0 850.69600791690527 -2146.1874546369454 0 0 0 0 381.56486811049399 641.48850110498847 0 641.48850110498847 -2375.3345288938563 0 0 0 0 108.07824041179265 231.3601918758186 0 231.3601918758186 -1885.1253073422367 0 0 0 0 -4.2155836881072446 3.1120425994187713 0 3.1120425994187713 -3.0947247235311597 0 0 0 0 644.17771491929307 -1202.0738329155365 0 -1202.0738329155365 -606.65435118663777 0 0 0 0 -383.41552155342652 -38.61333589967353 0 -38.61333589967353 -529.1132978459068 0 0 0 0 -0.87144292975064275 -15.807850942825326 0 -15.807850942825326 -83.01730026351882 0 0 0 0 1673.1206965352467 -476.38146584975948 0 -476.38146584975948 -1222.0766066255928 0 0 0 0 953.23389539899654 -1759.9847631458731 0 -1759.9847631458731 120.51564079525724 0 0 0 0 3.7925427080917871 -12.704015496212378 0 -12.704015496212378 -73.288496761735587 0 0 0 0 -38.381583173701074 -1047.6972047862814 0 -1047.6972047862814 1644.872532182889 0 0 0 0 0.0094349133287323639 -20.72263214911618 0 -20.72263214911618 -87.429203313527978 0 0 0 0 1025.3480047090707 531.09201976175109 0 531.09201976175109 610.46567718643382 0 0 0 0 310.39563275850378 46.019970904913862 0 46.019970904913862 915.75457349147928 0 0 0 0 345.87545077013783 -128.58000916612673 0 -128.58000916612673 -29.937569386443101 0 0 0 0 -34.974529458064353 -4.652411556593961 0 -4.652411556593961 368.13973452827486 0 0 0 0 -54.169426057880628 83.264994641378053 0 83.264994641378053 175.24901633584341 0 0 0 0 228.99877857550746 -180.80180570346602 0 -180.80180570346602 303.1521931880543 0 0 0 0 31.351734375421074 -251.0066740434263 0 -251.0066740434263 208.11884926042148 0 0 0 0 56.365771133758244 -139.86066731442611 0 -139.86066731442611 154.0274163879003 0 0 0 0 229.12359428132186 -276.51862221544161 0 -276.51862221544161 179.16796346151386 0 0 0 0 297.52510841449839 -206.97054927775207 0 -206.97054927775207 169.63332225176782 0 0 0 0 92.031248412589775 -254.35320472610579 0 -254.35320472610579 439.1053406664505 0 0 0 0 -3.162286342776504 -20.744285006908456 0 -20.744285006908456 -93.423813446581363 0 0 0 0 3.6180036839068634 -19.764426837899009 0 -19.764426837899009 -97.230299240196473 0 0 0 0 498.39722334434919 -280.03757154969617 0 -280.03757154969617 146.99001247568594 0 0 0 0 322.82968873227946 -308.38835386681967 0 -308.38835386681967 575.08578701947226 0 0 0 0 -142.80211474536918 -169.89412657233515 0 -169.89412657233515 34.766935102859861 0 0 0 0 -58.038628323090961 -24.633640368056604 0 -24.633640368056604 -36.007286831170859 0 0 0 0 -83.94569893120206 -18.09549061581788 0 -18.09549061581788 51.523410462226821 0 0 0 0 -86.777509561710758 2.0113202178906704 0 2.0113202178906704 165.17179884437246 0 0 0 0 -86.920302251266548 -109.67225538155162 0 -109.67225538155162 326.21742683488628 0 0 0 0 -88.481173176638549 -81.231346253156516 0 -81.231346253156516 97.08755362481952 0 0 0 0 -68.936648345952563 -209.40763028780066 0 -209.40763028780066 72.126627608789931 0 0 0 0 -120.45707801144454 -114.90760501099612 0 -114.90760501099612 148.25034753147975 0 0 0 0 -126.72190549419611 -140.87989294081353 0 -140.87989294081353 62.279216082904895 0 0 0 0 -95.1521860533976 -118.32677949673416 0 -118.32677949673416 31.891801497822598 0 0 0 0 -122.98721479057349 -106.6595717448148 0 -106.6595717448148 125.92303166261081 0 0 0 0 -23.311852997285314 -59.34169573437066 0 -59.34169573437066 77.865508089895229 0 0 0 0 -72.894986745435745 -79.443633044015314 0 -79.443633044015314 70.111957556317066 0 0 0 0 -42.824156310787657 -181.26284098569658 0 -181.26284098569658 -87.338723713008676 0 0 0 0 94.79406839190051 136.7045895786955 0 136.7045895786955 657.96793149325458 0 0 0 0 -53.837120431239782 -41.978055214969544 0 -41.978055214969544 -23.993205940732977 0 0 0 0 4.8145267492435551 -8.2827489348800185 0 -8.2827489348800185 -7.2156903790042399 0 0 0 0 -58.241908512834925 13.454133781020573 0 13.454133781020573 36.172299066482083 0 0 0 0 -158.59699956231634 -236.73028189806791 0 -236.73028189806791 807.91622216628002 0 0 0 0 94.956992252904456 -121.40777181921521 0 -121.40777181921521 -326.98363408814384 0 0 0 0 24.178304876550101 -79.719746312058305 0 -79.719746312058305 725.74504730482658 0 0 0 0 -97.06793838905287 -420.535878598625 0 -420.535878598625 435.35294802648241 0 0 0 0 -26.867798022285569 -116.22616415673428 0 -116.22616415673428 31.277732763939639 0 0 0 0 19.525094368495047 -89.583171457299613 0 -89.583171457299613 -19.080586502605001 0 0 0 0 -38.47178461388944 -27.198210722457617 0 -27.198210722457617 24.165513060683125 0 0 0 0 -40.633653704632195 -40.992873239583723 0 -40.992873239583723 -11.745748338352781 0 0 0 0 18.239541983231902 -89.715736844413186 0 -89.715736844413186 98.534332460243604 0 0 0 0 -22.506252231745748 -49.477231011090225 0 -49.477231011090225 26.958550788078355 0 0 0 0 35.568731083942112 -99.378808968896919 0 -99.378808968896919 32.8576881513236 0 0 0 0 -3.3471622787105844 -9.9013283007664477 0 -9.9013283007664477 8.5849293382558116 0 0 0 0 -74.9556158396299 -71.199885950114549 0 -71.199885950114549 -41.990471964138123 0 0 0 0 -26.406874795554415 -44.060094496792743 0 -44.060094496792743 -34.254536389696966 0 0 0 0 -28.920468696160242 -30.192632021098689 0 -30.192632021098689 -38.033023781459633 0 0 0 0 -15.099410856518602 -23.138824478635318 0 -23.138824478635318 -17.504153104197542 0 0 0 0 -25.062825843808241 -30.351246983961573 0 -30.351246983961573 -10.658361522327141 0 0 0 0 -108.46351521764882 -171.31519019911275 0 -171.31519019911275 -174.18845435486037 0 0 0 0 -25.896527539088822 -28.850913890777761 0 -28.850913890777761 2.142973062422044 0 0 0 0 -23.157224241960989 -18.110654519069413 0 -18.110654519069413 11.041272168874746 0 0 0 0 -28.050899120805866 -27.071126279529466 0 -27.071126279529466 -5.3654253534098295 0 0 0 0 -8.852313454146497 -34.543902009059821 0 -34.543902009059821 5.8374564391724562 0 0 0 0 -41.332995797443687 -39.069256347130917 0 -39.069256347130917 -17.342627679835303 0 0 0 0 -18.588367212330922 -37.513308531039002 0 -37.513308531039002 -4.2892208192433827 0 0 0 0 -11.95577938188535 -35.535490305567478 0 -35.535490305567478 -21.167407240296363 0 0 0 0 -4.5029178868767019 -27.898948056971335 0 -27.898948056971335 -7.1007725942759823 0 0 0 0 -266.07761273658252 79.269998246323667 0 79.269998246323667 -117.2682615031257 0 0 0 0 -45.283839153940789 -318.77123851046053 0 -318.77123851046053 1620.4334963597303 0 0 0 0 150.69109290005872 -349.33244042144372 0 -349.33244042144372 19.533046844110231 0 0 0 0 1.4599718616610176 -6.9362928176667253 0 -6.9362928176667253 2.8529875180645483 0 0 0 0 152.03051305773988 -333.9205366185476 0 -333.9205366185476 1309.1246102229907 0 0 0 0 81.967666784781613 -262.77006179802243 0 -262.77006179802243 1428.6657654565788 0 0 0 0 123.73313981512183 -100.08339295830338 0 -100.08339295830338 -122.69362163279141 0 0 0 0 104.57782317046076 -402.71636569825091 0 -402.71636569825091 1235.098637352035 0 0 0 0 70.439898322132649 -486.17176479209303 0 -486.17176479209303 1162.39667579961 0 0 0 0 39.44726950628683 -319.13084800504976 0 -319.13084800504976 1449.6396793336371 0 0 0 0 0.078355343156800927 -1.8622945518398524 0 -1.8622945518398524 4.6999514893200374 0 0 0 0 -259.13891988265095 147.22199541024884 0 147.22199541024884 190.11161596784814 0 0 0 0 -109.37812353231129 -191.90139721202468 0 -191.90139721202468 230.31391034590888 0 0 0 0 -259.05925945792114 162.06830159342235 0 162.06830159342235 514.34374787802653 0 0 0 0 78.582891516387463 -149.00249149258434 0 -149.00249149258434 1093.9411651987984 0 0 0 0 179.37558933100081 51.053440182640088 0 51.053440182640088 1469.4938242809444 0 0 0 0 -331.9069861358148 -187.80093168498138 0 -187.80093168498138 1449.4847134676656 0 0 0 0 -79.18258979023085 90.493219554269444 0 90.493219554269444 660.64409794284597 0 0 0 0 140.94721957405272 -205.8923543692872 0 -205.8923543692872 1046.1037672958191 0 0 0 0 91.770015961839817 -245.04809363781976 0 -245.04809363781976 1030.3353410826953 0 0 0 0 59.072725300677121 -358.43551852128041 0 -358.43551852128041 1251.4291357091488 0 0 0 0 1.5434630802503762 -23.054986237691978 0 -23.054986237691978 5.5580729451024622 0 0 0 0 -139.48354431884945 -450.85424514772967 0 -450.85424514772967 -2446.4745835171207 0 0 0 0 -404.53488355092122 -213.86433031500269 0 -213.86433031500269 -1949.364138706097 0 0 0 0 64.460941649565939 -401.27207117165926 0 -401.27207117165926 -2647.363345392559 0 0 0 0 437.41085803802707 -1007.3201975829952 0 -1007.3201975829952 -2977.2597670052555 0 0 0 0 -34.282679231473594 -529.8057114413175 0 -529.8057114413175 -1156.9429898302478 0 0 0 0 811.89004241142538 272.12284624058157 0 272.12284624058157 -1670.2611576537001 0 0 0 0 419.42529857892077 -283.42873928915833 0 -283.42873928915833 -1034.6940331997457 0 0 0 0 -9.7998314777214546 -669.66230183423249 0 -669.66230183423249 -256.03198590205284 0 0 0 0 120.54013979603769 -1422.0865032501333 0 -1422.0865032501333 -2086.748637766203 0 0 0 0 109.83339420100674 -374.33244780524092 0 -374.33244780524092 185.69305403971521 0 0 0 0 735.79206907446496 -901.71946011152113 0 -901.71946011152113 77.077463509280278 0 0 0 0 65.640358029369963 -770.93671754431989 0 -770.93671754431989 1893.3591403361543 0 0 0 0 0.65140602320917651 -9.4346648964018982 0 -9.4346648964018982 2.2756109352336802 0 0 0 0 -61.49033818783937 87.845576535365126 0 87.845576535365126 1077.3724879875044 0 0 0 0 -436.46239253130625 -77.215355930944952 0 -77.215355930944952 2622.3155738734913 0 0 0 0 46.93664261707454 -89.726208990021405 0 -89.726208990021405 -97.199186490724969 0 0 0 0 64.435952257976169 -105.92963303663237 0 -105.92963303663237 -84.286213378405591 0 0 0 0 -18.290863152089969 -45.535893256708732 0 -45.535893256708732 -26.203371415918809 0 0 0 0 78.55344653656357 -52.791320655971504 0 -52.791320655971504 -79.336618412937241 0 0 0 0 -28.042655865183406 -76.770146980799836 0 -76.770146980799836 -77.252573024614321 0 0 0 0 6.3220308797681355 -120.86706059085918 0 -120.86706059085918 -87.485640196657187 0 0 0 0 7.1734623574522285 -36.287461732706305 0 -36.287461732706305 -52.956646514837942 0 0 0 0 -0.8728463731681444 -58.26058588857331 0 -58.26058588857331 7.3589488174769819 0 0 0 0 -17.858393126834926 -49.680474626402429 0 -49.680474626402429 -4.2375266062226729 0 0 0 0 -33.411464670904408 -130.32721685110309 0 -130.32721685110309 -71.676319562881162 0 0 0 0 31.552133175780909 -103.14949921786865 0 -103.14949921786865 -97.439437697081303 0 0 0 0 229.90684945882094 -374.80913496347057 0 -374.80913496347057 175.58774320547036 0 0 0 0 -1.1278172977472423 -141.93962809142977 0 -141.93962809142977 -150.31431187691214 0 0 0 0 8.8176318213108829 -44.53564603105999 0 -44.53564603105999 14.998389095633833 0 0 0 0 -0.59665358538669722 -2.787738744691282 0 -2.787738744691282 -12.63434332738673 0 0 0 0 -38.249141691972909 359.14458980040581 0 359.14458980040581 -445.1955128937534 0 0 0 0 796.55197980225785 62.177344936808367 0 62.177344936808367 -835.00349434030431 0 0 0 0 59.339844225309207 -123.13708384351776 0 -123.13708384351776 -128.10236555619485 0 0 0 0 108.54266527383879 -73.615926550295626 0 -73.615926550295626 -97.829601706447647 0 0 0 0 64.834620027675555 -84.898192508757347 0 -84.898192508757347 -76.268110615945261 0 0 0 0 186.57839593233439 -308.34953811854211 0 -308.34953811854211 -56.688155729381833 0 0 0 0 -792.47347299469766 264.90590816986696 0 264.90590816986696 58.399038657487836 0 0 0 0 -288.31602665181344 58.005889987188311 0 58.005889987188311 126.60898771364009 0 0 0 0 692.0767079832076 -207.94197965952117 0 -207.94197965952117 -103.79007076790367 0 0 0 0 94.468481015346697 -64.758977730281913 0 -64.758977730281913 -65.798223707239231 0 0 0 0 -6.6385739595110991 -13.923571929350089 0 -13.923571929350089 -34.41583399869333 0 0 0 0 53.686313642479945 -72.27582696333593 0 -72.27582696333593 -52.938857153938443 0 0 0 0 57.976856529501674 -59.88993611249316 0 -59.88993611249316 -20.151707008024005 0 0 0 0 49.026738621533696 -62.57882726254411 0 -62.57882726254411 -61.079183253954398 0 0 0 0 67.589067708103357 -71.335510271506791 0 -71.335510271506791 -47.438056736180442 0 0 0 0 38.78216020547552 -63.951265273222816 0 -63.951265273222816 -45.099591718533702 0 0 0 0 19.932449476297627 -54.080355944278637 0 -54.080355944278637 -58.323535812255464 0 0 0 0 -29.456056797409474 -101.03669729631929 0 -101.03669729631929 -24.912260828474245 0 0 0 0 1018.1790603155523 654.47787450336023 0 654.47787450336023 -452.93918786920767 0 0 0 0 -24.884752865385515 -18.375657415060108 0 -18.375657415060108 -2.0576349822153475 0 0 0 0 35.622858676312717 -54.343068542795663 0 -54.343068542795663 -53.490404425287124 0 0 0 0 123.36851279890834 1233.249051331517 0 1233.249051331517 128.17508270693361 0 0 0 0 -3548.7953089508228 1360.7720805299923 0 1360.7720805299923 1328.480528327912 0 0 0 0 -3114.884211869663 -2187.0134432093855 0 -2187.0134432093855 -491.98267540121742 0 0 0 0 -1026.6247904775191 -1173.6437036025891 0 -1173.6437036025891 -1168.3282616758574 0 0 0 0 -41.910226663077189 -5.752301580086197 0 -5.752301580086197 -1.7756794367579678 0 0 0 0 -1217.5093815589971 -1850.9571191500445 0 -1850.9571191500445 -2002.837278802569 0 0 0 0 -1108.020333699249 -749.05016880914627 0 -749.05016880914627 117.12459125075111 0 0 0 0 -1643.107546891717 -1242.3920123383823 0 -1242.3920123383823 -55.023018800273348 0 0 0 0 -102.13425349173485 -397.51115011301954 0 -397.51115011301954 227.27082720394719 0 0 0 0 -1867.7506134833238 119.86223679884733 0 119.86223679884733 511.03632391081919 0 0 0 0 -1141.7602511471923 -829.82850699111259 0 -829.82850699111259 -80.116791260650643 0 0 0 0 -1282.3180257868698 -25.305421678690323 0 -25.305421678690323 455.6640881429721 0 0 0 0 -100.57265118478867 -15.795667253451338 0 -15.795667253451338 16.763887790288681 0 0 0 0 -2424.7794310060781 -921.64582234224963 0 -921.64582234224963 -189.93906940299098 0 0 0 0 -661.16694637755973 -284.09690354194527 0 -284.09690354194527 -28.46495307611076 0 0 0 0 -383.54863944519821 232.97439044729003 0 232.97439044729003 -148.55990010848382 0 0 0 0 -17.247974328750033 -13.006062501329223 0 -13.006062501329223 -2.5752057307984906 0 0 0 0 365.79086426239519 -1149.9182975402064 0 -1149.9182975402064 580.84711097831678 0 0 0 0 -1769.5636615748272 463.9421935789502 0 463.9421935789502 -109.42284873245262 0 0 0 0 -2112.7987576354317 -1038.7077042067758 0 -1038.7077042067758 -778.34549871585295 0 0 0 0 -5.1528290576857358 -9.5897892400805418 0 -9.5897892400805418 4.4176808604176259 0 0 0 0 -2097.0140229899152 -1444.0401960705167 0 -1444.0401960705167 -624.24429310226697 0 0 0 0 108.7375797130444 -3166.5571687436968 0 -3166.5571687436968 461.37843547122031 0 0 0 0 8.0970169608429927 -36.874644934100473 0 -36.874644934100473 -35.19192705404501 0 0 0 0 90.532260033687635 -130.41731735397298 0 -130.41731735397298 386.46502484274606 0 0 0 0 8.7931272276563561 4.5259701716957501 0 4.5259701716957501 -2.6653677647148868 0 0 0 0 -896.22981597655053 -611.81746484248015 0 -611.81746484248015 -346.73171620893118 0 0 0 0 -650.06819617325527 -780.14359720878201 0 -780.14359720878201 -956.88117134238473 0 0 0 0 -1611.2496092549773 -1374.3767008601644 0 -1374.3767008601644 -578.05324796010427 0 0 0 0 -867.10267737743197 -422.99595965068329 0 -422.99595965068329 -278.26461282151286 0 0 0 0 -30.33424166057921 -34.577581253313838 0 -34.577581253313838 -40.480436186244333 0 0 0 0 -32.073712788922421 -34.990061093016266 0 -34.990061093016266 -26.162005171112469 0 0 0 0 -14.427957824533223 -42.423275953688062 0 -42.423275953688062 -26.807725913595277 0 0 0 0 -3.9178448631577263 -27.042704707265294 0 -27.042704707265294 -22.325676237192582 0 0 0 0 -11.234033793858544 -37.330177610050669 0 -37.330177610050669 -26.866235140703793 0 0 0 0 -5.8916635761579528 -43.825193755944383 0 -43.825193755944383 -29.631429723609472 0 0 0 0 -9.6765239256515443 -11.448237661004072 0 -11.448237661004072 10.146028555263065 0 0 0 0 -7.5722316100391254 -32.18079327021951 0 -32.18079327021951 -23.289975188687549 0 0 0 0 -38.932200975872291 -40.033270078668778 0 -40.033270078668778 -4.3587631725293434 0 0 0 0 -98.510083922737977 -70.66007465144321 0 -70.66007465144321 -17.211288729460648 0 0 0 0 -128.8744065726205 -84.197041321442612 0 -84.197041321442612 -18.168764379362983 0 0 0 0 -113.87281800014352 -52.572626784517865 0 -52.572626784517865 40.180034951490597 0 0 0 0 -114.6812210336002 -67.534963628729088 0 -67.534963628729088 330.08249216793774 0 0 0 0 -210.21578511004554 -139.0495461399596 0 -139.0495461399596 153.87895780186773 0 0 0 0 -208.05808355936415 -254.68372370013481 0 -254.68372370013481 -80.141077895726994 0 0 0 0 189.19040420637612 -403.02538675541928 0 -403.02538675541928 272.28413030094816 0 0 0 0 -1409.2973222529981 -991.53509709130731 0 -991.53509709130731 -1311.8179499080434 0 0 0 0 -13.085203427173411 -23.75797015420823 0 -23.75797015420823 24.357566147498691 0 0 0 0 -925.4750093824332 -3136.5631766587048 0 -3136.5631766587048 -2334.7239990858834 0 0 0 0 -176.82319261180601 -59.364638115685466 0 -59.364638115685466 538.98821565522849 0 0 0 0 152.8827838483121 53.262507972332969 0 53.262507972332969 -204.66316068498554 0 0 0 0 -23.425844263628548 -25.097721950136425 0 -25.097721950136425 15.274334325029042 0 0 0 0 394.59700464563502 -118.83663291259927 0 -118.83663291259927 -8.2930640067406785 0 0 0 0 730.30242358039686 -976.82436640454398 0 -976.82436640454398 955.79042198681509 0 0 0 0 -360.14013148177764 -876.41653933268935 0 -876.41653933268935 -12.372987816723253 0 0 0 0 -2757.3600662124736 -684.10076609579392 0 -684.10076609579392 1406.3726349581066 0 0 0 0 -1251.7040070841904 -103.74715887382172 0 -103.74715887382172 -325.74559304393915 0 0 0 0 0.071579556599798977 -3.2375250816908476 0 -3.2375250816908476 2.1501222406571827 0 0 0 0 2363.609384043767 -444.10271367770292 0 -444.10271367770292 -547.17293184691516 0 0 0 0 1147.5716509445992 117.56510250873998 0 117.56510250873998 -571.04279746613611 0 0 0 0 4.8321402138166576 -10.191541621991895 0 -10.191541621991895 10.225494547550895 0 0 0 0 1210.4290593878723 -120.73324254173849 0 -120.73324254173849 -629.13991668604831 0 0 0 0 16.28188565090386 -253.24350148298436 0 -253.24350148298436 1472.8883275400344 0 0 0 0 -1340.9049548324328 -617.14494634077801 0 -617.14494634077801 -187.2929078577763 0 0 0 0 443.3689199333603 -557.44114480845201 0 -557.44114480845201 1712.3797713055137 0 0 0 0 1.3357007811462331 -11.567328084660232 0 -11.567328084660232 -3.6862818944057238 0 0 0 0 -751.50564038306766 -729.49135791910703 0 -729.49135791910703 -485.10281017518537 0 0 0 0 0.18786825965279519 -55.463064992048217 0 -55.463064992048217 15.508967669989772 0 0 0 0 -26.537953116865538 -124.09075883885998 0 -124.09075883885998 106.6464259675522 0 0 0 0 24.689762421887423 -17.976547195657325 0 -17.976547195657325 14.927574568978631 0 0 0 0 -158.38289731486293 -263.18588213836119 0 -263.18588213836119 281.91444028861406 0 0 0 0 -74.073625290788186 -457.48285105124523 0 -457.48285105124523 -402.13051527635434 0 0 0 0 -87.483248798049317 -140.7807656088753 0 -140.7807656088753 388.04020526909881 0 0 0 0 -41.443455389333394 -59.252420500930384 0 -59.252420500930384 158.08437847007008 0 0 0 0 -65.377981796584208 -53.642651391774052 0 -53.642651391774052 1003.5969447736898 0 0 0 0 -58.389468649033915 -64.362552647794928 0 -64.362552647794928 79.259796604619623 0 0 0 0 -55.574340370796563 -172.12003841023761 0 -172.12003841023761 115.21126542757065 0 0 0 0 -88.005102291846924 -162.44897013456557 0 -162.44897013456557 164.88221113499822 0 0 0 0 -56.807973402872449 -160.55325428362448 0 -160.55325428362448 -6.38341557651529 0 0 0 0 -118.0829578492303 -139.91343155135291 0 -139.91343155135291 -4.8608828277774592 0 0 0 0 -44.295103171760275 -205.05115969540384 0 -205.05115969540384 -11.198501399227098 0 0 0 0 -79.855800250154061 -132.86158137509631 0 -132.86158137509631 -64.074492703568922 0 0 0 0 -128.35184080730323 -78.160751727313936 0 -78.160751727313936 26.435805568838759 0 0 0 0 -60.930527022358696 -126.77332625454402 0 -126.77332625454402 -22.876314381952682 0 0 0 0 -61.091819901928829 -137.6891048136963 0 -137.6891048136963 -4.6180282584100496 0 0 0 0 -116.96470797067013 -351.30649987318338 0 -351.30649987318338 -153.21343609247378 0 0 0 0 79.032564485719163 -70.04149183423479 0 -70.04149183423479 9.3749148213935527 0 0 0 0 -9.6227938785032165 -114.08340057061378 0 -114.08340057061378 -43.673387708615337 0 0 0 0 -12.02273631063872 -129.55815194377828 0 -129.55815194377828 -53.780854759359499 0 0 0 0 -28.274817198366389 -92.607090988964501 0 -92.607090988964501 -46.911344073422342 0 0 0 0 -6.6997636513278849 -117.50964755588848 0 -117.50964755588848 -55.745971236050536 0 0 0 0 39.856215136875107 -65.516777580603957 0 -65.516777580603957 -27.406426813096914 0 0 0 0 5.7052568339504575 -72.046075698984907 0 -72.046075698984907 -47.795410070362152 0 0 0 0 -70.319238281870014 -63.619313634500941 0 -63.619313634500941 11.040202489648934 0 0 0 0 -131.94775946568552 -488.13537627814731 0 -488.13537627814731 -407.53797138241043 0 0 0 0 35.197249000058946 -43.297076200051379 0 -43.297076200051379 -114.66503743354133 0 0 0 0 71.661751902018722 -22.674478942731227 0 -22.674478942731227 7.8188244056828573 0 0 0 0 -159.91424895274395 -283.61589582425654 0 -283.61589582425654 53.501903852180476 0 0 0 0 -40.608965651059407 -219.9458193811497 0 -219.9458193811497 -204.15214553714213 0 0 0 0 -39.436423294355336 -380.23027288032608 0 -380.23027288032608 293.81875389800371 0 0 0 0 -110.69599514906076 -127.36346268387592 0 -127.36346268387592 116.75049069310808 0 0 0 0 -115.14179393364611 -121.47989614304151 0 -121.47989614304151 109.84326059447289 0 0 0 0 9.0429714299772002 0.0069426205703493338 0 0.0069426205703493338 -0.93812687362754588 0 0 0 0 -74.182813862673356 26.980298471811693 0 26.980298471811693 586.83692973620919 0 0 0 0 243.00606781423267 -325.31517953521325 0 -325.31517953521325 155.29297416978989 0 0 0 0 235.75432465350468 -247.60259064240904 0 -247.60259064240904 -161.2662997818752 0 0 0 0 154.67734867414401 -117.18758200962111 0 -117.18758200962111 428.21562783195259 0 0 0 0 176.80380177548795 32.876327829028014 0 32.876327829028014 203.93047346191088 0 0 0 0 138.89287484200031 -289.01340679816531 0 -289.01340679816531 386.97257441375359 0 0 0 0 363.42802342057257 -215.568368073702 0 -215.568368073702 178.44976119996045 0 0 0 0 209.2361122833463 -335.39593458799573 0 -335.39593458799573 114.02111876892377 0 0 0 0 317.20541568240242 8.7315077995087904 0 8.7315077995087904 199.64971166135183 0 0 0 0 75.293961572315311 -191.4309990738011 0 -191.4309990738011 63.368966504814125 0 0 0 0 300.15755303294281 -37.344507658973271 0 -37.344507658973271 101.55206099677162 0 0 0 0 223.39704538599472 -40.859953377745114 0 -40.859953377745114 149.04411794258795 0 0 0 0 266.38023332815646 3.6383485732721965 0 3.6383485732721965 51.880268645631077 0 0 0 0 166.56385094610596 -97.440325947538213 0 -97.440325947538213 110.95034574346937 0 0 0 0 232.08283299181494 37.717470293771839 0 37.717470293771839 -11.644371229640456 0 0 0 0 384.55198645795463 -31.883062897526543 0 -31.883062897526543 7.9210180431855406 0 0 0 0 353.29088325276825 -67.273205424677144 0 -67.273205424677144 124.34834886249519 0 0 0 0 432.37362799112452 -85.113051516256746 0 -85.113051516256746 54.029524633141591 0 0 0 0 545.66656289540697 -134.74860097454439 0 -134.74860097454439 28.378272377658504 0 0 0 0 430.13878065379686 -185.48125266127863 0 -185.48125266127863 114.6482505667409 0 0 0 0 894.6723615363735 -349.4013623660976 0 -349.4013623660976 -185.92920393066015 0 0 0 0 463.61293335862865 -141.28074167274826 0 -141.28074167274826 -154.95877730453867 0 0 0 0 143.45349433734373 -32.267333266523565 0 -32.267333266523565 -170.73777187504675 0 0 0 0 98.261743464710889 -270.97071328358652 0 -270.97071328358652 -425.68042500238153 0 0 0 0 -12.676982971403049 -58.844838997500119 0 -58.844838997500119 -161.28710739859707 0 0 0 0 -122.75951269320478 -163.51801664122263 0 -163.51801664122263 -160.38735387067209 0 0 0 0 60.056448683833878 -294.90679675738829 0 -294.90679675738829 -547.97418170579613 0 0 0 0 274.56594309097636 -244.19914946516747 0 -244.19914946516747 -144.00862271084225 0 0 0 0 237.89771520314389 14.932867864549735 0 14.932867864549735 -34.739424914170741 0 0 0 0 149.6278991560248 -139.85473402760545 0 -139.85473402760545 -120.88539288812171 0 0 0 0 1538.1555130206689 -1296.450331642257 0 -1296.450331642257 159.17227283900138 0 0 0 0 2635.1396833691288 -2476.0042386958635 0 -2476.0042386958635 1107.203288416571 0 0 0 0 1609.1931763129505 -195.75406435381501 0 -195.75406435381501 -394.81565030207639 0 0 0 0 25.210230179927152 -7.9563052980765221 0 -7.9563052980765221 -35.21096793333551 0 0 0 0 400.21369675420283 -672.76921385724745 0 -672.76921385724745 1732.4174021523568 0 0 0 0 -129.90800965852395 -495.51170922240271 0 -495.51170922240271 1456.296578356345 0 0 0 0 70.540608745184727 -149.94335438618145 0 -149.94335438618145 47.432347602869413 0 0 0 0 60.295397619993309 -172.38979633757117 0 -172.38979633757117 38.678175660086708 0 0 0 0 -81.794511181942653 301.25753892671491 0 301.25753892671491 -262.76516468137561 0 0 0 0 7.0267878621816635 220.43789207190275 0 220.43789207190275 -274.34929128119256 0 0 0 0 49.897325424050692 -58.544289584609061 0 -58.544289584609061 -7.4368567923440168 0 0 0 0 17.186713772053551 -19.961942455466072 0 -19.961942455466072 -16.518321475626024 0 0 0 0 -341.18945564649766 319.74696892715247 0 319.74696892715247 482.73880443151575 0 0 0 0 -143.57815530214793 -204.10451612515953 0 -204.10451612515953 41.010760617567939 0 0 0 0 782.81912135065068 -547.69648875899202 0 -547.69648875899202 499.91878480894229 0 0 0 0 1393.7036946973822 -787.15662511281334 0 -787.15662511281334 -129.43093436781055 0 0 0 0 1512.2669035342988 -1336.9205848880883 0 -1336.9205848880883 179.93040796023706 0 0 0 0 0.40699545941965454 -4.0855252666689239 0 -4.0855252666689239 -6.1004445494520283 0 0 0 0 20.263078256817607 -615.04137604248763 0 -615.04137604248763 16.062891284909711 0 0 0 0 -856.51560005341889 -200.70698564941267 0 -200.70698564941267 143.56402137031273 0 0 0 0 -83.57728872273583 -237.62770875476599 0 -237.62770875476599 29.201937224400353 0 0 0 0 -116.29377200661111 -288.06735906647464 0 -288.06735906647464 38.11057617303959 0 0 0 0 101.79913939888502 -237.78520808075973 0 -237.78520808075973 30.962166751259247 0 0 0 0 202.31960062980215 -126.73178281161472 0 -126.73178281161472 47.254704418584879 0 0 0 0 224.90913961894694 -157.84872406789145 0 -157.84872406789145 48.103367305084248 0 0 0 0 248.69842742358742 -261.25493419430677 0 -261.25493419430677 -82.293702469731215 0 0 0 0 273.02380124712363 -248.20206261903331 0 -248.20206261903331 175.09561223394121 0 0 0 0 456.38747319078539 -194.57951926793976 0 -194.57951926793976 190.69175656422067 0 0 0 0 457.30776537061683 -350.13492400513678 0 -350.13492400513678 467.12336506229258 0 0 0 0 800.60718621434353 -701.56741448208231 0 -701.56741448208231 300.16781429041475 0 0 0 0 767.75476874961169 -662.5783776416356 0 -662.5783776416356 254.94007152485938 0 0 0 0 671.53867959188938 -958.09009719002643 0 -958.09009719002643 584.02792384232089 0 0 0 0 840.22728963480768 -1214.9520936680256 0 -1214.9520936680256 969.96039431884174 0 0 0 0 859.07765766973171 -1180.4514895647135 0 -1180.4514895647135 857.93397691026257 0 0 0 0 67.600482178182574 -830.86463269417936 0 -830.86463269417936 1883.592818174784 0 0 0 0 335.43678708250809 -258.53145551648595 0 -258.53145551648595 234.29761948488886 0 0 0 0 266.42900804501551 -450.27541420126363 0 -450.27541420126363 893.65566600020611 0 0 0 0 1655.8923166860695 -744.39393384647929 0 -744.39393384647929 1947.8407261029643 0 0 0 0 1506.7074452178786 -1317.4246821215966 0 -1317.4246821215966 -186.89849427296394 0 0 0 0 1197.9995455627795 -1660.745313290643 0 -1660.745313290643 1532.1713640844901 0 0 0 0 1720.6291537585494 -1075.5983056931418 0 -1075.5983056931418 1107.2247411799872 0 0 0 0 3062.2066078905627 -2335.1704121891944 0 -2335.1704121891944 1253.4186479892523 0 0 0 0 737.12590304846526 -869.91031856979316 0 -869.91031856979316 805.14523778520197 0 0 0 0 1811.7992920762335 -421.37893884714686 0 -421.37893884714686 -336.59327766730712 0 0 0 0 -4.8072159187558157 -25.769655874287665 0 -25.769655874287665 2.9053549242458487 0 0 0 0 3516.1896769396699 -1970.67609950925 0 -1970.67609950925 105.59302134578047 0 0 0 0 -988.74577694507025 523.84594069773129 0 523.84594069773129 547.63731166219077 0 0 0 0 1862.7654056797801 -2104.9766747492258 0 -2104.9766747492258 1967.08880686255 0 0 0 0 -5.1506461827948442 -26.917225196888769 0 -26.917225196888769 18.490326979564408 0 0 0 0 2828.4934279371228 -1693.660457365163 0 -1693.660457365163 184.00864292970527 0 0 0 0 -29.25372857583055 -77.794922074372948 0 -77.794922074372948 18.122607664902347 0 0 0 0 804.30510414065066 -481.33650264496464 0 -481.33650264496464 -125.39194348491583 0 0 0 0 38.306440814787493 42.057935233429816 0 42.057935233429816 292.28029891623373 0 0 0 0 1699.3496178113055 62.046530962696124 0 62.046530962696124 -204.89672410714411 0 0 0 0 1771.3667916196064 -1259.714444024763 0 -1259.714444024763 131.65571583596102 0 0 0 0 2312.2784292759079 -1607.1685797065634 0 -1607.1685797065634 344.42729904028965 0 0 0 0 739.78986756447193 -814.87774005886786 0 -814.87774005886786 265.85094645382196 0 0 0 0 819.38674674843787 -820.32660694755032 0 -820.32660694755032 156.53388575119607 0 0 0 0 613.04344989584934 -815.9619753220868 0 -815.9619753220868 415.36001918566944 0 0 0 0 611.41215883220138 -559.31739576338441 0 -559.31739576338441 -14.03964413968788 0 0 0 0 949.6075018149204 -1191.4650572900337 0 -1191.4650572900337 509.73576012463673 0 0 0 0 1029.7353926065443 -1363.3273244014504 0 -1363.3273244014504 690.28124358636705 0 0 0 0 1127.1677298016439 -1043.5198489971481 0 -1043.5198489971481 247.02847656767881 0 0 0 0 1001.262111266049 -1544.5381619009149 0 -1544.5381619009149 915.46744841257532 0 0 0 0 1072.0119232937868 -1455.6326505386933 0 -1455.6326505386933 584.57994863295789 0 0 0 0 964.4710546661081 -1420.6873855812701 0 -1420.6873855812701 573.23957839066861 0 0 0 0 1077.6848063820798 -1392.8954812360025 0 -1392.8954812360025 455.71537020532924 0 0 0 0 995.06198491460964 -1345.1828260728962 0 -1345.1828260728962 688.47426548613294 0 0 0 0 967.22513917587639 -1266.7948249351975 0 -1266.7948249351975 532.4290134294788 0 0 0 0 1179.9211267798346 -970.75209342295511 0 -970.75209342295511 63.873851991309493 0 0 0 0 1572.3900238853676 -1327.9805536250042 0 -1327.9805536250042 112.78512117238279 0 0 0 0 1296.1092190269846 -1656.5120113763205 0 -1656.5120113763205 749.44507985084419 0 0 0 0 953.87998445248377 -1294.0771350026353 0 -1294.0771350026353 1010.2423909360477 0 0 0 0 1126.4798692966579 -1285.826696310658 0 -1285.826696310658 892.57028649805943 0 0 0 0 752.92021805029799 -862.42402648870302 0 -862.42402648870302 1322.9083469932739 0 0 0 0 1192.8520860957069 -482.99325799651706 0 -482.99325799651706 790.94177706405389 0 0 0 0 1107.8665602858782 -740.94334015715776 0 -740.94334015715776 493.91522616657312 0 0 0 0 972.45209942827387 -346.33944719586816 0 -346.33944719586816 396.25910979665787 0 0 0 0 510.15850666192273 -431.0089423080135 0 -431.0089423080135 490.36849693106706 0 0 0 0 879.54359749128344 -743.6746921670383 0 -743.6746921670383 574.27417807844176 0 0 0 0 555.29362870675686 -610.25013588111324 0 -610.25013588111324 322.35100934158254 0 0 0 0 595.71355311355728 -467.07741900232031 0 -467.07741900232031 669.18037936471228 0 0 0 0 618.44544375521946 -169.53301913637551 0 -169.53301913637551 6.498524310245557 0 0 0 0 203.17108387881308 -544.2223015166237 0 -544.2223015166237 377.8302373464503 0 0 0 0 0.31315957913000148 -14.045052418960587 0 -14.045052418960587 -4.0755660858059182 0 0 0 0 250.78346205898015 -354.86234775495541 0 -354.86234775495541 344.90836878116534 0 0 0 0 303.45233511655533 -417.96898597441759 0 -417.96898597441759 352.78867362828169 0 0 0 0 276.21523358175182 -617.68217806930625 0 -617.68217806930625 507.34381524827404 0 0 0 0 616.99910600423755 -701.62472975526907 0 -701.62472975526907 423.29705855948487 0 0 0 0 775.67728331715261 -889.35462437193564 0 -889.35462437193564 634.16302397599793 0 0 0 0 740.43260078274761 -1107.0906503278238 0 -1107.0906503278238 751.59425345170894 0 0 0 0 550.88135618985689 -755.6938441207858 0 -755.6938441207858 631.86855912219471 0 0 0 0 318.40500659853569 -536.64695021961234 0 -536.64695021961234 411.89851869671111 0 0 0 0 698.88204819389648 -795.18551057592731 0 -795.18551057592731 325.21767490531784 0 0 0 0 374.60841910152521 -447.47586150321877 0 -447.47586150321877 268.73067935192375 0 0 0 0 159.79488435782696 -207.31349784401027 0 -207.31349784401027 65.065544093828066 0 0 0 0 242.67148725560401 -352.16264953695645 0 -352.16264953695645 211.9913264725692 0 0 0 0 343.87351445235254 -533.39996706967395 0 -533.39996706967395 363.86544715287164 0 0 0 0 -85.391299859562423 -246.49110715758252 0 -246.49110715758252 193.51604207927085 0 0 0 0 -143.91797683321056 -233.46797957258241 0 -233.46797957258241 276.53504631182659 0 0 0 0 225.36511071222776 -494.7447794369873 0 -494.7447794369873 277.36058983551629 0 0 0 0 223.38084086540039 -294.84182903503097 0 -294.84182903503097 245.14796331521029 0 0 0 0 -163.97862980276113 23.101462441525655 0 23.101462441525655 31.198759945342317 0 0 0 0 -13.484459353273785 -5.4588410263407354 0 -5.4588410263407354 2.6032436380401265 0 0 0 0 -48.714921298332882 -55.165548499954191 0 -55.165548499954191 -9.2767769204671406 0 0 0 0 -98.495077850098227 -28.573346112763119 0 -28.573346112763119 11.522166789501963 0 0 0 0 -157.22112470608045 -76.223477971481771 0 -76.223477971481771 -81.554306237201672 0 0 0 0 32.78854498506189 -223.1427700325039 0 -223.1427700325039 -0.37266907315279241 0 0 0 0 -34.296794282598739 -75.432539676010293 0 -75.432539676010293 78.825767727121274 0 0 0 0 -35.48185436894039 -58.541330364905718 0 -58.541330364905718 -0.19954317491056228 0 0 0 0 -218.52414260801743 5.228434548685982 0 5.228434548685982 174.36605554057678 0 0 0 0 -50.491156573903226 -72.808121072561136 0 -72.808121072561136 44.86622545481417 0 0 0 0 -11.262656045313634 -90.156403725405198 0 -90.156403725405198 37.987649279508332 0 0 0 0 268.17042541144474 12.261992200772511 0 12.261992200772511 -240.76786601397089 0 0 0 0 478.17461224638828 -56.04629824127187 0 -56.04629824127187 -169.3736270532936 0 0 0 0 -188.85261109974817 -126.92963227343716 0 -126.92963227343716 182.98563134888172 0 0 0 0 -9.727491573691907 -3.700266018757457 0 -3.700266018757457 -0.95567057611715533 0 0 0 0 50.170652819610666 -31.152681527273412 0 -31.152681527273412 5.2177942012078162 0 0 0 0 479.48170226762159 -91.609787868123021 0 -91.609787868123021 19.051589219401649 0 0 0 0 -428.76988588245877 -516.48018675274579 0 -516.48018675274579 172.62788249229197 0 0 0 0 192.44404704310728 -414.83800930916914 0 -414.83800930916914 -273.51377467453858 0 0 0 0 -154.53555930783477 -474.84821816462136 0 -474.84821816462136 -583.33336900206677 0 0 0 0 -1242.3722337584695 604.80083301510967 0 604.80083301510967 164.20552496663731 0 0 0 0 61.961522936308029 -23.071481020772126 0 -23.071481020772126 -202.8845826704819 0 0 0 0 33.595789263827328 -5.0870981165933031 0 -5.0870981165933031 -14.58073031530256 0 0 0 0 18.687610423340658 -51.69005609827051 0 -51.69005609827051 16.571545464317492 0 0 0 0 159.09749556380848 -163.89381175781818 0 -163.89381175781818 -803.34429977546461 0 0 0 0 -161.12485983639601 -132.48320830517878 0 -132.48320830517878 -485.06585080840523 0 0 0 0 91.739196142050787 -348.4200217394864 0 -348.4200217394864 -331.50120833570145 0 0 0 0 142.76430805756536 -586.27422760831178 0 -586.27422760831178 -1050.3578363294855 0 0 0 0 642.54713290612563 -41.046778001589701 0 -41.046778001589701 -354.46498757806694 0 0 0 0 -103.58690903542447 -326.65718146272411 0 -326.65718146272411 -316.07980676354282 0 0 0 0 1166.6152029947916 113.95916550335551 0 113.95916550335551 -949.13675229333603 0 0 0 0 741.72693541522312 -383.69693072583323 0 -383.69693072583323 -126.16236992768245 0 0 0 0 1971.6741944475652 -1065.5397524250875 0 -1065.5397524250875 -211.13927963595415 0 0 0 0 1264.3173057220993 -1082.720680292412 0 -1082.720680292412 197.5397582909136 0 0 0 0 1342.7795497792977 -579.87779775209128 0 -579.87779775209128 -499.57724878746012 0 0 0 0 1460.3215368722231 -1205.078804171153 0 -1205.078804171153 60.612741357639607 0 0 0 0 2803.1042579424538 -1046.019752858585 0 -1046.019752858585 -664.33866052512985 0 0 0 0 2405.1276533699129 -2326.1820563274523 0 -2326.1820563274523 817.96857856412134 0 0 0 0 18.167441330673455 -10.666666603139099 0 -10.666666603139099 7.9046600766855875 0 0 0 0 893.94961349861842 221.90506522316537 0 221.90506522316537 -44.483530154204345 0 0 0 0 185.83459146939276 -700.91360775631892 0 -700.91360775631892 2819.4671130677889 0 0 0 0 -242.69072179641444 351.66769466906953 0 351.66769466906953 972.83555817068554 0 0 0 0 567.59948910911044 -1116.5422908583951 0 -1116.5422908583951 1518.6305756181027 0 0 0 0 1630.3846476964754 -2289.0765460586717 0 -2289.0765460586717 2487.7569612474326 0 0 0 0 644.15118013316533 -1111.5586215310832 0 -1111.5586215310832 1174.1146833533639 0 0 0 0 973.87765282284818 -1577.0397870940833 0 -1577.0397870940833 1383.3162043491066 0 0 0 0 1116.9528824408353 -1305.8516002524291 0 -1305.8516002524291 2655.2793417163775 0 0 0 0 3057.9892230597761 -1433.6294104330736 0 -1433.6294104330736 812.26792708655557 0 0 0 0 1311.735497639329 -853.97642450888361 0 -853.97642450888361 923.44551797089662 0 0 0 0 2180.877700550991 -250.13732929272373 0 -250.13732929272373 1333.5457927727293 0 0 0 0 1423.3626173229422 -513.51843128271503 0 -513.51843128271503 642.05609171795368 0 0 0 0 1553.0326057620841 -1088.8515761872623 0 -1088.8515761872623 739.36397110626058 0 0 0 0 1720.3224405541187 -1082.1409557345978 0 -1082.1409557345978 517.47337700824573 0 0 0 0 1188.6339987193642 -865.36844246725377 0 -865.36844246725377 434.05953849941579 0 0 0 0 1141.8263533223217 -1310.9300840976539 0 -1310.9300840976539 608.34088071828137 0 0 0 0 1784.6628954515108 -1443.6514039215144 0 -1443.6514039215144 635.62168429555459 0 0 0 0 821.93940358709369 -1284.9369530813201 0 -1284.9369530813201 687.28282423783821 0 0 0 0 976.52566245465277 -1457.2843744592938 0 -1457.2843744592938 716.83323193315846 0 0 0 0 698.15638093879261 -1028.4887387597664 0 -1028.4887387597664 403.05107438705454 0 0 0 0 908.88883827898644 -1285.1963369182063 0 -1285.1963369182063 734.61182975865813 0 0 0 0 746.07449497747439 -1309.121560333082 0 -1309.121560333082 852.20240517941966 0 0 0 0 261.66355750709045 -797.21026862945291 0 -797.21026862945291 1187.4163559316785 0 0 0 0 268.74537712589517 -733.3596416088003 0 -733.3596416088003 760.21873644055449 0 0 0 0 323.54478798847049 -529.78743780023706 0 -529.78743780023706 277.40538991086942 0 0 0 0 177.4367158585228 -484.25847085477653 0 -484.25847085477653 406.10099566848658 0 0 0 0 -17.164663424438913 -167.42563773990332 0 -167.42563773990332 159.65667697920435 0 0 0 0 357.56262689735013 -607.94724525982383 0 -607.94724525982383 165.93357612717011 0 0 0 0 875.20985759620817 -784.46431749680778 0 -784.46431749680778 133.7244180762209 0 0 0 0 37.142939164037671 -429.58221769996999 0 -429.58221769996999 412.57394506553101 0 0 0 0 2000.7117197456319 -1327.4981663889157 0 -1327.4981663889157 280.3596524982845 0 0 0 0 487.01346084422403 -571.21468879531676 0 -571.21468879531676 198.91566712911299 0 0 0 0 1959.0713930208003 -809.83400748376516 0 -809.83400748376516 887.96073082114162 0 0 0 0 1091.3449094599932 -1020.2975633451097 0 -1020.2975633451097 1629.5916761622138 0 0 0 0 814.73349141897052 -1101.090557728905 0 -1101.090557728905 1127.917199211759 0 0 0 0 1118.9577354780695 -1333.7937401891854 0 -1333.7937401891854 810.21162973721948 0 0 0 0 866.17231024446664 -1255.4377624765402 0 -1255.4377624765402 702.34914675555774 0 0 0 0 982.36852641706355 -1214.2093996277545 0 -1214.2093996277545 706.49615506047121 0 0 0 0 978.03947254500781 -1240.0177581687472 0 -1240.0177581687472 585.08059406482062 0 0 0 0 1143.8603636166808 -1313.6333541798958 0 -1313.6333541798958 604.06112363685679 0 0 0 0 1370.3543562869309 -1113.767321074607 0 -1113.767321074607 423.01221215619444 0 0 0 0 1127.637236450566 -906.06474482649719 0 -906.06474482649719 425.1172380628268 0 0 0 0 970.51711233326932 -1049.3745142949956 0 -1049.3745142949956 515.25949885424779 0 0 0 0 1028.9693264545058 -752.70783878486327 0 -752.70783878486327 296.74782982930992 0 0 0 0 591.06936901331937 -725.89140372626935 0 -725.89140372626935 440.33143296666458 0 0 0 0 822.33822041279927 -919.28386460431284 0 -919.28386460431284 482.53237625920156 0 0 0 0 550.32735348166898 -600.27710610390204 0 -600.27710610390204 419.02745241210414 0 0 0 0 765.70802202079358 -938.42527843757853 0 -938.42527843757853 662.65809160328354 0 0 0 0 918.13483268662094 -1176.7306845140192 0 -1176.7306845140192 737.50346248639471 0 0 0 0 861.09326897677238 -932.99904019357564 0 -932.99904019357564 411.43568092953865 0 0 0 0 685.17345648709488 -894.58370612193266 0 -894.58370612193266 805.18005152475962 0 0 0 0 251.8800775520067 -398.12249211473318 0 -398.12249211473318 689.75786748477185 0 0 0 0 372.44358585624286 -655.17024766846771 0 -655.17024766846771 523.57449445535531 0 0 0 0 -0.24499260872724449 -3.0559461786622677 0 -3.0559461786622677 0.10548544999892329 0 0 0 0 5.768753424170427 39.036821517234785 0 39.036821517234785 317.0829803314482 0 0 0 0 240.06944256873976 -119.96635846164463 0 -119.96635846164463 -137.92427758119447 0 0 0 0 -65.210273157979827 42.279207720155682 0 42.279207720155682 61.277032618725571 0 0 0 0 453.33509318811957 -450.41141332918505 0 -450.41141332918505 229.69702191771648 0 0 0 0 78.45596551723429 -67.548972886263073 0 -67.548972886263073 259.08270688482503 0 0 0 0 -581.11591179458628 -124.57795959005671 0 -124.57795959005671 757.45424260350501 0 0 0 0 562.11977837929589 -1097.7618000259754 0 -1097.7618000259754 1138.9660793216444 0 0 0 0 1324.3504779603973 -900.36558395204338 0 -900.36558395204338 1323.335930133745 0 0 0 0 1310.0790340222557 -1344.439942951818 0 -1344.439942951818 1230.0291816887147 0 0 0 0 1.8283725548249787 -0.86565776871455569 0 -0.86565776871455569 9.1108320608206981 0 0 0 0 1439.4411985320717 -807.81738810717536 0 -807.81738810717536 1071.484479993087 0 0 0 0 1447.7730942595279 -896.2222163033083 0 -896.2222163033083 794.99667242653959 0 0 0 0 -87.15390642866987 -202.47906651309404 0 -202.47906651309404 5.2893807151922374 0 0 0 0 111.91240691846178 -68.313117313471594 0 -68.313117313471594 -53.815901825863875 0 0 0 0 -55.942874818778364 -116.59540250095233 0 -116.59540250095233 24.406194567388184 0 0 0 0 -34.371041165261275 -52.274670785252653 0 -52.274670785252653 -13.584831488270197 0 0 0 0 -11.561968755107955 -153.19394215926877 0 -153.19394215926877 37.271002194833272 0 0 0 0 -67.007489573472412 -53.382609195192344 0 -53.382609195192344 8.5894487122606051 0 0 0 0 -75.881737476824128 -38.588208232363286 0 -38.588208232363286 -8.805808860444813 0 0 0 0 -83.182045120680414 -9.0402617465588264 0 -9.0402617465588264 -0.28565885130024071 0 0 0 0 -74.965162215219607 -37.8495758650879 0 -37.8495758650879 -9.9711328775592847 0 0 0 0 -10.981339162900447 -25.064192655727624 0 -25.064192655727624 -2.8379126653998554 0 0 0 0 -65.184368776681367 -14.475099235027301 0 -14.475099235027301 6.2784179304671852 0 0 0 0 -66.095275397834484 -26.030971549796959 0 -26.030971549796959 -8.1139687267206 0 0 0 0 129.73774284713727 65.948221040929639 0 65.948221040929639 -65.737894669361594 0 0 0 0 403.91027115214092 -306.12935588054643 0 -306.12935588054643 47.568415740228374 0 0 0 0 58.09761005792825 -33.216385480256577 0 -33.216385480256577 -15.363416572145979 0 0 0 0 67.437855791969469 -209.49845046088899 0 -209.49845046088899 352.3087632580864 0 0 0 0 -11.762823174366339 -25.640352884757007 0 -25.640352884757007 -8.3129341569530908 0 0 0 0 927.12121573797049 -531.9881475018974 0 -531.9881475018974 275.06897350811778 0 0 0 0 921.50456944877806 -495.83568693353664 0 -495.83568693353664 405.93718871097553 0 0 0 0 321.95163684896397 -371.42862590327786 0 -371.42862590327786 364.92019917804646 0 0 0 0 706.89256749479682 -534.72839712570294 0 -534.72839712570294 233.61457605143369 0 0 0 0 277.12279830972693 -229.13200913113178 0 -229.13200913113178 128.25907020475279 0 0 0 0 108.62282996362774 -358.11047695646266 0 -358.11047695646266 412.28928372896917 0 0 0 0 18.949002390065289 -46.494213643830335 0 -46.494213643830335 -115.95110252149243 0 0 0 0 136.01844375536893 -26.430902130643517 0 -26.430902130643517 -62.45862028096235 0 0 0 0 9.1659254060941748 -185.04907378796634 0 -185.04907378796634 262.90782788041906 0 0 0 0 -0.85793019810591886 -0.6002658972416306 0 -0.6002658972416306 -2.2983688495816779 0 0 0 0 -57.560989972233074 -109.82715280635966 0 -109.82715280635966 -97.850278905854793 0 0 0 0 -106.33796804522717 -65.475734001680394 0 -65.475734001680394 -23.501639686222916 0 0 0 0 0.56231698328527102 -6.6892292383816923 0 -6.6892292383816923 -6.9955245331615004 0 0 0 0 -18.979259982843644 -10.711041739418162 0 -10.711041739418162 -1.2118177016524996 0 0 0 0 -21.065887443939573 -41.568189949590305 0 -41.568189949590305 -28.034926574866404 0 0 0 0 -11.020514082701993 -16.734329750150209 0 -16.734329750150209 -12.959485998617311 0 0 0 0 0.93364049749055766 -13.54657896383641 0 -13.54657896383641 -22.750836762033117 0 0 0 0 -13.198185546664206 -22.536895582222101 0 -22.536895582222101 -1.6455462576241686 0 0 0 0 -7.6310213871183805 -48.608336387616873 0 -48.608336387616873 -29.952220097155077 0 0 0 0 -10.644497033112572 -27.800432939952699 0 -27.800432939952699 -11.856474683302523 0 0 0 0 -25.575927481049803 -43.577869840021322 0 -43.577869840021322 -22.841750160565425 0 0 0 0 -95.418157858199265 34.323200791337513 0 34.323200791337513 25.635896207222686 0 0 0 0 172.20340440511791 -128.14487395334436 0 -128.14487395334436 -70.372076944615401 0 0 0 0 -8.9457886612002682 -25.878061722496355 0 -25.878061722496355 -9.7033986491011319 0 0 0 0 -3.6670644439535778 -44.478330060158896 0 -44.478330060158896 -11.192441790532413 0 0 0 0 117.95184185207472 -6.9933016644317831 0 -6.9933016644317831 -18.491703261279326 0 0 0 0 12.237865815486998 -28.881962092260778 0 -28.881962092260778 -12.25186282818413 0 0 0 0 -29.963064140669303 -27.137692355798208 0 -27.137692355798208 -8.7418903801335546 0 0 0 0 -62.702492070122389 -53.276792546574143 0 -53.276792546574143 -28.389752199807845 0 0 0 0 7.1040590536867967 -18.516052472004958 0 -18.516052472004958 -3.683174288016744 0 0 0 0 -0.047377537326980246 -49.602317352776495 0 -49.602317352776495 -16.366012367593953 0 0 0 0 60.019516443426255 -37.489816954170237 0 -37.489816954170237 -2.8692294911597855 0 0 0 0 5.6030395115572205 1.3312035510829929 0 1.3312035510829929 -0.92501984221414091 0 0 0 0 127.97814421294606 -41.361880268472305 0 -41.361880268472305 7.39669137727833 0 0 0 0 26.725156747434426 -10.75157819311741 0 -10.75157819311741 -14.451112663317986 0 0 0 0 18.103279400849715 -28.731767073884839 0 -28.731767073884839 -11.092972964077489 0 0 0 0 111.33076921873726 -26.512744941035635 0 -26.512744941035635 18.885511493775994 0 0 0 0 41.499151261337659 -50.554765139337924 0 -50.554765139337924 -23.111732056208922 0 0 0 0 24.489687284285317 -27.709344808853047 0 -27.709344808853047 -12.610765360504317 0 0 0 0 0.89483634804376777 -41.854475646833293 0 -41.854475646833293 -7.107101208898797 0 0 0 0 172.3951358402519 -20.29516203924868 0 -20.29516203924868 -27.716478991787881 0 0 0 0 129.5408584306042 -22.453796889648402 0 -22.453796889648402 -9.7391570227046032 0 0 0 0 62.111054512410192 -27.436260907488759 0 -27.436260907488759 -5.5810443005466368 0 0 0 0 71.075945362041239 -42.854825140544563 0 -42.854825140544563 -9.9767896438715979 0 0 0 0 84.924123055214295 -24.725488744734321 0 -24.725488744734321 -13.292283289527404 0 0 0 0 66.012415025616065 -28.145928788857418 0 -28.145928788857418 -8.1667440363949027 0 0 0 0 60.093599464162253 -39.135926713803201 0 -39.135926713803201 -8.0378169122988083 0 0 0 0 58.285012977863516 -51.863834071896235 0 -51.863834071896235 -19.475781611195998 0 0 0 0 65.745933949991013 -51.971627511877159 0 -51.971627511877159 -35.966674258146668 0 0 0 0 51.154736910586848 -26.405120956887387 0 -26.405120956887387 0.058882334460825803 0 0 0 0 58.195434111432405 -46.777855849046318 0 -46.777855849046318 -16.868410385734023 0 0 0 0 68.539675248815911 -38.020374182327942 0 -38.020374182327942 -17.006577764601388 0 0 0 0 16.43225394451656 -38.76291863034885 0 -38.76291863034885 -13.721031471213792 0 0 0 0 10.71468414561685 -22.715904326494297 0 -22.715904326494297 -13.943128667108368 0 0 0 0 71.766451781273645 -43.097412790388262 0 -43.097412790388262 -24.393481363735191 0 0 0 0 25.953679304919206 -21.989681459454005 0 -21.989681459454005 -18.920133129926398 0 0 0 0 46.138731999894844 -43.484476011607768 0 -43.484476011607768 -15.282170391620909 0 0 0 0 -7.9655444333911873 -71.281854607790592 0 -71.281854607790592 -9.6087236608509556 0 0 0 0 12.024610636984164 -32.185218311694911 0 -32.185218311694911 -18.230293557713267 0 0 0 0 45.627410691980913 -41.024152772381967 0 -41.024152772381967 -0.93641572271008044 0 0 0 0 32.199377331096912 -48.59239679548773 0 -48.59239679548773 -3.6248943575774319 0 0 0 0 19.475641460616544 -34.578224592812973 0 -34.578224592812973 0.57145200849822686 0 0 0 0 16.828392236755462 -45.890090282460733 0 -45.890090282460733 -2.9220133586859447 0 0 0 0 29.584665062596287 -53.100663944534176 0 -53.100663944534176 -16.574345097440528 0 0 0 0 29.424137870344566 -60.303394800961541 0 -60.303394800961541 -4.355035105960269 0 0 0 0 25.001458831044147 -48.902281554524961 0 -48.902281554524961 -12.240018042146403 0 0 0 0 23.216770795421326 -47.183017120652949 0 -47.183017120652949 -4.4243580777183524 0 0 0 0 27.149055546899035 -49.414123255592131 0 -49.414123255592131 -21.119542535147048 0 0 0 0 18.513564706678153 -52.476713390598889 0 -52.476713390598889 6.8561512688465882 0 0 0 0 13.954697507172369 -16.193713753415963 0 -16.193713753415963 -33.008098931557271 0 0 0 0 32.226430820567153 -66.81196323575422 0 -66.81196323575422 8.6317991219402757 0 0 0 0 13.439807330483745 -17.196782430057283 0 -17.196782430057283 -19.720350289433554 0 0 0 0 0.66976085439438293 -12.320101957688067 0 -12.320101957688067 -21.563460909628262 0 0 0 0 28.869289541702528 -31.976551913693129 0 -31.976551913693129 -27.448692329751793 0 0 0 0 25.042505990684731 -57.83821584074758 0 -57.83821584074758 -29.175545614474686 0 0 0 0 3.4629971680091955 -21.377967771290116 0 -21.377967771290116 -7.5844802223036822 0 0 0 0 4.6553989257527064 -31.557781116905744 0 -31.557781116905744 -24.887891077523818 0 0 0 0 7.6337930563604459 -64.137668102201133 0 -64.137668102201133 -31.423424899643578 0 0 0 0 -69.718198852031492 7.0862983493771026 0 7.0862983493771026 2.8725533357001041 0 0 0 0 -13.826626573034446 -8.8325857411255129 0 -8.8325857411255129 -60.708327454318351 0 0 0 0 -1.2206032323010731 10.846953118352758 0 10.846953118352758 -66.046754148300806 0 0 0 0 -7.5728218553481952 -33.37378562083741 0 -33.37378562083741 -25.317370710800205 0 0 0 0 25.363292169052784 -57.873865047063191 0 -57.873865047063191 -7.9603471560658363 0 0 0 0 -266.91691757301305 57.05976832248416 0 57.05976832248416 99.76104924941319 0 0 0 0 17.982176032792211 -25.538257807417367 0 -25.538257807417367 1.6290278127008371 0 0 0 0 20.091547936493953 -50.052518723489129 0 -50.052518723489129 -3.7576498573871504 0 0 0 0 -99.59217516224453 -510.35820559395142 0 -510.35820559395142 -451.8660476803343 0 0 0 0 -828.45763296439691 -637.44253074441804 0 -637.44253074441804 -151.77806819981924 0 0 0 0 1.5870853826534912 -1.306669840075628 0 -1.306669840075628 -5.2456096900328646 0 0 0 0 157.51573120682588 -9.6269276029306639 0 -9.6269276029306639 -350.54551418368646 0 0 0 0 -8.0270741235835885 65.377334999273444 0 65.377334999273444 55.941649846645305 0 0 0 0 35.065307456936495 -29.831334413721407 0 -29.831334413721407 9.2803837470204797 0 0 0 0 39.717318236711435 -43.843852888647234 0 -43.843852888647234 -64.555490660361102 0 0 0 0 27.602538796141744 -54.795549489324912 0 -54.795549489324912 -24.212346552627423 0 0 0 0 15.635712878816776 -30.199493758616882 0 -30.199493758616882 -43.484972918435233 0 0 0 0 24.797540423765895 -54.276511924021179 0 -54.276511924021179 -18.177461956744082 0 0 0 0 25.855014398499407 -46.862360201871525 0 -46.862360201871525 -22.466634137628716 0 0 0 0 27.330781616042103 -44.01458166566897 0 -44.01458166566897 -15.865063857747288 0 0 0 0 32.207717213132128 -61.610229966818224 0 -61.610229966818224 -57.338321836294199 0 0 0 0 26.832321690002573 -63.231116142535029 0 -63.231116142535029 -56.850584049323516 0 0 0 0 18.271444285201142 -63.070176677414565 0 -63.070176677414565 -12.956346791921533 0 0 0 0 -33.42701500307885 -54.158354831815814 0 -54.158354831815814 1.8470012324978597 0 0 0 0 9.0903670248149808 -6.7640537447579518 0 -6.7640537447579518 -11.900911513818869 0 0 0 0 39.2931140314613 -42.712470490405394 0 -42.712470490405394 -65.854632123449846 0 0 0 0 18.437498323452019 -3.4863950197250233 0 -3.4863950197250233 136.1418368070299 0 0 0 0 86.200650132348528 -113.80270059768372 0 -113.80270059768372 -151.44636350480141 0 0 0 0 70.59830691877869 -37.134363431025122 0 -37.134363431025122 21.022268964981777 0 0 0 0 180.06717177688552 -86.752346607543586 0 -86.752346607543586 -23.807621003405075 0 0 0 0 92.080137189812376 -75.92384316612879 0 -75.92384316612879 78.526855146759772 0 0 0 0 154.43553297358449 54.565766771309427 0 54.565766771309427 51.242656860013085 0 0 0 0 212.79987281758804 51.764517323084874 0 51.764517323084874 44.489680755377776 0 0 0 0 15.322696264387876 -6.1158534468629568 0 -6.1158534468629568 -0.90499959465583402 0 0 0 0 -21.420101181166558 -60.055770651314141 0 -60.055770651314141 17.589272877938516 0 0 0 0 25.251205729190033 -40.961418858925626 0 -40.961418858925626 6.4294212112776847 0 0 0 0 69.630601715706717 -43.863790236278959 0 -43.863790236278959 -20.739917803724893 0 0 0 0 -9.8789498192199972 -50.341849276534049 0 -50.341849276534049 -12.696821997815277 0 0 0 0 24.295523425179802 -49.033534812627948 0 -49.033534812627948 -4.6193996182594503 0 0 0 0 35.130502035590325 -53.282653852513505 0 -53.282653852513505 14.539645678095155 0 0 0 0 35.672248621420295 -62.608998063857143 0 -62.608998063857143 -6.7704490683736367 0 0 0 0 33.952625495804767 -46.854234582180567 0 -46.854234582180567 -6.1310762198988726 0 0 0 0 -5.3556584266843856 -78.466177848746156 0 -78.466177848746156 67.54825379695103 0 0 0 0 138.96458368347066 -13.863509573387091 0 -13.863509573387091 66.648111627975595 0 0 0 0 2.7604478805251347 -59.470683049676609 0 -59.470683049676609 -5.319218957250996 0 0 0 0 324.25840071449056 -339.81942662001529 0 -339.81942662001529 -215.01354048411304 0 0 0 0 150.31490146495344 34.23752236182554 0 34.23752236182554 -39.425909524378767 0 0 0 0 -116.52023376559555 -23.160858934938005 0 -23.160858934938005 28.53393065831915 0 0 0 0 -100.92667082256958 -140.6974673988625 0 -140.6974673988625 293.354671893263 0 0 0 0 -5.7046944340978314 -36.325953605053655 0 -36.325953605053655 -12.07616382934205 0 0 0 0 -13.962454417031068 -7.6130959863189673 0 -7.6130959863189673 1.8677784158343087 0 0 0 0 -206.22404832806205 -198.82849613235521 0 -198.82849613235521 -31.040873555240978 0 0 0 0 12.047650151587732 -128.98520044196084 0 -128.98520044196084 -92.918470260548929 0 0 0 0 600.66025199923752 -420.95961153331154 0 -420.95961153331154 158.33443527877898 0 0 0 0 -5.789675786553742 -15.621571789956633 0 -15.621571789956633 20.516286122063804 0 0 0 0 631.17428704999838 -56.819125432160035 0 -56.819125432160035 -9.7914353083469905 0 0 0 0 718.3710576640151 -258.21705679636216 0 -258.21705679636216 -125.21817546661623 0 0 0 0 833.78287045992329 -287.82412709169512 0 -287.82412709169512 116.91005371828214 0 0 0 0 2525.2074957801724 -861.25713910524746 0 -861.25713910524746 206.18263818628475 0 0 0 0 176.84257399481066 -229.92765896157471 0 -229.92765896157471 -57.356374512470211 0 0 0 0 193.17855245897954 12.232447463222343 0 12.232447463222343 13.751293842920859 0 0 0 0 82.272415683168219 -102.88381768907493 0 -102.88381768907493 -82.976146289507597 0 0 0 0 139.39860245694581 -13.207951239699469 0 -13.207951239699469 -15.397029832700355 0 0 0 0 5.4893735254445346 29.196673496713629 0 29.196673496713629 4.3304765493830928 0 0 0 0 107.34322661322221 14.904249350949613 0 14.904249350949613 -76.852160955200816 0 0 0 0 -17.672745129180839 -38.789204455868457 0 -38.789204455868457 -98.555622655951993 0 0 0 0 -12.965635174718045 -68.099223878260091 0 -68.099223878260091 -94.340080531585045 0 0 0 0 38.235737613071251 -65.465513166028359 0 -65.465513166028359 -155.97376226386768 0 0 0 0 -48.498903860563587 -20.094966548120283 0 -20.094966548120283 79.479844893110567 0 0 0 0 -4.7605108083761536 -48.143469225790426 0 -48.143469225790426 8.6955751521568345 0 0 0 0 -2.3740520021972316 -7.0230706444568369 0 -7.0230706444568369 14.056248294957896 0 0 0 0 674.89129970538852 175.96105796836491 0 175.96105796836491 -199.9711828096697 0 0 0 0 187.8168695139284 -142.96669977573401 0 -142.96669977573401 -394.0934510413208 0 0 0 0 227.26687732987375 -30.083808973945452 0 -30.083808973945452 -357.52475115253765 0 0 0 0 8.5515391657836517 -151.47245824718357 0 -151.47245824718357 -244.29115928837564 0 0 0 0 -148.25883544193493 -150.01574197248556 0 -150.01574197248556 -99.182889177027391 0 0 0 0 -30.948231745518569 48.481606696179369 0 48.481606696179369 -59.364195384965569 0 0 0 0 66.049766977790568 -18.192955102051201 0 -18.192955102051201 -50.823844073427608 0 0 0 0 -17.644432312819049 -46.835679595562404 0 -46.835679595562404 13.983401450137411 0 0 0 0 52.677768346737139 -68.764965178670536 0 -68.764965178670536 -95.48528350534616 0 0 0 0 3.5387461915947558 -21.428590108258675 0 -21.428590108258675 -72.799572289857934 0 0 0 0 82.073894930382266 -76.228637089573567 0 -76.228637089573567 65.669943899556529 0 0 0 0 -3.7521267119984429 -9.8671606695563483 0 -9.8671606695563483 -1.242828023174269 0 0 0 0 310.99792935450751 -224.56155872993622 0 -224.56155872993622 39.230989590949321 0 0 0 0 243.80787629227416 -75.142053015262718 0 -75.142053015262718 -80.909601305358592 0 0 0 0 93.801832460863807 -316.57055694200426 0 -316.57055694200426 230.78621492333502 0 0 0 0 239.7205338148342 -410.70982312227534 0 -410.70982312227534 244.60262809627602 0 0 0 0 336.29016207981931 -545.15506626909882 0 -545.15506626909882 290.63301839047199 0 0 0 0 426.98247240536875 -786.23146704981627 0 -786.23146704981627 432.25758102974942 0 0 0 0 709.86787464486406 -736.210217641692 0 -736.210217641692 291.28793482389017 0 0 0 0 454.73687302604958 -498.74320191559309 0 -498.74320191559309 240.84930104758382 0 0 0 0 676.08039173616271 -497.95489622424793 0 -497.95489622424793 106.44754298855787 0 0 0 0 269.16746210110796 -264.65068295214769 0 -264.65068295214769 147.04212768701836 0 0 0 0 16.791741098717466 -496.87938676493468 0 -496.87938676493468 870.32291179283152 0 0 0 0 -45.749065359352244 -962.34275983331099 0 -962.34275983331099 901.67804551316271 0 0 0 0 58.733006600661611 -506.17421127141643 0 -506.17421127141643 569.04858139579483 0 0 0 0 259.6951926245747 -742.13305492607469 0 -742.13305492607469 449.64011322938677 0 0 0 0 134.22874959545788 -969.68689905334304 0 -969.68689905334304 570.49094486318063 0 0 0 0 587.4909283249217 -833.27235273266342 0 -833.27235273266342 378.70187607998378 0 0 0 0 347.89415811279105 -1031.6664106771368 0 -1031.6664106771368 540.4509130960214 0 0 0 0 339.59061538365495 -1031.4765163334705 0 -1031.4765163334705 583.9229542390276 0 0 0 0 -540.31311375850419 -834.84097342362475 0 -834.84097342362475 726.37612004085531 0 0 0 0 -63.472793064585858 -1046.8285111157002 0 -1046.8285111157002 526.9375690702218 0 0 0 0 -305.31705213108944 -1361.9311513983812 0 -1361.9311513983812 1112.0458606364118 0 0 0 0 -722.2360142413927 -896.22215434935424 0 -896.22215434935424 982.90666173339559 0 0 0 0 -158.45363410847384 -1076.0922688332046 0 -1076.0922688332046 857.54985122387006 0 0 0 0 -159.55303913887769 -1180.6045441488732 0 -1180.6045441488732 763.29861428666482 0 0 0 0 492.71785506394735 -1425.3554251056448 0 -1425.3554251056448 825.71111973690495 0 0 0 0 816.37154136114623 -1028.5280113824319 0 -1028.5280113824319 535.65942578406248 0 0 0 0 1145.5691506836783 -1883.3140300423238 0 -1883.3140300423238 1288.487622636625 0 0 0 0 602.52742628937995 -981.40790450397981 0 -981.40790450397981 1221.0987942324064 0 0 0 0 -3128.2604251468374 553.40675161391118 0 553.40675161391118 381.81296525181097 0 0 0 0 2773.9840510446957 -1912.2059640771768 0 -1912.2059640771768 931.21206336672549 0 0 0 0 -3.0861066711659291 -4.0009421610219675 0 -4.0009421610219675 0.83303341720339574 0 0 0 0 801.11738198024977 -743.77932079373932 0 -743.77932079373932 290.5745002308031 0 0 0 0 848.23134878802011 -899.61339134457558 0 -899.61339134457558 634.76936100354214 0 0 0 0 1100.5913871366356 -700.64085453528605 0 -700.64085453528605 183.27891351996618 0 0 0 0 573.54420913090871 -445.62140578096842 0 -445.62140578096842 166.54913081895211 0 0 0 0 650.72758360204898 -418.5873681272351 0 -418.5873681272351 161.70254055511759 0 0 0 0 743.71487781475298 -472.56441660067139 0 -472.56441660067139 98.872845829304424 0 0 0 0 615.05610357475962 -671.30961098047555 0 -671.30961098047555 388.67909299243183 0 0 0 0 820.97435367493017 -881.18599533895031 0 -881.18599533895031 439.28421945468563 0 0 0 0 485.20093466692924 -762.02121832979901 0 -762.02121832979901 447.54838131125143 0 0 0 0 594.29381715201089 -865.14454055380156 0 -865.14454055380156 675.62329182666872 0 0 0 0 751.81063806136808 -1030.9762004653858 0 -1030.9762004653858 774.82606567917537 0 0 0 0 742.7378228302623 -920.54169441581689 0 -920.54169441581689 573.10029094148922 0 0 0 0 746.16338251432057 -857.30093724699759 0 -857.30093724699759 657.08630272646406 0 0 0 0 908.24110699869198 -1064.8567770767986 0 -1064.8567770767986 774.4117355472772 0 0 0 0 790.56808979580092 -973.29558758837811 0 -973.29558758837811 805.85875419545482 0 0 0 0 801.31837750876002 -1170.7291968729442 0 -1170.7291968729442 1039.3765505815797 0 0 0 0 713.04291729700344 -1021.5596401030525 0 -1021.5596401030525 1037.2366471997157 0 0 0 0 1186.4335308749505 -1087.6325192549921 0 -1087.6325192549921 770.80397351624924 0 0 0 0 851.92508988960617 -866.21869823386578 0 -866.21869823386578 664.61742662748293 0 0 0 0 846.44335936993593 -1246.0241733636158 0 -1246.0241733636158 1159.4575222967032 0 0 0 0 878.06090168039736 -1104.4071855282782 0 -1104.4071855282782 1188.1619554052158 0 0 0 0 1142.1736736827897 -1221.3399384880095 0 -1221.3399384880095 1039.6183141757792 0 0 0 0 958.68602758299676 -1094.3294552022016 0 -1094.3294552022016 1137.3915398554673 0 0 0 0 709.42958307568188 -889.01293689135855 0 -889.01293689135855 628.40005780369393 0 0 0 0 881.0325618565621 -1240.9312018509299 0 -1240.9312018509299 1103.8354151668827 0 0 0 0 559.3507642509976 -1002.5784001265547 0 -1002.5784001265547 1105.0701331541932 0 0 0 0 685.78036754197092 -860.22902287405668 0 -860.22902287405668 647.85804272830137 0 0 0 0 732.10198594813482 -1207.9343722280009 0 -1207.9343722280009 1176.4111991290047 0 0 0 0 814.71499135152408 -1222.3241156881813 0 -1222.3241156881813 984.42562774505313 0 0 0 0 735.45466507922538 -1170.4123303794877 0 -1170.4123303794877 1180.4445253252416 0 0 0 0 1435.1271918226921 -1318.7223719511858 0 -1318.7223719511858 920.36273848771452 0 0 0 0 828.89885555009096 -1348.5666402984389 0 -1348.5666402984389 1317.008700074417 0 0 0 0 -14.891508074269741 -16.328396969389594 0 -16.328396969389594 8.4896087937072622 0 0 0 0 1163.980098473643 -1259.2098255340243 0 -1259.2098255340243 1082.854990112668 0 0 0 0 1165.4285964386654 -1247.4454924945558 0 -1247.4454924945558 1018.9714114413364 0 0 0 0 1343.1769965697313 -1037.2807827969518 0 -1037.2807827969518 736.4137435162047 0 0 0 0 908.83689073112328 -1205.5186949439667 0 -1205.5186949439667 1073.9197088042129 0 0 0 0 868.0099668836483 -1128.7347905384631 0 -1128.7347905384631 971.3225097849936 0 0 0 0 -595.20811808733413 -24.821194160703499 0 -24.821194160703499 68.937758688160102 0 0 0 0 -1965.4320564960453 -1058.1286248800152 0 -1058.1286248800152 670.1078747276697 0 0 0 0 -590.18315803479345 -368.11261452479084 0 -368.11261452479084 -14.116485027192539 0 0 0 0 -6.4912082719092421 -33.061938348895552 0 -33.061938348895552 -28.486411150407832 0 0 0 0 -310.4912719608576 -496.95622055741535 0 -496.95622055741535 -686.39249562395162 0 0 0 0 -18.904392471817118 -46.850357622010051 0 -46.850357622010051 -22.604558480633386 0 0 0 0 446.23097342208348 -193.80789543274659 0 -193.80789543274659 13.055164431469166 0 0 0 0 741.03827470833494 -1157.1372313059765 0 -1157.1372313059765 964.97146015154431 0 0 0 0 1010.2143101136026 -1052.4373352470357 0 -1052.4373352470357 421.62040708965651 0 0 0 0 10.295787997045167 -38.615051265739254 0 -38.615051265739254 -56.907251602340132 0 0 0 0 12.344274445988347 -10.351455131316385 0 -10.351455131316385 -12.605733849659259 0 0 0 0 888.80559117569646 -949.45110627197209 0 -949.45110627197209 890.75934388027235 0 0 0 0 885.32511906207947 -695.66771393578529 0 -695.66771393578529 134.21575103272335 0 0 0 0 1.5451652689016555 -65.990132584662206 0 -65.990132584662206 -40.206680200230039 0 0 0 0 20.361687792642897 -48.095454130220553 0 -48.095454130220553 -16.739945387099137 0 0 0 0 -9.2090615402825904 -34.009287921200524 0 -34.009287921200524 -35.415293500882001 0 0 0 0 273.32001873035915 -351.08616411766343 0 -351.08616411766343 631.97198894613393 0 0 0 0 46.416389485220861 -85.018259487203068 0 -85.018259487203068 -37.843882496403239 0 0 0 0 7.9382098742741523 -71.215729325350452 0 -71.215729325350452 -22.152078371569282 0 0 0 0 1640.4170421125364 -1072.4278602202548 0 -1072.4278602202548 -1870.0878732148767 0 0 0 0 47.587207951595701 -80.900175322488394 0 -80.900175322488394 -28.723537747295268 0 0 0 0 -8.0162390089866165 -32.363306820677906 0 -32.363306820677906 -55.732946597979385 0 0 0 0 52.891743151772971 -87.232605803359547 0 -87.232605803359547 -27.113485710762461 0 0 0 0 -93.212991486925603 -101.7618409809329 0 -101.7618409809329 -89.546513657136529 0 0 0 0 -74.459066051436821 -171.94738221389161 0 -171.94738221389161 164.43252745615609 0 0 0 0 992.05916977225934 123.32410137040733 0 123.32410137040733 -529.34322029284522 0 0 0 0 1860.0374512130152 -1511.4000577066638 0 -1511.4000577066638 1284.7339104094135 0 0 0 0 10.24172004752927 -2.7404373285634378 0 -2.7404373285634378 0.26664646421651383 0 0 0 0 492.61415901644068 -1405.0452396458168 0 -1405.0452396458168 2550.3747652447637 0 0 0 0 64.226191552792443 -529.57699024171234 0 -529.57699024171234 1396.950238702686 0 0 0 0 294.60006147155218 -582.9841616947524 0 -582.9841616947524 939.93813935589242 0 0 0 0 25.214417349045618 -14.26028766073162 0 -14.26028766073162 -18.052703964881445 0 0 0 0 409.29200935303379 -456.99599729556394 0 -456.99599729556394 294.13223520419706 0 0 0 0 -477.56814146737156 417.76140396353708 0 417.76140396353708 -1405.1944470654362 0 0 0 0 -160.19477520721921 -436.81444041707982 0 -436.81444041707982 -19.481387129369068 0 0 0 0 396.55138084447844 -87.616527739514822 0 -87.616527739514822 -549.46238221673229 0 0 0 0 2.9247828563409648 -3.5093445372323231 0 -3.5093445372323231 40.027439613151145 0 0 0 0 -353.05575342722068 -404.15661095532778 0 -404.15661095532778 33.38436627986539 0 0 0 0 -23.874279531488583 -22.397623935085342 0 -22.397623935085342 78.327825763802508 0 0 0 0 156.22757965653818 -872.68245045182312 0 -872.68245045182312 -954.74203901677174 0 0 0 0 -466.84975757610164 -1013.2639453539773 0 -1013.2639453539773 1037.9085364093398 0 0 0 0 -3180.7078268355408 440.08440476193209 0 440.08440476193209 2408.3613867571285 0 0 0 0 -1871.1426710570472 544.78782671139015 0 544.78782671139015 689.77096348415944 0 0 0 0 -1308.6079459209782 -1213.0532889667911 0 -1213.0532889667911 -1139.1958902927386 0 0 0 0 -37.788848592313975 -11.502985199001188 0 -11.502985199001188 0.17257998623527993 0 0 0 0 -2535.3246758407131 485.14858883282704 0 485.14858883282704 -88.206597210919426 0 0 0 0 -2767.8539333877447 -888.07749842254941 0 -888.07749842254941 -65.7904533593628 0 0 0 0 -1528.3039726520408 -722.05152760291639 0 -722.05152760291639 133.36244624602568 0 0 0 0 -1397.6392566717263 -513.16967551267498 0 -513.16967551267498 -0.14120304014522844 0 0 0 0 -62.383067848335415 -55.92677233071457 0 -55.92677233071457 -31.382396654494752 0 0 0 0 -1703.9892906512257 -217.20177419096308 0 -217.20177419096308 -120.70160566247978 0 0 0 0 -1106.493250490912 261.55571474811404 0 261.55571474811404 -378.98067876434561 0 0 0 0 -1105.2714478603507 -623.18662795495038 0 -623.18662795495038 -461.83667810197767 0 0 0 0 -882.40859776695493 18.044014733989002 0 18.044014733989002 326.79965126770003 0 0 0 0 -882.5926118913253 28.304893634978725 0 28.304893634978725 -177.95277630580313 0 0 0 0 235.80209155169359 268.77834825243963 0 268.77834825243963 28.178582946853567 0 0 0 0 -0.55823700146458588 0.95368609847044716 0 0.95368609847044716 10.785013313651397 0 0 0 0 162.38453942464321 318.95879622557936 0 318.95879622557936 -500.38005561579848 0 0 0 0 341.42297807839259 325.62889767430988 0 325.62889767430988 -355.5109255173702 0 0 0 0 -400.47351561695905 -1433.3447424259157 0 -1433.3447424259157 1395.1181104322241 0 0 0 0 -50.540338800858407 -63.52125383051721 0 -63.52125383051721 -47.363099065598597 0 0 0 0 594.33696974499981 642.27805530732394 0 642.27805530732394 -1394.9116305215052 0 0 0 0 -1226.1186904813203 -8.3503544530931322 0 -8.3503544530931322 -548.39830083719994 0 0 0 0 55.062692097626496 -1086.9388715450659 0 -1086.9388715450659 961.00886178314977 0 0 0 0 -588.10361812932751 -691.40974547306178 0 -691.40974547306178 818.70415670320835 0 0 0 0 -578.18490835004195 -715.43199080371778 0 -715.43199080371778 502.56546745400192 0 0 0 0 -662.51069310151354 -1184.837719258838 0 -1184.837719258838 1349.2652255279172 0 0 0 0 -715.17856975369796 -588.393703306112 0 -588.393703306112 528.71618899113582 0 0 0 0 -2558.4157692526433 -1138.8442755957453 0 -1138.8442755957453 1042.36530179072 0 0 0 0 -60.042713375315422 -56.453544033217582 0 -56.453544033217582 -39.563820254187803 0 0 0 0 -878.43599014232313 -1005.9813798068717 0 -1005.9813798068717 1457.8313066587762 0 0 0 0 -375.51082612155005 -468.84606178033482 0 -468.84606178033482 1110.2576929616916 0 0 0 0 -777.19092658823138 -731.52662054066786 0 -731.52662054066786 939.38212854331869 0 0 0 0 -708.20020430240038 -858.58736866919571 0 -858.58736866919571 1081.7966421493884 0 0 0 0 -778.61116818131268 -738.91367965724749 0 -738.91367965724749 903.04417927004033 0 0 0 0 -614.82084997082893 -989.53359336095946 0 -989.53359336095946 707.60897479514097 0 0 0 0 -699.13215708785356 -923.72162471780757 0 -923.72162471780757 661.56642146456943 0 0 0 0 -750.29892685277264 -1156.7351150335671 0 -1156.7351150335671 102.95973985551973 0 0 0 0 -589.31260702091458 -664.02094474089245 0 -664.02094474089245 729.88067491451511 0 0 0 0 -851.27983486161611 -1224.0932954218097 0 -1224.0932954218097 1121.5749631811632 0 0 0 0 -717.65792894341757 -1579.682382237419 0 -1579.682382237419 -352.25640333607589 0 0 0 0 -828.15356027834696 -1102.3015565702271 0 -1102.3015565702271 -680.34695304124762 0 0 0 0 -503.49096823467244 -1151.6040065702518 0 -1151.6040065702518 -587.41201729287422 0 0 0 0 -848.52667863323404 -1204.1357952685903 0 -1204.1357952685903 240.11265831791752 0 0 0 0 -583.65507737933149 -1040.5457451832262 0 -1040.5457451832262 286.30312956107082 0 0 0 0 -628.85922976773327 -912.53555246671021 0 -912.53555246671021 124.59845818001486 0 0 0 0 -468.7531151655312 -1097.0476672944496 0 -1097.0476672944496 -630.06996815476305 0 0 0 0 -599.03417882590111 -1418.7117326081006 0 -1418.7117326081006 -541.40431948026708 0 0 0 0 -998.15218291436577 -1160.3528697132369 0 -1160.3528697132369 -539.97703361759613 0 0 0 0 -1073.6832359185119 -1619.4943573726891 0 -1619.4943573726891 -982.03026604801562 0 0 0 0 -525.32476082002722 -1389.7379429832326 0 -1389.7379429832326 -1463.7056938425721 0 0 0 0 -1049.0385140280669 -1721.3905154890672 0 -1721.3905154890672 -1214.9199150639943 0 0 0 0 -587.67440592612911 -1535.3282238736992 0 -1535.3282238736992 -1140.6480851076212 0 0 0 0 -482.34959709218037 -1399.3965887747054 0 -1399.3965887747054 -1090.2414496061901 0 0 0 0 -936.14576863733782 -918.28476110128213 0 -918.28476110128213 -471.7195541930887 0 0 0 0 -1582.0639866489837 -1435.4305003513509 0 -1435.4305003513509 -790.9321334978049 0 0 0 0 -490.61191977766066 -856.5961195266209 0 -856.5961195266209 -581.5156598786707 0 0 0 0 -135.07051586516354 -889.89639694022571 0 -889.89639694022571 -977.53420895881573 0 0 0 0 -434.57182131834816 -799.42715405468789 0 -799.42715405468789 -552.785693877624 0 0 0 0 -335.46830538571703 -424.83562988541598 0 -424.83562988541598 -222.1215782459949 0 0 0 0 -256.11353281215452 -456.9129933200802 0 -456.9129933200802 -253.60052523229751 0 0 0 0 -125.90329310710877 -1013.5338103006088 0 -1013.5338103006088 -1300.1361117798224 0 0 0 0 56.477592480096064 -744.68738244460656 0 -744.68738244460656 -1470.3515772146811 0 0 0 0 -40.224759825923684 -472.81277225318445 0 -472.81277225318445 -759.56664124962481 0 0 0 0 -264.68581951667511 -1074.4329766948558 0 -1074.4329766948558 -1032.3974303897703 0 0 0 0 -54.106713836486961 -1185.1998579793772 0 -1185.1998579793772 -1635.5652145685526 0 0 0 0 -475.86527399656188 -1408.8674390529522 0 -1408.8674390529522 -1374.607662561928 0 0 0 0 -458.38293932975648 -1721.4623930187063 0 -1721.4623930187063 -1696.2546820600946 0 0 0 0 -361.01392192328422 -1482.5900859928261 0 -1482.5900859928261 -1258.2497878443319 0 0 0 0 -520.8269267842752 -1555.9095924268004 0 -1555.9095924268004 -1254.7735924298468 0 0 0 0 -657.00225903811952 -1329.3618354535683 0 -1329.3618354535683 -674.64917932388926 0 0 0 0 -1108.678262592879 -1755.1067181683557 0 -1755.1067181683557 -1059.4528500640226 0 0 0 0 -9.2814693243720683 -8.1086880052237049 0 -8.1086880052237049 3.5112696605863789 0 0 0 0 -816.12556812746334 -1964.0526220180182 0 -1964.0526220180182 -3401.487079777351 0 0 0 0 -521.68929123141606 -511.29478717402435 0 -511.29478717402435 2419.3909055141667 0 0 0 0 56.944041933704284 -445.69998338626192 0 -445.69998338626192 438.52866169949266 0 0 0 0 -21.256785162147679 -13.249003183581657 0 -13.249003183581657 8.110168041666153 0 0 0 0 71.58712289543837 -361.96650567541292 0 -361.96650567541292 529.65162458005034 0 0 0 0 -1415.8156787872358 -2155.6816474735278 0 -2155.6816474735278 -917.14120368931981 0 0 0 0 -607.32242903139468 -1163.7136979467241 0 -1163.7136979467241 -366.59625118968688 0 0 0 0 -1133.7958175677654 -2467.5551326851405 0 -2467.5551326851405 -1945.3063914681188 0 0 0 0 -731.76253550770343 -1876.5096817052836 0 -1876.5096817052836 -1822.3837738135308 0 0 0 0 158.88511119364193 -145.4231629171918 0 -145.4231629171918 -189.19035305458965 0 0 0 0 -143.03296300189686 -79.727430704351718 0 -79.727430704351718 197.6564820950066 0 0 0 0 -727.97098361692747 -1777.6343921030577 0 -1777.6343921030577 -1160.0983434778318 0 0 0 0 -681.80867121497795 404.22781831115026 0 404.22781831115026 82.255219830338319 0 0 0 0 -1421.2471167362164 168.00757994412197 0 168.00757994412197 2034.2761903219689 0 0 0 0 -17.74403397192188 -9.8852914419153279 0 -9.8852914419153279 9.1273137030332343 0 0 0 0 581.46229672228947 -44.253337137100971 0 -44.253337137100971 -426.7538566330004 0 0 0 0 -1301.3390418930092 701.19253968812018 0 701.19253968812018 -681.15012132410629 0 0 0 0 -1494.0424032712895 -1473.3249745012577 0 -1473.3249745012577 -1186.1004403280604 0 0 0 0 -2763.6687459870154 -306.19100329528737 0 -306.19100329528737 -2233.1461332837935 0 0 0 0 -2576.4047577670208 -2086.5146272866368 0 -2086.5146272866368 -1014.8785317863585 0 0 0 0 -2364.5061107577058 -2549.3297263752465 0 -2549.3297263752465 -2372.0055114501083 0 0 0 0 -2902.760139318787 -3557.3562402495118 0 -3557.3562402495118 -3370.2053092505375 0 0 0 0 -4750.2559712539951 -1135.2445960243895 0 -1135.2445960243895 -2979.3405865051318 0 0 0 0 -1012.0252652276104 -2858.9174663700724 0 -2858.9174663700724 -3979.1904463214305 0 0 0 0 -3713.3379928804352 -4817.5697548067546 0 -4817.5697548067546 -6756.5992272427939 0 0 0 0 -2555.5550231005036 -1022.1487014157319 0 -1022.1487014157319 -7067.4430213993164 0 0 0 0 -3053.8808710566518 -2239.4887259226925 0 -2239.4887259226925 -2968.983019138439 0 0 0 0 -1119.3714187444166 -1471.4197884309724 0 -1471.4197884309724 -2227.7790404822881 0 0 0 0 -1190.3576849131277 -783.61892266741597 0 -783.61892266741597 -4238.069409519223 0 0 0 0 -3884.6957203690545 -2247.3782389920161 0 -2247.3782389920161 -2615.5864830777791 0 0 0 0 -415.72640501601518 -1884.9017960157978 0 -1884.9017960157978 -1997.5448983780079 0 0 0 0 -312.76711371733836 -2147.5658086051917 0 -2147.5658086051917 -2895.2722337368614 0 0 0 0 -294.34251802601648 -1685.7085980708944 0 -1685.7085980708944 -1843.001492699048 0 0 0 0 -816.26331814239893 -1997.3142640989918 0 -1997.3142640989918 -1660.9126020314507 0 0 0 0 -1150.5516071926977 -2399.201708625973 0 -2399.201708625973 -1815.1046111771502 0 0 0 0 -1342.9118117196449 -2797.983557059988 0 -2797.983557059988 -2621.4380206643909 0 0 0 0 133.95680584953334 -1448.7421665827515 0 -1448.7421665827515 -2523.6975580314393 0 0 0 0 -184.13707421418076 -2299.8550847291626 0 -2299.8550847291626 -3891.77989577259 0 0 0 0 -2076.7157847401104 -2511.1150305075862 0 -2511.1150305075862 -2516.0147658947717 0 0 0 0 -1079.2223106505044 -2767.4262016568264 0 -2767.4262016568264 -4075.3789094078966 0 0 0 0 -91.282581221526925 -1401.7195607955673 0 -1401.7195607955673 -2207.0662236584758 0 0 0 0 165.13265986493207 -1309.3193348298191 0 -1309.3193348298191 -2268.8740323676902 0 0 0 0 372.17384095198213 -598.77337606523542 0 -598.77337606523542 -2414.6189243772233 0 0 0 0 421.5527457159078 513.5947883545432 0 513.5947883545432 -499.55893725590795 0 0 0 0 549.22368962714609 -496.62447725412312 0 -496.62447725412312 -3554.1005674964763 0 0 0 0 -7.5863399769612982 -13.231393289844902 0 -13.231393289844902 -22.180159665041842 0 0 0 0 246.86198439571672 626.95145787265028 0 626.95145787265028 505.48053709209125 0 0 0 0 -181.76029069254582 55.327600697662092 0 55.327600697662092 -40.836856739668292 0 0 0 0 158.50346910700318 -386.44112599202344 0 -386.44112599202344 531.37493126608308 0 0 0 0 -169.97969422007372 27.245545332214533 0 27.245545332214533 -288.96787008509273 0 0 0 0 448.79729875008343 -897.41051810586941 0 -897.41051810586941 173.30022019323405 0 0 0 0 -23.151175433506609 -35.788007621262835 0 -35.788007621262835 -57.647376645924041 0 0 0 0 -1360.4351774432143 -1405.5254998650489 0 -1405.5254998650489 911.32098500205029 0 0 0 0 353.64056722902296 -384.24306128939202 0 -384.24306128939202 54.585933919806848 0 0 0 0 -133.77430267169848 -217.4170740815598 0 -217.4170740815598 21.241655702782737 0 0 0 0 -100.6031357589236 -651.01720491210654 0 -651.01720491210654 496.08027365831367 0 0 0 0 -5229.9962833052214 -1893.1326103278261 0 -1893.1326103278261 -913.08881207830564 0 0 0 0 -1683.9991916677864 -2832.5863705940101 0 -2832.5863705940101 -3055.2052496977976 0 0 0 0 4.2727054322851288 -14.475302280819527 0 -14.475302280819527 -36.122013905203602 0 0 0 0 3813.4198422849768 -1116.5449006077524 0 -1116.5449006077524 -6567.7564355647228 0 0 0 0 -7400.2098142550967 -5351.6106229726684 0 -5351.6106229726684 -2683.6680796235232 0 0 0 0 947.74868522742509 -159.74738022062593 0 -159.74738022062593 -347.47925568177016 0 0 0 0 14.183971625208663 -22.042625429974137 0 -22.042625429974137 -86.509215655513344 0 0 0 0 -2903.4999267333878 -1890.0776894546743 0 -1890.0776894546743 -1015.3790081580228 0 0 0 0 -2294.8224895271087 -1481.9991767823267 0 -1481.9991767823267 -931.86241208694264 0 0 0 0 366.90343040192965 -64.044068621285987 0 -64.044068621285987 -299.79503191522963 0 0 0 0 -71.191866864304757 -287.06199924316024 0 -287.06199924316024 -383.28610875829327 0 0 0 0 214.00889199871381 -175.4222419096277 0 -175.4222419096277 -568.04473503898771 0 0 0 0 13.582479282417037 -32.851063530968851 0 -32.851063530968851 -124.03528208390296 0 0 0 0 -1158.3471044946855 -985.93900586206291 0 -985.93900586206291 -1283.177038652866 0 0 0 0 1119.7677213888728 -509.53325867645799 0 -509.53325867645799 -731.37871241035464 0 0 0 0 1761.1191050914495 1181.6440701903011 0 1181.6440701903011 -1962.4368172441318 0 0 0 0 -33.216247877106071 -483.8222430081878 0 -483.8222430081878 -171.92484084733496 0 0 0 0 -24.724151941816672 -439.91212063075 0 -439.91212063075 -755.91837813015081 0 0 0 0 -95.728076443971077 -297.80498430566877 0 -297.80498430566877 -257.60950713255443 0 0 0 0 -74.233506481805136 -82.303830188782172 0 -82.303830188782172 16.498349026259632 0 0 0 0 226.58558568105946 -343.20864737202282 0 -343.20864737202282 -53.328702134895138 0 0 0 0 -664.78321074397536 -554.85842910393694 0 -554.85842910393694 -312.76031687682189 0 0 0 0 -7.9331254043595543 -32.228450054995534 0 -32.228450054995534 -15.462190137698087 0 0 0 0 -10.457555084663909 -145.24567581097654 0 -145.24567581097654 -12.796741926955292 0 0 0 0 34.007752656488321 -96.385153332921078 0 -96.385153332921078 -22.920629574535596 0 0 0 0 -497.46736842546579 349.25784630895077 0 349.25784630895077 -258.62205561134033 0 0 0 0 14.529690340781045 -89.910274382671744 0 -89.910274382671744 17.917963628044998 0 0 0 0 -2.6353016426401155 -146.6167805411169 0 -146.6167805411169 -30.342206175017054 0 0 0 0 14.357924831463606 -117.58772235427023 0 -117.58772235427023 -34.128300282287455 0 0 0 0 1.9369797791719385 -110.00772721700528 0 -110.00772721700528 1.4657477471835136 0 0 0 0 -83.069745898348629 -393.21543733972612 0 -393.21543733972612 92.306402235859423 0 0 0 0 -20.97355763424396 -62.091381527926188 0 -62.091381527926188 -52.313201469246749 0 0 0 0 -82.236853074615965 -400.13895218039204 0 -400.13895218039204 48.883769688018219 0 0 0 0 -127.80987673209165 -396.85217193044264 0 -396.85217193044264 153.13709000496965 0 0 0 0 -217.5992977115784 -314.68258321591202 0 -314.68258321591202 91.053159535027589 0 0 0 0 -39.377658589190105 -321.64329931540487 0 -321.64329931540487 117.15509593574643 0 0 0 0 -219.14107161459833 -291.26372749150505 0 -291.26372749150505 337.76963430046817 0 0 0 0 -95.73448955468848 -186.60144442814044 0 -186.60144442814044 207.71496625885993 0 0 0 0 -67.136877800432558 -248.10937616497722 0 -248.10937616497722 -334.3540334850768 0 0 0 0 69.560705490022883 -192.88877142532874 0 -192.88877142532874 34.334608287914307 0 0 0 0 48.681757748303895 -99.440814079601438 0 -99.440814079601438 37.225298667140777 0 0 0 0 155.88805796657593 -253.29200126060596 0 -253.29200126060596 -203.97822993896261 0 0 0 0 70.967805668777515 -136.5763115513821 0 -136.5763115513821 56.446741467011421 0 0 0 0 -7.8397689021812766 -261.68461327457771 0 -261.68461327457771 -19.365285743333516 0 0 0 0 147.37314614580282 -144.36826876929263 0 -144.36826876929263 -221.27188937128813 0 0 0 0 127.52055923337684 -93.135436052383739 0 -93.135436052383739 -83.28548134383891 0 0 0 0 71.394024097057724 -133.6931293564765 0 -133.6931293564765 55.822103739178772 0 0 0 0 -66.947621396723662 -294.83182585601753 0 -294.83182585601753 71.888939396192654 0 0 0 0 -11.248658286853242 -456.07488020621622 0 -456.07488020621622 429.59394536725813 0 0 0 0 472.0143131476616 -100.34874962781578 0 -100.34874962781578 -259.10459160891196 0 0 0 0 12.9131802000703 -17.783469575664952 0 -17.783469575664952 -20.626225099803591 0 0 0 0 307.12511632943119 -540.52171691811441 0 -540.52171691811441 -156.9602601633087 0 0 0 0 269.5846627374849 -76.734656482723949 0 -76.734656482723949 -5.3458179456283688 0 0 0 0 -159.24088635900989 -119.42953983668303 0 -119.42953983668303 503.34323132649706 0 0 0 0 -193.97858023787376 -340.6863553610392 0 -340.6863553610392 -97.985783654745319 0 0 0 0 -83.012197295181977 -199.82552531538749 0 -199.82552531538749 -173.4581846702531 0 0 0 0 -139.13004037531937 -433.99432663864536 0 -433.99432663864536 -165.5893327589547 0 0 0 0 56.308396674918185 -383.93950788811162 0 -383.93950788811162 -457.08703493668554 0 0 0 0 -59.558916488331306 -662.70151443475334 0 -662.70151443475334 -484.43851592610918 0 0 0 0 -26.194919300192851 -384.07251950183127 0 -384.07251950183127 -523.57379207338272 0 0 0 0 116.57389998876261 -189.71705408413527 0 -189.71705408413527 -568.35114875606814 0 0 0 0 -235.77239332556564 -424.34124089131546 0 -424.34124089131546 -1.7260777544543089 0 0 0 0 -103.88876705073199 -538.16517757311158 0 -538.16517757311158 150.833422994996 0 0 0 0 -140.96743633709684 -297.01658275918226 0 -297.01658275918226 110.9704888561173 0 0 0 0 -194.73759323583727 -315.35676878931918 0 -315.35676878931918 -82.750255069924606 0 0 0 0 -123.46649004150095 -553.85398325277856 0 -553.85398325277856 280.93417820557806 0 0 0 0 -514.69834824216377 -167.47740071778389 0 -167.47740071778389 57.975447173928842 0 0 0 0 242.09472758567426 1167.8506213618821 0 1167.8506213618821 851.52523411592938 0 0 0 0 1577.6198405391042 -278.73023886945157 0 -278.73023886945157 -296.64943169560865 0 0 0 0 489.81434613850433 -655.85961860089446 0 -655.85961860089446 444.54987103875465 0 0 0 0 1487.9322125158069 -724.49167361830041 0 -724.49167361830041 -138.23100423970027 0 0 0 0 1176.8538043384615 -121.56111847623833 0 -121.56111847623833 -199.31950463226531 0 0 0 0 651.59590307775943 -58.109754501740099 0 -58.109754501740099 -180.83259138306312 0 0 0 0 408.52631047862815 -585.44267955553369 0 -585.44267955553369 -130.79241287048353 0 0 0 0 385.09092360794602 -593.51271197253664 0 -593.51271197253664 88.409409303407301 0 0 0 0 498.6780656792107 -1498.0924936170923 0 -1498.0924936170923 617.03219037921008 0 0 0 0 -620.4144463858247 -319.66431060798641 0 -319.66431060798641 202.68916000882746 0 0 0 0 103.37257399407034 -68.330095921881309 0 -68.330095921881309 26.037543379408959 0 0 0 0 -181.5789894364425 -204.36995424798806 0 -204.36995424798806 -230.06034912406176 0 0 0 0 -383.5185973907428 -152.01814580131941 0 -152.01814580131941 232.53850482268899 0 0 0 0 -269.29168350338296 -174.59019709646236 0 -174.59019709646236 220.31571845391591 0 0 0 0 -16.411583696515265 -3.9823894652052587 0 -3.9823894652052587 2.9610570420393714 0 0 0 0 281.75882280160931 -312.0004218291615 0 -312.0004218291615 -268.75131325543043 0 0 0 0 -327.98712094502844 -218.20608388070104 0 -218.20608388070104 -169.49656327399134 0 0 0 0 -269.86361477871833 -71.062730433011893 0 -71.062730433011893 -208.6132095318826 0 0 0 0 -152.24765938794008 -148.43109999707667 0 -148.43109999707667 -160.6678282197463 0 0 0 0 -148.2785217847013 -142.61742561226856 0 -142.61742561226856 -242.59694642890827 0 0 0 0 -40.77214505111624 -196.94327321480523 0 -196.94327321480523 -225.75888186137308 0 0 0 0 -110.91022473512567 -126.66383023355593 0 -126.66383023355593 -270.5547210573568 0 0 0 0 18.122438433442994 -23.605757192020619 0 -23.605757192020619 -3.460078349217639 0 0 0 0 345.14281724992907 81.177790705391089 0 81.177790705391089 -759.8382502271561 0 0 0 0 -240.11963833267509 13.865963359960006 0 13.865963359960006 -36.674040939949919 0 0 0 0 395.95179236741387 -201.06208307450288 0 -201.06208307450288 -645.65922961896285 0 0 0 0 428.50824676854245 -8.2373946032021195 0 -8.2373946032021195 -307.60830994472781 0 0 0 0 106.80233222422248 -122.20866167303393 0 -122.20866167303393 12.678745969686133 0 0 0 0 102.70001081452074 -95.467995270165275 0 -95.467995270165275 14.248678540859743 0 0 0 0 63.176080729470414 -260.73522101298295 0 -260.73522101298295 109.97566869782895 0 0 0 0 101.86788050385439 -143.53814061669982 0 -143.53814061669982 -66.63621152509586 0 0 0 0 188.66792621565401 -1.8852319735524361 0 -1.8852319735524361 -39.827863673650427 0 0 0 0 104.36120372475125 -47.645941673326888 0 -47.645941673326888 7.0322457500660676 0 0 0 0 26.400919059495209 -82.101496972212772 0 -82.101496972212772 7.5972764762263978 0 0 0 0 4.8465198907724698 -209.99757158570355 0 -209.99757158570355 -161.67448506719666 0 0 0 0 92.908473324670922 -133.45623846206581 0 -133.45623846206581 -97.636918806915673 0 0 0 0 153.13227613162599 -39.380245275635389 0 -39.380245275635389 -102.79019430407789 0 0 0 0 45.064149585065024 -103.09966759628878 0 -103.09966759628878 -98.251371496662614 0 0 0 0 -35.885985413420713 -176.3199572326339 0 -176.3199572326339 -132.12424072431168 0 0 0 0 -1.9031359110813355 -213.11618606104457 0 -213.11618606104457 -131.49770752548648 0 0 0 0 67.412477763151401 -118.55304339525901 0 -118.55304339525901 -65.977253692777595 0 0 0 0 70.212430408311775 -282.97386938302407 0 -282.97386938302407 -108.96797815639002 0 0 0 0 28.045488133808249 -209.21121752493127 0 -209.21121752493127 -233.68369688207167 0 0 0 0 -109.91728043669718 -246.64229490275466 0 -246.64229490275466 -119.0474728415611 0 0 0 0 -142.53709826512932 -197.73222828597136 0 -197.73222828597136 -145.25119553526747 0 0 0 0 -285.74508564607822 -159.51138824276131 0 -159.51138824276131 -97.0685882996695 0 0 0 0 -91.075426200521179 -155.6878981897753 0 -155.6878981897753 -150.44124576758622 0 0 0 0 -116.327008157401 -166.96119635639479 0 -166.96119635639479 -144.89212601670806 0 0 0 0 -22.653609009183128 -167.07115671745851 0 -167.07115671745851 -228.60087080161611 0 0 0 0 -184.60691681616299 -274.25697449180734 0 -274.25697449180734 -152.80620382866618 0 0 0 0 -404.57151825221808 -362.56650581493523 0 -362.56650581493523 -154.63576756663679 0 0 0 0 -228.74608662392711 -315.95640223865485 0 -315.95640223865485 -149.45421684717803 0 0 0 0 -107.02441221110348 -109.31658606998826 0 -109.31658606998826 -149.37035033552093 0 0 0 0 -87.580492623324972 -146.89875910514093 0 -146.89875910514093 -78.783548168474226 0 0 0 0 -421.97999534220435 -107.24409368758279 0 -107.24409368758279 -242.02838646125747 0 0 0 0 531.55188999488018 264.15049541318513 0 264.15049541318513 -124.16865067637991 0 0 0 0 460.78785199541744 29.503253994183979 0 29.503253994183979 -41.752070563583402 0 0 0 0 1.6867810171983706 -0.70331357188866406 0 -0.70331357188866406 -12.344547911917317 0 0 0 0 333.05301872426935 161.02081698508846 0 161.02081698508846 116.0169632666948 0 0 0 0 292.39349056296487 303.48214453416949 0 303.48214453416949 -309.01833954226458 0 0 0 0 -121.33756821197312 -46.405343980917678 0 -46.405343980917678 -45.075829017689102 0 0 0 0 277.79291790057323 2.1388635041184898 0 2.1388635041184898 -158.33088076083368 0 0 0 0 -336.59439407497121 -474.75789451391029 0 -474.75789451391029 -94.059639528824846 0 0 0 0 66.693978301145179 -42.756156114770022 0 -42.756156114770022 4.1457579868489063 0 0 0 0 31.63373567464409 -4.0559957068973773 0 -4.0559957068973773 -3.4438235086071813 0 0 0 0 17.168497921824596 -4.0175208515739769 0 -4.0175208515739769 -23.642895073087971 0 0 0 0 219.41888124654724 -128.56184932295946 0 -128.56184932295946 -157.11015165761637 0 0 0 0 13.705541960192903 -3.0526808577341598 0 -3.0526808577341598 -13.105365815811268 0 0 0 0 -36.353807285726361 -163.1645272806345 0 -163.1645272806345 -193.42320189528982 0 0 0 0 -75.471969719292247 -203.60151461089845 0 -203.60151461089845 -163.8196228617453 0 0 0 0 -49.63910439342726 -209.05308285201318 0 -209.05308285201318 -179.07517301260668 0 0 0 0 -38.774166289178538 -186.97284427451814 0 -186.97284427451814 -236.72242464503506 0 0 0 0 -48.762096374382963 -194.23769378940051 0 -194.23769378940051 -230.98937574398587 0 0 0 0 -42.940548531987588 -180.90120599319926 0 -180.90120599319926 -233.49873693659902 0 0 0 0 -59.112628278176999 -193.50794682401465 0 -193.50794682401465 -230.17294219631003 0 0 0 0 47.475458635024935 -12.844728199218746 0 -12.844728199218746 -16.921255267579227 0 0 0 0 -25.217113036312185 -218.7932691926726 0 -218.7932691926726 -193.59883905644529 0 0 0 0 143.24150192026354 -63.330590748875693 0 -63.330590748875693 -176.68002741225064 0 0 0 0 30.066375546589786 -49.159620304247127 0 -49.159620304247127 -107.23615768950634 0 0 0 0 85.733837477240741 -85.852482580194192 0 -85.852482580194192 -57.861295556867844 0 0 0 0 432.29810450696209 107.2482051808438 0 107.2482051808438 -363.50134706290555 0 0 0 0 36.815195721012515 -104.87882141119212 0 -104.87882141119212 -69.144754706263484 0 0 0 0 81.692214958157479 19.70440876991163 0 19.70440876991163 -28.683316192074471 0 0 0 0 -9.9162345497279603 119.20455240770025 0 119.20455240770025 91.018283069031895 0 0 0 0 119.55491515944598 6.8367544373440623 0 6.8367544373440623 -30.466008881064667 0 0 0 0 124.30712669157947 -28.124911964019702 0 -28.124911964019702 -178.06766435064492 0 0 0 0 152.38457663493682 24.317390493292805 0 24.317390493292805 -334.4301497048873 0 0 0 0 54.233762939402368 -172.52440533690969 0 -172.52440533690969 -210.13406058354303 0 0 0 0 118.24449004767303 -90.21835855824429 0 -90.21835855824429 -121.41005264360865 0 0 0 0 94.91216656807228 -57.912234656785586 0 -57.912234656785586 -24.231508569573634 0 0 0 0 132.0366866385375 34.059447702144098 0 34.059447702144098 111.43531264573539 0 0 0 0 147.03090913959022 -113.69136986317972 0 -113.69136986317972 29.507672185747651 0 0 0 0 111.51705076474445 -46.231142602034197 0 -46.231142602034197 -60.211707189715526 0 0 0 0 42.582598667890124 -58.134690709986899 0 -58.134690709986899 -34.656799423890334 0 0 0 0 78.080371174326501 -43.035859083418472 0 -43.035859083418472 -116.53130523752043 0 0 0 0 29.392867432869025 -26.492781175432356 0 -26.492781175432356 -95.130185999863897 0 0 0 0 76.522884386198712 -33.70489116886165 0 -33.70489116886165 -156.52727995155146 0 0 0 0 12.662224035069002 -12.454880659466191 0 -12.454880659466191 -84.28399927089859 0 0 0 0 97.970684604086273 37.259946633021173 0 37.259946633021173 -77.471813303727686 0 0 0 0 -20.826889381070941 9.9757063601791742 0 9.9757063601791742 -39.067833380016964 0 0 0 0 4.9360571027163616 -12.425680376369897 0 -12.425680376369897 -3.7730096542038112 0 0 0 0 -62.787555082170002 956.26501235290925 0 956.26501235290925 924.58179227083929 0 0 0 0 17.373404901260074 -0.094074944070598576 0 -0.094074944070598576 -120.12482350888604 0 0 0 0 9.6406309834658135 -3.9379059835638799 0 -3.9379059835638799 -8.1676261444161184 0 0 0 0 1034.0077950647537 106.54265438835682 0 106.54265438835682 -834.5379304617054 0 0 0 0 85.310659767117613 -19.12274370360683 0 -19.12274370360683 47.190137961040818 0 0 0 0 -308.78837899557493 249.47646830203576 0 249.47646830203576 -435.92306309699052 0 0 0 0 -795.50433077230991 -2154.1273068211121 0 -2154.1273068211121 -1997.9452038795716 0 0 0 0 -1920.2528249892821 -1966.9998540031993 0 -1966.9998540031993 -1593.5040803714946 0 0 0 0 -1161.9295067542917 -1591.5993300740993 0 -1591.5993300740993 -1894.463413312089 0 0 0 0 90.897082722382038 -1566.9367654845446 0 -1566.9367654845446 -2178.4731379899822 0 0 0 0 0.74255004283881476 -9.5773376497848943 0 -9.5773376497848943 -8.9781059768385774 0 0 0 0 -1086.5770342653523 -1388.466232283201 0 -1388.466232283201 -1798.5433763886431 0 0 0 0 -1721.0959854805915 -1831.6411862381938 0 -1831.6411862381938 -1328.8561112445532 0 0 0 0 -1325.5859217599063 -1151.7426610565381 0 -1151.7426610565381 -924.19657833337965 0 0 0 0 -1862.2233977444339 -1688.0357320405165 0 -1688.0357320405165 -1424.240045142782 0 0 0 0 -904.05471807509093 -729.05889364816539 0 -729.05889364816539 -1023.7092832211638 0 0 0 0 -512.37054400974012 -1166.450167191244 0 -1166.450167191244 -1751.0668047600557 0 0 0 0 -1872.7731471885154 -1621.6226368089501 0 -1621.6226368089501 -1122.945841710447 0 0 0 0 -1946.6726668191877 -1622.3646128477194 0 -1622.3646128477194 -891.3858796468121 0 0 0 0 -2170.8900093106931 -2263.0549949538618 0 -2263.0549949538618 -1582.9827979853508 0 0 0 0 -1520.3921454390038 -1708.2523238584763 0 -1708.2523238584763 -1253.5191801294277 0 0 0 0 -1051.7728974071997 -1424.4065084214417 0 -1424.4065084214417 -1055.6808090836857 0 0 0 0 -1438.8530756725122 -1263.902489893655 0 -1263.902489893655 -925.01784592401236 0 0 0 0 -1540.0557969164984 -1748.546341815505 0 -1748.546341815505 -1239.2472882650036 0 0 0 0 -1346.8850967495109 -1436.4121998318114 0 -1436.4121998318114 -996.60072798037436 0 0 0 0 -1528.8330882500868 -1329.8204319510915 0 -1329.8204319510915 -656.46734059613664 0 0 0 0 -1010.2828733857841 -817.19710114861664 0 -817.19710114861664 -526.98504949684138 0 0 0 0 -645.19857838735516 -848.15764804594073 0 -848.15764804594073 -934.01129056299578 0 0 0 0 -885.52231863113923 -712.09066833615361 0 -712.09066833615361 -171.51370589352155 0 0 0 0 -1196.5802098133527 -1080.5491021812327 0 -1080.5491021812327 -854.00617851965217 0 0 0 0 -3.0236137725951266 259.85318162960539 0 259.85318162960539 -288.58535715745347 0 0 0 0 -25.641985726717394 -541.90901184130416 0 -541.90901184130416 -1630.4520767209251 0 0 0 0 -118.15346470286222 -33.637219762727455 0 -33.637219762727455 -150.79752215111512 0 0 0 0 237.08359968365039 -70.688111275529081 0 -70.688111275529081 -274.12680358866055 0 0 0 0 294.86525547331621 -257.94585774766529 0 -257.94585774766529 -233.437601862679 0 0 0 0 261.83079960874966 -280.08697827566357 0 -280.08697827566357 -231.63194938522429 0 0 0 0 350.31792208515435 -288.60535925604381 0 -288.60535925604381 -71.764228785061277 0 0 0 0 355.3828657530521 -313.40373908248694 0 -313.40373908248694 48.163984388811514 0 0 0 0 191.3339274414775 -151.82848972198553 0 -151.82848972198553 -185.20818339633115 0 0 0 0 595.47531678054656 -209.8275878381537 0 -209.8275878381537 -225.75868117552454 0 0 0 0 9.1503448660163311 -52.025492428448509 0 -52.025492428448509 -110.80502444710515 0 0 0 0 488.75003263108454 -125.19143773564429 0 -125.19143773564429 -891.08647570078028 0 0 0 0 1943.3316112491339 -762.37533330112637 0 -762.37533330112637 -771.44770811819762 0 0 0 0 -661.10557517968505 -824.27074991798872 0 -824.27074991798872 -780.52745484336629 0 0 0 0 11.380159128826492 -49.165062668895203 0 -49.165062668895203 -101.55882321394171 0 0 0 0 555.6924330523716 -1264.2171550774801 0 -1264.2171550774801 -1254.5432887411444 0 0 0 0 272.90245688963114 -371.94084542320343 0 -371.94084542320343 20.797306336797192 0 0 0 0 872.25673968521005 -199.64829756040854 0 -199.64829756040854 -242.05790637023165 0 0 0 0 305.01728153375871 -497.1218489210205 0 -497.1218489210205 449.58897835065727 0 0 0 0 -130.51793069187124 -102.50942475091142 0 -102.50942475091142 443.34877552569378 0 0 0 0 74.685588955673666 -72.917013553535071 0 -72.917013553535071 384.46194088278571 0 0 0 0 2.958540446412762 6.2018570025588815 0 6.2018570025588815 -3.4050689213968326 0 0 0 0 -61.539608323159882 -36.517795558233047 0 -36.517795558233047 1199.8107441690954 0 0 0 0 -1030.0200820495611 -1134.4892836117069 0 -1134.4892836117069 -762.92866957059596 0 0 0 0 -184.23050656616579 -955.38375615411496 0 -955.38375615411496 -787.37653563253116 0 0 0 0 -488.58316959215449 76.775414288753382 0 76.775414288753382 -3.8100067493505776 0 0 0 0 -99.24874257672127 -1467.974529748084 0 -1467.974529748084 -1195.9279381751257 0 0 0 0 -18.610533927828119 -0.56479633718907962 0 -0.56479633718907962 7.81419219756188 0 0 0 0 19.252132141209586 -541.22156258663745 0 -541.22156258663745 -1877.5960568006558 0 0 0 0 1.4482240547072252 -390.10065964357636 0 -390.10065964357636 -987.48538494913373 0 0 0 0 3.095159329204705 2.7369487386203559 0 2.7369487386203559 -2.5403376641051523 0 0 0 0 -94.937342008940959 -7.3026429359888425 0 -7.3026429359888425 517.83995649632561 0 0 0 0 21.355199615297579 -30.757724092152785 0 -30.757724092152785 272.08540648588678 0 0 0 0 -20.796999993740428 -252.07303248968674 0 -252.07303248968674 105.68630731118901 0 0 0 0 -313.47685551615893 -166.90665674426964 0 -166.90665674426964 87.041023852143553 0 0 0 0 69.576841539660109 -344.04278737212735 0 -344.04278737212735 -344.5991563393909 0 0 0 0 -22.697680343575485 -228.39470096911828 0 -228.39470096911828 21.576316699502058 0 0 0 0 240.80307347578309 -340.84588119752152 0 -340.84588119752152 68.517507831100374 0 0 0 0 133.10804876165093 -163.68473278031161 0 -163.68473278031161 203.39349249151564 0 0 0 0 167.57673869016071 -368.01117583496671 0 -368.01117583496671 -149.48888969174004 0 0 0 0 -274.16431981966798 -248.64132044654252 0 -248.64132044654252 -117.81748671300011 0 0 0 0 143.8096221269102 -84.292533338651992 0 -84.292533338651992 -344.24297892278992 0 0 0 0 111.41346510303407 -74.149024892302236 0 -74.149024892302236 38.203737690898237 0 0 0 0 -173.22347857990917 -569.2310298423763 0 -569.2310298423763 -246.16014666915726 0 0 0 0 -32.467980823799735 -181.90702216963109 0 -181.90702216963109 -141.2653117680602 0 0 0 0 -144.03844920187112 -157.38100792716432 0 -157.38100792716432 -255.90946329501458 0 0 0 0 159.22831095440051 -506.72151945074438 0 -506.72151945074438 -273.56074221010203 0 0 0 0 417.63039993795246 -163.05403525205838 0 -163.05403525205838 -223.76421624803334 0 0 0 0 2.8538369302159481 -464.18325235437806 0 -464.18325235437806 12.694432472460903 0 0 0 0 -107.59692958797049 -202.0628093310811 0 -202.0628093310811 280.43637012447289 0 0 0 0 64.908110101486727 -305.28659980618613 0 -305.28659980618613 352.90111595834605 0 0 0 0 721.45242496802348 -541.58987555553176 0 -541.58987555553176 116.47202607747749 0 0 0 0 -293.85353819370698 -444.99820869846008 0 -444.99820869846008 214.19278602200211 0 0 0 0 -427.1592298723458 -644.64421879219299 0 -644.64421879219299 207.47025563765783 0 0 0 0 -194.13237761503296 -647.40849734211224 0 -647.40849734211224 -77.599139518424636 0 0 0 0 -204.90209133411463 -845.81032691252767 0 -845.81032691252767 -711.7120723232656 0 0 0 0 -392.24766867336098 -460.09814593786723 0 -460.09814593786723 -212.29375967950909 0 0 0 0 -82.547012635270676 -606.28919598114226 0 -606.28919598114226 -780.73182400519727 0 0 0 0 -713.22667952517531 -311.28971118145273 0 -311.28971118145273 -21.02593747631181 0 0 0 0 458.94347517903225 180.37402967616799 0 180.37402967616799 -1328.0658646641423 0 0 0 0 -987.9337680234612 -735.12915168682594 0 -735.12915168682594 -292.85334250458982 0 0 0 0 -602.76540405920787 -1179.5060032400215 0 -1179.5060032400215 -1191.155306673827 0 0 0 0 -251.70905647095515 -417.80972586866301 0 -417.80972586866301 309.28755092978827 0 0 0 0 676.91046154973992 -307.12075888187246 0 -307.12075888187246 -171.99415099606267 0 0 0 0 663.475157524726 -332.58564079120151 0 -332.58564079120151 281.09017453074921 0 0 0 0 358.72999280861586 -43.376603711421922 0 -43.376603711421922 245.56801081626327 0 0 0 0 2412.1898655189016 383.98379230127466 0 383.98379230127466 -503.01495318413799 0 0 0 0 -3330.509097322667 -1906.613845257607 0 -1906.613845257607 -339.29617956736183 0 0 0 0 6.5473199365594903 -38.322729071442126 0 -38.322729071442126 -69.085412040031258 0 0 0 0 1.2420002358447872 -17.736574018186719 0 -17.736574018186719 -23.437503828746685 0 0 0 0 -5689.7052872218301 -1571.6974084218491 0 -1571.6974084218491 945.02874353076913 0 0 0 0 2944.8175964093334 56.020965993127902 0 56.020965993127902 -388.22477039083606 0 0 0 0 1110.076452141715 242.97092403906572 0 242.97092403906572 439.77599231022396 0 0 0 0 1455.7123410039503 -698.32175103119516 0 -698.32175103119516 -231.22697134780174 0 0 0 0 -1231.1967792145824 -1128.9270027561288 0 -1128.9270027561288 -612.46272714505903 0 0 0 0 -889.77143467088899 -614.77856942374638 0 -614.77856942374638 4513.747499084112 0 0 0 0 -916.19868916820997 -1631.5767255505707 0 -1631.5767255505707 -3549.5396239438851 0 0 0 0 11.867919691175686 -3.0700333663334618 0 -3.0700333663334618 0.87594851562977638 0 0 0 0 -1811.6978641610731 -2308.8519749705665 0 -2308.8519749705665 -298.77279389369505 0 0 0 0 -1551.5660280684451 -1696.0695840765911 0 -1696.0695840765911 -1113.5484120153269 0 0 0 0 -1947.6534005643316 -1250.1481436264003 0 -1250.1481436264003 -592.56978948060714 0 0 0 0 -1657.2417051473021 -1657.4398634754107 0 -1657.4398634754107 -905.07604364741928 0 0 0 0 -1266.3956169197936 -1912.2194766545072 0 -1912.2194766545072 -1099.7806387911842 0 0 0 0 -519.73309703649284 -392.28968763106968 0 -392.28968763106968 -684.40622884447112 0 0 0 0 -1519.4069218467339 -1704.2485616899357 0 -1704.2485616899357 -941.49683294193528 0 0 0 0 -1657.7264551722355 -1622.6171329776921 0 -1622.6171329776921 -959.74583163106581 0 0 0 0 -199.91007698123576 -983.02738035275615 0 -983.02738035275615 330.48283858844661 0 0 0 0 -830.05173858471244 -289.1811711239061 0 -289.1811711239061 1858.5910887679966 0 0 0 0 -2.6662815417433023 5.5423918652657278 0 5.5423918652657278 -4.0365754058509111 0 0 0 0 -1249.4669335577346 -2345.2168293928626 0 -2345.2168293928626 -3627.3818211704784 0 0 0 0 133.27852720489318 336.70876388796023 0 336.70876388796023 -405.33430064714776 0 0 0 0 -47.718363697003952 -633.82472508564388 0 -633.82472508564388 -2231.482837415635 0 0 0 0 -238.29324726693085 -981.12043327470019 0 -981.12043327470019 2963.2856020132604 0 0 0 0 40.166636521193851 -23.103416514993512 0 -23.103416514993512 1.9907337572393757 0 0 0 0 -12.115885629141303 -1141.1672351951274 0 -1141.1672351951274 1581.0887120323314 0 0 0 0 -194.82220890083772 -1314.9847712184055 0 -1314.9847712184055 2462.3299975542614 0 0 0 0 152.29841800526629 -1340.2165448777596 0 -1340.2165448777596 1575.1704681714764 0 0 0 0 -431.25962542611524 -1179.3940938535525 0 -1179.3940938535525 1532.4117273948505 0 0 0 0 -622.88684458603439 -541.22072240302441 0 -541.22072240302441 1359.7880848270725 0 0 0 0 -881.43929021017175 3.5447473771346267 0 3.5447473771346267 872.04771107417037 0 0 0 0 -327.36143669322155 -1074.1844693138919 0 -1074.1844693138919 1577.2394221097347 0 0 0 0 -385.14929962557289 -94.185450383687567 0 -94.185450383687567 391.49807558392058 0 0 0 0 881.53108954072377 -609.4056738715808 0 -609.4056738715808 0.39738772933196742 0 0 0 0 -1041.2758958721315 1270.1996750937687 0 1270.1996750937687 -1234.8577851757072 0 0 0 0 -25.13993074965623 -6.9772553146192422 0 -6.9772553146192422 -2.9318792405831857 0 0 0 0 879.67028019210375 -611.91050429577081 0 -611.91050429577081 2.9938688379334053 0 0 0 0 -372.91329865004565 99.557534801186875 0 99.557534801186875 -416.75507648123312 0 0 0 0 -72.753775350781353 -18.450983372188944 0 -18.450983372188944 -0.13426666789681008 0 0 0 0 -316.54784778213798 -1852.8345330290758 0 -1852.8345330290758 1815.8283033448097 0 0 0 0 -525.09317961758461 -2470.4552271635366 0 -2470.4552271635366 -6.8775802588788792 0 0 0 0 -5963.9371273919533 523.30465315534093 0 523.30465315534093 2275.7137230695735 0 0 0 0 -103.9346522316106 -17.811671743190516 0 -17.811671743190516 7.3071270025117769 0 0 0 0 -1484.1105896282129 -443.01436212444969 0 -443.01436212444969 279.22672397615679 0 0 0 0 -560.63996723318269 -800.35381042805966 0 -800.35381042805966 431.36414073126798 0 0 0 0 -1305.0777634490387 -74.4166020021039 0 -74.4166020021039 833.78506280240254 0 0 0 0 -1076.8360508994438 -1644.1781321839444 0 -1644.1781321839444 1106.5932894011494 0 0 0 0 -2063.4035298246417 -328.75850355076545 0 -328.75850355076545 599.48848525710491 0 0 0 0 -2359.7375492490205 -1066.5574096769178 0 -1066.5574096769178 1295.1705804647354 0 0 0 0 -1098.640561945118 545.10785849839158 0 545.10785849839158 -388.84752139258489 0 0 0 0 -105.17404443686551 -16.084712794687107 0 -16.084712794687107 6.1179924721217844 0 0 0 0 -3815.8887285391465 -1658.2968805474229 0 -1658.2968805474229 3269.9373058142082 0 0 0 0 -1708.0626529020774 803.93287523307299 0 803.93287523307299 -642.1724706600653 0 0 0 0 -4253.7936165786123 2930.1144185228404 0 2930.1144185228404 -663.96748012615717 0 0 0 0 -34.704398227444443 -14.069728445432588 0 -14.069728445432588 -7.0546986387220727 0 0 0 0 1386.8958954303962 -408.52611481875647 0 -408.52611481875647 0.39869584120435392 0 0 0 0 -147.4635787478328 -204.76481643490843 0 -204.76481643490843 -0.063692007097415626 0 0 0 0 1626.2839180087904 290.39881496249291 0 290.39881496249291 -380.09235983467079 0 0 0 0 -306.17504276924592 1004.9968739136821 0 1004.9968739136821 546.43572762515396 0 0 0 0 -866.06732779880986 89.677876962799928 0 89.677876962799928 -293.07055308097188 0 0 0 0 -81.845613871397205 -37.926989843138983 0 -37.926989843138983 -9.6197208075911931 0 0 0 0 -2032.962142721095 -2351.4412961428316 0 -2351.4412961428316 735.74814548209451 0 0 0 0 -1172.2421590917838 -110.47833997614362 0 -110.47833997614362 304.25218500956544 0 0 0 0 -2175.2843482272947 154.80652560670569 0 154.80652560670569 836.39291385310935 0 0 0 0 -1818.3069972571047 -1108.9001242609047 0 -1108.9001242609047 -318.43668665335281 0 0 0 0 -698.16365832652082 -416.15808241604827 0 -416.15808241604827 -418.43354665808147 0 0 0 0 -802.34057537939225 -457.81769153886125 0 -457.81769153886125 0.85216208553174511 0 0 0 0 -18.093838005828388 -9.4894464224584567 0 -9.4894464224584567 -5.4105064017496716 0 0 0 0 74.961516520474106 162.06456169758167 0 162.06456169758167 -97.090920381961041 0 0 0 0 719.63099915199564 515.05434320845234 0 515.05434320845234 -230.98753815222881 0 0 0 0 -411.6999465674744 -681.22120837843977 0 -681.22120837843977 -690.68071603975841 0 0 0 0 -87.285910771072537 -41.148140435168671 0 -41.148140435168671 -11.99652128266473 0 0 0 0 -324.8941025796812 133.9993951123397 0 133.9993951123397 711.36139114084654 0 0 0 0 -815.11114829828875 263.09324072563322 0 263.09324072563322 769.57769892518991 0 0 0 0 273.60928861903085 -176.17840585811064 0 -176.17840585811064 -1445.5918594203977 0 0 0 0 -1548.3094242091465 424.39990401893738 0 424.39990401893738 445.85323264024919 0 0 0 0 -187.0430097181461 -1216.4309573333157 0 -1216.4309573333157 -280.65951698966364 0 0 0 0 163.27162294283062 -550.15224414347176 0 -550.15224414347176 556.61795609680848 0 0 0 0 -627.45356936976532 -211.14024045526457 0 -211.14024045526457 -237.48401650137384 0 0 0 0 -99.616672668333877 -18.836622964876653 0 -18.836622964876653 0.67778390264115274 0 0 0 0 7.4848710454798493 -119.9109857147705 0 -119.9109857147705 -148.94060233769505 0 0 0 0 -48.321076253154544 -88.55705248829176 0 -88.55705248829176 17.75711257446406 0 0 0 0 5.7250603008451435 -123.2435754158505 0 -123.2435754158505 -138.90652943961322 0 0 0 0 -90.447242642594574 -130.77386530365038 0 -130.77386530365038 -111.59356955662952 0 0 0 0 -1.1557861356783796 -22.046338347321665 0 -22.046338347321665 -27.313471475136197 0 0 0 0 -62.774008627489366 -278.47022652223677 0 -278.47022652223677 -456.00828441612975 0 0 0 0 -62.324052300559273 -82.593012920963417 0 -82.593012920963417 -4.5983060383793131 0 0 0 0 -47.229091957928176 -110.66336114858132 0 -110.66336114858132 -43.192337135202251 0 0 0 0 -4.9469763283931627 -55.436851761096321 0 -55.436851761096321 3.2597384751107938 0 0 0 0 -62.126526126567114 -217.07097727490327 0 -217.07097727490327 -156.29505848276312 0 0 0 0 -166.74317494299248 -150.65974296291824 0 -150.65974296291824 -16.812661567266332 0 0 0 0 -2.5858789142847272 -37.822121928350469 0 -37.822121928350469 28.329799308681686 0 0 0 0 -145.07347242559081 -213.49980451272495 0 -213.49980451272495 -74.27556934178574 0 0 0 0 -1.7231160028895829 -105.11022499998217 0 -105.11022499998217 -97.527982112485915 0 0 0 0 -96.783201978514626 -52.648495990186348 0 -52.648495990186348 103.74478468517191 0 0 0 0 34.531240512798831 -224.16957933286903 0 -224.16957933286903 -43.234962417685892 0 0 0 0 -0.31779693933104269 -3.8956554370938932 0 -3.8956554370938932 1.5033783002230336 0 0 0 0 -2.008021560118209 -119.69182280829409 0 -119.69182280829409 -174.55885249243875 0 0 0 0 -161.70231858486659 59.568271708485554 0 59.568271708485554 372.28799966654333 0 0 0 0 -11.688455204325466 -41.974717333263669 0 -41.974717333263669 41.68364453871834 0 0 0 0 -400.32347457421201 -335.21462682718993 0 -335.21462682718993 -166.95259350407287 0 0 0 0 160.20263513254122 12.733602456828521 0 12.733602456828521 120.60625660262303 0 0 0 0 87.264620493537223 -343.02316414992674 0 -343.02316414992674 -961.67965536535485 0 0 0 0 -40.153760484928171 -62.434828293473402 0 -62.434828293473402 -119.57671309121361 0 0 0 0 -37.756819882634517 -90.681716074638985 0 -90.681716074638985 3.3799050515799109 0 0 0 0 -7.6975688985785382 -248.41687095246743 0 -248.41687095246743 125.58023252604471 0 0 0 0 -44.321760908534998 -88.023672456271015 0 -88.023672456271015 -163.64518399308872 0 0 0 0 445.73011606551654 -256.18998998340612 0 -256.18998998340612 -96.262946019065566 0 0 0 0 -34.147834236639028 -119.76614459290431 0 -119.76614459290431 -102.26012173012714 0 0 0 0 -97.080256348686817 -121.03014320794318 0 -121.03014320794318 -361.42110996366318 0 0 0 0 -1.6700981238448467 -1.9710604409103212 0 -1.9710604409103212 4.1476701249815449 0 0 0 0 -320.4827576539501 -312.33335670776614 0 -312.33335670776614 232.80257312266622 0 0 0 0 -15.4660740671452 -572.7257361346492 0 -572.7257361346492 -116.14282383807586 0 0 0 0 262.40784542031906 -172.7500877672428 0 -172.7500877672428 -313.98031742464809 0 0 0 0 183.00600869421078 -163.5823635569559 0 -163.5823635569559 -211.57106346471119 0 0 0 0 36.960606570262598 -570.6686897812906 0 -570.6686897812906 -250.89587727819162 0 0 0 0 373.67565504681124 -334.26132239947401 0 -334.26132239947401 -206.83339559701562 0 0 0 0 -396.17246541015697 -306.98125688639266 0 -306.98125688639266 40.810495366124087 0 0 0 0 84.251398081705247 -147.98510037668166 0 -147.98510037668166 -486.16305858816941 0 0 0 0 20.661988573405413 -14.695918576503132 0 -14.695918576503132 3.7342526442047301 0 0 0 0 -207.3728688227875 -512.16083187694312 0 -512.16083187694312 -455.40785128486459 0 0 0 0 -194.85398970424029 -165.98360719987977 0 -165.98360719987977 -141.74792750598863 0 0 0 0 -553.81415520724431 -336.64764711931639 0 -336.64764711931639 -156.17393126651586 0 0 0 0 -11.81824799289393 -289.98666216780293 0 -289.98666216780293 -425.62312502716668 0 0 0 0 -180.72470162051022 -288.30793013731363 0 -288.30793013731363 -387.05044015112799 0 0 0 0 -28.577394012768195 -349.12075386582001 0 -349.12075386582001 -368.10017428449646 0 0 0 0 -57.008445224169236 -351.28985609500523 0 -351.28985609500523 -286.7238802924403 0 0 0 0 72.936053050914438 23.937247775953438 0 23.937247775953438 -122.88590892610591 0 0 0 0 66.802127413902483 -64.977617106144933 0 -64.977617106144933 12.66106410875841 0 0 0 0 -53.635229283514491 -167.62856261879642 0 -167.62856261879642 -26.82981021598971 0 0 0 0 -8.6804621526398176 -104.57658100459361 0 -104.57658100459361 -65.779707251561319 0 0 0 0 57.187050950968114 -138.7572518542147 0 -138.7572518542147 -45.861488371199812 0 0 0 0 -24.385256421086524 -98.532613426337775 0 -98.532613426337775 -47.345360626408365 0 0 0 0 -55.282266270049149 -193.38818491925485 0 -193.38818491925485 -27.162591982862068 0 0 0 0 -139.85202848126937 -228.40216519148089 0 -228.40216519148089 -39.315480330566061 0 0 0 0 89.968144210346509 -135.03146827379533 0 -135.03146827379533 -167.09574599763437 0 0 0 0 -147.59069794171955 -381.75633377043414 0 -381.75633377043414 -394.90071813582472 0 0 0 0 5.4125973752759968 -74.196983353414311 0 -74.196983353414311 -65.02834199810809 0 0 0 0 -57.526468429201486 -126.33148037060164 0 -126.33148037060164 -61.360398741118843 0 0 0 0 212.02685956263304 -224.56882647197926 0 -224.56882647197926 -207.74990043381695 0 0 0 0 22.842364184780187 -63.126156127292596 0 -63.126156127292596 -16.217405516408292 0 0 0 0 31.670459017623216 128.62189676721027 0 128.62189676721027 343.30433196647209 0 0 0 0 -10.804678564293532 -32.370297563873677 0 -32.370297563873677 -6.3666259613382294 0 0 0 0 521.75299963284488 -545.43513652903493 0 -545.43513652903493 358.54032029741211 0 0 0 0 -12.222230190641909 -9.2898852297792303 0 -9.2898852297792303 -24.521823723657775 0 0 0 0 -106.85943670254528 -118.46189647571191 0 -118.46189647571191 114.49555339495419 0 0 0 0 -68.870831881622635 -74.593457698904729 0 -74.593457698904729 15.950319335560664 0 0 0 0 -178.93434335633356 -77.900497008129605 0 -77.900497008129605 141.74155005913053 0 0 0 0 -290.42514287565427 -481.7921042049129 0 -481.7921042049129 -183.98493944486836 0 0 0 0 -225.58280747600656 -205.81395199344843 0 -205.81395199344843 -404.44886731685983 0 0 0 0 124.377096303695 -1002.0964214924752 0 -1002.0964214924752 -490.10215613364562 0 0 0 0 -331.91749348533904 -259.49985940280749 0 -259.49985940280749 586.34196614228131 0 0 0 0 581.58461923771392 -666.98961434781086 0 -666.98961434781086 518.1113373931812 0 0 0 0 67.159704260725405 -29.943742224146348 0 -29.943742224146348 3.3619146146736867 0 0 0 0 311.44173393128585 -476.10137808321451 0 -476.10137808321451 -1748.4722222674172 0 0 0 0 757.4755563101935 -1379.2445202765666 0 -1379.2445202765666 1336.4687582782208 0 0 0 0 62.185445119983342 -279.3526590213005 0 -279.3526590213005 332.18488098317175 0 0 0 0 1101.720846137694 -763.32402871311933 0 -763.32402871311933 178.0311327506497 0 0 0 0 173.0636203619033 -963.0165693139279 0 -963.0165693139279 2230.9025078853883 0 0 0 0 202.71870398793908 -732.05459713470191 0 -732.05459713470191 679.77853996913473 0 0 0 0 10.689845662979714 -142.38874702113961 0 -142.38874702113961 -81.620597506278898 0 0 0 0 -168.20701454404934 -254.97375091555296 0 -254.97375091555296 -428.62458873452942 0 0 0 0 384.4222903426853 163.89710873803415 0 163.89710873803415 -105.11498890379153 0 0 0 0 -47.272573260392249 -24.748340444826347 0 -24.748340444826347 -11.161385682902846 0 0 0 0 -164.6290667067351 -648.42025317330626 0 -648.42025317330626 -1284.7280944240047 0 0 0 0 226.55315804611018 -210.10011953550566 0 -210.10011953550566 -959.73876085635857 0 0 0 0 79.116134035517462 -50.094464077454177 0 -50.094464077454177 -268.63834396762286 0 0 0 0 94.607236130861565 -165.75041826290544 0 -165.75041826290544 -971.31578029867887 0 0 0 0 77.59613058482779 -57.707765040623286 0 -57.707765040623286 -16.304209135322022 0 0 0 0 184.58645476750826 94.829957659516367 0 94.829957659516367 -118.97514195913391 0 0 0 0 581.72317635182117 -192.84532489175035 0 -192.84532489175035 -27.580758243289893 0 0 0 0 -29.812170446835808 -99.912716301376349 0 -99.912716301376349 131.47596533136675 0 0 0 0 20.310935399993468 -107.23281814512302 0 -107.23281814512302 -73.08514558277966 0 0 0 0 12.376014575125868 -66.494904346108356 0 -66.494904346108356 -69.523178819603004 0 0 0 0 -140.4507723266579 -58.10677242087695 0 -58.10677242087695 -86.792876983396127 0 0 0 0 -28.470560150530218 -57.413444250409384 0 -57.413444250409384 -139.81791050970787 0 0 0 0 -314.8287705392213 -158.45988394292362 0 -158.45988394292362 -60.279226677270344 0 0 0 0 62.449903022240505 -21.288590821015532 0 -21.288590821015532 -126.99545409501297 0 0 0 0 -157.32620857769507 -79.186780863383319 0 -79.186780863383319 -90.163111176836537 0 0 0 0 15.809924126823354 0.66806347811623823 0 0.66806347811623823 -0.71269357050641702 0 0 0 0 229.38662716540239 -371.48100858498947 0 -371.48100858498947 325.08147908050159 0 0 0 0 -25.459258882500244 -62.296307024797699 0 -62.296307024797699 14.547334840385879 0 0 0 0 58.215995106453718 -25.239055873609232 0 -25.239055873609232 -42.985483269742019 0 0 0 0 -115.21935530752671 -333.99947065637389 0 -333.99947065637389 -100.52599038741755 0 0 0 0 -247.15766752957279 -16.778692823529127 0 -16.778692823529127 90.059470058331499 0 0 0 0 14.511436220926655 -26.509515443875472 0 -26.509515443875472 2.7100215454265708 0 0 0 0 -5.8137617450589687 -10.89388910706873 0 -10.89388910706873 -3.9868114864332895 0 0 0 0 3787.6207019609938 -840.16336766007589 0 -840.16336766007589 144.32422000448423 0 0 0 0 897.45668043940532 -25.070347120708902 0 -25.070347120708902 -642.94539394733147 0 0 0 0 -272.30524288266042 -468.26695190841019 0 -468.26695190841019 4955.4692058285582 0 0 0 0 1866.6804337519206 -3266.992164798372 0 -3266.992164798372 3724.9217766096699 0 0 0 0 248.27918142222916 -1662.0760373513622 0 -1662.0760373513622 2201.3575963352632 0 0 0 0 221.44786795261462 -1702.6958596422337 0 -1702.6958596422337 2141.331977760412 0 0 0 0 -41.692324354906305 -1126.4723623658501 0 -1126.4723623658501 983.05844972596969 0 0 0 0 -129.69464977812686 251.78729375112925 0 251.78729375112925 1296.264739386359 0 0 0 0 494.91531992176169 -1615.0525151704351 0 -1615.0525151704351 1239.2268479265695 0 0 0 0 69.239232507614361 -1919.5809236568093 0 -1919.5809236568093 2364.5443269655516 0 0 0 0 1335.5624341371861 -2782.1208422421169 0 -2782.1208422421169 2859.1726397211896 0 0 0 0 2403.9811888246622 -1306.1910766484798 0 -1306.1910766484798 153.60360932052572 0 0 0 0 542.95265693100191 -370.94568060489473 0 -370.94568060489473 22.062263780215289 0 0 0 0 1398.429095408268 -1850.9233238450834 0 -1850.9233238450834 443.64645337912953 0 0 0 0 -268.77699280010347 -1284.1554239351681 0 -1284.1554239351681 3475.9854298160644 0 0 0 0 2602.3757360979253 -3834.4299678187308 0 -3834.4299678187308 3245.2255923495395 0 0 0 0 813.99141637336288 -1560.9156330075057 0 -1560.9156330075057 6728.4607603081095 0 0 0 0 4906.1887422051004 -1179.7472860428388 0 -1179.7472860428388 2126.8197302775225 0 0 0 0 761.99731389577482 -1087.8218933458247 0 -1087.8218933458247 2423.828808536171 0 0 0 0 -247.91657099530858 -607.25520576245617 0 -607.25520576245617 1744.6293093673412 0 0 0 0 -810.65187551192184 -989.90099319305637 0 -989.90099319305637 1535.642698303127 0 0 0 0 -290.04595328176947 -1334.3763862518681 0 -1334.3763862518681 884.09658639708505 0 0 0 0 1833.8800707488808 -1463.3540319749736 0 -1463.3540319749736 742.40415558620589 0 0 0 0 1128.3720660529943 -1467.6062697246962 0 -1467.6062697246962 2107.0509875038333 0 0 0 0 1401.4577901455705 -1639.630063583827 0 -1639.630063583827 -28.836412496995763 0 0 0 0 153.85915904523426 -2193.7883397035112 0 -2193.7883397035112 -5.0231697025155881 0 0 0 0 -1290.7067582140953 -2123.914151230274 0 -2123.914151230274 833.76982907563797 0 0 0 0 -2513.7880544703985 621.16175938485685 0 621.16175938485685 1212.1309571241491 0 0 0 0 918.48751350807652 -2066.0568347431836 0 -2066.0568347431836 613.43341260656598 0 0 0 0 296.44908065986237 -1944.2852604322397 0 -1944.2852604322397 1279.9353839635442 0 0 0 0 899.92590176313024 -1997.9085927260603 0 -1997.9085927260603 753.92667395004537 0 0 0 0 1914.6649697421126 -2861.4841363561391 0 -2861.4841363561391 1359.1803241901507 0 0 0 0 1253.0588356264784 -2254.4971116202851 0 -2254.4971116202851 432.52585208474193 0 0 0 0 1122.3762018890393 -1974.6819179739396 0 -1974.6819179739396 1.48658351211634 0 0 0 0 734.82688230839267 -1909.7847152158356 0 -1909.7847152158356 532.65634588417743 0 0 0 0 694.90740030115603 -1721.8532020686798 0 -1721.8532020686798 480.86812338716118 0 0 0 0 657.03513332924194 -1380.9726846521517 0 -1380.9726846521517 0.49763522327702958 0 0 0 0 895.46075719926739 -926.68915689479036 0 -926.68915689479036 648.13540496990754 0 0 0 0 321.76855982412053 -1447.4923012745567 0 -1447.4923012745567 -82.64918297494296 0 0 0 0 -41.112990608860855 -1389.1711702616594 0 -1389.1711702616594 804.39376245743188 0 0 0 0 185.85782038079196 -1253.1365100021503 0 -1253.1365100021503 877.8237607653864 0 0 0 0 209.93437982748947 -1609.8645570418303 0 -1609.8645570418303 756.8572592016717 0 0 0 0 150.77034195597298 -1588.109075104614 0 -1588.109075104614 442.71644347932306 0 0 0 0 97.095456262672087 -1500.3219189649099 0 -1500.3219189649099 697.25995238922769 0 0 0 0 131.20829137590954 -1216.0036302900189 0 -1216.0036302900189 465.51303710686625 0 0 0 0 -290.6180874928541 -902.79224826677819 0 -902.79224826677819 346.44581982775708 0 0 0 0 99.128412462686356 -532.20350700026756 0 -532.20350700026756 -548.79611822019797 0 0 0 0 -254.37252746950253 -892.60388330914429 0 -892.60388330914429 -813.67759240178566 0 0 0 0 -83.238436608674192 -410.23324002011577 0 -410.23324002011577 -990.41764930007048 0 0 0 0 -10.182298205000137 -55.872371719001876 0 -55.872371719001876 20.835778208140383 0 0 0 0 31.044215353134859 -60.071779894758947 0 -60.071779894758947 -199.06709433441574 0 0 0 0 178.70110962323633 -95.126563867772347 0 -95.126563867772347 69.007779059116729 0 0 0 0 -5.4732231743563915 -1.4624062697587874 0 -1.4624062697587874 1.7453361710138324 0 0 0 0 -5.8860574147670093 -1.8545053492040324 0 -1.8545053492040324 -18.64719671961933 0 0 0 0 -108.55647034283902 -203.19068520177098 0 -203.19068520177098 326.22379160818127 0 0 0 0 79.881740468277712 76.099960336461663 0 76.099960336461663 -127.65417158191849 0 0 0 0 -119.89054897114693 -238.10398915091355 0 -238.10398915091355 -93.525178999407217 0 0 0 0 -372.72244128835428 -621.96680799979367 0 -621.96680799979367 -873.87730024335906 0 0 0 0 -389.30063503179645 -741.35845769041043 0 -741.35845769041043 -950.1908997487044 0 0 0 0 -190.15191495790714 -697.09264300772338 0 -697.09264300772338 -1005.6513003341097 0 0 0 0 -336.12749227038012 -598.77118875715678 0 -598.77118875715678 -983.56243516312679 0 0 0 0 -218.43846461525936 -569.31606721338176 0 -569.31606721338176 -1301.4681853607544 0 0 0 0 -1.80447165377592 -2.6843463360133342 0 -2.6843463360133342 13.436562464789702 0 0 0 0 -215.28323010918029 -533.67665092521929 0 -533.67665092521929 -1040.7291380144597 0 0 0 0 -416.20079442066526 -487.36921370908385 0 -487.36921370908385 -559.17003768337599 0 0 0 0 7.4485341086441306 -14.887468284217761 0 -14.887468284217761 17.47195975132513 0 0 0 0 -421.6902742619809 -659.2225401361502 0 -659.2225401361502 -808.42759680908057 0 0 0 0 -457.55216419659428 -604.26922681287397 0 -604.26922681287397 -875.37698150107917 0 0 0 0 81.317136109281932 -192.72859750630505 0 -192.72859750630505 103.38820497463166 0 0 0 0 -26.8989149287587 -48.420368212391622 0 -48.420368212391622 177.39570209322846 0 0 0 0 371.49138927153348 -707.31359533961859 0 -707.31359533961859 -857.91236410810961 0 0 0 0 0.75730403197310281 -6.5562092821043052 0 -6.5562092821043052 8.3017971557389387 0 0 0 0 978.57380373240107 -922.95061983253254 0 -922.95061983253254 0.34550633726757951 0 0 0 0 25.29475125745239 -478.43937756447122 0 -478.43937756447122 1210.4744581454142 0 0 0 0 32.996975818123019 -119.67803511227248 0 -119.67803511227248 0.79190266447546165 0 0 0 0 29.657137390387561 -123.34802705184848 0 -123.34802705184848 39.63195639521291 0 0 0 0 16.477137901175411 -99.036788108256587 0 -99.036788108256587 -0.18528474375489168 0 0 0 0 -9.8112023405528817 -67.906630276906071 0 -67.906630276906071 17.37032165783603 0 0 0 0 -10.304978772838695 -87.005817576209665 0 -87.005817576209665 75.241390698225587 0 0 0 0 50.966399454573548 -73.659884328910266 0 -73.659884328910266 0.10794900663313456 0 0 0 0 105.92939811282122 -55.771281062872731 0 -55.771281062872731 -11.106898279860616 0 0 0 0 6.2230689663338126 -69.756165095546748 0 -69.756165095546748 17.101696137280669 0 0 0 0 14.501586477513229 -88.385432550297992 0 -88.385432550297992 29.367475642691716 0 0 0 0 -6.3100616696028737 -47.472484087091289 0 -47.472484087091289 5.5109900396200828 0 0 0 0 45.255986452744764 -46.470468464656733 0 -46.470468464656733 2.750387597916415 0 0 0 0 -28.00413644527228 -29.818068029229238 0 -29.818068029229238 -21.300524952196071 0 0 0 0 -61.372921383266657 -49.716491312370636 0 -49.716491312370636 40.156207275605993 0 0 0 0 -7.3022669062627301 -32.686989130491384 0 -32.686989130491384 -12.358022331289249 0 0 0 0 -12.676378506181209 -66.939803219811438 0 -66.939803219811438 19.477274493285222 0 0 0 0 -46.8802690506418 -105.98016729611118 0 -105.98016729611118 -21.554522496182472 0 0 0 0 -43.526970410035574 -24.595731234345294 0 -24.595731234345294 -28.504264665680239 0 0 0 0 -85.221005374420201 -10.994053823131253 0 -10.994053823131253 17.621105530794011 0 0 0 0 -139.14720885946736 -43.531195834992104 0 -43.531195834992104 -1.7082283498602919 0 0 0 0 -13.581894948906353 -48.288067911365943 0 -48.288067911365943 18.04888666048646 0 0 0 0 -15.246035728222978 -48.912927229306661 0 -48.912927229306661 31.549545396614121 0 0 0 0 -9.6167450710227058 -61.917079842780367 0 -61.917079842780367 9.6120023906551069 0 0 0 0 -4.6953791260602884 -51.248314437914814 0 -51.248314437914814 -6.2007598336203955 0 0 0 0 -11.332041121789189 -61.573948075354565 0 -61.573948075354565 20.224187798739877 0 0 0 0 -27.631358552419954 -37.662981849316395 0 -37.662981849316395 -18.132478721468033 0 0 0 0 -287.85593624285411 -700.54293491330463 0 -700.54293491330463 -2084.1462630295282 0 0 0 0 -1319.2331325628857 -1024.4551275483973 0 -1024.4551275483973 -375.03976981909364 0 0 0 0 8.5735363536999927 -26.56675063140284 0 -26.56675063140284 17.519369826803882 0 0 0 0 -572.70192719179431 -534.45830352877965 0 -534.45830352877965 -555.86086328004603 0 0 0 0 9.1070492963186247 -13.838612995430452 0 -13.838612995430452 -4.0282338880023474 0 0 0 0 -286.66412387174023 -892.61966332545853 0 -892.61966332545853 -1390.1155066660722 0 0 0 0 -739.28417355867805 -294.43091192338034 0 -294.43091192338034 -1194.2164720421788 0 0 0 0 -49.45760074540749 48.683964142473997 0 48.683964142473997 237.01947600230778 0 0 0 0 -303.3224084839087 -154.4390454129607 0 -154.4390454129607 -567.55102551266464 0 0 0 0 -199.74943321233297 -745.43247121286549 0 -745.43247121286549 -824.47884041437646 0 0 0 0 -719.56005746341543 -370.97441834048368 0 -370.97441834048368 -484.21297697868431 0 0 0 0 -929.49891479021949 -1094.0830926015951 0 -1094.0830926015951 -1223.25888125028 0 0 0 0 -212.81024533474374 -730.98692953702994 0 -730.98692953702994 -994.39444471825846 0 0 0 0 3.0964626345110027 -5.8345122588014533 0 -5.8345122588014533 13.955075243314809 0 0 0 0 -12.225027543980985 -39.062477996949127 0 -39.062477996949127 41.375768410703472 0 0 0 0 -735.31269783049902 242.91566753257939 0 242.91566753257939 159.53728462331492 0 0 0 0 -25.164443494812893 -86.718981229506795 0 -86.718981229506795 43.73147981852879 0 0 0 0 -34.171323190996276 -82.678956989540893 0 -82.678956989540893 -77.828351262316573 0 0 0 0 -11.850633912333933 -46.747922745358665 0 -46.747922745358665 -65.44059175084476 0 0 0 0 3.9224719055623556 7.4253679735120954 0 7.4253679735120954 128.62279443341467 0 0 0 0 2.9847616397569254 -32.126631624531001 0 -32.126631624531001 2.1126247255706403 0 0 0 0 -3.2545531932066876 -31.428552962340575 0 -31.428552962340575 42.478750959671174 0 0 0 0 2.9629819883733624 -25.774155768400789 0 -25.774155768400789 -26.877016787056675 0 0 0 0 42.282738849192128 -684.60227266358561 0 -684.60227266358561 -956.22729805234121 0 0 0 0 -134.37980171702839 -241.77975299837999 0 -241.77975299837999 -325.05408815732517 0 0 0 0 -28.206980608989852 -409.18680213534026 0 -409.18680213534026 -1435.2822219742229 0 0 0 0 -280.32604449505834 -790.71005205374786 0 -790.71005205374786 -1271.527404348948 0 0 0 0 -151.83724336808609 -791.51071327797399 0 -791.51071327797399 -1163.6982129933313 0 0 0 0 -319.21765784728882 -929.76722215189329 0 -929.76722215189329 -1178.8482675477571 0 0 0 0 37.443316336422861 -21.892884104095458 0 -21.892884104095458 -0.25797844689446947 0 0 0 0 -437.92778170731526 -676.91936654385063 0 -676.91936654385063 -905.7576977047429 0 0 0 0 -409.65518129900283 -638.86360766770667 0 -638.86360766770667 -1037.3706532329088 0 0 0 0 -611.2220937559523 -927.83335231381352 0 -927.83335231381352 -1160.0726691104064 0 0 0 0 -72.847943888227746 -45.078052807832137 0 -45.078052807832137 -40.237428981839912 0 0 0 0 -121.88429426773291 -258.56792797263188 0 -258.56792797263188 -74.161153841996565 0 0 0 0 33.104190866041094 -18.406511995245438 0 -18.406511995245438 6.162475321774707 0 0 0 0 -909.05329770091339 -957.59486573773029 0 -957.59486573773029 -1570.0923892060528 0 0 0 0 3.5429982189711353 -10.354127979396196 0 -10.354127979396196 22.095987401312868 0 0 0 0 -684.45538584037149 -1114.539218132486 0 -1114.539218132486 -1613.9542766947416 0 0 0 0 -67.041621173193562 -3.2833394702756777 0 -3.2833394702756777 185.08313893999366 0 0 0 0 -332.5310279548703 -853.15965987433447 0 -853.15965987433447 -1992.1183381644278 0 0 0 0 -5.1196928904347629 -7.7799902577503985 0 -7.7799902577503985 17.971498126094243 0 0 0 0 1071.707996724288 -1039.6402811961307 0 -1039.6402811961307 321.31063730474852 0 0 0 0 37.640618827554135 -141.5884129658516 0 -141.5884129658516 464.04367543276749 0 0 0 0 -13.268995365812046 -114.4219055334147 0 -114.4219055334147 123.52953774416599 0 0 0 0 52.8581272201518 -7.3153363507590257 0 -7.3153363507590257 250.87716459412331 0 0 0 0 -2.1593690705899391 -6.9486900505822291 0 -6.9486900505822291 4.3512635846198293 0 0 0 0 -1092.0458070694676 -1163.9792326298339 0 -1163.9792326298339 -1055.7031625722157 0 0 0 0 -333.31630358958137 -693.31184714109986 0 -693.31184714109986 259.57972340538981 0 0 0 0 -219.59668734663546 520.262866151661 0 520.262866151661 501.82530496414984 0 0 0 0 -709.52089882794826 -1076.7188496003509 0 -1076.7188496003509 -1681.1445836047496 0 0 0 0 3.6409452840227772 -116.15150625563558 0 -116.15150625563558 148.62879378405376 0 0 0 0 -181.53358161714277 -189.41647034365815 0 -189.41647034365815 150.21061085998372 0 0 0 0 -248.26182578990665 -140.56128002091646 0 -140.56128002091646 194.9987340245425 0 0 0 0 -25.390671183764425 429.50950707009179 0 429.50950707009179 119.40623750518262 0 0 0 0 6.8680879094331395 -9.5298137232480542 0 -9.5298137232480542 14.746969877426466 0 0 0 0 839.946490729316 319.59923813892965 0 319.59923813892965 -33.544703980762279 0 0 0 0 -142.43775335000191 -1263.7433532955256 0 -1263.7433532955256 -699.18360970848153 0 0 0 0 -1392.5076117838289 -1030.1186510048719 0 -1030.1186510048719 -247.57827828143127 0 0 0 0 204.03829600129961 -219.61137132100885 0 -219.61137132100885 -534.59293010203692 0 0 0 0 34.743397183878187 -185.96587629395799 0 -185.96587629395799 201.45908274024259 0 0 0 0 -460.8049451233228 765.97046468845656 0 765.97046468845656 959.61822484833829 0 0 0 0 -904.91257709187857 81.155476625914162 0 81.155476625914162 1137.3961907669436 0 0 0 0 507.18231105423183 132.33279298784328 0 132.33279298784328 -172.9298746623972 0 0 0 0 818.74979338473304 249.69739750176723 0 249.69739750176723 -150.10248441214208 0 0 0 0 294.67113204194175 -222.19864680504543 0 -222.19864680504543 -154.76659480718081 0 0 0 0 -0.074381313978065577 0.12417754374797596 0 0.12417754374797596 1.9942232964274353 0 0 0 0 -291.715103856106 -120.83055523961957 0 -120.83055523961957 433.54077221426996 0 0 0 0 -333.59097702236613 -283.92810206321883 0 -283.92810206321883 -190.8215728692885 0 0 0 0 865.11520169259165 -204.2267072716204 0 -204.2267072716204 -265.20478066614305 0 0 0 0 6.1824191045293588 -7.478200555577132 0 -7.478200555577132 6.3005243283647019 0 0 0 0 -475.24085948467109 -1142.2315249808889 0 -1142.2315249808889 -411.76851860630723 0 0 0 0 -831.26461634807492 -688.53196687906166 0 -688.53196687906166 -612.62670892387086 0 0 0 0 -723.65962164304437 -865.92843841902504 0 -865.92843841902504 -423.78258487258245 0 0 0 0 -618.79639946148382 -945.75634569497197 0 -945.75634569497197 -618.58009864154383 0 0 0 0 -99.196673166377877 -178.52917289097968 0 -178.52917289097968 151.17567912993218 0 0 0 0 -288.97963492989402 -431.82512406446767 0 -431.82512406446767 -1020.0454428406956 0 0 0 0 -594.80963616788495 -1483.6964250630208 0 -1483.6964250630208 -940.59700143578812 0 0 0 0 22.655506029428111 -16.167039010440419 0 -16.167039010440419 7.4769417850284299 0 0 0 0 37.454808583040176 -70.716308790186304 0 -70.716308790186304 -62.939936579961795 0 0 0 0 560.86387691377968 28.798005759184889 0 28.798005759184889 -72.581755199062172 0 0 0 0 115.56889968548785 -229.37018599266594 0 -229.37018599266594 28.709402681037318 0 0 0 0 -83.746539975199994 23.344433363963617 0 23.344433363963617 -48.438441724370932 0 0 0 0 143.99432566789619 -310.39351413666736 0 -310.39351413666736 -235.43999611629988 0 0 0 0 8.9488825642401935 -38.373347121902043 0 -38.373347121902043 -236.5628287870984 0 0 0 0 -92.447181875329989 -50.436903852780233 0 -50.436903852780233 139.50639238179429 0 0 0 0 -97.764793727394135 -74.86347978390404 0 -74.86347978390404 27.901867478390898 0 0 0 0 -247.3265082335929 -10.639368087926414 0 -10.639368087926414 114.60778894538817 0 0 0 0 1074.2224868482554 -66.535063999479462 0 -66.535063999479462 3.1514346881012898 0 0 0 0 1.479403204331633 2.03311207610178 0 2.03311207610178 1.3936068019552295 0 0 0 0 -0.34651034668969771 1.0218416222582221 0 1.0218416222582221 1.5573922849617929 0 0 0 0 810.06629570795121 -183.2648364448105 0 -183.2648364448105 107.58090662164614 0 0 0 0 927.53284935830379 185.93437295443437 0 185.93437295443437 -62.506963941043068 0 0 0 0 545.76727378341093 74.094208949747554 0 74.094208949747554 -95.242848071822664 0 0 0 0 166.22183946971927 74.005920551004237 0 74.005920551004237 -69.960587234643754 0 0 0 0 99.180099298295318 -47.005263838927931 0 -47.005263838927931 -58.211900339025306 0 0 0 0 7.3961797349029226 -6.7839509957170492 0 -6.7839509957170492 -26.109935381210335 0 0 0 0 45.842130757013365 -121.0508586510914 0 -121.0508586510914 -0.99086761553189717 0 0 0 0 -3997.0535211780625 -2672.88037029306 0 -2672.88037029306 -1667.6473515926627 0 0 0 0 967.77039896290808 -99.327037243347149 0 -99.327037243347149 -209.58803342055762 0 0 0 0 0.6139762445746797 -3.5223601060289695 0 -3.5223601060289695 -10.811052825900333 0 0 0 0 669.93831899949146 -117.36108133426751 0 -117.36108133426751 -1.9919351731377901 0 0 0 0 648.06354183595431 14.58908304209217 0 14.58908304209217 66.512249716965016 0 0 0 0 678.5745570282379 -638.44065618611785 0 -638.44065618611785 -1086.4101314837462 0 0 0 0 -3539.3213397660147 -3213.1644043724955 0 -3213.1644043724955 -1186.1907107903535 0 0 0 0 -0.061525137912015304 4.4434596411853633 0 4.4434596411853633 1.3629953945281841 0 0 0 0 184.96198154693411 -96.492518429033225 0 -96.492518429033225 6.5031274085922632 0 0 0 0 -25.998901755614497 -9.6365395281172823 0 -9.6365395281172823 36.038015171769075 0 0 0 0 -26.234669370687925 -2.7503777314177569 0 -2.7503777314177569 -50.359191737283254 0 0 0 0 298.46535961556583 -495.94417235704168 0 -495.94417235704168 -249.94177831562411 0 0 0 0 -4.7530562943889425 -3.514758877435888 0 -3.514758877435888 6.8773954679437566 0 0 0 0 -88.729323673233012 -59.895287203937187 0 -59.895287203937187 14.77517064800486 0 0 0 0 -53.546073873752903 -77.399130230522132 0 -77.399130230522132 -15.357415707752807 0 0 0 0 -58.726628137555963 -40.696851805652841 0 -40.696851805652841 5.9683839991885179 0 0 0 0 56.699749341092684 -61.900835515669314 0 -61.900835515669314 -13.280697159156261 0 0 0 0 -9.7395927605302859 -28.521925271525106 0 -28.521925271525106 0.17357458482729271 0 0 0 0 -9.9704489619970111 -3.7190530536691639 0 -3.7190530536691639 4.153727631025049 0 0 0 0 -26.54646816811146 -21.015584287262755 0 -21.015584287262755 1.8851163764629746 0 0 0 0 -20.620930120676363 -25.108683122215211 0 -25.108683122215211 -17.029995746908298 0 0 0 0 -50.250381472162047 -46.795662294098605 0 -46.795662294098605 15.389913831910235 0 0 0 0 -8.4473233872762155 -1.7700020107283052 0 -1.7700020107283052 -0.48235636876859189 0 0 0 0 63.014674693306006 -41.773395805714244 0 -41.773395805714244 -67.733033504438936 0 0 0 0 -6.1477341998337778 -1.8467158058134459 0 -1.8467158058134459 -3.8757718983117684 0 0 0 0 -2174.4475218247194 -1869.6859477124744 0 -1869.6859477124744 -1538.4692362665082 0 0 0 0 -174.50389320266913 -59.302692806115374 0 -59.302692806115374 -4.6862624218993005 0 0 0 0 -17.075639964890797 -79.06485459360556 0 -79.06485459360556 -65.067275477515068 0 0 0 0 -0.058801808617925833 5.9761375328680799 0 5.9761375328680799 -0.086182140003188579 0 0 0 0 -2685.4408782674836 -2363.7623766975521 0 -2363.7623766975521 -683.77907043980667 0 0 0 0 -2480.2836279668409 -2278.8229753252745 0 -2278.8229753252745 -855.38456698654045 0 0 0 0 -3485.6113517719059 -934.47008707019268 0 -934.47008707019268 956.49571149797703 0 0 0 0 -5.9277050979134458 -9.294796599855971 0 -9.294796599855971 -3.9981929773105094 0 0 0 0 -2115.0275797596551 -1845.4232607118029 0 -1845.4232607118029 -1698.7272773242439 0 0 0 0 -3167.1458978605406 -1342.6317979467931 0 -1342.6317979467931 49.508673583273776 0 0 0 0 -4058.8628335812173 -2074.7623108057523 0 -2074.7623108057523 -434.43092588595755 0 0 0 0 -2810.0306808624155 -1526.6208795534039 0 -1526.6208795534039 -1007.3324356454359 0 0 0 0 -2772.1732566347673 -1745.5766490309561 0 -1745.5766490309561 246.98100453891675 0 0 0 0 -1719.0689460880749 -2039.1268060535513 0 -2039.1268060535513 -0.2368914980761474 0 0 0 0 -2189.7437264361579 -2566.8213906218298 0 -2566.8213906218298 -573.76653889521549 0 0 0 0 -2350.7767345021202 -1727.7715712444333 0 -1727.7715712444333 -361.13575027088518 0 0 0 0 -2125.8637294375148 -1117.9739986655331 0 -1117.9739986655331 309.69593866169453 0 0 0 0 -104.57205059171247 -70.730689658361371 0 -70.730689658361371 -0.01022522576386109 0 0 0 0 788.86108379784855 -433.20837525489333 0 -433.20837525489333 -165.3139733422795 0 0 0 0 0.67112941975315721 -1.5253389985082038 0 -1.5253389985082038 9.9536185119192169 0 0 0 0 -62.708202470137621 -29.665256508887978 0 -29.665256508887978 12.155941612851166 0 0 0 0 20.972032936362666 -33.862254626743379 0 -33.862254626743379 5.1710282512067351 0 0 0 0 -39.114060562767918 -65.462535982154805 0 -65.462535982154805 -0.022026271122740582 0 0 0 0 -37.012800433069856 -34.086214698434503 0 -34.086214698434503 -12.65297769776646 0 0 0 0 -48.187836838922522 -78.445756774948677 0 -78.445756774948677 32.921922653182264 0 0 0 0 -8.8264831312605452 -22.621175458156216 0 -22.621175458156216 22.022796182240256 0 0 0 0 -47.313927973569662 -82.464410972344922 0 -82.464410972344922 -16.242426876327954 0 0 0 0 -12.894798346803782 -28.371724368576537 0 -28.371724368576537 35.496436080719775 0 0 0 0 -476.82070799829671 -143.32896254245134 0 -143.32896254245134 144.72104229129764 0 0 0 0 -947.11331874106691 246.62006357883365 0 246.62006357883365 -16.475784521098831 0 0 0 0 -427.46661190738087 -236.86204530527175 0 -236.86204530527175 -83.941092579887481 0 0 0 0 1.4088596418101957 -4.6635002421205343 0 -4.6635002421205343 13.499058980411462 0 0 0 0 695.92165650251263 -769.75786329913535 0 -769.75786329913535 144.32099072470737 0 0 0 0 -522.77314905462481 -987.98494363657301 0 -987.98494363657301 -2242.5054430814635 0 0 0 0 -959.41085983929224 -1797.0625299947569 0 -1797.0625299947569 -1551.644967953107 0 0 0 0 208.83399098613882 829.1043846164248 0 829.1043846164248 275.56787484808592 0 0 0 0 -3540.5159562078479 -3603.5063777498581 0 -3603.5063777498581 -2042.5458226211504 0 0 0 0 -21.775908061278898 -28.719079086765944 0 -28.719079086765944 -14.27911393575755 0 0 0 0 -4882.4588907489597 -3187.393223193998 0 -3187.393223193998 -1409.1194540583965 0 0 0 0 -2758.8728094713588 -2016.9178867123264 0 -2016.9178867123264 -3673.70570214295 0 0 0 0 -2731.8956976686968 -1359.952445100178 0 -1359.952445100178 -316.34768175843055 0 0 0 0 -2744.963937763443 -1619.9293230823714 0 -1619.9293230823714 -330.81575215471094 0 0 0 0 -265.78407646586493 844.12570339171361 0 844.12570339171361 -73.562146813899744 0 0 0 0 -3920.5888542037064 -321.27278607714106 0 -321.27278607714106 -286.2823136941297 0 0 0 0 1282.4046361916771 -1391.372165892637 0 -1391.372165892637 505.46179917852896 0 0 0 0 357.54958195631116 -1573.219329951844 0 -1573.219329951844 1.2062915786809754 0 0 0 0 1063.6729499453213 -900.61400564106589 0 -900.61400564106589 633.37667484779377 0 0 0 0 -155.69650719174206 -797.27796344264789 0 -797.27796344264789 318.14649868034758 0 0 0 0 208.1671886107797 -1137.1037913493783 0 -1137.1037913493783 788.45259709292441 0 0 0 0 -864.02944726956775 -1713.8906204457453 0 -1713.8906204457453 498.75558327211183 0 0 0 0 -2122.8684021809713 -576.35166779954307 0 -576.35166779954307 1268.339549106604 0 0 0 0 -1823.6532845856273 -1778.2567659124397 0 -1778.2567659124397 -3.0392532741389005 0 0 0 0 19.817879962500911 -62.828026575495414 0 -62.828026575495414 0.094777465390507132 0 0 0 0 -4203.5405540959982 1196.1999082440743 0 1196.1999082440743 192.31463621519651 0 0 0 0 -14.919509775354243 -7.6874672982497998 0 -7.6874672982497998 -8.9392403130854632 0 0 0 0 -1189.7188538370101 46.630852440634044 0 46.630852440634044 47.911174821316308 0 0 0 0 -1020.695054316946 -297.68024129841342 0 -297.68024129841342 558.64676358358702 0 0 0 0 -789.76077275470016 -521.39046693072305 0 -521.39046693072305 396.10611535501084 0 0 0 0 -344.43772090167022 -913.22161108927321 0 -913.22161108927321 726.85757394920802 0 0 0 0 -766.97841697530384 -1121.9449721705023 0 -1121.9449721705023 983.92549459286965 0 0 0 0 -725.23182372780866 -1059.0671810379426 0 -1059.0671810379426 672.43082027295895 0 0 0 0 -638.88434134978161 -1188.7511005423148 0 -1188.7511005423148 1015.3861026607556 0 0 0 0 -609.58172178370296 -1378.1900452986101 0 -1378.1900452986101 1374.0227913439157 0 0 0 0 -840.07037661536015 -1026.9564144765318 0 -1026.9564144765318 1354.2794706596324 0 0 0 0 -421.67161136845243 -1286.1645992948033 0 -1286.1645992948033 1231.839879600142 0 0 0 0 -828.0330971203075 -831.70611019644275 0 -831.70611019644275 970.47165167884668 0 0 0 0 -861.07045813857985 -1080.3907624972635 0 -1080.3907624972635 1224.9273029939795 0 0 0 0 -1113.8010307251971 -783.94460936986434 0 -783.94460936986434 1090.8192569570056 0 0 0 0 -1070.9024581364938 -991.15924035401258 0 -991.15924035401258 1410.0166285329615 0 0 0 0 -611.46418263696251 -1737.9891080413072 0 -1737.9891080413072 1301.8288341262232 0 0 0 0 195.8956148632351 -1451.8731046451176 0 -1451.8731046451176 1251.2027454208001 0 0 0 0 -484.75859265543113 -1371.8776245998015 0 -1371.8776245998015 1465.728826524748 0 0 0 0 23.779380393272731 -1827.0969166541763 0 -1827.0969166541763 1573.0635212048073 0 0 0 0 -972.69498365267646 -1054.455292793893 0 -1054.455292793893 57.221176438877592 0 0 0 0 -215.29004545442876 -1222.9497061283328 0 -1222.9497061283328 1342.3793170112185 0 0 0 0 291.95376724272501 -1514.6833893305738 0 -1514.6833893305738 1298.7515462402953 0 0 0 0 229.44615192545461 -1835.5885622844944 0 -1835.5885622844944 1914.2566614763346 0 0 0 0 -380.7852163859643 -1438.8970970786177 0 -1438.8970970786177 1615.1191320180951 0 0 0 0 -156.13939586552442 -1417.1842179015221 0 -1417.1842179015221 1109.59471995887 0 0 0 0 525.65212299791165 -1908.488249203423 0 -1908.488249203423 1401.3496198431531 0 0 0 0 869.2827845919528 -2170.5360767415259 0 -2170.5360767415259 1539.8918652046705 0 0 0 0 -558.45895200886298 -829.76431498077 0 -829.76431498077 233.36925627174787 0 0 0 0 -512.75258199719246 -723.71285066381097 0 -723.71285066381097 295.35618070026976 0 0 0 0 -616.66512798430631 -853.91217807499925 0 -853.91217807499925 306.4218805244891 0 0 0 0 833.32131377887708 -2511.8034688308398 0 -2511.8034688308398 2063.0079863832798 0 0 0 0 -93.068917233967056 -41.608155532241327 0 -41.608155532241327 -1.4336415414282442 0 0 0 0 410.4604601154424 -1560.2850086622639 0 -1560.2850086622639 1608.3326322973589 0 0 0 0 492.23452689978876 -2128.15830487528 0 -2128.15830487528 2115.3427294081775 0 0 0 0 -448.30944289662875 -723.97305939660873 0 -723.97305939660873 183.41166558461555 0 0 0 0 -86.566002290011966 -316.3927279755444 0 -316.3927279755444 119.43859507564412 0 0 0 0 -80.613782983227225 -37.641688468335801 0 -37.641688468335801 -4.9062262361778721 0 0 0 0 -451.87210958462674 -659.73855509460554 0 -659.73855509460554 276.13827064822544 0 0 0 0 -351.86386510991724 -470.31817754395888 0 -470.31817754395888 571.35655758375651 0 0 0 0 -230.31613570319314 -514.08374034619919 0 -514.08374034619919 376.75161848033895 0 0 0 0 29.771059975830212 -1843.7509966514972 0 -1843.7509966514972 2182.7141940164147 0 0 0 0 499.90130457092528 -2270.099571327235 0 -2270.099571327235 1928.8073864588223 0 0 0 0 188.46133479983473 -1024.5811756363728 0 -1024.5811756363728 1770.1738443874638 0 0 0 0 -1204.0469375140383 -304.57594599846925 0 -304.57594599846925 -1382.5517246134405 0 0 0 0 -129.44620934881095 -1944.7012277083486 0 -1944.7012277083486 -2845.7855050457292 0 0 0 0 -877.63656585048739 -1718.983509465972 0 -1718.983509465972 -76.731058031436987 0 0 0 0 -904.98110020186868 -850.05001494802127 0 -850.05001494802127 696.83747780541307 0 0 0 0 -740.60892659127421 -1297.0216550046753 0 -1297.0216550046753 1221.8471046543564 0 0 0 0 -647.57260832588508 -753.67430878048981 0 -753.67430878048981 847.54687686549732 0 0 0 0 -396.82252436182171 -398.0794754804374 0 -398.0794754804374 888.92806583858328 0 0 0 0 -536.71454757293395 -645.47026332945097 0 -645.47026332945097 481.27732349641155 0 0 0 0 -654.43850116216345 -721.80602685759368 0 -721.80602685759368 686.33219388499856 0 0 0 0 -728.64296771505906 -851.56835800809495 0 -851.56835800809495 546.88275379384868 0 0 0 0 -511.93178747284583 -702.03739607569605 0 -702.03739607569605 493.23751578840893 0 0 0 0 -592.59995702758897 -767.70399325754261 0 -767.70399325754261 563.58464072924107 0 0 0 0 -618.86931507732515 -826.21898234733817 0 -826.21898234733817 589.99741343274945 0 0 0 0 -547.9772141719659 -1103.0484498204569 0 -1103.0484498204569 416.13403902400751 0 0 0 0 -693.43280337940087 -1395.3203669018912 0 -1395.3203669018912 419.77836545053287 0 0 0 0 -1071.2933388842794 -1088.1433463065623 0 -1088.1433463065623 604.06473353259207 0 0 0 0 -656.34232043515658 -911.29432639692095 0 -911.29432639692095 551.30312323736871 0 0 0 0 -620.57146675341937 -887.3365549767841 0 -887.3365549767841 424.40440650831442 0 0 0 0 -620.46921497915173 -855.12972385418834 0 -855.12972385418834 452.22161960415542 0 0 0 0 -590.12317206499574 -914.46521417399345 0 -914.46521417399345 -596.79863588942681 0 0 0 0 -925.55199263522809 -1384.6052303256292 0 -1384.6052303256292 206.26517285499722 0 0 0 0 -619.52400624670554 -816.9150221666132 0 -816.9150221666132 185.53295850364157 0 0 0 0 -26.222520352937863 -1836.9039190030453 0 -1836.9039190030453 -784.95517394834314 0 0 0 0 -349.81131538310729 -1526.3645722749789 0 -1526.3645722749789 1074.637979776744 0 0 0 0 -280.99639405071139 -1363.683175056678 0 -1363.683175056678 632.90899682836607 0 0 0 0 -89.319538253045096 -48.43821513908641 0 -48.43821513908641 -5.7928345177164147 0 0 0 0 -88.137171067031147 -50.096959567044792 0 -50.096959567044792 -9.911109706284833 0 0 0 0 -735.93450889327505 -585.45368127439724 0 -585.45368127439724 147.92744403822144 0 0 0 0 -852.37344310989101 -1775.7905413302205 0 -1775.7905413302205 -878.19246032804949 0 0 0 0 -903.23338682466328 -1442.3051536256335 0 -1442.3051536256335 -939.94674519679393 0 0 0 0 -995.02735582984315 -1951.027540870622 0 -1951.027540870622 -1843.1567897948989 0 0 0 0 -884.68320795652107 -1395.5138725928264 0 -1395.5138725928264 -1700.3696219411941 0 0 0 0 -1405.6526337161049 -1925.0669378316234 0 -1925.0669378316234 -1301.4203886037139 0 0 0 0 -869.09359572074027 -1220.1297303113606 0 -1220.1297303113606 -903.75428521975118 0 0 0 0 -1464.2855709414216 -1088.5419139892765 0 -1088.5419139892765 -932.14193918832461 0 0 0 0 -1047.8782763434865 -1416.8471803141001 0 -1416.8471803141001 -1412.3689588686393 0 0 0 0 -1455.0164297196752 -1044.0084317632427 0 -1044.0084317632427 -725.58411258045817 0 0 0 0 -1177.1896389573521 -1191.1669957638078 0 -1191.1669957638078 -684.97532821056666 0 0 0 0 -2320.5719351940206 -1049.8595317423824 0 -1049.8595317423824 -663.26715127335046 0 0 0 0 -5098.8121822376124 -2313.908617746667 0 -2313.908617746667 -1135.8654647248331 0 0 0 0 -3471.1328148845205 -2286.5608079314625 0 -2286.5608079314625 -1250.1607424200338 0 0 0 0 -3998.5630200570304 -2807.1485320803549 0 -2807.1485320803549 -1021.2971087671467 0 0 0 0 -3991.9396031682627 -2685.0374350662605 0 -2685.0374350662605 -1754.7812879671692 0 0 0 0 -682.10136995723587 -136.26457301163464 0 -136.26457301163464 -13.922509818170511 0 0 0 0 -0.3264211249370419 -5.7340496842672337 0 -5.7340496842672337 0.19968358657183671 0 0 0 0 -5521.1510743327526 -1774.8204675590532 0 -1774.8204675590532 -1333.7220806537953 0 0 0 0 -729.07761346830375 -1290.6712737747293 0 -1290.6712737747293 -1729.222767609288 0 0 0 0 -5145.6380310790482 -2424.2834003643948 0 -2424.2834003643948 -862.54450139211258 0 0 0 0 -5686.3303234694322 -2483.8678139556068 0 -2483.8678139556068 -465.58387883933028 0 0 0 0 -4103.269273999249 -3054.8194270841341 0 -3054.8194270841341 -836.61704692669446 0 0 0 0 -1555.9215621566327 -1405.3707408447153 0 -1405.3707408447153 -702.88250852766214 0 0 0 0 -2367.2038194325141 -3232.2823248003842 0 -3232.2823248003842 -1025.6572835349943 0 0 0 0 123.90535278266907 -25.669113055708294 0 -25.669113055708294 455.39299050654517 0 0 0 0 -59.61744050438574 -1673.8033760877297 0 -1673.8033760877297 1003.4102918143908 0 0 0 0 -381.87951176837669 -2899.4113201157743 0 -2899.4113201157743 -228.62919273262742 0 0 0 0 270.19489754761162 -390.73382243271044 0 -390.73382243271044 750.00394476645306 0 0 0 0 -225.48593001137488 -1569.2635614948958 0 -1569.2635614948958 -1299.7991025100346 0 0 0 0 -2572.8719237565601 -2355.8680855355196 0 -2355.8680855355196 -1223.7738854692725 0 0 0 0 -1516.3714072591974 -1868.4500904484739 0 -1868.4500904484739 -1139.8847952241194 0 0 0 0 -1472.6991273237218 -2693.35439748934 0 -2693.35439748934 -1297.1919889350029 0 0 0 0 -2525.389790562127 -2674.74084677668 0 -2674.74084677668 -1555.1577737863845 0 0 0 0 -1155.1514058319299 -2266.6411983616272 0 -2266.6411983616272 -1776.9790806835517 0 0 0 0 -87.913098942765089 -49.576823634722516 0 -49.576823634722516 -11.209881201693463 0 0 0 0 -828.91879427022741 -2158.6306375463464 0 -2158.6306375463464 -1542.2895863952581 0 0 0 0 -1221.031396750157 -2119.9273375319608 0 -2119.9273375319608 -1430.21871780109 0 0 0 0 -1498.255799716906 -2164.3889819438482 0 -2164.3889819438482 -1537.8070720195883 0 0 0 0 -1587.7668406859884 -1971.0634846489775 0 -1971.0634846489775 -1549.3743743594823 0 0 0 0 -74.726096712189729 -54.26047754092437 0 -54.26047754092437 -15.428891217439514 0 0 0 0 -2851.5123216759475 -2737.4964357776789 0 -2737.4964357776789 -1718.2201817659661 0 0 0 0 -2779.7282762246468 -2460.0834015832734 0 -2460.0834015832734 -1238.5606218566099 0 0 0 0 -3.8398232339262819 -29.619465623631697 0 -29.619465623631697 -28.49838263543694 0 0 0 0 -86.382007218737272 -90.598731755817425 0 -90.598731755817425 -69.835839027218753 0 0 0 0 6.7401083422020989 -7.5864503111848478 0 -7.5864503111848478 -44.05486445196766 0 0 0 0 -71.8491173371076 -80.986283247868414 0 -80.986283247868414 -73.210716887318995 0 0 0 0 -85.891708123614535 -78.452735141403082 0 -78.452735141403082 -67.625572966237087 0 0 0 0 -4709.5671891964303 -3266.6047598159494 0 -3266.6047598159494 -1190.0206355885311 0 0 0 0 -166.80132606790721 -74.714291151540237 0 -74.714291151540237 -51.930074225005228 0 0 0 0 12.436826326467113 -15.007582899582673 0 -15.007582899582673 -8.2535782836894214 0 0 0 0 -4282.8574392624432 -2151.3086800135643 0 -2151.3086800135643 -1204.9130701260583 0 0 0 0 4.1848512192864291 -160.61820784086012 0 -160.61820784086012 -16.474618068139534 0 0 0 0 9.1936236981442363 -4.4729197797691711 0 -4.4729197797691711 -31.994503824982985 0 0 0 0 -166.64967527570843 -71.064497983119509 0 -71.064497983119509 -59.842627576985251 0 0 0 0 -1.6954347694753409 1.446621358382373 0 1.446621358382373 2.6401159978850046 0 0 0 0 240.47198169847252 214.01338599275914 0 214.01338599275914 -63.004744808837131 0 0 0 0 -36.462055375322961 -203.8983651627459 0 -203.8983651627459 -160.03782833751757 0 0 0 0 -36.791454593011622 -58.035509736591848 0 -58.035509736591848 -181.52169828498154 0 0 0 0 -14.513003984274974 -65.996456098010583 0 -65.996456098010583 -54.439048368880094 0 0 0 0 37.658047436576553 -76.85459095026286 0 -76.85459095026286 -27.982703347031702 0 0 0 0 -94.195247283238132 -183.48181339241273 0 -183.48181339241273 -52.298303122617654 0 0 0 0 -46.193946773550124 -138.674121207805 0 -138.674121207805 -96.834951004522736 0 0 0 0 -72.250305519264657 -90.982688040821813 0 -90.982688040821813 -73.395312870867201 0 0 0 0 -79.176398356939899 -122.60566840192769 0 -122.60566840192769 -104.18234264504281 0 0 0 0 -17.156363535878 -62.835922900877691 0 -62.835922900877691 -58.139198479719482 0 0 0 0 40.665706353449877 -59.185056989804139 0 -59.185056989804139 -7.4330234048886155 0 0 0 0 -77.59313747132137 -151.76453353556917 0 -151.76453353556917 -88.708633902890142 0 0 0 0 -1148.7047721833078 -1641.3325265963067 0 -1641.3325265963067 -1627.9401371687673 0 0 0 0 -1214.5627635889323 -1830.2911567479023 0 -1830.2911567479023 -2152.7014223564474 0 0 0 0 803.05828023076174 -262.55294946536014 0 -262.55294946536014 -1052.5911914646131 0 0 0 0 -53.104301169063547 -164.17750773380976 0 -164.17750773380976 -82.69257101288531 0 0 0 0 -116.92597141199803 -109.18020099384012 0 -109.18020099384012 -18.380055087298388 0 0 0 0 53.304800033893812 -84.951025467231489 0 -84.951025467231489 -15.239968744337034 0 0 0 0 40.311603419570019 -123.68852728573256 0 -123.68852728573256 -59.680939218553249 0 0 0 0 -191.46521671038863 -208.93756566465891 0 -208.93756566465891 -82.776008289976744 0 0 0 0 -460.0386379743868 -921.25339556417021 0 -921.25339556417021 -319.76689504741807 0 0 0 0 -151.45412446084629 -240.64627329165523 0 -240.64627329165523 -9.4621131281019188 0 0 0 0 69.261661693657274 -64.570660884057475 0 -64.570660884057475 16.74732921625872 0 0 0 0 78.463562388977152 -227.97816454948043 0 -227.97816454948043 -228.55731916670629 0 0 0 0 -99.923395792255178 -60.414571889967192 0 -60.414571889967192 21.304052821145888 0 0 0 0 16.083719425675696 -77.291022628852858 0 -77.291022628852858 71.203199598175019 0 0 0 0 -37.074396037118277 -241.52988841063052 0 -241.52988841063052 -51.849122704123147 0 0 0 0 -191.206087655999 -101.66541565652733 0 -101.66541565652733 54.629168417075562 0 0 0 0 -67.66207855379875 -57.671016173326706 0 -57.671016173326706 97.844886249862299 0 0 0 0 -4.1973035460984249 -34.508808679629823 0 -34.508808679629823 -12.893845773925364 0 0 0 0 -261.77176228858298 -302.43090969292825 0 -302.43090969292825 306.12232562006648 0 0 0 0 -198.76472316781292 -392.09635690736468 0 -392.09635690736468 -80.629861377685302 0 0 0 0 -30.228491470508743 -10.567329280202102 0 -10.567329280202102 230.86749787845292 0 0 0 0 -35.96801114291884 -131.51272207987859 0 -131.51272207987859 -288.09165338210005 0 0 0 0 1.9592669611562883 -2.467978454814812 0 -2.467978454814812 0.64045474244653633 0 0 0 0 -61.653598638993572 -96.180696790368529 0 -96.180696790368529 810.73982095255633 0 0 0 0 -90.099430587964889 -303.93413724298171 0 -303.93413724298171 -310.80399693986692 0 0 0 0 -24.953832811324787 -92.501431906718125 0 -92.501431906718125 68.800088764681703 0 0 0 0 78.195977940507873 -212.5409348632129 0 -212.5409348632129 -285.78491058967484 0 0 0 0 -131.26264726588852 -200.23808012617883 0 -200.23808012617883 -103.15373159333831 0 0 0 0 -103.88335507213196 -152.47117206644907 0 -152.47117206644907 -56.06632799936051 0 0 0 0 -1266.3019531782338 -1727.4260194167091 0 -1727.4260194167091 -2051.7058511951473 0 0 0 0 -1203.2966865335075 -1594.2284588487928 0 -1594.2284588487928 -2185.8275334569335 0 0 0 0 -1303.2460363729333 -1390.8076839187561 0 -1390.8076839187561 -2022.3808540558093 0 0 0 0 -1311.4149198495725 -1744.0463675797873 0 -1744.0463675797873 -1376.4712913785042 0 0 0 0 -1260.3235384058662 -1701.782425640682 0 -1701.782425640682 -2186.4262265311554 0 0 0 0 -1459.8270857579628 -1515.142743544573 0 -1515.142743544573 -2279.32210503018 0 0 0 0 -1726.2263907041997 -1898.8833481252004 0 -1898.8833481252004 -2126.3130085179 0 0 0 0 -2351.5664638815724 -2962.6573616512433 0 -2962.6573616512433 -2960.1410939413909 0 0 0 0 -1674.5706432785373 -1970.5710521230649 0 -1970.5710521230649 -2030.3520737243925 0 0 0 0 -1830.0921551959764 -1796.5175426514907 0 -1796.5175426514907 -1640.5783653117887 0 0 0 0 -1079.4746874675911 -1756.4202135965243 0 -1756.4202135965243 -2993.0848646033119 0 0 0 0 -1706.2504213733191 -1815.9377387628629 0 -1815.9377387628629 -1785.8029588228674 0 0 0 0 -3687.1295159984438 -3191.9409832951496 0 -3191.9409832951496 -1903.3650891294383 0 0 0 0 3.5558129219324712 -3.9806490486072335 0 -3.9806490486072335 -17.814214982749149 0 0 0 0 1205.5933582015132 603.96072823822396 0 603.96072823822396 -410.02979997103103 0 0 0 0 560.22976229128835 -28.418283869985316 0 -28.418283869985316 -332.56900532657164 0 0 0 0 -296.567618255458 -93.909872994012403 0 -93.909872994012403 274.26645959942834 0 0 0 0 22.136321999816573 -310.82187027097098 0 -310.82187027097098 -92.918285676139931 0 0 0 0 76.138690316319156 -87.778650899858889 0 -87.778650899858889 18.786113667176892 0 0 0 0 -181.76933162778005 -249.20594221755164 0 -249.20594221755164 -22.895117640320677 0 0 0 0 -3253.0354716489383 -1555.4117375102069 0 -1555.4117375102069 -639.02518094825791 0 0 0 0 2.8685350596574892 -4.5166195681629944 0 -4.5166195681629944 -11.969822290434934 0 0 0 0 -188.89580918218417 -639.90478971951234 0 -639.90478971951234 -1967.4842366182711 0 0 0 0 7.8678952934841675 -10.736651287831933 0 -10.736651287831933 -37.408936401321796 0 0 0 0 -2811.5663941771345 -2136.6508702887804 0 -2136.6508702887804 -655.15769871704106 0 0 0 0 -2755.3303650806483 -1887.5086987299146 0 -1887.5086987299146 -2028.0192034103711 0 0 0 0 -1459.2319983168563 -1724.6389849351399 0 -1724.6389849351399 -2218.9036347381916 0 0 0 0 -1773.3562249818206 -1324.5416752579185 0 -1324.5416752579185 -2450.0663409934496 0 0 0 0 -1804.2685804177599 -2017.7445294722565 0 -2017.7445294722565 -2332.8012860908639 0 0 0 0 -2067.2873511643265 -609.78041885108541 0 -609.78041885108541 -34.55361246882967 0 0 0 0 -1145.5280689691135 -1476.4669593508297 0 -1476.4669593508297 -1437.1506892179641 0 0 0 0 -1555.3603651184385 -1526.630324536236 0 -1526.630324536236 -1418.3131595940504 0 0 0 0 -1301.3632847325935 -1593.4578170660025 0 -1593.4578170660025 -1150.5368352698279 0 0 0 0 -941.50620623034774 -1454.1286290562421 0 -1454.1286290562421 -1607.6174703574216 0 0 0 0 -1141.329310296609 -1843.9653803091987 0 -1843.9653803091987 -2049.6702863608662 0 0 0 0 -1217.3074420077173 -1851.9291838585195 0 -1851.9291838585195 -2006.5322484670614 0 0 0 0 -1245.1219669403508 -1595.1560110611535 0 -1595.1560110611535 -2166.9890496877633 0 0 0 0 -345.61230815260933 -1085.3702123388684 0 -1085.3702123388684 274.80817261456104 0 0 0 0 -597.93153557732876 -578.49717697037704 0 -578.49717697037704 -59.92501921330404 0 0 0 0 -776.02114786373568 -990.92963524022343 0 -990.92963524022343 -720.82338724662259 0 0 0 0 -835.51395974964908 -1572.266907522122 0 -1572.266907522122 -1351.6965322977339 0 0 0 0 -634.60736242164785 -953.90912138466592 0 -953.90912138466592 -833.41072273033205 0 0 0 0 -619.26149464820628 -416.3543859833444 0 -416.3543859833444 -405.80783103879367 0 0 0 0 -1141.0029295100612 -349.06375131637469 0 -349.06375131637469 -74.652740411664126 0 0 0 0 6.0340820527138419 -15.440461483258133 0 -15.440461483258133 -10.206469791216705 0 0 0 0 -547.52403354125272 -371.8601389729738 0 -371.8601389729738 -205.08868511680339 0 0 0 0 1.857719413598204 -1.4996675415040386 0 -1.4996675415040386 -7.1031487685146999 0 0 0 0 -520.91431929729879 -494.86418461447465 0 -494.86418461447465 -393.17481049962225 0 0 0 0 79.174018954254279 -432.78571778617516 0 -432.78571778617516 -129.07748182067007 0 0 0 0 -37.189645398953701 -8.6946466498815766 0 -8.6946466498815766 9.2433298316911987 0 0 0 0 -42.226083924542763 -30.943414927976846 0 -30.943414927976846 8.8710139477625489 0 0 0 0 -70.057723650126718 88.699968939705286 0 88.699968939705286 168.02270990627585 0 0 0 0 -486.60062596516218 4.3485151232307544 0 4.3485151232307544 346.64863048343977 0 0 0 0 26.408307633653408 -92.753443243837722 0 -92.753443243837722 134.04310797098424 0 0 0 0 9.6051807228169537 -25.565094285240264 0 -25.565094285240264 -13.32869483721629 0 0 0 0 221.71956562949345 -140.22376112408529 0 -140.22376112408529 -83.035448702401482 0 0 0 0 14.466859399806708 -67.509833158874244 0 -67.509833158874244 -13.623608397232601 0 0 0 0 11.907691022466395 -33.404960803612752 0 -33.404960803612752 -47.404523722320562 0 0 0 0 -100.31353871166357 -123.52874397754204 0 -123.52874397754204 -12.822354513627943 0 0 0 0 52.196433117227073 -180.46877672803936 0 -180.46877672803936 81.685128448197645 0 0 0 0 59.395930150712957 -442.6824634857694 0 -442.6824634857694 -58.962943756358072 0 0 0 0 -12.647824541263589 -126.72045645262537 0 -126.72045645262537 27.66342957129342 0 0 0 0 -15.784777993421358 -70.206426753745973 0 -70.206426753745973 84.824627683501092 0 0 0 0 -26.334793711844725 -106.35285637474146 0 -106.35285637474146 53.524016565355225 0 0 0 0 -152.88133417328936 -147.8991217361181 0 -147.8991217361181 -0.21193178223620635 0 0 0 0 -276.66918889351655 -22.662868744017032 0 -22.662868744017032 126.24844929076789 0 0 0 0 -81.184982699458487 -220.2766337670364 0 -220.2766337670364 69.504459368588869 0 0 0 0 3.5801976336972956 -71.062447042634773 0 -71.062447042634773 -58.714705573963045 0 0 0 0 -274.64522117763408 -42.615950672821782 0 -42.615950672821782 239.16111626230122 0 0 0 0 -197.93262562887685 -195.0572379319201 0 -195.0572379319201 -42.508678917190991 0 0 0 0 -143.79132013486378 -126.94324070619768 0 -126.94324070619768 90.893330071790842 0 0 0 0 479.88081761397916 -206.51639796964082 0 -206.51639796964082 -72.576325648042257 0 0 0 0 -17.302027172119992 -30.314575857781882 0 -30.314575857781882 -51.166974867318686 0 0 0 0 -120.07145991907964 84.717170264862943 0 84.717170264862943 -68.107959982793545 0 0 0 0 633.95010179933161 -712.22078084827081 0 -712.22078084827081 554.02940375884646 0 0 0 0 257.58017439396644 26.141844097488502 0 26.141844097488502 252.16565634249491 0 0 0 0 475.39547316373501 -552.79406563311113 0 -552.79406563311113 -227.51263422358898 0 0 0 0 -424.95632755021506 546.92775315658946 0 546.92775315658946 988.65342830542068 0 0 0 0 178.95496886956971 -47.808424752915016 0 -47.808424752915016 -63.56654579701717 0 0 0 0 30.723925437758993 -56.247564334016602 0 -56.247564334016602 103.10227918285923 0 0 0 0 -642.49916593058879 -672.60929858942109 0 -672.60929858942109 1.1072771312465193 0 0 0 0 -616.75505167077063 -753.75764251606597 0 -753.75764251606597 438.741164314044 0 0 0 0 178.54401116946246 -90.869658892377629 0 -90.869658892377629 -101.00929823228216 0 0 0 0 31.182316941249155 198.26079084198318 0 198.26079084198318 1145.0638558734208 0 0 0 0 472.56353392728488 -441.37337056806427 0 -441.37337056806427 555.44397009741806 0 0 0 0 -268.49621252807992 -94.194257297054719 0 -94.194257297054719 475.02508758343174 0 0 0 0 1014.6157432705513 -391.44030612062488 0 -391.44030612062488 -331.86990653438988 0 0 0 0 4297.2359727865696 -2022.6537122463778 0 -2022.6537122463778 215.86927595058296 0 0 0 0 12.077201978338252 -21.269235625373653 0 -21.269235625373653 40.60490945262984 0 0 0 0 2037.6913262375165 -1582.8159092339556 0 -1582.8159092339556 355.56584300196846 0 0 0 0 817.86854238752858 -2468.9001250547153 0 -2468.9001250547153 1620.1603954096681 0 0 0 0 743.48274462559493 -2620.4247790493755 0 -2620.4247790493755 1613.7598134793807 0 0 0 0 297.3837281508313 -815.60804835362069 0 -815.60804835362069 358.29507046716753 0 0 0 0 206.71718419299577 -959.41941556030361 0 -959.41941556030361 707.51682259918016 0 0 0 0 -111.84113919154879 21.663182051153854 0 21.663182051153854 218.25827016516996 0 0 0 0 -116.24461886712379 4.5693046541837248 0 4.5693046541837248 172.06393278337782 0 0 0 0 -122.92282262863591 -44.879263250179065 0 -44.879263250179065 111.22528884379426 0 0 0 0 -39.3020668666868 -4.6373456695000641 0 -4.6373456695000641 133.26922810142423 0 0 0 0 -46.669566882075742 22.414196599915158 0 22.414196599915158 113.32257804782421 0 0 0 0 64.043580098346865 -5.5773287755182537 0 -5.5773287755182537 71.774329860025318 0 0 0 0 8.1886838743484986 -51.303460836459635 0 -51.303460836459635 73.159516637635534 0 0 0 0 -42.255338730406947 16.975927579122072 0 16.975927579122072 227.96975914546056 0 0 0 0 24.407915672200033 2.7209428059286438 0 2.7209428059286438 225.67277362946515 0 0 0 0 -12.084646723342303 -224.9351249556421 0 -224.9351249556421 638.49507386314508 0 0 0 0 -69.441808958166803 6.4027833238942549 0 6.4027833238942549 357.04571651419974 0 0 0 0 114.27464217567467 -169.61818796491934 0 -169.61818796491934 254.36921776364034 0 0 0 0 -11.858870308016776 -33.439339006334194 0 -33.439339006334194 386.18220081919571 0 0 0 0 -11.87029686634196 -41.663987904976238 0 -41.663987904976238 379.52540028924705 0 0 0 0 -71.635082452150527 -29.80737176999537 0 -29.80737176999537 218.02036734380732 0 0 0 0 -124.59937666623591 29.584946810464317 0 29.584946810464317 202.51432323864719 0 0 0 0 -183.24245582064759 -151.27858254056628 0 -151.27858254056628 180.83240101426782 0 0 0 0 -307.9556494338176 -190.10882225488967 0 -190.10882225488967 63.2418996738852 0 0 0 0 -153.39787676771812 -13.415199984898209 0 -13.415199984898209 24.081162593447516 0 0 0 0 -190.72976202372956 -15.361780725950666 0 -15.361780725950666 227.63416044310725 0 0 0 0 -184.41238502809938 -19.585739372672833 0 -19.585739372672833 -6.7042502941476414 0 0 0 0 -283.37313576932866 -2.9439965790515998 0 -2.9439965790515998 314.60037396989355 0 0 0 0 -4.061008492747618 2.6760434666837511 0 2.6760434666837511 7.8000105466371679 0 0 0 0 565.73215415718732 -230.11681654812855 0 -230.11681654812855 13.004441821227374 0 0 0 0 -66.96928530106743 -299.13175402224806 0 -299.13175402224806 472.70306711480953 0 0 0 0 496.04459349846729 -177.28065373808931 0 -177.28065373808931 99.126803372593713 0 0 0 0 58.776204200286884 117.84611979055626 0 117.84611979055626 386.32115089386571 0 0 0 0 -139.20771324739326 -3.9707321028108709 0 -3.9707321028108709 224.88558281877704 0 0 0 0 -43.674713628744939 -227.82392736873589 0 -227.82392736873589 389.88705602426489 0 0 0 0 -212.33997370279394 -44.275700594043883 0 -44.275700594043883 211.34208158265392 0 0 0 0 -94.347760635384475 -103.56435216257523 0 -103.56435216257523 231.70403555855592 0 0 0 0 -45.087066110150772 -47.614112648632727 0 -47.614112648632727 7.7745844485507405 0 0 0 0 101.83570047460671 -134.12459034765197 0 -134.12459034765197 33.436112676907214 0 0 0 0 4.1571205834261491 -78.767530787219584 0 -78.767530787219584 -18.088841549368226 0 0 0 0 163.69607255341543 4.9395307156737545 0 4.9395307156737545 -108.49260324371426 0 0 0 0 14.492046295141336 -100.3236479908519 0 -100.3236479908519 88.623973651969209 0 0 0 0 45.633639495012176 -44.380525183758436 0 -44.380525183758436 -62.922110162675381 0 0 0 0 -35.375271449607681 -1.8430898682709085 0 -1.8430898682709085 -82.541463345092779 0 0 0 0 -74.715244379331125 -64.686619015490578 0 -64.686619015490578 -18.298838125883776 0 0 0 0 -11.604415083435015 -21.51218272177357 0 -21.51218272177357 -85.177850738080451 0 0 0 0 -467.43342780887906 -809.39612470148131 0 -809.39612470148131 -586.59821124363225 0 0 0 0 -30.874387093950645 -113.8223114851171 0 -113.8223114851171 -37.941162926363177 0 0 0 0 -15.840410669349808 -5.9372130627974684 0 -5.9372130627974684 15.68748868610993 0 0 0 0 -323.37159407864965 -398.94015333447896 0 -398.94015333447896 -596.7344643785691 0 0 0 0 -742.90826906881557 -513.02830153765535 0 -513.02830153765535 -482.21310801195796 0 0 0 0 -56.691908361455717 -9.2022393199731596 0 -9.2022393199731596 -47.503681746558868 0 0 0 0 -93.414530381967779 11.661939808618627 0 11.661939808618627 111.72971460436202 0 0 0 0 -54.817682431530557 -68.458211461620522 0 -68.458211461620522 119.38518409974495 0 0 0 0 -41.395494357333519 -52.129748085266328 0 -52.129748085266328 79.746149879749282 0 0 0 0 -438.06539526981942 -1019.8671515432361 0 -1019.8671515432361 -916.563676125028 0 0 0 0 -4.6394994079999492 -9.729392941972236 0 -9.729392941972236 14.725446866235103 0 0 0 0 -371.91053786996054 -504.50252374383854 0 -504.50252374383854 -1230.2129858160552 0 0 0 0 -394.17682347944447 -44.215653923597529 0 -44.215653923597529 -18.671553583058994 0 0 0 0 -421.17651390295123 -347.11145021854554 0 -347.11145021854554 -345.38425322664261 0 0 0 0 -585.75657060768572 -237.33685847096785 0 -237.33685847096785 -653.72156540627475 0 0 0 0 -482.74676018420723 -413.29014504836232 0 -413.29014504836232 -454.77606716359151 0 0 0 0 -361.47565680067055 -54.035338254921953 0 -54.035338254921953 -136.85637308478181 0 0 0 0 -77.146526434327825 150.35383728526358 0 150.35383728526358 15.658424523629947 0 0 0 0 -614.36881509791419 -536.8206133117128 0 -536.8206133117128 417.326278561246 0 0 0 0 4.7981049333962886 1.559409747190351 0 1.559409747190351 -4.1865951741833669 0 0 0 0 103.56338210136164 291.58498935238458 0 291.58498935238458 770.43018149223644 0 0 0 0 -2.2579305851619438 -15.774501246730011 0 -15.774501246730011 5.6249209091146213 0 0 0 0 1366.0056893341534 1079.3841191991523 0 1079.3841191991523 843.2830758393975 0 0 0 0 -262.07590798425372 -33.758643732449855 0 -33.758643732449855 1105.5699459465141 0 0 0 0 -104.53770504699787 46.302824509766651 0 46.302824509766651 713.02254920578707 0 0 0 0 -221.2299187501194 -341.1485261884809 0 -341.1485261884809 772.68209276612833 0 0 0 0 2669.092151121702 1269.3706308760302 0 1269.3706308760302 431.03010103340057 0 0 0 0 824.36974169377936 -1530.5953313685313 0 -1530.5953313685313 -297.316089566968 0 0 0 0 1886.2312975140667 858.40124452467717 0 858.40124452467717 402.82421617949149 0 0 0 0 405.68336796849326 -555.36727956237155 0 -555.36727956237155 -181.48454778031373 0 0 0 0 2211.2188714873046 -7.1839049905538559 0 -7.1839049905538559 -222.52348028463894 0 0 0 0 692.27776283537241 257.43827507382957 0 257.43827507382957 213.50448057067115 0 0 0 0 1251.9791242081556 208.27002928205184 0 208.27002928205184 -202.02596012948197 0 0 0 0 887.26691544386995 642.5368158882884 0 642.5368158882884 806.76433572548558 0 0 0 0 599.9815698970051 227.68348081415388 0 227.68348081415388 -190.93961331013998 0 0 0 0 994.43057706861873 95.018327090630919 0 95.018327090630919 -408.50606573704863 0 0 0 0 840.50607930088881 234.0672005348606 0 234.0672005348606 -101.0412027596758 0 0 0 0 313.40209976768529 -337.02697038713814 0 -337.02697038713814 -805.01732957208878 0 0 0 0 217.22212580816995 -131.65544424185646 0 -131.65544424185646 -356.91877956739336 0 0 0 0 -849.37686949754425 -960.1745752583447 0 -960.1745752583447 -508.2232340243354 0 0 0 0 -559.84316615964053 -395.52273404919833 0 -395.52273404919833 -295.44164357752015 0 0 0 0 -766.05899912040331 -302.7846605198356 0 -302.7846605198356 -416.08025388380338 0 0 0 0 -282.31907294769189 -628.97216252438375 0 -628.97216252438375 -356.16941598551239 0 0 0 0 244.23990015775053 -331.45895043132987 0 -331.45895043132987 -345.59676673945796 0 0 0 0 47.617940970580094 69.53284803351562 0 69.53284803351562 179.39501748868497 0 0 0 0 -215.96226088698313 -114.02115939257783 0 -114.02115939257783 -826.58452008756285 0 0 0 0 73.23592758999439 -631.01282434606401 0 -631.01282434606401 -472.90331034172777 0 0 0 0 -0.65125536096743986 -5.1456642679408446 0 -5.1456642679408446 6.8142789400052095 0 0 0 0 -311.53350896941993 -686.11538539351022 0 -686.11538539351022 -95.473350416810717 0 0 0 0 29.55268846310355 -930.11440127519745 0 -930.11440127519745 -1135.1191210059715 0 0 0 0 -50.98795500232518 85.791065737736062 0 85.791065737736062 965.54909658896213 0 0 0 0 -9.6600806155765895 -505.84268455666461 0 -505.84268455666461 767.98833670208114 0 0 0 0 379.19847465665953 -672.67578157318349 0 -672.67578157318349 140.56434165267274 0 0 0 0 10.901641872813343 56.666032509867364 0 56.666032509867364 394.64022952318192 0 0 0 0 -20.761754089879105 -97.836284546137904 0 -97.836284546137904 623.55948998655367 0 0 0 0 -19.465315496378025 -19.87792177267329 0 -19.87792177267329 30.215467449117568 0 0 0 0 -28.747634674946312 -41.372877107016393 0 -41.372877107016393 -4.3698182131261092 0 0 0 0 -58.807414213319134 -77.539014162946842 0 -77.539014162946842 66.189132695406443 0 0 0 0 -70.038570112970774 -109.31503381505172 0 -109.31503381505172 -7.162148760070977 0 0 0 0 -191.43705020948255 10.980232985399198 0 10.980232985399198 117.00382563989479 0 0 0 0 -130.49853960455221 -20.479988182036323 0 -20.479988182036323 -34.259661580494139 0 0 0 0 -99.322724036188447 168.95080495418733 0 168.95080495418733 282.13342349271988 0 0 0 0 -153.61768044007476 -263.32827836171782 0 -263.32827836171782 497.00707540698204 0 0 0 0 -253.95048363445676 -440.36643801162427 0 -440.36643801162427 239.32531462941552 0 0 0 0 -168.47972599448985 -178.22771864089191 0 -178.22771864089191 19.129267331620213 0 0 0 0 22.532436780043561 -35.203172147642718 0 -35.203172147642718 6.8685956654497318 0 0 0 0 208.11129217804773 -491.71441659778793 0 -491.71441659778793 -356.33503391974955 0 0 0 0 283.94478338689805 -236.86357080463495 0 -236.86357080463495 -110.9751017255694 0 0 0 0 -119.38429506859211 -66.50763342344726 0 -66.50763342344726 28.145198752346914 0 0 0 0 -20.613346727179305 -41.585170170321362 0 -41.585170170321362 -15.045511132557294 0 0 0 0 18.645309046179648 -31.097498742984314 0 -31.097498742984314 -8.0304880226555611 0 0 0 0 -31.687150001076148 -12.509258518924156 0 -12.509258518924156 22.954030792592334 0 0 0 0 -89.425340971247351 -39.315573215983022 0 -39.315573215983022 11.899845034102327 0 0 0 0 685.98675619281858 200.25702629935404 0 200.25702629935404 -251.11487794246932 0 0 0 0 -136.52874853249523 -158.26344724892988 0 -158.26344724892988 -183.35345657573635 0 0 0 0 -284.88370289878367 -394.33481102797668 0 -394.33481102797668 -145.91201909260417 0 0 0 0 -1.2566570588037536 -3.7021318034171031 0 -3.7021318034171031 -1.9747506716795442 0 0 0 0 -253.83808785355359 -332.77252915954159 0 -332.77252915954159 178.35674871168885 0 0 0 0 -212.9584297088004 -324.17989301432681 0 -324.17989301432681 -70.163096168093034 0 0 0 0 -254.31988413237559 -270.33469393344421 0 -270.33469393344421 120.10404072424717 0 0 0 0 -260.67571669211611 -142.75705887028016 0 -142.75705887028016 92.909627494896995 0 0 0 0 -228.65036755963229 -14.179996810562443 0 -14.179996810562443 50.485507547564339 0 0 0 0 -304.74858245620271 97.828506347024813 0 97.828506347024813 48.161445867619477 0 0 0 0 -253.7447158272189 -181.58638970474203 0 -181.58638970474203 264.65166637563379 0 0 0 0 -315.98828242573654 -306.30993559793569 0 -306.30993559793569 450.43029117022525 0 0 0 0 -286.10864829126513 -183.61901651942753 0 -183.61901651942753 266.23085921471647 0 0 0 0 -286.10876086014645 -195.99525436593729 0 -195.99525436593729 621.74637926579453 0 0 0 0 -85.015160648094025 -86.25212287530303 0 -86.25212287530303 308.29361127968878 0 0 0 0 -219.42211255608709 -186.08230038006695 0 -186.08230038006695 256.82718969520647 0 0 0 0 -559.8192384953436 2.1953632146178279 0 2.1953632146178279 274.28070481086615 0 0 0 0 -435.79173122316752 -208.94974119806648 0 -208.94974119806648 -12.033386445051292 0 0 0 0 -227.03363785206602 -274.33340114682505 0 -274.33340114682505 -8.6433644771313993 0 0 0 0 -321.08131961986783 -245.59038784543009 0 -245.59038784543009 119.97006898827385 0 0 0 0 -305.54403535052552 -356.62714362563565 0 -356.62714362563565 82.956100441602757 0 0 0 0 -197.51542905184033 -238.80444870602514 0 -238.80444870602514 115.69502190386993 0 0 0 0 -180.49513918290904 -142.7363441431371 0 -142.7363441431371 205.74427346605808 0 0 0 0 -331.04804964786308 -253.99196345386736 0 -253.99196345386736 166.84988031029206 0 0 0 0 -235.41016693020356 -142.96481990376924 0 -142.96481990376924 247.3551911712857 0 0 0 0 -219.92176611865216 -110.12155961675307 0 -110.12155961675307 136.88057352791657 0 0 0 0 -345.8282967996638 -354.84056107490323 0 -354.84056107490323 -9.9330151356989518 0 0 0 0 -384.54227716977766 -153.2946631382365 0 -153.2946631382365 358.86051635792683 0 0 0 0 -137.84780237666564 -14.033165677406942 0 -14.033165677406942 203.34006499786483 0 0 0 0 -178.96828716234086 -50.3431407731332 0 -50.3431407731332 616.48925390014483 0 0 0 0 321.19343722281883 213.89006018036162 0 213.89006018036162 -450.93109138918226 0 0 0 0 571.84758291471371 -267.47509985697252 0 -267.47509985697252 130.76238642403041 0 0 0 0 523.98515080742209 710.46694887207286 0 710.46694887207286 132.1349895777239 0 0 0 0 -271.29133961312618 93.909888101487013 0 93.909888101487013 110.73546300205635 0 0 0 0 150.20427402338828 50.647793089417974 0 50.647793089417974 -87.021026534959674 0 0 0 0 179.78590788052315 499.13462436935515 0 499.13462436935515 -86.582430474227294 0 0 0 0 -83.650935310764908 104.06514210124442 0 104.06514210124442 -280.79989156284137 0 0 0 0 -263.15100917429299 336.69413577180967 0 336.69413577180967 411.70244524034206 0 0 0 0 -411.24336789397057 -297.28672109477338 0 -297.28672109477338 -332.28877737486255 0 0 0 0 -262.16339041777974 205.92545252280252 0 205.92545252280252 -311.79967751307413 0 0 0 0 -237.57348915256443 -201.56843596164254 0 -201.56843596164254 3.7694827519590035 0 0 0 0 -222.88963344743388 -144.27907524706097 0 -144.27907524706097 -262.51080902421381 0 0 0 0 -636.52364425937594 -435.48859683859337 0 -435.48859683859337 -301.85885699358187 0 0 0 0 -561.51415007330797 32.274631589825731 0 32.274631589825731 -49.995764035586035 0 0 0 0 -386.24629043338064 -52.441833675169619 0 -52.441833675169619 -28.153081139142159 0 0 0 0 -498.55402015033178 30.099204802878376 0 30.099204802878376 -438.29723871493479 0 0 0 0 -865.95099476646283 -91.659261098800926 0 -91.659261098800926 -433.92018298055609 0 0 0 0 -10.233970054748085 -25.941318001061418 0 -25.941318001061418 29.774466708503127 0 0 0 0 -690.46483105206426 -765.8225127338228 0 -765.8225127338228 -571.86385141321807 0 0 0 0 -225.87241375011581 -164.84278798166633 0 -164.84278798166633 -362.60186292786966 0 0 0 0 -1164.3873625345586 -284.80197358931764 0 -284.80197358931764 -336.87659000785789 0 0 0 0 -245.6051948728782 -650.70471088858903 0 -650.70471088858903 -669.38584394477948 0 0 0 0 -77.783237301788176 -334.881762540419 0 -334.881762540419 -70.870702509011608 0 0 0 0 -604.02613453440063 -230.40533746354049 0 -230.40533746354049 -15.209349000302609 0 0 0 0 -1952.0231515482446 -1414.408241213896 0 -1414.408241213896 -1344.7359603242548 0 0 0 0 -1348.3626548583525 -1255.7418680842748 0 -1255.7418680842748 -1462.9875819842946 0 0 0 0 -2484.2896493434464 -1831.033936207843 0 -1831.033936207843 -1265.2514004965924 0 0 0 0 -22.358461313701682 -7.7886160916165998 0 -7.7886160916165998 31.625393100093305 0 0 0 0 -697.68604975693597 -581.48895080959846 0 -581.48895080959846 350.71772526847417 0 0 0 0 -130.97393807483968 598.28147868581436 0 598.28147868581436 625.43691951637811 0 0 0 0 -2284.3643696040203 -2567.2084624757254 0 -2567.2084624757254 -1732.0612007625932 0 0 0 0 -538.10379547013872 -496.57244122360134 0 -496.57244122360134 -144.6467717284977 0 0 0 0 191.07703214956473 -331.11821532504291 0 -331.11821532504291 -622.04893696480576 0 0 0 0 24.552590379070857 -55.610117680209946 0 -55.610117680209946 128.37961828841568 0 0 0 0 -196.25247521479469 630.51142780955706 0 630.51142780955706 768.52078362970497 0 0 0 0 -619.70511795586935 -323.42832303715113 0 -323.42832303715113 1498.3430100732512 0 0 0 0 18.394683556855028 -31.334103709938269 0 -31.334103709938269 -10.055492503480792 0 0 0 0 -953.74479970138054 -167.36856891636126 0 -167.36856891636126 1210.3139145652531 0 0 0 0 -9.9119999103690049 -2.8608311465815532 0 -2.8608311465815532 11.165797053627088 0 0 0 0 -17.707104571787568 803.92512332615479 0 803.92512332615479 1246.98298551685 0 0 0 0 -1699.3659524087402 -2340.0554514495757 0 -2340.0554514495757 -2133.6558872146416 0 0 0 0 -450.9572271464458 -649.78136990733037 0 -649.78136990733037 460.73067964842994 0 0 0 0 -500.95273302749501 -317.77410500026053 0 -317.77410500026053 -29.132405691270833 0 0 0 0 -555.4816940187593 -181.48340177840146 0 -181.48340177840146 -45.339074868410535 0 0 0 0 1033.9762298482719 -350.25368596530461 0 -350.25368596530461 -1373.3985309524724 0 0 0 0 -1117.5320826013976 -539.2170509030766 0 -539.2170509030766 776.87140332029958 0 0 0 0 9.9254297903660422 -43.928982512127845 0 -43.928982512127845 129.4934415873719 0 0 0 0 -1125.0877155544131 215.43533080484076 0 215.43533080484076 -164.63260923956841 0 0 0 0 -390.76739710689799 -1259.4775007555436 0 -1259.4775007555436 643.29269187853788 0 0 0 0 -154.57498409149775 -1379.1907984156933 0 -1379.1907984156933 -542.07321132655488 0 0 0 0 -25.422710837075101 -2000.0456123445729 0 -2000.0456123445729 -692.28444051140104 0 0 0 0 -2154.2644290041553 -901.49764983069326 0 -901.49764983069326 2914.1133301712107 0 0 0 0 -2181.1452261921095 2933.9936285192489 0 2933.9936285192489 -2754.3170199421002 0 0 0 0 -1177.5716202076869 535.44029495565337 0 535.44029495565337 258.11329630935506 0 0 0 0 -357.7816215922212 -226.12592778294857 0 -226.12592778294857 -76.097732223507592 0 0 0 0 -308.12848047664011 -358.55233762280841 0 -358.55233762280841 -64.928600146864483 0 0 0 0 23.149058350001724 -76.952558731194586 0 -76.952558731194586 25.157919807854341 0 0 0 0 -50.856880207682863 -21.153413875500767 0 -21.153413875500767 37.149415589074465 0 0 0 0 -28.997563207452004 -31.846482534558163 0 -31.846482534558163 49.458261751322425 0 0 0 0 -1208.8292353117722 -182.78036671207519 0 -182.78036671207519 -524.60273514455184 0 0 0 0 9.4749168104026467 -518.00199414242525 0 -518.00199414242525 -2063.5510578466565 0 0 0 0 -1267.7353887328645 20.436717920354567 0 20.436717920354567 -847.6713296478265 0 0 0 0 -986.77278584970918 -308.32311712723458 0 -308.32311712723458 -473.2114250556333 0 0 0 0 -29.109006324404461 10.08867090881219 0 10.08867090881219 7.1270704586611231 0 0 0 0 -194.23904684775334 189.31511016005243 0 189.31511016005243 -88.41114403528627 0 0 0 0 -10.510624828051959 56.502266403582325 0 56.502266403582325 -59.388108445768012 0 0 0 0 133.64796653510712 -1593.6953548965976 0 -1593.6953548965976 -1553.9036238827684 0 0 0 0 -1139.0145605714351 313.50556365345255 0 313.50556365345255 -1462.0511349322624 0 0 0 0 -582.65130519229206 142.4941947461557 0 142.4941947461557 -1783.8636535843834 0 0 0 0 -901.62577352534572 -93.647091835911851 0 -93.647091835911851 -764.06202355062123 0 0 0 0 -850.46583801982342 -64.482138852239586 0 -64.482138852239586 -763.81493450375274 0 0 0 0 -365.51476804299455 -112.50190432119416 0 -112.50190432119416 -1115.9841209021979 0 0 0 0 -363.9028523263496 -92.039305794725806 0 -92.039305794725806 -911.60283945087576 0 0 0 0 -159.44932276886539 -348.32827489380725 0 -348.32827489380725 -1490.0399582806276 0 0 0 0 -382.06696399976363 -270.97804601738153 0 -270.97804601738153 -972.60478124860674 0 0 0 0 -381.47981474967673 -282.02409430136322 0 -282.02409430136322 -1061.6556731430028 0 0 0 0 -662.69538289698539 321.19422298899735 0 321.19422298899735 -1904.6711030785227 0 0 0 0 15.063519380404614 -1240.2069691857905 0 -1240.2069691857905 -760.13473804856767 0 0 0 0 -284.68563127421658 -318.804223723826 0 -318.804223723826 149.17484789763694 0 0 0 0 -224.04953488486353 -309.77159368491266 0 -309.77159368491266 -40.302544764330378 0 0 0 0 -183.20917865525007 -361.07861424679868 0 -361.07861424679868 -824.75639890879393 0 0 0 0 -184.00740447911085 -452.74782768997829 0 -452.74782768997829 -714.05251221067738 0 0 0 0 42.83358748946921 -974.72483536694199 0 -974.72483536694199 -1589.4290431675799 0 0 0 0 -23.630419134387921 -1077.3578186628001 0 -1077.3578186628001 -1115.4691591332667 0 0 0 0 -182.94767937903816 -1267.9376577522198 0 -1267.9376577522198 -232.79263943796104 0 0 0 0 -23.391852310509421 -1054.1249454533681 0 -1054.1249454533681 -516.42153808250441 0 0 0 0 -283.13379194598383 105.59337323563523 0 105.59337323563523 129.07009542502783 0 0 0 0 -457.53231735189001 372.58546662403387 0 372.58546662403387 -107.05359776203113 0 0 0 0 -625.70327530082795 15.810748496405722 0 15.810748496405722 729.33441696809314 0 0 0 0 -352.15808503076369 150.5564748395991 0 150.5564748395991 115.52963321362404 0 0 0 0 -216.37297234951166 -51.241201691460446 0 -51.241201691460446 305.07863223832101 0 0 0 0 20.755195406365431 -88.113306319351977 0 -88.113306319351977 47.291431461344473 0 0 0 0 -141.62034950519569 -10.21539477512124 0 -10.21539477512124 109.14981824657298 0 0 0 0 32.423142478614977 -113.33546879102869 0 -113.33546879102869 170.23355485810316 0 0 0 0 -20.293393630510593 -285.70644501631614 0 -285.70644501631614 157.21177905407967 0 0 0 0 -83.981929877899461 -220.94246351999755 0 -220.94246351999755 182.15897055858659 0 0 0 0 -171.00768067887111 -197.31134109415143 0 -197.31134109415143 175.75141124246875 0 0 0 0 -214.43902131189361 -169.25298363700131 0 -169.25298363700131 313.05313839191604 0 0 0 0 -339.36052593241857 -386.88781833727262 0 -386.88781833727262 601.6885701918236 0 0 0 0 -333.38680727033602 -295.08852938170457 0 -295.08852938170457 239.28406258653558 0 0 0 0 -198.38790010672903 -299.00775592544596 0 -299.00775592544596 153.55751881276956 0 0 0 0 -202.65280514414098 -293.48607305175392 0 -293.48607305175392 230.88367667467173 0 0 0 0 -284.38456287900135 -413.81375848989774 0 -413.81375848989774 58.052368743752595 0 0 0 0 11.671447114102648 -226.94401583332365 0 -226.94401583332365 46.206336646222553 0 0 0 0 15.616881556373471 -209.28821090905694 0 -209.28821090905694 122.07133076305036 0 0 0 0 -65.946796174201836 -285.14668541779974 0 -285.14668541779974 52.574566314366166 0 0 0 0 -348.05297130550753 -209.45942107512383 0 -209.45942107512383 134.18015866282076 0 0 0 0 -346.01703010456549 -253.44932370797869 0 -253.44932370797869 -37.693805252260063 0 0 0 0 256.66498644452076 -673.52765832675868 0 -673.52765832675868 434.99532888050453 0 0 0 0 -219.83117598053741 -261.71273982492312 0 -261.71273982492312 253.57125133204681 0 0 0 0 9.830900805616551 -47.300145542495436 0 -47.300145542495436 153.13193246006091 0 0 0 0 -444.91808254599891 -114.40646789263337 0 -114.40646789263337 180.59878964835661 0 0 0 0 -571.8605888989332 -165.4387817882016 0 -165.4387817882016 228.84937425157841 0 0 0 0 -143.71942390744744 -111.57402453594341 0 -111.57402453594341 154.1772106007702 0 0 0 0 10.052606173064861 -69.365207783451069 0 -69.365207783451069 194.09687122226066 0 0 0 0 -116.94427579225339 -190.58762552205553 0 -190.58762552205553 264.78641097132822 0 0 0 0 -599.55785711249564 -710.27286122054466 0 -710.27286122054466 -373.72337469561899 0 0 0 0 -824.40717469611081 94.401083790959092 0 94.401083790959092 243.89219060156029 0 0 0 0 -9.7813902860582758 -16.152054937858878 0 -16.152054937858878 35.423261548224403 0 0 0 0 -1013.0395449947164 -680.60576332454366 0 -680.60576332454366 -809.06518969550052 0 0 0 0 -1145.5471453239948 -363.25719515898527 0 -363.25719515898527 -40.901178623491433 0 0 0 0 -1580.3396849148287 -930.17711196379787 0 -930.17711196379787 247.07652350130957 0 0 0 0 236.31974154865566 -68.850635019254696 0 -68.850635019254696 -254.25950995927997 0 0 0 0 15.197753402214229 -19.129915167459323 0 -19.129915167459323 -21.058086620423353 0 0 0 0 -110.10183733434724 -329.5161017444043 0 -329.5161017444043 -40.183893284178339 0 0 0 0 -122.03060628976573 -277.83281517399155 0 -277.83281517399155 14.443820487460471 0 0 0 0 -356.08734636599183 -76.262377341859974 0 -76.262377341859974 -354.07239595488318 0 0 0 0 359.20748013604111 -396.95692653035439 0 -396.95692653035439 -501.91953382635256 0 0 0 0 -361.14019768477556 -533.00059361272724 0 -533.00059361272724 -186.57716894619261 0 0 0 0 -129.60124777754572 -99.449966251318983 0 -99.449966251318983 186.58280132184154 0 0 0 0 -171.5152541674579 -116.91076439956669 0 -116.91076439956669 201.69392453943146 0 0 0 0 27.075047348491701 -31.762514502741141 0 -31.762514502741141 45.766385134858325 0 0 0 0 540.37089726504701 140.17155905342952 0 140.17155905342952 -222.11276338584139 0 0 0 0 -114.86046605777938 -67.534217877857373 0 -67.534217877857373 106.01519551068486 0 0 0 0 31.47522946994286 -118.99901363805111 0 -118.99901363805111 122.14141564469901 0 0 0 0 20.703463265090249 -93.234280227232375 0 -93.234280227232375 16.66201470777014 0 0 0 0 51.654247107209812 -151.83209633210572 0 -151.83209633210572 122.65610572212609 0 0 0 0 -48.96017741467476 -50.360762976252303 0 -50.360762976252303 32.126686836838758 0 0 0 0 6.3300932847080347 -134.25127599852289 0 -134.25127599852289 127.72466773143907 0 0 0 0 15.167015228436412 -68.332979701944168 0 -68.332979701944168 144.77901850253693 0 0 0 0 -169.59711892780615 -706.10835695902642 0 -706.10835695902642 -1032.8519912010524 0 0 0 0 827.92415785187768 -21.322628082518349 0 -21.322628082518349 -707.90100077894749 0 0 0 0 -44.104626255159985 -86.774504513822819 0 -86.774504513822819 161.54386523286161 0 0 0 0 29.817620457339217 -77.716692901987699 0 -77.716692901987699 -288.42313891594677 0 0 0 0 -48.546579507463321 -155.51089468146529 0 -155.51089468146529 52.68499920405884 0 0 0 0 -54.065842299671203 -141.61949666727742 0 -141.61949666727742 53.892644221254159 0 0 0 0 -100.34613617270134 -312.03438196004936 0 -312.03438196004936 -538.11345807556063 0 0 0 0 -23.160365628149364 -113.11892625687486 0 -113.11892625687486 107.80348340262393 0 0 0 0 -33.533015724438883 -131.40479379331373 0 -131.40479379331373 64.637988816219149 0 0 0 0 -29.818286405257822 -139.52588452161581 0 -139.52588452161581 31.902077080187155 0 0 0 0 -14.295284050531336 -113.3117734713378 0 -113.3117734713378 11.805671130765404 0 0 0 0 -17.218482893193141 -111.88507481377019 0 -111.88507481377019 57.848130666883662 0 0 0 0 -41.413253398721565 -75.342722393110733 0 -75.342722393110733 -7.1594364129814778 0 0 0 0 -23.377863090254081 -50.358862785579468 0 -50.358862785579468 -58.024922870099346 0 0 0 0 -13.167373627788038 -68.864921817068534 0 -68.864921817068534 -177.37443975538554 0 0 0 0 40.933232158749888 -167.52106389344772 0 -167.52106389344772 342.48839241501992 0 0 0 0 -26.098701039732987 -68.968939602040336 0 -68.968939602040336 -98.645493689080467 0 0 0 0 5.8754170218792865 -7.8919423662182453 0 -7.8919423662182453 -13.804894709982797 0 0 0 0 -52.682802563998848 -141.5066688201623 0 -141.5066688201623 602.88320171912346 0 0 0 0 10.867984677592176 -167.34810456873674 0 -167.34810456873674 518.39520035140595 0 0 0 0 -2.4492475873656758 -6.9627740672791631 0 -6.9627740672791631 10.43613986610012 0 0 0 0 112.07848882734834 -39.167546748249151 0 -39.167546748249151 100.13479764908197 0 0 0 0 -14.086586530540131 -53.104327568721033 0 -53.104327568721033 8.2130106662787981 0 0 0 0 -279.8039434095881 -162.51083744226526 0 -162.51083744226526 40.74959576263791 0 0 0 0 -66.118293445804738 -64.234859292781039 0 -64.234859292781039 15.849955323668837 0 0 0 0 -122.09430310217431 -73.503405078779906 0 -73.503405078779906 15.649133627157426 0 0 0 0 22.310407793251215 -111.17636387320817 0 -111.17636387320817 43.963158948448836 0 0 0 0 -21.187986417751887 -15.45298905987562 0 -15.45298905987562 -10.830139002823699 0 0 0 0 -81.061479241434427 -116.52957003727352 0 -116.52957003727352 27.704198480205378 0 0 0 0 110.60593290162797 -211.27049924565654 0 -211.27049924565654 20.885443362756632 0 0 0 0 -7.4891219114950012 -49.674847650780364 0 -49.674847650780364 20.516556999622992 0 0 0 0 -79.318121676995361 -106.63667103912303 0 -106.63667103912303 37.737488927676168 0 0 0 0 59.351949282299074 -172.04848573043819 0 -172.04848573043819 70.488046870756079 0 0 0 0 -47.113978175845133 -55.625905783621164 0 -55.625905783621164 10.919789129758271 0 0 0 0 -10.150917481765152 -46.629684492822264 0 -46.629684492822264 14.576526223915181 0 0 0 0 -230.05797587888082 -140.1116042615904 0 -140.1116042615904 -65.232313603395596 0 0 0 0 -70.932873027195456 -88.223666051984765 0 -88.223666051984765 62.46399793276214 0 0 0 0 -116.34559683864455 -99.357287211932629 0 -99.357287211932629 91.251300267031496 0 0 0 0 -62.94805112247559 -177.43682477110997 0 -177.43682477110997 48.2629039647436 0 0 0 0 -32.983212563180132 -202.7517025792622 0 -202.7517025792622 42.996186685748398 0 0 0 0 17.830097666933547 -67.910972191885676 0 -67.910972191885676 79.707642137832522 0 0 0 0 8.2093263191438837 -249.67537212186789 0 -249.67537212186789 86.487033786106622 0 0 0 0 -111.84225671673062 -122.98530264729989 0 -122.98530264729989 65.528712580558818 0 0 0 0 -398.3611709999459 38.819028564961627 0 38.819028564961627 -112.4191726614954 0 0 0 0 -32.696573651794509 -109.88029805133885 0 -109.88029805133885 84.914138593315045 0 0 0 0 -31.034425738696577 9.480737557679717 0 9.480737557679717 2.7206057144388751 0 0 0 0 -145.35722403279942 -58.571241133817239 0 -58.571241133817239 209.99297817365732 0 0 0 0 97.001026636103234 -296.09994387078768 0 -296.09994387078768 110.46617127930222 0 0 0 0 -42.254930955738729 -64.727085675037642 0 -64.727085675037642 10.4241265399545 0 0 0 0 43.370590731894481 -132.10355096664716 0 -132.10355096664716 61.07914625146077 0 0 0 0 32.638763940005447 -101.44549093233945 0 -101.44549093233945 44.569035967193486 0 0 0 0 8.4892625576540013 -53.21985109160596 0 -53.21985109160596 108.90501772260177 0 0 0 0 1287.2884096490052 -1021.4466595598042 0 -1021.4466595598042 373.15933015316841 0 0 0 0 1386.8086910746351 -1536.4853111878474 0 -1536.4853111878474 -1109.8726353400489 0 0 0 0 -7.7146713185052818 -6.61252118625778 0 -6.61252118625778 -0.025042431555988287 0 0 0 0 1.0652728220593417 -894.69254611882934 0 -894.69254611882934 1754.0563604497002 0 0 0 0 -16.852565747649862 -13.937893455326616 0 -13.937893455326616 -2.5006081130115945 0 0 0 0 1151.7362833725347 -2277.725103265635 0 -2277.725103265635 1260.7474063558548 0 0 0 0 581.36317692388548 -1068.5551978497242 0 -1068.5551978497242 1917.6318107334519 0 0 0 0 -330.13724659546278 -2524.774764614267 0 -2524.774764614267 -315.93919255871333 0 0 0 0 -962.13441291327035 -3139.9535182826658 0 -3139.9535182826658 2267.9081078667805 0 0 0 0 -506.91415099863661 -954.00107013699744 0 -954.00107013699744 -45.471489800111158 0 0 0 0 935.95550974365324 -1446.5560217015009 0 -1446.5560217015009 -415.49415674262855 0 0 0 0 904.56987744802609 -1586.8472385299829 0 -1586.8472385299829 -195.58999438610044 0 0 0 0 387.44828643229357 -1387.4750353982902 0 -1387.4750353982902 629.52931613134569 0 0 0 0 384.57616696809418 -1510.0601417625148 0 -1510.0601417625148 762.61611125948548 0 0 0 0 148.90084528982334 -1901.5527318627128 0 -1901.5527318627128 -667.32513713065418 0 0 0 0 -86.461239874479361 -873.63167870527104 0 -873.63167870527104 177.64185333326168 0 0 0 0 -450.99448251181457 -1447.6850217143292 0 -1447.6850217143292 2371.8142549309705 0 0 0 0 157.37215397285763 -1273.2615445749107 0 -1273.2615445749107 908.32566697811126 0 0 0 0 188.42634376283968 -1457.5552515067102 0 -1457.5552515067102 1492.9801165300742 0 0 0 0 595.76007755420869 -1752.071414021455 0 -1752.071414021455 931.79211549213505 0 0 0 0 692.60973376606125 -1748.1584915508429 0 -1748.1584915508429 -17.448541898200347 0 0 0 0 2.3206812469434226 -2457.0559421186335 0 -2457.0559421186335 -144.15711888935766 0 0 0 0 641.67625549639342 -1719.979579216164 0 -1719.979579216164 697.78204285685206 0 0 0 0 639.79484843451792 -1493.4193893657084 0 -1493.4193893657084 746.65967962675495 0 0 0 0 -0.0016999561194097623 -1921.5291908846193 0 -1921.5291908846193 1566.9680906119247 0 0 0 0 304.75083083665231 -1123.0450231222057 0 -1123.0450231222057 2443.8178598900558 0 0 0 0 610.24250259698965 -1789.687347763449 0 -1789.687347763449 1623.7916846354055 0 0 0 0 481.06542679228005 -1415.551912896146 0 -1415.551912896146 2902.3920644785976 0 0 0 0 -0.20794707647291943 -1619.041269434987 0 -1619.041269434987 3159.5951980444224 0 0 0 0 318.44133626093389 -1622.8314199282613 0 -1622.8314199282613 2640.827726352265 0 0 0 0 117.997939125431 -869.84614354932273 0 -869.84614354932273 4109.7164682435978 0 0 0 0 -421.54144204198383 -413.23644835986488 0 -413.23644835986488 -8.9486727872936171 0 0 0 0 4.0726157371603904 -3.8849126409838277 0 -3.8849126409838277 3.4580893138426063 0 0 0 0 -45.502461150408635 -56.023763954633267 0 -56.023763954633267 -23.3216888853743 0 0 0 0 123.39518130203942 -944.25835825120157 0 -944.25835825120157 2641.3212525044946 0 0 0 0 -216.41942742632818 -105.05186296766624 0 -105.05186296766624 385.74330447713146 0 0 0 0 -0.034885898728532538 13.289549334448793 0 13.289549334448793 40.248696945875054 0 0 0 0 103.20693927514367 -54.88440772832837 0 -54.88440772832837 162.25615148129873 0 0 0 0 -29.992795505153481 -85.505709015444154 0 -85.505709015444154 -38.779192073387094 0 0 0 0 -364.4844591980218 -927.51577296586765 0 -927.51577296586765 -250.71539000590565 0 0 0 0 -5.3032775434651285 -12.04075804403675 0 -12.04075804403675 -12.602759843011881 0 0 0 0 0.024833982220626147 -33.40911198100946 0 -33.40911198100946 14.783964515081607 0 0 0 0 -261.78073014528491 331.9829759701388 0 331.9829759701388 -559.57477087946609 0 0 0 0 68.954796008882113 -5195.2071410762728 0 -5195.2071410762728 -8194.8457292262465 0 0 0 0 -11.954654163630778 -14.045905878032116 0 -14.045905878032116 -0.34893665757522285 0 0 0 0 -38.115645013572305 -49.726280843225538 0 -49.726280843225538 -0.35985349615128825 0 0 0 0 46.610651547263842 -41.563895829960529 0 -41.563895829960529 -121.76837696705479 0 0 0 0 -688.18607407537638 -301.02957690421317 0 -301.02957690421317 0.01868998292775359 0 0 0 0 52.671710280221305 -61.169900687193149 0 -61.169900687193149 -123.19080484457663 0 0 0 0 -2.9567366271588185 -3.7959041636665347 0 -3.7959041636665347 3.229322341168114 0 0 0 0 -119.17648011946585 415.71792364897556 0 415.71792364897556 43.581134954598383 0 0 0 0 -58.708737060214276 -62.541633311425528 0 -62.541633311425528 -33.528145733469444 0 0 0 0 -148.53021357928856 -116.08666246697135 0 -116.08666246697135 1336.3254490893742 0 0 0 0 -717.10629351592797 -19.039002991441521 0 -19.039002991441521 1.9245536220405484 0 0 0 0 -945.42202289743 -1141.6063361637498 0 -1141.6063361637498 2042.566175632528 0 0 0 0 820.70107733863551 -2381.2076382281321 0 -2381.2076382281321 3810.6163447914878 0 0 0 0 3.1644455872403796 4.2909122224414489 0 4.2909122224414489 9.3495788013683523 0 0 0 0 609.175052927254 -895.4117516052429 0 -895.4117516052429 2840.5280173403371 0 0 0 0 -761.79980121171684 -2406.9189835081634 0 -2406.9189835081634 1906.3074817762244 0 0 0 0 455.17535820373632 -1899.417829488817 0 -1899.417829488817 761.40894499770366 0 0 0 0 -3.87386425910654 -9.5465307943778157 0 -9.5465307943778157 17.727429770166793 0 0 0 0 -1259.1871621637256 -3883.0318265911774 0 -3883.0318265911774 -1614.3897726614923 0 0 0 0 -506.8794039279519 910.17263559574849 0 910.17263559574849 5213.7656479036377 0 0 0 0 -381.90742418440641 -569.43372748663387 0 -569.43372748663387 1083.3201845061922 0 0 0 0 -474.32575183664449 -36.077853363400209 0 -36.077853363400209 1545.038263979106 0 0 0 0 -1927.3496594503085 -1668.5102299318496 0 -1668.5102299318496 -30.20741075060505 0 0 0 0 -16.439391837922017 -41.315289868729963 0 -41.315289868729963 3.4482793934349729 0 0 0 0 -64.314945515048521 -68.402467316362134 0 -68.402467316362134 -29.839625804306252 0 0 0 0 -684.3652676284255 -649.84917392973148 0 -649.84917392973148 -755.28436690333547 0 0 0 0 -1040.7160031994354 -417.39329293006085 0 -417.39329293006085 -50.90720376772515 0 0 0 0 -1030.6040624576563 -233.83346900594915 0 -233.83346900594915 -294.9623544588103 0 0 0 0 -1085.7176005177607 -303.76957228140964 0 -303.76957228140964 0.15685296160518192 0 0 0 0 -847.88872518477729 -184.46423812572903 0 -184.46423812572903 2.384116359266045 0 0 0 0 -641.18893546474283 -228.11514487370005 0 -228.11514487370005 -0.14899865591723938 0 0 0 0 -346.24238989612786 -271.53432186298596 0 -271.53432186298596 -170.86583936400712 0 0 0 0 -961.63497863154043 -418.26812332430563 0 -418.26812332430563 -92.678112824723939 0 0 0 0 -1262.255836010896 -653.97539806170971 0 -653.97539806170971 -328.88019967923901 0 0 0 0 -582.68801174065447 -323.69695831998251 0 -323.69695831998251 -179.64196264657949 0 0 0 0 -568.13913677451274 -277.81532130058804 0 -277.81532130058804 -170.34830351357232 0 0 0 0 -17.056486510403658 -3.7680438347603058 0 -3.7680438347603058 14.563867636552118 0 0 0 0 -897.48729896879013 -606.25722645849964 0 -606.25722645849964 -336.52033951113117 0 0 0 0 -833.01372004654331 -445.62705331450525 0 -445.62705331450525 -226.17595147425891 0 0 0 0 -47.309891256710443 -93.681951954912762 0 -93.681951954912762 -43.579963523238746 0 0 0 0 -29.463891329253499 -17.69497108784185 0 -17.69497108784185 -15.132295495074061 0 0 0 0 -687.30978061456699 -695.44400624601258 0 -695.44400624601258 553.62452532417228 0 0 0 0 -1090.3703951348871 -742.55615946993203 0 -742.55615946993203 832.30097825539997 0 0 0 0 -757.15202206607137 -1144.5977767593195 0 -1144.5977767593195 -121.79053335881326 0 0 0 0 -318.29595301795052 -1827.6893552590918 0 -1827.6893552590918 -1440.6848892686248 0 0 0 0 -1093.2228463588544 -1421.2280119902134 0 -1421.2280119902134 228.28247760484373 0 0 0 0 -1039.3724255047018 -778.15435125509566 0 -778.15435125509566 1491.9932497831905 0 0 0 0 470.2957850592793 -2267.5024449862249 0 -2267.5024449862249 1862.8562414360131 0 0 0 0 -973.03699003322981 -872.23468761391996 0 -872.23468761391996 1055.1219567293228 0 0 0 0 -1162.9163436919625 -996.3650206571474 0 -996.3650206571474 -1095.0071171064119 0 0 0 0 -165.87962022075953 -2396.4074117158889 0 -2396.4074117158889 -219.58357964229072 0 0 0 0 288.49709238845389 -237.6804714568716 0 -237.6804714568716 -7233.2666771076692 0 0 0 0 -2365.8931023693876 -2532.9143135172271 0 -2532.9143135172271 -53.071661361092993 0 0 0 0 -370.03710528773081 -3802.4012592124491 0 -3802.4012592124491 -3406.5941363318379 0 0 0 0 -1150.2707709307288 -2478.3979927922701 0 -2478.3979927922701 8430.5313072080717 0 0 0 0 -20.586548464746784 -25.26384044830337 0 -25.26384044830337 -5.4473204607031533 0 0 0 0 458.33024706274045 -1065.144499196389 0 -1065.144499196389 -3455.6539892656874 0 0 0 0 -49.96249534493063 -67.110607558755817 0 -67.110607558755817 -15.676190328163088 0 0 0 0 -295.83485891302371 -679.88917009446959 0 -679.88917009446959 -1087.7610698292119 0 0 0 0 -303.5726801390847 -602.25323681056761 0 -602.25323681056761 -1768.7240566652908 0 0 0 0 -335.76640197533743 -183.5582188071794 0 -183.5582188071794 -490.58072837349027 0 0 0 0 -585.14094786974601 -599.64431168596639 0 -599.64431168596639 -511.76609149360593 0 0 0 0 -329.34282097782125 -252.3824183607212 0 -252.3824183607212 -825.45963364400086 0 0 0 0 -587.94186903235095 -566.64080584900512 0 -566.64080584900512 -799.22104453446809 0 0 0 0 -311.78165172618174 -198.65865658564871 0 -198.65865658564871 -1694.6400123589119 0 0 0 0 -62.775793883317931 -93.281917977261728 0 -93.281917977261728 -23.666562629652702 0 0 0 0 -436.4391072087019 -282.24748095401446 0 -282.24748095401446 -822.62409013789147 0 0 0 0 -348.36618467982044 -330.72725644076127 0 -330.72725644076127 -796.91163510885963 0 0 0 0 -851.0315746809938 -932.13381362345535 0 -932.13381362345535 -1428.61582391712 0 0 0 0 304.97461515472969 562.36511498986511 0 562.36511498986511 -1342.935355337213 0 0 0 0 -26.968056676967535 -130.81440613229643 0 -130.81440613229643 -876.35725818667561 0 0 0 0 -250.9997803325532 -547.96563058451284 0 -547.96563058451284 -541.48467909674218 0 0 0 0 -630.00614285840129 -869.46853965894843 0 -869.46853965894843 -926.76925803017548 0 0 0 0 -501.70812258370643 -451.93473393411477 0 -451.93473393411477 -548.35899374377914 0 0 0 0 -271.71512083955167 -173.42723243287037 0 -173.42723243287037 -211.57661371000722 0 0 0 0 28.739427691747551 14.053292291820981 0 14.053292291820981 -569.96946137526538 0 0 0 0 -193.45645372208674 -5.2830410024907906 0 -5.2830410024907906 -273.17191222457768 0 0 0 0 -2.8198797117494792 8.3869769208793059 0 8.3869769208793059 -7.1571579799964979 0 0 0 0 -522.02600881567923 -471.0144844326278 0 -471.0144844326278 -154.02302456693724 0 0 0 0 -573.98574391036527 -405.40729343617568 0 -405.40729343617568 -36.537389342644019 0 0 0 0 -15.461380309806032 -1.0547877028981816 0 -1.0547877028981816 -33.562062136233124 0 0 0 0 -144.10058528264199 -157.23401005191408 0 -157.23401005191408 -270.63032828489668 0 0 0 0 -450.67116490474291 -348.27776770825949 0 -348.27776770825949 -189.09106581148808 0 0 0 0 -46.378572795015657 -94.694854858494892 0 -94.694854858494892 -46.727924602312868 0 0 0 0 -744.19918044623046 -452.99766250262473 0 -452.99766250262473 -106.06980814265262 0 0 0 0 -626.97566580062266 -336.87094567561871 0 -336.87094567561871 -132.13814397978422 0 0 0 0 -713.89135348270065 -541.76358208225429 0 -541.76358208225429 -18.308569006389007 0 0 0 0 -886.21523726038868 -731.95289299747674 0 -731.95289299747674 -212.6154964465677 0 0 0 0 -518.97099346041432 -493.48754465262937 0 -493.48754465262937 -395.71663618080493 0 0 0 0 -773.89008289226331 -1061.624615497316 0 -1061.624615497316 -532.98187204074929 0 0 0 0 -839.46104501382797 -853.63175444076478 0 -853.63175444076478 92.607498498440691 0 0 0 0 -1125.5017938679521 -777.29955910370336 0 -777.29955910370336 103.53952100015431 0 0 0 0 -1127.5627554815255 -886.3956222128636 0 -886.3956222128636 315.89774039374606 0 0 0 0 -45.272876842054529 -95.303030497778934 0 -95.303030497778934 -54.298402016449813 0 0 0 0 -45.720973003224515 -94.631423212519763 0 -94.631423212519763 -53.971498088741924 0 0 0 0 -1022.5718736188574 -613.86770479282131 0 -613.86770479282131 312.12417242008087 0 0 0 0 -1028.8824764287856 -533.56889434563527 0 -533.56889434563527 85.833658698931686 0 0 0 0 -1120.7618275515415 -790.42483197775437 0 -790.42483197775437 43.25536362623825 0 0 0 0 -1338.740620493194 -590.37387663318805 0 -590.37387663318805 365.82440373467398 0 0 0 0 -1379.9090160584165 -816.76374587829923 0 -816.76374587829923 152.87701408880821 0 0 0 0 -1333.1182665337838 -1134.3015658488002 0 -1134.3015658488002 -587.267452545384 0 0 0 0 -1129.0606880468404 -881.44131967758585 0 -881.44131967758585 -850.21770514421223 0 0 0 0 -1493.7999742394459 -1032.2514313914944 0 -1032.2514313914944 136.84299341528094 0 0 0 0 -1355.5275410282977 -1654.2898779478207 0 -1654.2898779478207 -68.83568766262033 0 0 0 0 -1366.635288084243 -2179.4881080320802 0 -2179.4881080320802 -1564.017816883832 0 0 0 0 -181.37598983937642 -83.753169820643961 0 -83.753169820643961 -0.28897323832034139 0 0 0 0 -10.040544901874398 -4.7315168584544267 0 -4.7315168584544267 6.5413455127031739 0 0 0 0 -808.93514973191122 -1317.7968372983087 0 -1317.7968372983087 -55.131107917521149 0 0 0 0 -906.71358307423361 -1333.4617454838735 0 -1333.4617454838735 -0.74248437034951853 0 0 0 0 -792.96986498175829 -1371.9781751700502 0 -1371.9781751700502 -4.2592872279257872 0 0 0 0 -950.81051884926273 -896.63934746610175 0 -896.63934746610175 -71.932656824268633 0 0 0 0 -914.16528916591051 -1064.2228643561757 0 -1064.2228643561757 272.9168998489331 0 0 0 0 119.33737485420716 -1586.4107950498437 0 -1586.4107950498437 1.0498645909246989 0 0 0 0 -975.18227374006528 -1038.0823867733561 0 -1038.0823867733561 1197.4196481625841 0 0 0 0 -809.86079897821764 422.61150630412158 0 422.61150630412158 1780.8397525734326 0 0 0 0 -518.82503926743811 -1784.0832884484262 0 -1784.0832884484262 2315.6443563501525 0 0 0 0 -783.18119161581853 -188.17039366312383 0 -188.17039366312383 548.55428638638114 0 0 0 0 -1195.2123790465121 -723.93726895585132 0 -723.93726895585132 878.5118062357069 0 0 0 0 -883.56983114781178 -379.51972828159342 0 -379.51972828159342 380.98259875344229 0 0 0 0 -714.06619371310808 -290.29627697408432 0 -290.29627697408432 187.64215378453082 0 0 0 0 -719.24072560080822 -317.71410581175951 0 -317.71410581175951 286.13362753909314 0 0 0 0 -826.52294945574249 -324.75105231821362 0 -324.75105231821362 286.79635606319061 0 0 0 0 -16.917145459423452 -43.826536136697399 0 -43.826536136697399 34.946074913241091 0 0 0 0 289.76029900321737 -470.30572573312384 0 -470.30572573312384 378.74334438193182 0 0 0 0 366.8863330840104 -568.46045161635266 0 -568.46045161635266 274.35885762874386 0 0 0 0 562.40589151997119 -922.1080548387763 0 -922.1080548387763 721.24972665501991 0 0 0 0 164.70802813841146 -546.21537930100749 0 -546.21537930100749 562.08111347074737 0 0 0 0 -248.03396373717987 -778.18199330472271 0 -778.18199330472271 1362.1461734202021 0 0 0 0 -248.98535644171352 -483.87576298687782 0 -483.87576298687782 1326.0817930296762 0 0 0 0 -378.61076662017149 -57.749786492277053 0 -57.749786492277053 682.08514732203912 0 0 0 0 -382.97605573755573 -225.8286008995492 0 -225.8286008995492 674.72889043029863 0 0 0 0 -459.2956145934877 -95.682857503255946 0 -95.682857503255946 887.49684439128032 0 0 0 0 2181.8184126882697 -1797.4370491276204 0 -1797.4370491276204 1036.8056080296083 0 0 0 0 -1.1948524186040288 -3.5421877688939674 0 -3.5421877688939674 20.690326342631352 0 0 0 0 -282.20846571886796 2.5165764501725789 0 2.5165764501725789 3088.5011122835422 0 0 0 0 2730.783871547872 -993.92816568777198 0 -993.92816568777198 700.15278215540457 0 0 0 0 -426.53723870476824 -866.91077627794584 0 -866.91077627794584 747.71330363765446 0 0 0 0 436.09776319326193 -552.01591350348826 0 -552.01591350348826 11.495765201485483 0 0 0 0 -636.6798368336531 1092.9380323096484 0 1092.9380323096484 -380.37526608418557 0 0 0 0 -269.16652525076643 702.94942268106388 0 702.94942268106388 -1453.9835085642408 0 0 0 0 -399.384731052196 829.91856445577287 0 829.91856445577287 1022.0696145234397 0 0 0 0 0.13368768321663538 -4.3977093223960537 0 -4.3977093223960537 -4.0818078754441558 0 0 0 0 -564.14305241208058 899.05711652647005 0 899.05711652647005 132.56807128348737 0 0 0 0 -312.00684066661051 -136.90746966341976 0 -136.90746966341976 417.38936193584232 0 0 0 0 -399.34569644503063 166.14277398760896 0 166.14277398760896 531.06178837316111 0 0 0 0 -1109.7059017258871 612.69006283624913 0 612.69006283624913 149.98279644129798 0 0 0 0 -482.36316780227935 432.25698419261607 0 432.25698419261607 155.10958045447478 0 0 0 0 -1553.2097596377716 1185.236175015918 0 1185.236175015918 -669.73242416017456 0 0 0 0 -6.0976939391486553 -4.0440289663760751 0 -4.0440289663760751 -4.4556548694777121 0 0 0 0 720.21603279400733 -494.14237676523044 0 -494.14237676523044 1.3795540953433374 0 0 0 0 -1704.9853156064346 890.95110844631563 0 890.95110844631563 -1078.8171382438741 0 0 0 0 -2077.8821850553795 19.023963155355887 0 19.023963155355887 -227.05404389253817 0 0 0 0 -1450.7232377649634 -536.55915512979846 0 -536.55915512979846 156.23615213537414 0 0 0 0 -360.25595113886811 195.06547588120156 0 195.06547588120156 -931.74394572619349 0 0 0 0 1089.9790656077821 -1216.0347830940591 0 -1216.0347830940591 491.32355205665226 0 0 0 0 1227.3547075383831 -968.05510460397636 0 -968.05510460397636 -0.31985942052151672 0 0 0 0 896.89316896879609 -835.82034269138967 0 -835.82034269138967 661.55570489657111 0 0 0 0 1025.4133785884042 -1150.539947863901 0 -1150.539947863901 734.93217208446731 0 0 0 0 1074.6864176998497 -1334.5418785832981 0 -1334.5418785832981 1335.6160310979467 0 0 0 0 -88.975663274963154 637.82711791642942 0 637.82711791642942 -755.86945401167031 0 0 0 0 -26.106424422047724 -9.1095585035225923 0 -9.1095585035225923 -1.4219735862747029 0 0 0 0 -217.34394783107564 -40.027214817935601 0 -40.027214817935601 -619.41862906626193 0 0 0 0 -425.8683067834354 -194.43650898599299 0 -194.43650898599299 -371.62499519094126 0 0 0 0 -361.61371315737051 352.61480234339615 0 352.61480234339615 -304.15151120594237 0 0 0 0 -482.77042162977159 -131.67008363228524 0 -131.67008363228524 150.58258659136482 0 0 0 0 -135.01924866915215 261.18383707100293 0 261.18383707100293 -283.13991686719237 0 0 0 0 -32.33825380046892 -24.512173512733753 0 -24.512173512733753 -6.4124859909769043 0 0 0 0 1126.782130931133 -1613.0100312352224 0 -1613.0100312352224 1663.6313841970841 0 0 0 0 1083.5945249457734 -974.99611089982113 0 -974.99611089982113 705.35487032678793 0 0 0 0 -3.4173219333897578 -137.70048295527522 0 -137.70048295527522 195.01349986318382 0 0 0 0 -57.154972645406815 -28.064841024311008 0 -28.064841024311008 -4.7904485369872418 0 0 0 0 -275.43320407147985 76.917858443164732 0 76.917858443164732 252.12903910508612 0 0 0 0 -265.70944470542599 -53.797983219563321 0 -53.797983219563321 176.98338281252654 0 0 0 0 -603.58490866127249 39.369888915956835 0 39.369888915956835 549.14642561980872 0 0 0 0 -610.68201831345505 -150.7552134022626 0 -150.7552134022626 280.79005321409204 0 0 0 0 -207.84751710588171 -260.18455600822926 0 -260.18455600822926 535.64616110043789 0 0 0 0 304.85636907772277 -526.10937669774285 0 -526.10937669774285 622.58585487584423 0 0 0 0 -247.84429647059005 -296.06314585087239 0 -296.06314585087239 668.22324142770958 0 0 0 0 -6.2609608627681155 -177.08769513895095 0 -177.08769513895095 360.97093687785673 0 0 0 0 -76.134721365000587 -386.61757209771895 0 -386.61757209771895 479.66389138961677 0 0 0 0 -118.77264516743162 -387.83261894907992 0 -387.83261894907992 847.27273791198968 0 0 0 0 481.53572760664974 -133.4388645796862 0 -133.4388645796862 1214.1659028132126 0 0 0 0 -61.469694702635024 -630.71966019627507 0 -630.71966019627507 770.2763862113934 0 0 0 0 -262.13255543305422 -256.26345951804251 0 -256.26345951804251 1484.4140638455283 0 0 0 0 1990.1158859087154 77.022067118901759 0 77.022067118901759 -2413.8457586170916 0 0 0 0 -676.16410153532343 -840.87408267207502 0 -840.87408267207502 2012.7515544047346 0 0 0 0 -14.694076256693904 -9.6169871281530277 0 -9.6169871281530277 -4.3109016664955107 0 0 0 0 294.64648895270693 -792.5209374089518 0 -792.5209374089518 1044.3858900399791 0 0 0 0 71.568790023789916 -573.11158369553596 0 -573.11158369553596 923.01359254274576 0 0 0 0 -42.630456844152604 -27.68317831075035 0 -27.68317831075035 -12.477419802615458 0 0 0 0 -196.04222532978747 -189.43476914218627 0 -189.43476914218627 -150.51572807612683 0 0 0 0 -68.83794314291498 -42.733620405048129 0 -42.733620405048129 -18.441781687877494 0 0 0 0 326.55486241598555 -400.12283932144055 0 -400.12283932144055 300.99225911335088 0 0 0 0 -26.074787317207665 -270.9806289362823 0 -270.9806289362823 -950.62288239293412 0 0 0 0 -6.1388583509833552 -135.33811447166227 0 -135.33811447166227 -289.6490872040813 0 0 0 0 -63.93348970268562 -418.17190743669926 0 -418.17190743669926 -586.34662211686373 0 0 0 0 -101.46544011104561 -184.6622590215884 0 -184.6622590215884 -239.11911349849834 0 0 0 0 -240.43034211342456 -394.17794929916272 0 -394.17794929916272 -530.66926419035008 0 0 0 0 151.03325347842474 -50.648863236696343 0 -50.648863236696343 -387.97166450756777 0 0 0 0 -7.6793325518438706 -27.178788658499712 0 -27.178788658499712 8.7067879022579291 0 0 0 0 16.501730538432156 -32.063273337022224 0 -32.063273337022224 30.458862689594753 0 0 0 0 0.13652276640641503 -150.09668757799955 0 -150.09668757799955 -263.52073352401567 0 0 0 0 -1468.1417869919387 -1194.7800746096036 0 -1194.7800746096036 167.26521709019744 0 0 0 0 -805.04838951984857 -294.55952769630494 0 -294.55952769630494 174.39819239491771 0 0 0 0 4.2564206160082563 -5.4311272125870573 0 -5.4311272125870573 10.495033154476459 0 0 0 0 1525.0194859438561 177.50751095271335 0 177.50751095271335 -1268.9428595191712 0 0 0 0 -413.89851243531302 82.591609371913364 0 82.591609371913364 -1703.1195000986991 0 0 0 0 -369.7021728964537 -475.60098855016986 0 -475.60098855016986 -513.08750329401664 0 0 0 0 -1294.8818822813773 -1819.2144129021835 0 -1819.2144129021835 -2412.7508409170405 0 0 0 0 -1547.6702959060058 -2116.7504845806034 0 -2116.7504845806034 -2760.8995518866432 0 0 0 0 -1792.51120181632 -1901.2191274616926 0 -1901.2191274616926 -2094.0347051340359 0 0 0 0 -1808.0395105526841 -1804.0658078250126 0 -1804.0658078250126 -1967.3151221516673 0 0 0 0 -1787.1938724695065 -1383.4123480746348 0 -1383.4123480746348 -2082.904255424146 0 0 0 0 -2183.509164071409 -2036.8542969442206 0 -2036.8542969442206 -2063.4639591367086 0 0 0 0 -1273.7570464653982 -1772.3384600085192 0 -1772.3384600085192 -893.40726606492535 0 0 0 0 -980.37333276414574 -1454.6286255500127 0 -1454.6286255500127 -2089.7208212372498 0 0 0 0 -625.17737344411944 65.064290808417354 0 65.064290808417354 1.3139156771649141 0 0 0 0 -9.8608223893434683 -4.3632235620794972 0 -4.3632235620794972 1.9529149422156848 0 0 0 0 412.96169898723019 152.92239931525546 0 152.92239931525546 -584.57439697960217 0 0 0 0 36.367674863172738 -71.127266481541369 0 -71.127266481541369 -30.957276606358235 0 0 0 0 -99.133083901739155 -157.55497270638443 0 -157.55497270638443 17.778225518995896 0 0 0 0 -19.162285801691439 -72.786551082950353 0 -72.786551082950353 -74.527394938402438 0 0 0 0 843.18677544790989 412.43184541411028 0 412.43184541411028 -505.00518458962324 0 0 0 0 485.02134826228576 -961.77245670298544 0 -961.77245670298544 336.01803891145391 0 0 0 0 1290.6467987991055 -1152.436315672312 0 -1152.436315672312 128.14372186009132 0 0 0 0 -490.46992316197429 807.55447296262719 0 807.55447296262719 1484.1426646691107 0 0 0 0 -651.48976615365245 -228.89423955718667 0 -228.89423955718667 100.21436537802219 0 0 0 0 -1288.6213096625279 -1644.9431143458933 0 -1644.9431143458933 -2271.372133739409 0 0 0 0 -1.1977391669784083 0.31223432223777081 0 0.31223432223777081 -30.721283337849343 0 0 0 0 -1516.5568465860269 -1496.8038605523179 0 -1496.8038605523179 -2362.0569314526219 0 0 0 0 -1264.5907735936053 -515.90973052073241 0 -515.90973052073241 -1432.1182678898622 0 0 0 0 2790.1576166529412 -1663.8945629785812 0 -1663.8945629785812 162.56767075264361 0 0 0 0 -11.46828820546736 -46.756295879572178 0 -46.756295879572178 -79.564143174945173 0 0 0 0 -269.58803467235703 -2222.2029428264286 0 -2222.2029428264286 -3502.7058825786225 0 0 0 0 3564.374999654814 -2638.8681847961161 0 -2638.8681847961161 471.95368962576322 0 0 0 0 2234.1334128683375 -1733.5671846327896 0 -1733.5671846327896 1404.2502898073071 0 0 0 0 7180.4425706010952 -2064.3546676774131 0 -2064.3546676774131 -1806.902389262541 0 0 0 0 -2193.9756702072773 -1134.8140130702232 0 -1134.8140130702232 -52.722563189570792 0 0 0 0 -3665.0357991835626 -2186.0316086168023 0 -2186.0316086168023 -181.85518895322275 0 0 0 0 -6.1078765900714984 -22.841723305474829 0 -22.841723305474829 -34.61929608648984 0 0 0 0 -2727.3916881152109 -3644.312127087258 0 -3644.312127087258 -2311.2539461856359 0 0 0 0 -1161.8238204632071 -2424.3968267773889 0 -2424.3968267773889 -1675.8459143080672 0 0 0 0 -2380.274156509593 -1677.4993854178683 0 -1677.4993854178683 -1392.3823136214924 0 0 0 0 -2133.8058094904263 -2062.3419888641401 0 -2062.3419888641401 -1722.1410111259029 0 0 0 0 -1533.9743773191731 -1549.7932851103287 0 -1549.7932851103287 -1704.7707098766696 0 0 0 0 -1532.8197424593091 -1621.7195304633788 0 -1621.7195304633788 -2175.7823722725298 0 0 0 0 -1512.9730855930829 -2029.6462225213763 0 -2029.6462225213763 -1795.0828900193592 0 0 0 0 -1349.8639125486079 -1740.6217529720161 0 -1740.6217529720161 -1937.1505577423595 0 0 0 0 -1443.1225720572984 -2345.7324264675844 0 -2345.7324264675844 -1664.5511399239331 0 0 0 0 -966.60235571538578 -1940.6851423950916 0 -1940.6851423950916 -1837.8766815636773 0 0 0 0 -873.48392940768099 -2307.9397558645869 0 -2307.9397558645869 -2237.2235462482786 0 0 0 0 -641.46961919154273 -1535.2632728503813 0 -1535.2632728503813 -1520.1606440612086 0 0 0 0 33.484973689177423 -871.57929768889881 0 -871.57929768889881 -947.61458648103871 0 0 0 0 -282.24895080909482 -1587.8587581739193 0 -1587.8587581739193 -965.29767609256669 0 0 0 0 -75.767490062135039 -1291.3795011707989 0 -1291.3795011707989 -1566.5939778425527 0 0 0 0 -306.57229676084535 -1703.8532573332486 0 -1703.8532573332486 -1474.8184015159786 0 0 0 0 -185.60240505103138 -2575.361127908167 0 -2575.361127908167 -2928.5724279070055 0 0 0 0 2171.0373048024339 -470.519548077129 0 -470.519548077129 408.91858172294451 0 0 0 0 346.61453828396043 -2275.4337450460735 0 -2275.4337450460735 -1072.0620249325875 0 0 0 0 415.40697971937743 -474.4377769578598 0 -474.4377769578598 253.11560592526803 0 0 0 0 236.39468312743702 -1517.6596336778457 0 -1517.6596336778457 742.3724929117343 0 0 0 0 -180.59267226472002 -1348.236328750183 0 -1348.236328750183 1688.846278481069 0 0 0 0 260.48974792452645 -2157.2501401651025 0 -2157.2501401651025 1391.0049853879427 0 0 0 0 -56.111742271503317 -931.21816067162581 0 -931.21816067162581 3267.5872463884298 0 0 0 0 456.91129330697004 -2699.7752398468874 0 -2699.7752398468874 2898.2633895889594 0 0 0 0 1805.6950038374534 -2594.9284141083231 0 -2594.9284141083231 1881.24218559984 0 0 0 0 281.01484939293005 -2544.2391795462463 0 -2544.2391795462463 -3310.2207088183904 0 0 0 0 660.29419365950162 -1623.507018288059 0 -1623.507018288059 1808.3999237401295 0 0 0 0 -10.919077662471636 -9.2084463251573254 0 -9.2084463251573254 0.45286457388041645 0 0 0 0 -11.096737123647472 -1533.4791717724002 0 -1533.4791717724002 3887.6847014393861 0 0 0 0 647.80245403034496 -941.49272847302927 0 -941.49272847302927 3299.8393802376377 0 0 0 0 185.26282746210927 -2300.1367256864032 0 -2300.1367256864032 3070.847530658808 0 0 0 0 -74.174869973852765 -2933.1957813786139 0 -2933.1957813786139 1882.3727266883943 0 0 0 0 117.58277144492604 -2225.1746451498184 0 -2225.1746451498184 496.41003664766322 0 0 0 0 310.31392833020072 -2822.4058612643457 0 -2822.4058612643457 1850.4410154829675 0 0 0 0 77.897819472767878 -2200.8511793002035 0 -2200.8511793002035 2489.1628832078713 0 0 0 0 695.01989249959297 -676.75720522087067 0 -676.75720522087067 -1680.486004076156 0 0 0 0 -32.109417918251097 -18.788781174443557 0 -18.788781174443557 0.26003875274396093 0 0 0 0 -1131.9897841653583 -320.7263038175297 0 -320.7263038175297 1298.7243152489332 0 0 0 0 68.55421422546317 -40.6516315386028 0 -40.6516315386028 16.618627608757151 0 0 0 0 647.80444896419067 441.86746603158099 0 441.86746603158099 -70.046394839009736 0 0 0 0 24.498736685741108 -18.327895724264692 0 -18.327895724264692 8.6144322029777669 0 0 0 0 1821.4204302359126 -2468.4201501922471 0 -2468.4201501922471 -2050.0859162041452 0 0 0 0 -800.14824560412671 -1120.8080853864012 0 -1120.8080853864012 5081.2901983034244 0 0 0 0 214.96844956061977 -1565.9495852088512 0 -1565.9495852088512 -308.20226115122205 0 0 0 0 -798.52998557927413 -2430.9967382215286 0 -2430.9967382215286 -979.94393766543362 0 0 0 0 737.0474793750036 -3306.6184340017717 0 -3306.6184340017717 -491.31436548905913 0 0 0 0 -516.44911672217859 -4892.6514692351975 0 -4892.6514692351975 -1818.8836642650713 0 0 0 0 -2216.6973858540878 -2149.7972763848811 0 -2149.7972763848811 -46.64220241233852 0 0 0 0 749.59990280096463 -4368.9755869807741 0 -4368.9755869807741 1217.4774497759354 0 0 0 0 -313.85937989506772 -3997.3585985984405 0 -3997.3585985984405 -4083.9920996850706 0 0 0 0 -8478.1619570090406 -4706.4888933316906 0 -4706.4888933316906 -861.34125146373117 0 0 0 0 3031.2397235196113 -4127.1032421137643 0 -4127.1032421137643 -2751.5101233576497 0 0 0 0 1744.8226887376804 -1949.9700348428159 0 -1949.9700348428159 -700.54137330945377 0 0 0 0 1019.0167991279159 -2844.2287228052701 0 -2844.2287228052701 -1787.0477547661285 0 0 0 0 -1074.6500952613133 -2118.2036517097404 0 -2118.2036517097404 -861.01270161787397 0 0 0 0 -147.4527097599057 -2158.1230104795541 0 -2158.1230104795541 -882.65773375923527 0 0 0 0 -167.29051594724297 -2642.0537580963501 0 -2642.0537580963501 -268.3067798246193 0 0 0 0 373.17635254829656 -2059.0869380208896 0 -2059.0869380208896 -870.67349087142793 0 0 0 0 -646.1036895106372 -2963.592339218274 0 -2963.592339218274 -1654.679802809158 0 0 0 0 -97.62461698736297 -1943.4392926884902 0 -1943.4392926884902 -2695.3212788737328 0 0 0 0 453.74021213914966 -2650.103655156825 0 -2650.103655156825 -2883.5834373445978 0 0 0 0 890.63671238666575 -2649.491022942173 0 -2649.491022942173 -2248.3820592480188 0 0 0 0 395.31900445645442 -2675.5649524062173 0 -2675.5649524062173 -1751.1338622602289 0 0 0 0 246.97275427385466 -1281.8886666921026 0 -1281.8886666921026 -2299.6020946537756 0 0 0 0 457.04110728774685 -1199.9869243228095 0 -1199.9869243228095 -2701.3494465258846 0 0 0 0 382.73829473625665 -2106.4801093901369 0 -2106.4801093901369 -3140.5181335293455 0 0 0 0 331.68980923583149 -2130.357673098988 0 -2130.357673098988 -1607.3915115751297 0 0 0 0 -322.50400768802501 -2298.2673807882675 0 -2298.2673807882675 -3244.6810187312658 0 0 0 0 539.64647941343719 -1207.5959165678942 0 -1207.5959165678942 -2765.97052415285 0 0 0 0 460.7283945827221 -1627.8941601527913 0 -1627.8941601527913 -4939.4922778629116 0 0 0 0 -231.66766283052857 -90.261597524331592 0 -90.261597524331592 -965.33255700378504 0 0 0 0 -222.39174711567466 241.03715280267352 0 241.03715280267352 -1634.2308626058802 0 0 0 0 -26.369099191092459 -39.252310728559166 0 -39.252310728559166 0.43757903219268557 0 0 0 0 91.023244189669754 -67.066776007351052 0 -67.066776007351052 8.022842278754851 0 0 0 0 230.8335305317305 -351.34527601466107 0 -351.34527601466107 -676.76999452512246 0 0 0 0 0.77251267110113986 1048.7083741602837 0 1048.7083741602837 -3988.3924826233742 0 0 0 0 -75.811762566250366 -74.177080755192605 0 -74.177080755192605 16.266189687901999 0 0 0 0 -45.150230180907329 -46.045592790936922 0 -46.045592790936922 1.2697806721967586 0 0 0 0 -628.75053728590137 -741.0573001599987 0 -741.0573001599987 418.06415709736916 0 0 0 0 -7.1009685846779576 -1.897882131548414 0 -1.897882131548414 -1.3683989674093282 0 0 0 0 -1958.3298447085544 -2798.7462776740504 0 -2798.7462776740504 -4455.8160351705301 0 0 0 0 -1552.7900498412782 -3179.9156038245565 0 -3179.9156038245565 -4098.2613897264528 0 0 0 0 -2478.5515986483078 -494.03497940636589 0 -494.03497940636589 1674.1496579798404 0 0 0 0 1537.8340206525754 -1268.6433022727724 0 -1268.6433022727724 -1350.9768701813678 0 0 0 0 -1938.7813665951544 -4154.1754187628103 0 -4154.1754187628103 -3616.3579502276116 0 0 0 0 -1259.9435609572683 -6.2264639730929048 0 -6.2264639730929048 -23.211377873460151 0 0 0 0 0.16545067667470903 -27.425167886741434 0 -27.425167886741434 -1.5187652517939938 0 0 0 0 -30.305181076655572 810.81679504812382 0 810.81679504812382 -5781.7214208751684 0 0 0 0 2.7990146346877509 -31.770091320147472 0 -31.770091320147472 -21.855924353540615 0 0 0 0 -1937.4711997113773 -474.22798232235073 0 -474.22798232235073 -4555.4930664797575 0 0 0 0 -336.51924543149653 -2855.218230521341 0 -2855.218230521341 -7051.4304424363945 0 0 0 0 -664.84520727425115 -1047.8737467577412 0 -1047.8737467577412 -3523.5962573888246 0 0 0 0 -1196.4883028979239 -3110.3476388355775 0 -3110.3476388355775 -6488.914462908986 0 0 0 0 -940.54692180598795 -2252.7322369908034 0 -2252.7322369908034 -3659.6627196822665 0 0 0 0 -736.04762620833935 -1352.9550590188519 0 -1352.9550590188519 -2333.1933851010099 0 0 0 0 -1508.4539133649378 -1527.2492682960692 0 -1527.2492682960692 -2331.9811058512423 0 0 0 0 -784.65123905998189 -2141.482828040258 0 -2141.482828040258 -2279.2683464197598 0 0 0 0 -3581.3603226445848 -2356.8096186590155 0 -2356.8096186590155 -2288.3393859399803 0 0 0 0 -1051.519323427543 -2257.5844919386254 0 -2257.5844919386254 280.80630554391246 0 0 0 0 -1869.4599008440418 -1716.8577593453374 0 -1716.8577593453374 -720.25360639378778 0 0 0 0 -479.6553038021666 -1749.4565606898541 0 -1749.4565606898541 -724.14396719297929 0 0 0 0 -792.45175616294159 -1139.1980515512253 0 -1139.1980515512253 -105.45401981158648 0 0 0 0 -793.36273598283515 -2076.589763087477 0 -2076.589763087477 178.15120866110374 0 0 0 0 -495.10733090675785 -1641.1951492282387 0 -1641.1951492282387 516.45741207041283 0 0 0 0 -131.18299721408403 -1913.2008285897391 0 -1913.2008285897391 666.36105539932032 0 0 0 0 -621.39836272207322 -1720.6895849802204 0 -1720.6895849802204 1471.2724057353771 0 0 0 0 -372.31840439303778 -2087.3914802212894 0 -2087.3914802212894 1495.4222345622693 0 0 0 0 -267.72147699535708 -2321.4757088383049 0 -2321.4757088383049 984.75382351706503 0 0 0 0 -200.58746945520397 -2251.3048545297133 0 -2251.3048545297133 272.12700949661667 0 0 0 0 -734.94395858622738 -2063.8128195276076 0 -2063.8128195276076 936.6261526559465 0 0 0 0 -5.3130116592510603 -2592.4983041461746 0 -2592.4983041461746 753.50272174323618 0 0 0 0 -231.05429702342371 -2058.12227009239 0 -2058.12227009239 873.79185788503673 0 0 0 0 2270.7921814236724 -1980.8462470256836 0 -1980.8462470256836 322.57609268659144 0 0 0 0 681.67375668650493 -2081.839629299946 0 -2081.839629299946 100.66885246925813 0 0 0 0 936.91889668020303 -2747.1267430213265 0 -2747.1267430213265 26.65254339981766 0 0 0 0 1194.3350223988236 -2563.2703482845682 0 -2563.2703482845682 1093.4114974798285 0 0 0 0 706.66994420663832 -2297.5861304505488 0 -2297.5861304505488 807.76330397528363 0 0 0 0 792.21829893468384 -2075.1616935833481 0 -2075.1616935833481 935.17435480901622 0 0 0 0 558.7308144835406 -2112.7320369305817 0 -2112.7320369305817 1061.3528441648232 0 0 0 0 714.98602815472987 -2263.808563166589 0 -2263.808563166589 939.07247021451167 0 0 0 0 -131.25587499811081 -2375.6522531448572 0 -2375.6522531448572 1013.4624458618746 0 0 0 0 135.73149141325848 -2335.0501479701197 0 -2335.0501479701197 1053.1904453922471 0 0 0 0 23.240067039594578 -2172.4297054141753 0 -2172.4297054141753 1274.4222941802291 0 0 0 0 -0.32524784392444417 -2103.9744489833247 0 -2103.9744489833247 1253.841306642862 0 0 0 0 -180.22388683161989 -2104.2925207751759 0 -2104.2925207751759 1632.2280061975471 0 0 0 0 193.91837380599463 -1987.399654449735 0 -1987.399654449735 1282.5124253786053 0 0 0 0 -115.70150268293219 -1723.2071996075538 0 -1723.2071996075538 1170.4816049319197 0 0 0 0 -9.893863918749048 -1491.5037153010594 0 -1491.5037153010594 1424.5999035304703 0 0 0 0 -115.91118794563135 -1730.4130044783576 0 -1730.4130044783576 1966.4678959526645 0 0 0 0 683.35093956916535 -1187.2357814309435 0 -1187.2357814309435 292.86972028846503 0 0 0 0 1456.0256338990876 -2018.0562076614515 0 -2018.0562076614515 615.5107090701058 0 0 0 0 257.69294396939222 -2000.5365652297623 0 -2000.5365652297623 1044.6613593411203 0 0 0 0 763.13940462606843 -1683.9641612005362 0 -1683.9641612005362 502.14169405747089 0 0 0 0 34.703305870847544 -1069.8257890468085 0 -1069.8257890468085 487.48742791754194 0 0 0 0 409.17289858672302 -1345.4864954576624 0 -1345.4864954576624 683.14997619384667 0 0 0 0 -65.859428486992954 -116.05927337258657 0 -116.05927337258657 -37.526016789407201 0 0 0 0 554.87316363761784 -1126.2718058633036 0 -1126.2718058633036 270.63569415114762 0 0 0 0 -475.11003201280255 -218.30865679081762 0 -218.30865679081762 119.76884669106221 0 0 0 0 257.01444349548547 -483.42381870817917 0 -483.42381870817917 -0.41788754927256377 0 0 0 0 -119.58639328350546 -1514.0315336936837 0 -1514.0315336936837 1848.6611719162465 0 0 0 0 -185.64349520677933 -1434.5424451959116 0 -1434.5424451959116 2098.232711249002 0 0 0 0 -538.45625070331153 -586.6565625010262 0 -586.6565625010262 1525.7405302136904 0 0 0 0 -244.67595896369312 -1208.2364410103764 0 -1208.2364410103764 1230.7107252636197 0 0 0 0 -467.0821487205103 -805.53597328200703 0 -805.53597328200703 2174.0163627577422 0 0 0 0 -210.57728307423531 -1638.7004537326211 0 -1638.7004537326211 2392.9459321112663 0 0 0 0 -510.30799308713176 -1358.5912600710799 0 -1358.5912600710799 2874.5965764686553 0 0 0 0 -68.719809479612991 -107.43476887449549 0 -107.43476887449549 -28.429296271938014 0 0 0 0 139.04866318324639 -1203.9616854015439 0 -1203.9616854015439 2612.1419419125596 0 0 0 0 -248.40002498115064 -1770.3158572812172 0 -1770.3158572812172 4657.3431317109989 0 0 0 0 -428.65685531034251 -2002.2738798624923 0 -2002.2738798624923 2453.4086477568198 0 0 0 0 445.12830529054918 -1751.7276677479604 0 -1751.7276677479604 1472.1612825719494 0 0 0 0 -58.38412680948386 -2007.2752533174789 0 -2007.2752533174789 1475.3644322585114 0 0 0 0 802.08231986177634 -1731.0394457552136 0 -1731.0394457552136 1323.7194266997976 0 0 0 0 -236.13219006280997 -1663.2088803982406 0 -1663.2088803982406 3031.4973130855565 0 0 0 0 765.08174794485967 -1301.727535060345 0 -1301.727535060345 3058.4929003697107 0 0 0 0 -33.667042952598422 -2094.2724444697014 0 -2094.2724444697014 6383.7382187171934 0 0 0 0 1083.5271420174176 -1395.1088151261956 0 -1395.1088151261956 3022.2170663495635 0 0 0 0 218.63123356745928 -1343.0039968946148 0 -1343.0039968946148 1100.6664627154096 0 0 0 0 -169.30412345970399 -1312.4867134366359 0 -1312.4867134366359 3064.474991006231 0 0 0 0 751.53292031769524 -1036.6987543689247 0 -1036.6987543689247 1377.8189432939544 0 0 0 0 -124.18006726211752 -945.93173364636459 0 -945.93173364636459 1368.6420049259177 0 0 0 0 -283.04522826566244 -693.02107681023153 0 -693.02107681023153 974.16516646029777 0 0 0 0 -353.844823498599 -1186.0066266049325 0 -1186.0066266049325 11.663499836417031 0 0 0 0 135.63167597842403 -1348.6841623147611 0 -1348.6841623147611 233.46471204818226 0 0 0 0 -66.099843724805396 -800.48510277519381 0 -800.48510277519381 -139.32896764878387 0 0 0 0 -0.24612697344855405 -1626.486413893399 0 -1626.486413893399 -250.62285367256845 0 0 0 0 -156.90133800664626 -1013.9838752479991 0 -1013.9838752479991 469.41223099847412 0 0 0 0 152.42243308387333 -1748.1458383633126 0 -1748.1458383633126 1337.7496809334261 0 0 0 0 29.540222008377896 -1915.7553763024334 0 -1915.7553763024334 424.30709210844361 0 0 0 0 -345.35131419904064 -1654.0825643090502 0 -1654.0825643090502 -955.21833483834052 0 0 0 0 -404.19102631241549 -935.70600923897291 0 -935.70600923897291 -841.92147769474104 0 0 0 0 -89.520953235391062 -1586.2425543264908 0 -1586.2425543264908 -1723.1489739810495 0 0 0 0 -288.41964166333128 -1137.973848468353 0 -1137.973848468353 -2108.7607450401119 0 0 0 0 -436.57953924441244 -1710.1387568313949 0 -1710.1387568313949 -2438.2393577076873 0 0 0 0 -1029.4146842003829 -962.078050748034 0 -962.078050748034 -1423.9705283946096 0 0 0 0 -221.39577443718736 -1841.7574042008255 0 -1841.7574042008255 -3534.147622853081 0 0 0 0 -870.94748622985207 -2298.5912563928723 0 -2298.5912563928723 -3657.0447421732106 0 0 0 0 -227.39731998089701 -1955.3994567590125 0 -1955.3994567590125 -2791.6677713021854 0 0 0 0 -243.91693918843521 -1860.6425074909275 0 -1860.6425074909275 -2885.5266186351291 0 0 0 0 -146.6258000425878 -2117.7792568596196 0 -2117.7792568596196 -3083.1200143247406 0 0 0 0 -238.12411023341701 -2264.9458935472503 0 -2264.9458935472503 -3257.4955208777828 0 0 0 0 -463.14842495479388 -1896.4880495782272 0 -1896.4880495782272 -2629.5346706290293 0 0 0 0 -1245.6395021924109 -2396.2264744625718 0 -2396.2264744625718 -2934.0657398085605 0 0 0 0 -459.94174689582724 -1695.6377209906568 0 -1695.6377209906568 -2623.7289821450686 0 0 0 0 -713.47261676145718 -2017.5634248595816 0 -2017.5634248595816 -2603.4127384111343 0 0 0 0 -156.94315287095378 -1530.753594213289 0 -1530.753594213289 -2397.5258258014874 0 0 0 0 -601.73953108229762 -1607.8883312571179 0 -1607.8883312571179 -1766.2616817718663 0 0 0 0 -1042.854701053875 -1524.6713389624856 0 -1524.6713389624856 -2024.5002285136579 0 0 0 0 -316.68212345729989 -1079.2639450515562 0 -1079.2639450515562 -1816.4339673440118 0 0 0 0 -467.0354817470361 -1104.4467402578375 0 -1104.4467402578375 -885.83883493491157 0 0 0 0 -90.33963602714357 -1273.1570059978185 0 -1273.1570059978185 -1753.1957018510252 0 0 0 0 -265.43108826419848 -1026.5513866657366 0 -1026.5513866657366 -1033.3502216048655 0 0 0 0 -193.5562816906895 -1380.9217882453086 0 -1380.9217882453086 -779.86102541054424 0 0 0 0 -18.399203453893278 -906.7210678033025 0 -906.7210678033025 -893.19306484368281 0 0 0 0 -491.12287440232467 -1111.173474084615 0 -1111.173474084615 6.3457177740929183 0 0 0 0 -499.878485079651 -973.23784964314109 0 -973.23784964314109 -58.319768805347849 0 0 0 0 -59.935767358547309 -1136.95544823604 0 -1136.95544823604 -906.5372102446745 0 0 0 0 81.214047936431598 -1060.8407861909 0 -1060.8407861909 -1707.8818136165719 0 0 0 0 -509.08967711851437 -999.78169239414819 0 -999.78169239414819 -895.88988151797821 0 0 0 0 -204.39221238448226 -1358.5022486780108 0 -1358.5022486780108 -1608.1053832332909 0 0 0 0 -248.04430523522024 -1202.7697770394698 0 -1202.7697770394698 -1734.8233627788431 0 0 0 0 -456.3337515431449 -773.67572957947232 0 -773.67572957947232 -2223.2736203047971 0 0 0 0 -247.31615528574912 -1250.6273710408641 0 -1250.6273710408641 -2485.782735245386 0 0 0 0 -968.0477848155424 -1357.2656355682848 0 -1357.2656355682848 -2614.0201238811205 0 0 0 0 -327.93626393488375 -1083.8621472076156 0 -1083.8621472076156 -2537.0206028501707 0 0 0 0 -75.024898041505367 -1109.7434692852912 0 -1109.7434692852912 -2271.2753732828523 0 0 0 0 34.592296589835314 -949.93180308889714 0 -949.93180308889714 -2296.8854555454609 0 0 0 0 0.0058937825378961861 -1242.0293658387709 0 -1242.0293658387709 -1657.8756703322579 0 0 0 0 -201.01978694360878 -800.09675152075943 0 -800.09675152075943 -1372.5466652866344 0 0 0 0 6.40071391951642 -862.43032752601721 0 -862.43032752601721 -498.91542481133365 0 0 0 0 -0.22453680132457521 -1320.3282698038856 0 -1320.3282698038856 -919.9369399634088 0 0 0 0 0.35308829254982588 -1317.9778223266267 0 -1317.9778223266267 -211.58184146188432 0 0 0 0 -228.25156168514513 -1167.0346411101855 0 -1167.0346411101855 453.63845780154224 0 0 0 0 366.41003248258494 -999.7505415493506 0 -999.7505415493506 497.93167439304671 0 0 0 0 -383.82453001162503 -1131.7751458401326 0 -1131.7751458401326 -199.42741837048379 0 0 0 0 95.717548036845983 -1104.0835763952855 0 -1104.0835763952855 -198.06826046960487 0 0 0 0 -332.66747644080897 -1045.2430792496889 0 -1045.2430792496889 -65.976001972215272 0 0 0 0 -428.25151545425615 -1282.8242647968727 0 -1282.8242647968727 645.75141438540595 0 0 0 0 -39.25722063035937 -1603.7513077473777 0 -1603.7513077473777 712.14658678609339 0 0 0 0 -748.9396646778041 -649.71202418522444 0 -649.71202418522444 1674.5853336117725 0 0 0 0 -1322.5203094580211 -1874.6023543081174 0 -1874.6023543081174 955.90324417009833 0 0 0 0 -1777.8097223163059 -2681.1322407803382 0 -2681.1322407803382 3023.68388059071 0 0 0 0 -1792.5767498832577 -2013.0877523037807 0 -2013.0877523037807 2441.5007804880443 0 0 0 0 820.91356624171021 -2061.0518294763388 0 -2061.0518294763388 900.21263764619289 0 0 0 0 -11.197598657842093 -7.4855056472285995 0 -7.4855056472285995 1.6695607803491441 0 0 0 0 424.60273374570534 -1336.566379277996 0 -1336.566379277996 1929.3443124960177 0 0 0 0 447.38078464080172 -870.19000382749073 0 -870.19000382749073 1403.228455115699 0 0 0 0 -0.29042333668162584 -1249.2626225234383 0 -1249.2626225234383 1085.8486492778175 0 0 0 0 892.28194919068665 -985.17707863966166 0 -985.17707863966166 893.22598261943494 0 0 0 0 -184.10919120851031 -1343.240525288471 0 -1343.240525288471 822.15444643763476 0 0 0 0 -113.40775255257904 -205.03650775575079 0 -205.03650775575079 -37.624500091493246 0 0 0 0 -1.3034130910127715 2.3880425807035977 0 2.3880425807035977 -2.4413573287217218 0 0 0 0 0.072576605365611613 -322.40664332816232 0 -322.40664332816232 -248.32393447593859 0 0 0 0 -541.07130956996116 -356.45828540662478 0 -356.45828540662478 -189.13029426727797 0 0 0 0 -340.68855775835982 -346.84743668285773 0 -346.84743668285773 -189.31387993706869 0 0 0 0 -557.33625917727477 -414.72978074508137 0 -414.72978074508137 -385.92257204779889 0 0 0 0 4.0960117693896905 -4.1751842242445605 0 -4.1751842242445605 -3.8501243585048712 0 0 0 0 -78.06008283016854 -311.13426248897304 0 -311.13426248897304 -618.99453881314548 0 0 0 0 -323.12964978229138 -293.03849102124514 0 -293.03849102124514 34.985481174933739 0 0 0 0 -1.1843240661788741 2.768218880999342 0 2.768218880999342 -1.7623926287859746 0 0 0 0 -397.47741074590886 -649.66695144787809 0 -649.66695144787809 -838.93545893261035 0 0 0 0 -850.17871386089246 -401.9295249898787 0 -401.9295249898787 468.9419222186516 0 0 0 0 -694.78180903452449 -671.43497365200528 0 -671.43497365200528 85.067316646651307 0 0 0 0 -1113.8775489860564 -682.21164281047822 0 -682.21164281047822 -139.46286580867309 0 0 0 0 -934.91885242523495 -480.00903165189402 0 -480.00903165189402 -22.504281217465177 0 0 0 0 -1004.6137047421653 -691.15064901089499 0 -691.15064901089499 -202.14732950702455 0 0 0 0 -186.66500085264852 -692.39629508334838 0 -692.39629508334838 -796.26711200620775 0 0 0 0 -868.32208453031853 -802.8893055901226 0 -802.8893055901226 -122.60412480738887 0 0 0 0 -257.628738673513 -1013.9213137920046 0 -1013.9213137920046 -1250.5649508885181 0 0 0 0 -80.269131014472805 -465.91414039232041 0 -465.91414039232041 -415.25136704225588 0 0 0 0 -0.52565703945583664 -867.16252783870004 0 -867.16252783870004 -1173.0273795298835 0 0 0 0 -0.41418186285591219 -999.09194310616294 0 -999.09194310616294 -1280.614201188926 0 0 0 0 -213.41635648913871 -1202.3452063200357 0 -1202.3452063200357 -1613.4437807711147 0 0 0 0 -245.24856020486914 -1412.5269420111558 0 -1412.5269420111558 -1798.9008850303508 0 0 0 0 -390.31784086291827 -1357.4438409171039 0 -1357.4438409171039 -1630.417257278059 0 0 0 0 -366.67317457628087 -1556.485098398538 0 -1556.485098398538 -1830.0365726717027 0 0 0 0 -14.631293496291619 -1304.1757601790778 0 -1304.1757601790778 -2441.794849232072 0 0 0 0 0.18721170254414321 -1211.7126744424954 0 -1211.7126744424954 -2340.7029530705622 0 0 0 0 -45.391080842193333 -1412.4881402421797 0 -1412.4881402421797 -2820.502992097332 0 0 0 0 -53.718982718055486 -1030.1919017236032 0 -1030.1919017236032 -2632.7671273528322 0 0 0 0 0.22953609097289704 -1220.100069812225 0 -1220.100069812225 -2549.1019825545372 0 0 0 0 -410.70536212545994 -913.84061194805327 0 -913.84061194805327 -3175.3649926893268 0 0 0 0 -701.8975213044323 -1721.4008162819446 0 -1721.4008162819446 -3001.7606796802556 0 0 0 0 -284.69248790373967 -1305.0623492291998 0 -1305.0623492291998 -2610.1837183541793 0 0 0 0 -634.64553858651198 -1577.981543990727 0 -1577.981543990727 -4518.0058474356192 0 0 0 0 -2183.0418503517285 -3070.7423787984808 0 -3070.7423787984808 -3324.9283668630087 0 0 0 0 -1017.5678768021171 -1557.5259371053617 0 -1557.5259371053617 -1398.1452259646394 0 0 0 0 -743.45847782184137 -1940.9103398216503 0 -1940.9103398216503 -2384.3700539376914 0 0 0 0 -904.51973769400502 -1297.2325292565656 0 -1297.2325292565656 -945.86389080783192 0 0 0 0 -763.46118612353166 -1001.6530625363448 0 -1001.6530625363448 -722.8303804640309 0 0 0 0 -1276.7571849385567 -1630.610975291027 0 -1630.610975291027 -1282.5452388595513 0 0 0 0 -1291.8566565891379 -761.49697564524831 0 -761.49697564524831 -140.3823705454306 0 0 0 0 -1118.381424219333 -540.35558109156773 0 -540.35558109156773 -127.75689659485943 0 0 0 0 -1859.4570713788271 -930.1736577995689 0 -930.1736577995689 -146.87812350651075 0 0 0 0 -1171.8912676096079 -752.72758176461502 0 -752.72758176461502 -330.04011561554216 0 0 0 0 -460.28531578747788 -170.34786291817727 0 -170.34786291817727 -84.97681204447872 0 0 0 0 -1481.3935159181492 -42.493521692073045 0 -42.493521692073045 54.954623417463154 0 0 0 0 -90.470844889612636 55.802536184848577 0 55.802536184848577 -242.45885426887253 0 0 0 0 1792.1442007659934 -4041.7283382402748 0 -4041.7283382402748 217.34430172786597 0 0 0 0 -36.908102437834089 -51.795094216837356 0 -51.795094216837356 -43.781013156237776 0 0 0 0 95.25631859285204 -414.4447469053257 0 -414.4447469053257 -146.10016732249642 0 0 0 0 -468.57401744474191 -120.20458346104715 0 -120.20458346104715 197.06559168780223 0 0 0 0 509.70782675454393 -443.05640520397719 0 -443.05640520397719 3392.3809227816382 0 0 0 0 -4205.5267092728172 -2045.7941131482949 0 -2045.7941131482949 -503.31369951751367 0 0 0 0 -4231.8802223222447 -563.61568915771932 0 -563.61568915771932 57.801586922338174 0 0 0 0 -1828.7328035847167 -1265.2449058388956 0 -1265.2449058388956 -835.83859460060194 0 0 0 0 -2256.7108680739184 523.96263783287577 0 523.96263783287577 378.48986502485059 0 0 0 0 3231.7046964720357 -847.58100704002572 0 -847.58100704002572 -3344.2444718377374 0 0 0 0 476.63372270768741 -2369.9974425345426 0 -2369.9974425345426 -4078.9707662339715 0 0 0 0 -17.380738076893522 -23.654921234369169 0 -23.654921234369169 -24.721099735567435 0 0 0 0 4014.4338638140762 -7.6857526225649053 0 -7.6857526225649053 -2473.8298559940376 0 0 0 0 -776.66241022718896 -3128.9998215820524 0 -3128.9998215820524 -3699.6435143578856 0 0 0 0 306.88963653646351 -1936.129797120906 0 -1936.129797120906 -3098.6707868269295 0 0 0 0 -2640.5080327704272 -2088.4403140288814 0 -2088.4403140288814 -2669.714140604483 0 0 0 0 -1426.0144066215435 -708.08559893301208 0 -708.08559893301208 -3531.0886771409714 0 0 0 0 -723.82273479297874 -1931.4399640437769 0 -1931.4399640437769 -2575.2185515137608 0 0 0 0 143.74512094615784 -957.19815329494304 0 -957.19815329494304 -1819.2730095905572 0 0 0 0 -162.53348701194045 -1669.5823453358462 0 -1669.5823453358462 -3249.1568577531798 0 0 0 0 2030.2545084870653 -311.48309232646716 0 -311.48309232646716 -2535.0372061167946 0 0 0 0 -640.69538396652206 -515.56694889673963 0 -515.56694889673963 -1490.449685999658 0 0 0 0 -1011.5971941359167 -1002.2992657400828 0 -1002.2992657400828 -1635.264883850039 0 0 0 0 -1037.282947309126 -984.06143248229637 0 -984.06143248229637 -1587.7438166351058 0 0 0 0 -605.68461968033807 -1024.8922637998767 0 -1024.8922637998767 -1377.8767212417661 0 0 0 0 -275.11947993685317 -45.738785391800775 0 -45.738785391800775 -12.700788393485709 0 0 0 0 -247.08469209815667 -1039.1424739217182 0 -1039.1424739217182 -1807.6228483072337 0 0 0 0 245.93655972310808 -1685.8681089980528 0 -1685.8681089980528 -1045.7870504049351 0 0 0 0 -305.60065028618556 -303.45729977115843 0 -303.45729977115843 -70.273423508711858 0 0 0 0 -263.76414067129372 -753.08831330557587 0 -753.08831330557587 -1738.6374985101866 0 0 0 0 -11.278649226907191 -3.9144538422688555 0 -3.9144538422688555 0.1028245791864606 0 0 0 0 2163.0386256609636 -1118.3074990011519 0 -1118.3074990011519 1326.6197537846165 0 0 0 0 897.00538089533802 -1680.4955957402344 0 -1680.4955957402344 1935.2900415835174 0 0 0 0 300.36602063257305 -1103.7007818166858 0 -1103.7007818166858 1724.7017604330031 0 0 0 0 954.2932909418887 -402.30047542875218 0 -402.30047542875218 83.692407198788715 0 0 0 0 1039.7961227099695 -828.61214042522079 0 -828.61214042522079 407.73803482201765 0 0 0 0 308.1536544362898 -965.90012098433726 0 -965.90012098433726 1839.8812544291359 0 0 0 0 -38.197534526756499 245.08986226464185 0 245.08986226464185 176.81421136307927 0 0 0 0 -61.948333225765964 -60.515498363580264 0 -60.515498363580264 12.362554964210176 0 0 0 0 -44.091234117447129 -51.171073038023621 0 -51.171073038023621 -32.555024728085385 0 0 0 0 271.6250555125298 -686.27422010257942 0 -686.27422010257942 1347.9823946453207 0 0 0 0 238.54901501514541 -246.12314658583637 0 -246.12314658583637 -51.029440872523992 0 0 0 0 -9.43721836124314 78.413357079931302 0 78.413357079931302 -18.103564480526984 0 0 0 0 -356.82777406807872 -200.11451330894852 0 -200.11451330894852 -33.396720278753492 0 0 0 0 -852.1178056235658 -460.56632351142616 0 -460.56632351142616 -180.96429134671052 0 0 0 0 -1008.4192878931062 -374.89523006165473 0 -374.89523006165473 58.911879776205751 0 0 0 0 -851.96910549805034 -113.4346999264817 0 -113.4346999264817 62.429356043430744 0 0 0 0 -531.12202310963767 -54.363161611567193 0 -54.363161611567193 -13.38904667859606 0 0 0 0 -700.25819987407885 -324.13255564781866 0 -324.13255564781866 -28.145131643344939 0 0 0 0 -803.17667155625531 -462.17638508656455 0 -462.17638508656455 -99.862295740938862 0 0 0 0 -646.97323973951279 -265.05898393635653 0 -265.05898393635653 10.607415392776602 0 0 0 0 -437.34690139724989 -273.36593502509641 0 -273.36593502509641 -142.66509832872543 0 0 0 0 -514.36967358121183 -249.79835764876771 0 -249.79835764876771 -78.567543386023317 0 0 0 0 -433.59801332396455 -329.04712801607093 0 -329.04712801607093 -198.89048941414148 0 0 0 0 -54.602449975791387 -96.428302538843127 0 -96.428302538843127 -132.05163381964667 0 0 0 0 -349.13496981280332 -57.177529373299876 0 -57.177529373299876 6.7830105620669201 0 0 0 0 -308.02664593493682 -136.00302283833662 0 -136.00302283833662 -49.485232361439557 0 0 0 0 -43.11121501085654 -17.701762762729686 0 -17.701762762729686 -46.812596848380053 0 0 0 0 -448.60371735339868 -246.71800329045436 0 -246.71800329045436 -64.210748667901498 0 0 0 0 -189.98618059465662 -63.366938329116238 0 -63.366938329116238 -89.411327279229226 0 0 0 0 -279.01176153728738 -145.34930630140298 0 -145.34930630140298 -122.2273700699443 0 0 0 0 -191.32405792479403 -174.15035054284817 0 -174.15035054284817 -62.160457744488667 0 0 0 0 -287.25791735871462 -261.99633267509125 0 -261.99633267509125 -125.70178768588084 0 0 0 0 -205.24621618154924 -134.98570743232631 0 -134.98570743232631 -150.97799439011578 0 0 0 0 -69.400695160409668 -130.25922360809636 0 -130.25922360809636 -90.481033910305996 0 0 0 0 -83.923188330896664 -33.191537864266138 0 -33.191537864266138 -59.715426430306252 0 0 0 0 90.523951202689204 -63.207515486265038 0 -63.207515486265038 -67.556592340895804 0 0 0 0 71.786530672077788 26.723703690238835 0 26.723703690238835 -14.988945333590891 0 0 0 0 100.02756127656903 -31.061729858553008 0 -31.061729858553008 -43.109540482349985 0 0 0 0 50.351867720979499 4.864072224141637 0 4.864072224141637 -194.79192893118307 0 0 0 0 4.8870376728782503 -8.0758132751597884 0 -8.0758132751597884 1.9606809574879378 0 0 0 0 56.920782888866256 -35.276346522328595 0 -35.276346522328595 -19.425018512232171 0 0 0 0 -29.44129772256116 -49.514671111119299 0 -49.514671111119299 -27.563176354721861 0 0 0 0 159.13993317689165 -122.39325716138046 0 -122.39325716138046 -47.869727942270401 0 0 0 0 130.889831199951 -53.229727743841067 0 -53.229727743841067 -106.09152275903034 0 0 0 0 910.90468053394579 -1001.1127445111197 0 -1001.1127445111197 723.89328321912035 0 0 0 0 269.38358711311594 -503.78895784400083 0 -503.78895784400083 211.75282953643182 0 0 0 0 563.68853171754745 -720.408999916428 0 -720.408999916428 294.23820142190743 0 0 0 0 501.3335718025337 -474.32009796338389 0 -474.32009796338389 128.31786399556222 0 0 0 0 6.5605142976045272 -10.932218444151772 0 -10.932218444151772 -4.9712236587563154 0 0 0 0 871.48013625954627 -190.43358297405211 0 -190.43358297405211 38.491561355656813 0 0 0 0 429.30640883606975 -464.80809086334739 0 -464.80809086334739 -214.19370507537678 0 0 0 0 -101.52054083358962 103.6218037731669 0 103.6218037731669 -5.1632206234944533 0 0 0 0 373.12463426627801 -459.86590162387074 0 -459.86590162387074 134.44724873276846 0 0 0 0 442.28910712100333 -520.55746422722768 0 -520.55746422722768 -52.103860064795299 0 0 0 0 293.85145612998167 -298.05240731916274 0 -298.05240731916274 -145.40145331184067 0 0 0 0 315.0396372397372 -362.67717612780689 0 -362.67717612780689 51.481492945218633 0 0 0 0 117.05759855353972 -439.21116937086481 0 -439.21116937086481 107.59922381798242 0 0 0 0 290.15656659795786 -536.18559278164321 0 -536.18559278164321 145.4527763596634 0 0 0 0 -197.8956960401265 -440.56409227476615 0 -440.56409227476615 272.45619117237948 0 0 0 0 97.228720619896194 -409.03122102727866 0 -409.03122102727866 110.7675667718795 0 0 0 0 -8.9774922774849983 -489.03524573029677 0 -489.03524573029677 276.76809828075784 0 0 0 0 -233.31093119586876 -305.00143828746877 0 -305.00143828746877 414.75388304224907 0 0 0 0 -7.8643298523347767 -501.81878341205811 0 -501.81878341205811 414.52907732626772 0 0 0 0 118.59945975110168 -510.57388353387796 0 -510.57388353387796 409.0628124970608 0 0 0 0 136.53644464858371 -599.62541945049998 0 -599.62541945049998 833.37050385342445 0 0 0 0 -63.561908832067274 -281.38373396641146 0 -281.38373396641146 602.20949977276905 0 0 0 0 -36.699634067044826 -412.67986788051167 0 -412.67986788051167 1138.2275643247558 0 0 0 0 -219.75039830736932 -133.93827622271783 0 -133.93827622271783 843.86558089256141 0 0 0 0 -122.77990418038098 -485.82790179628864 0 -485.82790179628864 695.74349410199648 0 0 0 0 -125.4622617517598 35.361508713605872 0 35.361508713605872 210.42641490137612 0 0 0 0 -230.05468711111462 -206.0039283083388 0 -206.0039283083388 413.61458165287331 0 0 0 0 -81.893457319134541 -49.826825263169297 0 -49.826825263169297 2.1930633661972934 0 0 0 0 -450.24515406531282 -65.547446053882595 0 -65.547446053882595 596.57671356577339 0 0 0 0 -26.1437091150583 -17.883298496635689 0 -17.883298496635689 1032.0160293563094 0 0 0 0 -60.615791435004212 -139.45820634410484 0 -139.45820634410484 693.47628518549027 0 0 0 0 -9.5973630116145614 12.096058003778587 0 12.096058003778587 22.214180684010799 0 0 0 0 -47.244984868731308 -50.582941001767807 0 -50.582941001767807 -9.137069139389709 0 0 0 0 29.737534886808135 -65.369323997627362 0 -65.369323997627362 -167.44915909515112 0 0 0 0 78.010362547895056 -276.06015222485439 0 -276.06015222485439 1487.2474671423261 0 0 0 0 -1.6214978616461622 -1.0270708496266536 0 -1.0270708496266536 -9.7240290379200971 0 0 0 0 34.961243882280542 -180.52379706097645 0 -180.52379706097645 -7.0943171914404957 0 0 0 0 695.48772877489682 -317.7745212175796 0 -317.7745212175796 1251.8642246835589 0 0 0 0 196.39307750476291 -537.56183362556294 0 -537.56183362556294 1433.6084949747019 0 0 0 0 240.98348248293041 -500.75695562053443 0 -500.75695562053443 785.85846659640083 0 0 0 0 183.73513169411672 -614.84276894126651 0 -614.84276894126651 1053.3912554559065 0 0 0 0 768.62345362198539 -1060.8340315200549 0 -1060.8340315200549 766.89638957236457 0 0 0 0 916.07868228625011 -1497.8975890985262 0 -1497.8975890985262 1292.1807735670009 0 0 0 0 -24.907498471817235 -474.50873187789693 0 -474.50873187789693 1945.815674292724 0 0 0 0 -37.182894857309293 -10.434810700069647 0 -10.434810700069647 -79.073083835100988 0 0 0 0 8.1873756007464635 -10.367101171883689 0 -10.367101171883689 -16.779282944657666 0 0 0 0 -33.504266016124348 -13.573717168405409 0 -13.573717168405409 -7.8783634692809414 0 0 0 0 -32.523517995141447 -4.8348445128067397 0 -4.8348445128067397 -72.620479695244285 0 0 0 0 -27.682735363428947 -45.741914142360656 0 -45.741914142360656 -108.67021619080333 0 0 0 0 -18.256789902923629 -43.06962506760037 0 -43.06962506760037 -29.233200035739515 0 0 0 0 -20.451361576444469 4.3866302332899068 0 4.3866302332899068 -116.74992704769102 0 0 0 0 -15.925769491714391 10.352813294227531 0 10.352813294227531 -31.72606017622121 0 0 0 0 125.22853477986064 -19.039159020110674 0 -19.039159020110674 -943.95256100334518 0 0 0 0 -25.645336500971439 -10.340891832510607 0 -10.340891832510607 -6.3466923812038658 0 0 0 0 -52.209958698018454 -41.725470636505634 0 -41.725470636505634 -10.556951141596073 0 0 0 0 54.695528619457036 -21.875097142736195 0 -21.875097142736195 -83.004704419046902 0 0 0 0 -9.0658295562451485 -2.4304386996956282 0 -2.4304386996956282 -1.7896612969667771 0 0 0 0 -133.57109442574438 31.159907424873381 0 31.159907424873381 17.215278881732957 0 0 0 0 -204.01760217838455 -359.54440193352639 0 -359.54440193352639 -2356.4876048133156 0 0 0 0 -650.60413629378309 -420.52085651778907 0 -420.52085651778907 -909.81857437019062 0 0 0 0 -437.01302724385459 -636.72110408719527 0 -636.72110408719527 -954.34336355711275 0 0 0 0 -63.724157749820733 133.4097852237901 0 133.4097852237901 -1244.4579187273048 0 0 0 0 115.39818642327737 -166.46910960971945 0 -166.46910960971945 -813.06062569955247 0 0 0 0 95.818217697553337 -94.466875031226664 0 -94.466875031226664 -730.65602933243281 0 0 0 0 247.16760096611688 -393.16293516872975 0 -393.16293516872975 -667.66336801704165 0 0 0 0 84.863708211370977 -409.50453249365819 0 -409.50453249365819 -91.637823979806853 0 0 0 0 246.33147748422925 -182.95810209559568 0 -182.95810209559568 -656.50822359957965 0 0 0 0 222.96696628184327 -620.63861921114085 0 -620.63861921114085 -192.26606975554023 0 0 0 0 57.311091162846424 -380.09955352602992 0 -380.09955352602992 32.731904151645722 0 0 0 0 195.09858872904442 -501.9760910553523 0 -501.9760910553523 -70.379232534643961 0 0 0 0 170.98294611414894 -795.50058008467386 0 -795.50058008467386 263.27567171023111 0 0 0 0 -479.98915800696705 29.573547342370148 0 29.573547342370148 2051.7264807654251 0 0 0 0 -1138.9902901971218 -1134.2009308046327 0 -1134.2009308046327 787.31367944995873 0 0 0 0 -1374.7059781096468 -1753.986886818253 0 -1753.986886818253 -825.8189377814997 0 0 0 0 -141.56593314185739 -311.79314225968847 0 -311.79314225968847 -219.92700621608321 0 0 0 0 -340.15534326323541 -296.93613451973943 0 -296.93613451973943 -56.908542395700351 0 0 0 0 -98.576555115182998 -47.781358724939857 0 -47.781358724939857 11.351744010728083 0 0 0 0 141.54533274305868 -228.8846938508068 0 -228.8846938508068 287.36020292493049 0 0 0 0 -200.6280610775575 -485.27288811776089 0 -485.27288811776089 1035.5229224016 0 0 0 0 125.55576440738514 -340.99961164924025 0 -340.99961164924025 -1.0631862604350317 0 0 0 0 51.594032705761492 -184.87359926066711 0 -184.87359926066711 474.30341316160047 0 0 0 0 21.110352983465418 -402.99713013310975 0 -402.99713013310975 -9.9496419261122355 0 0 0 0 42.188402067695279 -451.39519476616988 0 -451.39519476616988 431.81137986356043 0 0 0 0 122.23725930420915 -461.16570199068519 0 -461.16570199068519 20.020738014078233 0 0 0 0 91.082341686589643 -513.60068542500085 0 -513.60068542500085 -55.840298123097455 0 0 0 0 -48.532490631274413 -373.12884910874709 0 -373.12884910874709 -160.6649426799122 0 0 0 0 76.829481807595585 -345.71389272007218 0 -345.71389272007218 -397.02839153208333 0 0 0 0 185.07342686818447 -452.87378959015768 0 -452.87378959015768 -343.04270764923422 0 0 0 0 -219.57397633331129 -173.53091424840386 0 -173.53091424840386 -550.37153143295291 0 0 0 0 171.21338997528073 -370.66177476352459 0 -370.66177476352459 -482.90156667667907 0 0 0 0 -17.438769019456231 -422.71968541667593 0 -422.71968541667593 -437.93939693114953 0 0 0 0 1.0986974984552944 -345.36624721541011 0 -345.36624721541011 -448.3040175272472 0 0 0 0 -90.431043689208536 -54.476144816197611 0 -54.476144816197611 -7.6401901405033072 0 0 0 0 -339.97196173726115 -290.00027908665652 0 -290.00027908665652 -56.728926731375395 0 0 0 0 -47.339197976862351 -13.199522805264778 0 -13.199522805264778 -1.7273075970252805 0 0 0 0 -96.361121640482452 -132.10821205263346 0 -132.10821205263346 -48.20115644080397 0 0 0 0 -38.768232263508253 -10.112025050708326 0 -10.112025050708326 -32.980831879423931 0 0 0 0 4.8100170725282965 -17.716517012685017 0 -17.716517012685017 -7.1217170284397184 0 0 0 0 -5.4513416456083519 0.87320645438381916 0 0.87320645438381916 -15.218489876275811 0 0 0 0 -36.626456302212318 7.8838994235702557 0 7.8838994235702557 -49.454230050323531 0 0 0 0 -18.923178227436438 -26.157534598454731 0 -26.157534598454731 -125.57804851711262 0 0 0 0 -86.410241617908468 -75.140065616666107 0 -75.140065616666107 -122.88994137896225 0 0 0 0 -46.146242785907816 -25.474695708355284 0 -25.474695708355284 -129.33385480989818 0 0 0 0 -52.940633033664199 -102.79860795217974 0 -102.79860795217974 -127.33344035844129 0 0 0 0 26.423212855186648 -96.68151356344606 0 -96.68151356344606 -435.86635063550784 0 0 0 0 38.881449113419876 34.249917055150036 0 34.249917055150036 -241.44769075827207 0 0 0 0 -140.25144265829658 -311.06051009422481 0 -311.06051009422481 -399.36431391621591 0 0 0 0 -113.83390434342073 -175.65002168996216 0 -175.65002168996216 -207.3338760084298 0 0 0 0 -1108.4045275904937 100.66261370980646 0 100.66261370980646 202.31905843823915 0 0 0 0 -118.70425650544337 -42.941235414825826 0 -42.941235414825826 34.41275285226714 0 0 0 0 -500.57262201028061 -442.56230794455041 0 -442.56230794455041 -615.98714618342638 0 0 0 0 -34.834985594825582 0.047739694706564251 0 0.047739694706564251 51.821698259484208 0 0 0 0 -449.74648572396836 -976.15913415907562 0 -976.15913415907562 180.69265871259267 0 0 0 0 -267.90305677400102 73.664622734458135 0 73.664622734458135 454.31326463641017 0 0 0 0 -102.46018693553356 -77.484997076792837 0 -77.484997076792837 45.04389263161903 0 0 0 0 0.87461614059861859 -140.4896964967289 0 -140.4896964967289 49.57560286811534 0 0 0 0 894.67449975017371 -938.53791799682222 0 -938.53791799682222 -1388.7099964595691 0 0 0 0 -305.18977773810911 -552.81893575485083 0 -552.81893575485083 255.05749563234713 0 0 0 0 246.6570102062833 -478.16616343290661 0 -478.16616343290661 5.0081069865991594 0 0 0 0 -439.64822233628365 -430.73130699551257 0 -430.73130699551257 692.00865471639554 0 0 0 0 -107.55627059789617 -56.077883149901147 0 -56.077883149901147 9.8864819761570004 0 0 0 0 -348.4104082720587 439.79952257069817 0 439.79952257069817 -344.36358833096892 0 0 0 0 -17.453268380491181 -1.0970626466797029 0 -1.0970626466797029 -0.53738051098830653 0 0 0 0 -156.72676268633222 -67.482654420477047 0 -67.482654420477047 114.37407878740487 0 0 0 0 -1852.0852153081651 697.46848113333544 0 697.46848113333544 1445.316410823245 0 0 0 0 243.06702107953606 -443.62592967354431 0 -443.62592967354431 -266.27318328322144 0 0 0 0 517.55677363922587 -225.5341646275192 0 -225.5341646275192 -201.2932426167099 0 0 0 0 -340.19743582600495 -290.56113829780952 0 -290.56113829780952 -49.365286458196351 0 0 0 0 -19.291945670338748 -26.959575447989295 0 -26.959575447989295 10.443692221520621 0 0 0 0 -530.55886759932037 -993.08288323416491 0 -993.08288323416491 -317.95032875431934 0 0 0 0 -1144.0357572931098 -1143.9128828952089 0 -1143.9128828952089 -34.979398050290911 0 0 0 0 606.78484498690523 -735.53665796239966 0 -735.53665796239966 -554.10902332884143 0 0 0 0 870.27010930344113 -535.25324293534504 0 -535.25324293534504 -1275.447076137116 0 0 0 0 -615.25654472931637 392.77554045982106 0 392.77554045982106 128.84298865232267 0 0 0 0 -687.99429438926745 -8.8975796326485579 0 -8.8975796326485579 -2040.2776483365451 0 0 0 0 -340.02344895337592 -295.97864252826548 0 -295.97864252826548 -50.033345076764817 0 0 0 0 -326.36831140270806 -615.4068720441137 0 -615.4068720441137 846.68531716711004 0 0 0 0 -359.92682400883859 -616.34532915620184 0 -616.34532915620184 2367.8929775641591 0 0 0 0 -183.03708749671932 -1675.8106241508922 0 -1675.8106241508922 -409.74511931091547 0 0 0 0 -787.42596526327543 -2381.5699814137479 0 -2381.5699814137479 871.66770722391084 0 0 0 0 -354.38779001357034 -728.49189556084457 0 -728.49189556084457 1115.4993465776788 0 0 0 0 -863.57917495795118 -3636.2734344030632 0 -3636.2734344030632 -2525.6568549102522 0 0 0 0 -457.47161827649688 -473.32653205620591 0 -473.32653205620591 -3066.1905846483351 0 0 0 0 27.686042011465133 -19.876735771447102 0 -19.876735771447102 -6.7475601191938495 0 0 0 0 -952.79494392493507 -905.02477978120442 0 -905.02477978120442 -2589.4365878457465 0 0 0 0 477.59653413620981 -741.77242053827285 0 -741.77242053827285 392.94786307419417 0 0 0 0 -1405.3054497718549 -1079.8540483167963 0 -1079.8540483167963 -1176.5475400101568 0 0 0 0 -407.03654912958154 -175.81323013739893 0 -175.81323013739893 -2788.95497461583 0 0 0 0 -922.89151651688735 -746.52994919782213 0 -746.52994919782213 -1750.2729705102975 0 0 0 0 -1244.7473149048164 -1170.6922123026743 0 -1170.6922123026743 -341.18197141725977 0 0 0 0 -1080.9726282793854 -221.78722136370197 0 -221.78722136370197 -711.69804067153018 0 0 0 0 -1449.713706851544 -1054.1338002025659 0 -1054.1338002025659 -49.787724408437498 0 0 0 0 -1077.154204004124 -1034.0046032553073 0 -1034.0046032553073 -230.00895969790872 0 0 0 0 -1356.3571661594324 -963.33891704527923 0 -963.33891704527923 38.277562984207179 0 0 0 0 -1159.6679731106124 -87.206473305901454 0 -87.206473305901454 367.53898673906224 0 0 0 0 7.4389639641847793 -33.907834180924027 0 -33.907834180924027 35.958374997393761 0 0 0 0 61.834825700731017 -483.94735100312391 0 -483.94735100312391 832.92108050781826 0 0 0 0 83.67382848138368 -251.370395885785 0 -251.370395885785 253.65656418240542 0 0 0 0 180.16693751956336 553.50675038005284 0 553.50675038005284 -626.33060997414577 0 0 0 0 147.39571144228555 -121.61075358982387 0 -121.61075358982387 -16.808169380422285 0 0 0 0 169.54616564190655 -240.83934031774334 0 -240.83934031774334 181.01320421494347 0 0 0 0 40.154324974013861 -126.60297093308307 0 -126.60297093308307 240.23490548536381 0 0 0 0 129.05418586102314 -232.45833953071269 0 -232.45833953071269 205.19042027157047 0 0 0 0 -167.74587880057516 -220.06027364647889 0 -220.06027364647889 181.37195964068815 0 0 0 0 -404.4125789590762 -253.54650193770794 0 -253.54650193770794 219.17541360718315 0 0 0 0 20.747762251907261 -198.00955279092886 0 -198.00955279092886 198.83394190365789 0 0 0 0 -16.968577826969657 -105.87139303632803 0 -105.87139303632803 243.9635272518554 0 0 0 0 -242.97102014400298 -130.85721136933716 0 -130.85721136933716 244.16084025846794 0 0 0 0 -146.09794300286376 -314.71750893933904 0 -314.71750893933904 153.74739628077441 0 0 0 0 16.603705865596694 -174.54842266399817 0 -174.54842266399817 94.812174863092764 0 0 0 0 22.11804926521711 -176.39429674274803 0 -176.39429674274803 121.51657623309131 0 0 0 0 -29.041705529467436 -126.19301043051382 0 -126.19301043051382 44.144135308160912 0 0 0 0 -52.295787901581264 -126.64491134718375 0 -126.64491134718375 133.37022712280955 0 0 0 0 52.157887888033656 -246.94115420418416 0 -246.94115420418416 119.36012382576882 0 0 0 0 74.726900720783306 -309.05694647951714 0 -309.05694647951714 135.21416614964983 0 0 0 0 -86.972153839615316 -49.009115169182294 0 -49.009115169182294 -17.625172144390412 0 0 0 0 243.60739370235387 -637.29672965067925 0 -637.29672965067925 10.327298634056206 0 0 0 0 -329.92057560062676 -516.2987542575911 0 -516.2987542575911 433.45688326731033 0 0 0 0 17.198408695672697 -95.265845153075816 0 -95.265845153075816 267.47646760702264 0 0 0 0 18.248328686648222 -95.702306513422826 0 -95.702306513422826 -48.055422776827335 0 0 0 0 -99.064232992224788 -364.68469035967314 0 -364.68469035967314 81.218526759024826 0 0 0 0 -69.022917395384866 -491.7046411969477 0 -491.7046411969477 61.851226650604076 0 0 0 0 -62.239171683700988 -152.24321743909604 0 -152.24321743909604 44.117750814810279 0 0 0 0 -54.146042356823614 -82.266529906467511 0 -82.266529906467511 12.754920342454106 0 0 0 0 48.218469539911894 -263.53349472568698 0 -263.53349472568698 93.385405963330413 0 0 0 0 -36.549535787258833 -116.57649449037837 0 -116.57649449037837 100.36445803810612 0 0 0 0 -465.54427147403476 -62.008894295540813 0 -62.008894295540813 228.97948803016334 0 0 0 0 -102.78893724469759 -78.011412598298776 0 -78.011412598298776 103.26832726498577 0 0 0 0 -474.56945583946072 -163.20405161596864 0 -163.20405161596864 216.50053094782379 0 0 0 0 -60.422607430431526 -203.52136900342884 0 -203.52136900342884 119.9404073221267 0 0 0 0 -435.6473571905517 -100.92387884159689 0 -100.92387884159689 190.84272815851728 0 0 0 0 -474.10494403383927 -183.41005700387905 0 -183.41005700387905 405.39934934576013 0 0 0 0 -390.9185746992589 -5.3671371812961297 0 -5.3671371812961297 286.32055777592905 0 0 0 0 -388.08938304972253 -117.300880158582 0 -117.300880158582 454.45975666874438 0 0 0 0 -329.46918766878662 -376.2397027051411 0 -376.2397027051411 458.2198351601287 0 0 0 0 -602.35242130892584 -231.10748883911219 0 -231.10748883911219 345.22489064241745 0 0 0 0 34.38722564449013 -191.31735113986963 0 -191.31735113986963 262.28528869238403 0 0 0 0 -422.89777303175651 -221.88888284344648 0 -221.88888284344648 221.62147318743155 0 0 0 0 -256.27835651154601 -291.82462302053727 0 -291.82462302053727 121.03663965423402 0 0 0 0 63.080257625612489 -171.28218724954567 0 -171.28218724954567 196.3312524115604 0 0 0 0 -505.45702173875907 -272.83206641625736 0 -272.83206641625736 220.84668636848255 0 0 0 0 -576.30463848856743 -398.54881718590332 0 -398.54881718590332 293.72439253001266 0 0 0 0 249.04924207545992 -244.62190504582395 0 -244.62190504582395 493.22953418065663 0 0 0 0 45.747065738338279 -496.94919857509672 0 -496.94919857509672 184.48319434017412 0 0 0 0 72.298753158653199 -750.16679004523814 0 -750.16679004523814 700.06392282443085 0 0 0 0 -7.1627000496844175 -47.178067552658447 0 -47.178067552658447 -77.364164093020264 0 0 0 0 103.8433817516925 -406.66359170380292 0 -406.66359170380292 208.24859179742089 0 0 0 0 -351.45065569903818 -111.86841803052675 0 -111.86841803052675 374.10371222179128 0 0 0 0 -649.02989374031313 -413.94041361348127 0 -413.94041361348127 -124.2092945239558 0 0 0 0 -465.09676357150238 -429.45418561502572 0 -429.45418561502572 -517.88762857831534 0 0 0 0 -364.67492730485901 -915.77142164512406 0 -915.77142164512406 -732.62431210681461 0 0 0 0 -366.18463057834015 -322.82020862094691 0 -322.82020862094691 194.84812736605454 0 0 0 0 -272.43309637122002 -367.03857956378465 0 -367.03857956378465 -168.93055405808855 0 0 0 0 -443.86335696218885 -174.96234767791668 0 -174.96234767791668 184.29069168304613 0 0 0 0 55.149007530664846 -158.172537457619 0 -158.172537457619 123.44153839071588 0 0 0 0 -404.94855040940456 -254.42524961455001 0 -254.42524961455001 -35.831708843079923 0 0 0 0 -201.04832357174018 -435.12881367862428 0 -435.12881367862428 96.597402096837868 0 0 0 0 -300.06289473938523 -420.93195348910376 0 -420.93195348910376 130.70769145969462 0 0 0 0 -190.99721603709622 -379.70129118031036 0 -379.70129118031036 27.332052979432774 0 0 0 0 92.508773259120062 -328.33416329059946 0 -328.33416329059946 35.804072742830613 0 0 0 0 -524.99369142643991 -370.80620734710965 0 -370.80620734710965 108.82109266973202 0 0 0 0 -579.71926449130842 -85.137810419287916 0 -85.137810419287916 102.17784051884519 0 0 0 0 -899.82118467546388 -666.22469668203439 0 -666.22469668203439 -77.996603161447638 0 0 0 0 66.939530929250992 -140.80368511756811 0 -140.80368511756811 52.077728069865529 0 0 0 0 171.15386333290371 -219.52766417707062 0 -219.52766417707062 -166.9794532314063 0 0 0 0 43.127287911367603 -79.790725718998146 0 -79.790725718998146 -45.249300472180039 0 0 0 0 138.64405102672754 18.410977950774395 0 18.410977950774395 135.10272790800082 0 0 0 0 130.76698343638418 -204.84040481001762 0 -204.84040481001762 -7.1827443620677514 0 0 0 0 72.978609005706744 -68.745916030754685 0 -68.745916030754685 7.3309492875763773 0 0 0 0 -1209.6052222900325 -872.95151347624869 0 -872.95151347624869 -425.91263652745511 0 0 0 0 -930.56013430535677 -301.02214602142885 0 -301.02214602142885 -82.190162431791919 0 0 0 0 -47.886531935192352 -39.80123514275634 0 -39.80123514275634 24.497586348588385 0 0 0 0 -727.35617651697248 -655.85678265304159 0 -655.85678265304159 520.49663661429986 0 0 0 0 -537.01432134199422 -927.77659823680824 0 -927.77659823680824 -29.4467120676224 0 0 0 0 -362.40148639240942 -839.09971974278801 0 -839.09971974278801 -493.77518097319989 0 0 0 0 -124.95310644865094 -743.76441086534146 0 -743.76441086534146 1699.0112187967488 0 0 0 0 -0.81188255501086815 -12.297273476640093 0 -12.297273476640093 -7.3229665576344072 0 0 0 0 -254.86318656109506 -1217.2692317135507 0 -1217.2692317135507 327.78258263299904 0 0 0 0 -555.15017270803219 -369.74424271233784 0 -369.74424271233784 875.88575777863844 0 0 0 0 -41.261633613146842 -334.5549351357804 0 -334.5549351357804 691.16555149595843 0 0 0 0 124.28059983666026 -646.18751079868252 0 -646.18751079868252 1123.3412797261044 0 0 0 0 -540.01924062444596 -299.32363331443776 0 -299.32363331443776 917.01867223135559 0 0 0 0 -162.24663877044804 108.09959811645058 0 108.09959811645058 615.1543473800557 0 0 0 0 73.77812868275214 -48.533830105692687 0 -48.533830105692687 -109.71277440435915 0 0 0 0 -195.82907973857073 195.71920282302381 0 195.71920282302381 1380.3500953583462 0 0 0 0 -20.869710855356345 -25.526012687407984 0 -25.526012687407984 -17.185260320462504 0 0 0 0 -793.29817020712653 25.511455795788606 0 25.511455795788606 545.07927025196113 0 0 0 0 -555.06745278032395 -204.21880094173048 0 -204.21880094173048 339.86972234198765 0 0 0 0 -454.74426333188603 -94.815933214194956 0 -94.815933214194956 479.19539567437096 0 0 0 0 -487.4738838665362 -373.38460751886305 0 -373.38460751886305 -238.88883000431088 0 0 0 0 -112.54939727492746 -91.183283688415486 0 -91.183283688415486 5.1572197519778546 0 0 0 0 -402.2605601499672 -218.03264960169508 0 -218.03264960169508 -54.909012101051076 0 0 0 0 -44.39007528500224 -38.336977766799464 0 -38.336977766799464 -238.91749852232533 0 0 0 0 -51.013155474414816 -119.5904734172982 0 -119.5904734172982 -269.21891843743833 0 0 0 0 -3.6234040811323212 -24.087819447799731 0 -24.087819447799731 -16.644326936700342 0 0 0 0 50.155311107220228 -9.9743687402106787 0 -9.9743687402106787 -128.56656238338087 0 0 0 0 -77.729156507411972 -131.54755581580321 0 -131.54755581580321 -147.99193757597095 0 0 0 0 4.9398468250656151 -75.016936873935634 0 -75.016936873935634 6.647890315033445 0 0 0 0 -376.87343024031725 -635.36186511232688 0 -635.36186511232688 -889.41636216087522 0 0 0 0 -60.748765703516256 -134.34476625285697 0 -134.34476625285697 -317.53836488831439 0 0 0 0 -407.36981453378394 -363.71637771898986 0 -363.71637771898986 -354.92751927306381 0 0 0 0 59.736386643888665 -14.407366349668365 0 -14.407366349668365 -127.40616032578941 0 0 0 0 -351.06799992924789 -261.40445014387296 0 -261.40445014387296 -262.71047566325296 0 0 0 0 -257.08806599370655 -572.23426169360141 0 -572.23426169360141 -839.31977813256481 0 0 0 0 -337.07321375191896 -809.69287110683081 0 -809.69287110683081 -1043.7968965638233 0 0 0 0 90.680497100910173 -70.008071074808697 0 -70.008071074808697 -38.197658828721188 0 0 0 0 -358.8450627917191 -864.43195470860383 0 -864.43195470860383 -962.61654576927867 0 0 0 0 -324.94529205809522 -987.32935751215837 0 -987.32935751215837 -1408.8490402532386 0 0 0 0 -2.2415722985626303 1.3845291947990859 0 1.3845291947990859 8.9184378765079018 0 0 0 0 816.19814738647256 -756.20831516810824 0 -756.20831516810824 709.65352264466674 0 0 0 0 -2273.8250015344238 -958.68307959501544 0 -958.68307959501544 -2148.0639821260684 0 0 0 0 413.86864401367001 -1261.1970328621805 0 -1261.1970328621805 85.820219101411567 0 0 0 0 -33.612997655900017 -24.921811380814773 0 -24.921811380814773 -18.252201273519027 0 0 0 0 -1853.893416768813 494.30228314841679 0 494.30228314841679 -56.64364624062182 0 0 0 0 -968.7074987058877 436.43095137296768 0 436.43095137296768 -463.71162427733907 0 0 0 0 -770.57892011164222 361.0469777212129 0 361.0469777212129 -453.63606679726217 0 0 0 0 -1226.829754613238 -50.175977775114916 0 -50.175977775114916 357.38905304503714 0 0 0 0 -1260.6838171322015 -1419.2206567285011 0 -1419.2206567285011 -1343.464677458629 0 0 0 0 -2963.6800945164869 -753.9136019286816 0 -753.9136019286816 1068.3972508323423 0 0 0 0 -381.72699427849147 1108.6593863212147 0 1108.6593863212147 882.95786531357351 0 0 0 0 -2876.313671865897 100.24018786138129 0 100.24018786138129 887.6508808234139 0 0 0 0 -5.0024088784187484 4.1700678512077047 0 4.1700678512077047 4.4965561437882897 0 0 0 0 -22.56882324865478 -21.876617685652263 0 -21.876617685652263 52.852138958218994 0 0 0 0 -1184.9850839748542 -263.06226462632367 0 -263.06226462632367 230.30293345325299 0 0 0 0 -112.57348489468234 -90.82917152354625 0 -90.82917152354625 21.332023682721946 0 0 0 0 -1284.8485462199897 -70.265243226283928 0 -70.265243226283928 635.18135586578683 0 0 0 0 -526.61322638736601 -464.86263094156948 0 -464.86263094156948 -311.74664651813873 0 0 0 0 -960.50125967724307 -315.81163019248379 0 -315.81163019248379 128.14276735367662 0 0 0 0 29.066107314654118 -65.373619411871005 0 -65.373619411871005 -30.900459438824328 0 0 0 0 -1024.4925491401082 -346.21993501623547 0 -346.21993501623547 224.88965566033221 0 0 0 0 22.619839765226061 -77.103756982478899 0 -77.103756982478899 -16.725664359026268 0 0 0 0 54.176471680373652 -69.097511073728128 0 -69.097511073728128 -20.870028375195034 0 0 0 0 13.053710371444083 -24.112639714159855 0 -24.112639714159855 -12.070542174996941 0 0 0 0 43.637467178341467 -74.292107273665351 0 -74.292107273665351 -22.975963078476525 0 0 0 0 82.26788829444763 -22.407504798429841 0 -22.407504798429841 -0.91784745288805425 0 0 0 0 23.63238647687831 -21.728281376254927 0 -21.728281376254927 -4.1089427787628665 0 0 0 0 49.163196281777346 -28.424959822320261 0 -28.424959822320261 -20.915060730789719 0 0 0 0 -28.989002130692825 -103.74630884393264 0 -103.74630884393264 -61.860121147108657 0 0 0 0 44.898877472669028 -19.318237070293861 0 -19.318237070293861 4.3644245861255193 0 0 0 0 31.643837053704146 -17.930754806135742 0 -17.930754806135742 -4.2164913910244106 0 0 0 0 27.574618376645958 -117.64987402377665 0 -117.64987402377665 252.55315984444815 0 0 0 0 -20.056580718664918 -55.895863299989742 0 -55.895863299989742 1.6460509591083792 0 0 0 0 -4.3533944463324019 -25.408612430213537 0 -25.408612430213537 -1.6729137856963803 0 0 0 0 36.859840140794404 -57.800863162048699 0 -57.800863162048699 8.7519348512432771 0 0 0 0 19.219646097840496 -40.75830131443999 0 -40.75830131443999 -3.4971918672672713 0 0 0 0 119.07851479657256 -262.4428779692222 0 -262.4428779692222 435.49742921886264 0 0 0 0 99.593344978478854 -194.43257176354246 0 -194.43257176354246 228.20250943346946 0 0 0 0 728.70005889376625 -685.33047107279435 0 -685.33047107279435 408.62092174863983 0 0 0 0 -189.23885472669645 -128.74446925339078 0 -128.74446925339078 632.00284814381848 0 0 0 0 -156.59707529912703 -237.44035609631192 0 -237.44035609631192 565.01000210393249 0 0 0 0 -269.09092151391087 -254.59335390871365 0 -254.59335390871365 482.07333452718831 0 0 0 0 -116.05090763815679 -196.13246638652799 0 -196.13246638652799 503.03828396953031 0 0 0 0 -215.0661635871802 -99.507817255224836 0 -99.507817255224836 378.02704389590872 0 0 0 0 410.30971293503535 -103.09727630264479 0 -103.09727630264479 369.92250478661208 0 0 0 0 -122.03410366964181 -345.89606339656427 0 -345.89606339656427 1018.9993821783482 0 0 0 0 -98.551003209468035 -236.83521400506208 0 -236.83521400506208 1145.028410359133 0 0 0 0 -146.17251270945417 -102.30357845237995 0 -102.30357845237995 506.36976999031356 0 0 0 0 -201.10018393145583 -200.36815549001176 0 -200.36815549001176 539.43378341005473 0 0 0 0 -12.210438941139728 -45.330645081176954 0 -45.330645081176954 579.15634274116383 0 0 0 0 -51.64963941656606 147.33629844251965 0 147.33629844251965 1083.9082411623549 0 0 0 0 -89.837838075472973 -246.04804238067891 0 -246.04804238067891 830.83692791493013 0 0 0 0 -49.884520350198727 159.6325509863027 0 159.6325509863027 698.11716292262622 0 0 0 0 33.095909936680414 -18.38021346573937 0 -18.38021346573937 6.8421414625289865 0 0 0 0 -76.595328116134624 40.828862734668974 0 40.828862734668974 473.4735404604412 0 0 0 0 36.652902122604019 -7.350769261357101 0 -7.350769261357101 -2.6016622960734903 0 0 0 0 42.624576135771349 -14.178765172815474 0 -14.178765172815474 -49.049486373191712 0 0 0 0 -26.444556803286105 -37.077766617226189 0 -37.077766617226189 -228.24943257605082 0 0 0 0 -110.62515396485105 -306.37078093494165 0 -306.37078093494165 -321.97064212500663 0 0 0 0 -5.8824595459645934 -214.8766625060934 0 -214.8766625060934 -398.66030578403843 0 0 0 0 -26.119320871104719 -89.072554179807412 0 -89.072554179807412 -138.7389072255537 0 0 0 0 -2.595962083163613 -206.13448547780968 0 -206.13448547780968 -546.93914531394876 0 0 0 0 -31.762485168939747 -276.13518478824699 0 -276.13518478824699 -419.08338891803214 0 0 0 0 -17.744980646197519 -4.4304554945607979 0 -4.4304554945607979 -1.0660614882754231 0 0 0 0 3.1059575517720077 -129.27424780252659 0 -129.27424780252659 -806.32244462534618 0 0 0 0 -128.83491195126044 -33.028910214758753 0 -33.028910214758753 -1165.4169719847196 0 0 0 0 -119.62214306736132 -243.49801039856447 0 -243.49801039856447 -558.65302141987559 0 0 0 0 -349.46569346211618 -407.47541056505361 0 -407.47541056505361 -300.03499249090783 0 0 0 0 66.01661572555895 -256.13086422309334 0 -256.13086422309334 -164.47284541148838 0 0 0 0 250.25551921807346 -43.383151195965183 0 -43.383151195965183 -568.34093008005948 0 0 0 0 17.32793305139171 -7.4303845807757511 0 -7.4303845807757511 4.6175229483864655 0 0 0 0 -110.01273207837949 -3.4514334182749735 0 -3.4514334182749735 115.46246094323578 0 0 0 0 179.16006136889337 -4.9561388808419906 0 -4.9561388808419906 -230.41756549499041 0 0 0 0 14.148582127294503 -513.14016023440854 0 -513.14016023440854 -399.1092352878934 0 0 0 0 71.161690272187116 -119.29870576058966 0 -119.29870576058966 -409.92941188274926 0 0 0 0 149.76724334077153 -263.28419821494094 0 -263.28419821494094 -208.12660525615502 0 0 0 0 -6.6494916806371975 2.1846857329494522 0 2.1846857329494522 -0.011558703694486638 0 0 0 0 361.84321773407282 -250.38875942779123 0 -250.38875942779123 -1976.1116998305051 0 0 0 0 -95.144816877902485 -380.78187829800663 0 -380.78187829800663 888.31744343517767 0 0 0 0 -452.93052341304428 -899.56438660612548 0 -899.56438660612548 -1014.0451913371762 0 0 0 0 -176.26534668134991 -644.81580182991001 0 -644.81580182991001 95.157128765633388 0 0 0 0 -53.814313692448195 -361.90465445577502 0 -361.90465445577502 200.10154686805618 0 0 0 0 -121.55172422138276 -458.16502072164803 0 -458.16502072164803 114.95486669521051 0 0 0 0 -39.978911526137381 -420.19115536344179 0 -420.19115536344179 119.31545653459762 0 0 0 0 -118.74829820721061 -355.31792295048581 0 -355.31792295048581 126.40697866088885 0 0 0 0 147.4619683935307 -344.53903887180513 0 -344.53903887180513 51.924530970027263 0 0 0 0 146.39235088555142 -347.20737505453508 0 -347.20737505453508 103.45594717108543 0 0 0 0 202.59077226910449 -277.02473620575802 0 -277.02473620575802 134.33912354426502 0 0 0 0 288.50588896824047 -222.66920977734117 0 -222.66920977734117 33.965092570979323 0 0 0 0 184.79428712424124 17.245726552251654 0 17.245726552251654 -406.9631808038821 0 0 0 0 -140.41923247875093 -211.88010674038651 0 -211.88010674038651 98.058610910724383 0 0 0 0 51.928090724395588 -77.48027094002282 0 -77.48027094002282 118.12015238169533 0 0 0 0 -7.8880372826970415 -172.9638577202677 0 -172.9638577202677 501.26364597904467 0 0 0 0 162.44111340930976 -115.2783810710589 0 -115.2783810710589 195.37051660677753 0 0 0 0 31.329741361390916 -64.623524532064039 0 -64.623524532064039 -30.275206130350853 0 0 0 0 -29.479796837322851 -6.5347098651925233 0 -6.5347098651925233 -1.6095982053016407 0 0 0 0 -71.355396300758002 -146.12427488230605 0 -146.12427488230605 296.18109363377516 0 0 0 0 52.696447059046477 -191.18672336601958 0 -191.18672336601958 -225.62355984111809 0 0 0 0 -4.3576629914168734 -202.51575287345804 0 -202.51575287345804 -59.630823524192238 0 0 0 0 68.266513139681138 -31.387992004341584 0 -31.387992004341584 -13.366138184992593 0 0 0 0 49.603903817740502 -93.29193102789759 0 -93.29193102789759 -72.309609297451971 0 0 0 0 -70.958618653763551 -62.958349409196671 0 -62.958349409196671 35.607486086119025 0 0 0 0 -47.673319176421501 -87.49812264344655 0 -87.49812264344655 -96.214605218454381 0 0 0 0 -186.39195586385904 -90.091914567543427 0 -90.091914567543427 -9.3738411211161292 0 0 0 0 -18.40416049095802 -101.68541697595356 0 -101.68541697595356 -32.924914346075184 0 0 0 0 38.76707045576768 -117.97011376058072 0 -117.97011376058072 -53.462575659785216 0 0 0 0 28.427059606197872 -65.807737657391044 0 -65.807737657391044 63.86939862757572 0 0 0 0 5.1243044808367131 -20.698210824945928 0 -20.698210824945928 -2.439920455718708 0 0 0 0 -147.36385008139769 -75.185545822147105 0 -75.185545822147105 14.636265198365436 0 0 0 0 -127.01144497731002 -160.77523835190732 0 -160.77523835190732 26.516401130829763 0 0 0 0 60.404370255797403 23.801339485882636 0 23.801339485882636 -0.37794931063763215 0 0 0 0 -75.838228644082847 -140.12840805920314 0 -140.12840805920314 69.196732606967998 0 0 0 0 -36.774671508766005 -17.821012534398815 0 -17.821012534398815 1.8258072008431725 0 0 0 0 67.689657076519438 -35.4490418957771 0 -35.4490418957771 -11.334732194909776 0 0 0 0 -75.856989380496088 -116.62055310290452 0 -116.62055310290452 15.315884316663414 0 0 0 0 47.501430535688996 -71.854491671406322 0 -71.854491671406322 -80.315265174354863 0 0 0 0 -128.19020058959723 -119.34568711653083 0 -119.34568711653083 -45.204716771382664 0 0 0 0 7.2133105797947792 61.627593751437416 0 61.627593751437416 34.847693694631744 0 0 0 0 11.311217943322845 -95.364929725143156 0 -95.364929725143156 -54.917122154642129 0 0 0 0 34.012591929081509 -33.969361073048162 0 -33.969361073048162 10.664417711815851 0 0 0 0 -165.53547888642061 -60.285098338645184 0 -60.285098338645184 110.61149435713742 0 0 0 0 -136.43130408461366 -140.11132133780927 0 -140.11132133780927 54.384930978871125 0 0 0 0 -40.044736530486261 -71.125268880643489 0 -71.125268880643489 -76.833343078056714 0 0 0 0 -144.00103466754081 -242.61591970950394 0 -242.61591970950394 -147.62444883602348 0 0 0 0 -38.530515089652909 -216.89313891147276 0 -216.89313891147276 -283.92293209356649 0 0 0 0 -29.84287553348986 -295.10687207606134 0 -295.10687207606134 -447.90879233078067 0 0 0 0 -83.827299896598561 -231.12854565016642 0 -231.12854565016642 -270.99538068517631 0 0 0 0 -10.440291683800751 -50.5164760858097 0 -50.5164760858097 -138.80859362925185 0 0 0 0 -39.009120677626925 -139.05899835089531 0 -139.05899835089531 -320.92642300441003 0 0 0 0 -8.0453082800959237 -104.14143844374485 0 -104.14143844374485 -396.08549801580421 0 0 0 0 -18.612230066442862 -278.78641836355928 0 -278.78641836355928 -424.5582627699082 0 0 0 0 -3.5899543380146497 -257.7733041468523 0 -257.7733041468523 -490.41184802547832 0 0 0 0 1.6218850416771602 -227.12507557862227 0 -227.12507557862227 -387.79759588538855 0 0 0 0 13.218492527259514 -176.50320302929822 0 -176.50320302929822 -443.75444603229698 0 0 0 0 30.344639566288606 -12.332969376032596 0 -12.332969376032596 1.9649307988828346 0 0 0 0 10.410442700122076 -257.47293076664027 0 -257.47293076664027 -811.83943700604459 0 0 0 0 651.08681429512217 -12.925115901286517 0 -12.925115901286517 298.59558447472921 0 0 0 0 51.649965013436145 -16.255712352469473 0 -16.255712352469473 -0.52485115777736069 0 0 0 0 -20.39553644307307 -195.30141904359743 0 -195.30141904359743 -357.9140550458028 0 0 0 0 -43.526688128302339 -397.80497677244125 0 -397.80497677244125 1114.9387477697833 0 0 0 0 -125.26866075101861 -313.86866631627259 0 -313.86866631627259 1104.3503226533351 0 0 0 0 -39.536857427985524 105.01908853626605 0 105.01908853626605 246.87511120586532 0 0 0 0 -351.58122677027131 73.011320392110292 0 73.011320392110292 1093.1977629308533 0 0 0 0 840.52678512658167 -397.95623273805768 0 -397.95623273805768 312.32353688031708 0 0 0 0 2.203759464092343 -4.6630648443016298 0 -4.6630648443016298 7.9082892763052772 0 0 0 0 -4.243374450163742 -4.9728049661496811 0 -4.9728049661496811 1.2529171913293702 0 0 0 0 26.56081306404667 -222.80857394135501 0 -222.80857394135501 464.97406068437488 0 0 0 0 49.5186303340015 -123.37035558671982 0 -123.37035558671982 459.82893342588159 0 0 0 0 151.95261593683972 0.35752264789380206 0 0.35752264789380206 595.79957306458118 0 0 0 0 -50.256153649970656 -35.368916439132818 0 -35.368916439132818 805.861154398086 0 0 0 0 141.03308602594188 -148.57884248787605 0 -148.57884248787605 363.00768396135595 0 0 0 0 194.09072673131595 -27.134547429613121 0 -27.134547429613121 407.14912812551722 0 0 0 0 234.92179489205591 -245.05126625923754 0 -245.05126625923754 848.58665843153972 0 0 0 0 139.82147170146345 108.78965457189361 0 108.78965457189361 1034.562000941271 0 0 0 0 -599.44483586784918 -656.48234424087343 0 -656.48234424087343 2433.4454225433105 0 0 0 0 -184.46589256552397 -231.81074623415861 0 -231.81074623415861 798.61266672119211 0 0 0 0 -326.76265870750649 -498.25210904473875 0 -498.25210904473875 450.38915731511452 0 0 0 0 -134.80141032688698 -203.07528475146847 0 -203.07528475146847 -888.54824298895437 0 0 0 0 9.4564015729158655 -2.7708408605060164 0 -2.7708408605060164 0.61588883405180361 0 0 0 0 -59.48203679692233 -634.64946617532564 0 -634.64946617532564 -1819.5206287499877 0 0 0 0 -106.76928460926865 -372.21135067723935 0 -372.21135067723935 -535.59494953537614 0 0 0 0 -140.04602148759295 -284.32151181386962 0 -284.32151181386962 -548.0873680573186 0 0 0 0 -166.68657537495892 -202.39249232161978 0 -202.39249232161978 -186.58247637000022 0 0 0 0 -356.22615611107358 -24.974565811420604 0 -24.974565811420604 -70.459349644845133 0 0 0 0 -320.64673064867384 -487.53181385742755 0 -487.53181385742755 -536.67349708088295 0 0 0 0 -156.52990858214616 235.54618395846865 0 235.54618395846865 -57.285397394452048 0 0 0 0 1128.6005961940391 -300.80082118136306 0 -300.80082118136306 -337.76419591018475 0 0 0 0 -60.796530193416402 -151.11849167152104 0 -151.11849167152104 -252.93229469319158 0 0 0 0 -204.83250152233813 -396.57246808687501 0 -396.57246808687501 370.2864592339356 0 0 0 0 129.12209360435372 -422.83372169696304 0 -422.83372169696304 -152.6636790805278 0 0 0 0 8.4801537931075472 -6.1976872039323325 0 -6.1976872039323325 2.4416834953727289 0 0 0 0 -399.69932309939759 187.85001407866912 0 187.85001407866912 355.84471831578776 0 0 0 0 1093.1796289400081 -1293.0285129331623 0 -1293.0285129331623 1246.8722949281746 0 0 0 0 -1.7789508404590322 -8.1950958568496048 0 -8.1950958568496048 6.1122915715595454 0 0 0 0 2492.5718499573995 -957.56503935577348 0 -957.56503935577348 142.83236933800708 0 0 0 0 -2083.5008964303561 170.55274296585958 0 170.55274296585958 877.03571615228248 0 0 0 0 -1714.4895610374515 -349.49508580677002 0 -349.49508580677002 1076.1092609546831 0 0 0 0 -239.98850411496824 -877.67125539181234 0 -877.67125539181234 541.81476734423995 0 0 0 0 -991.19496273927507 77.342803610790725 0 77.342803610790725 -283.24429579848947 0 0 0 0 998.66023218564806 -615.19161439036452 0 -615.19161439036452 720.42332634233026 0 0 0 0 -759.21929999729036 -762.72506106613923 0 -762.72506106613923 -645.5642658440579 0 0 0 0 -779.65417723614519 -910.9009821941396 0 -910.9009821941396 367.81691016280001 0 0 0 0 4.8705938109366969 -23.230944763337391 0 -23.230944763337391 17.906912622455387 0 0 0 0 1669.0204466748255 530.33637255877261 0 530.33637255877261 207.53549973254667 0 0 0 0 3864.4860527045676 -366.77479206101054 0 -366.77479206101054 -43.65754019902414 0 0 0 0 -2050.2575897054485 -64.339553802578848 0 -64.339553802578848 720.20077901175682 0 0 0 0 -3.3368686218330055 -19.010072375647894 0 -19.010072375647894 15.723901604000808 0 0 0 0 4.0381711780594713 -12.24687692400488 0 -12.24687692400488 11.348167062455147 0 0 0 0 -1709.5651504666603 597.52609625599609 0 597.52609625599609 167.90571098208011 0 0 0 0 97.843660285347141 -1090.7493185235519 0 -1090.7493185235519 -135.22778186229561 0 0 0 0 281.09178192013496 -90.49973434381495 0 -90.49973434381495 -2004.1158323657676 0 0 0 0 -1444.0990288803587 138.06970261221295 0 138.06970261221295 693.14452598930393 0 0 0 0 -1332.2022360072588 -163.09574617322005 0 -163.09574617322005 962.90408274815559 0 0 0 0 -819.93804321717471 -225.20689248690439 0 -225.20689248690439 78.553992741101865 0 0 0 0 -658.42535733809927 -512.72794825738401 0 -512.72794825738401 -114.32028824681402 0 0 0 0 -315.38897597242612 -494.70176773823368 0 -494.70176773823368 -245.13587278897285 0 0 0 0 -459.70039627223741 -528.29654339508852 0 -528.29654339508852 -223.50170116633308 0 0 0 0 -191.92069650118356 -296.1924341389165 0 -296.1924341389165 -155.07923194762225 0 0 0 0 -341.14425066381227 -317.53004565364063 0 -317.53004565364063 -76.606224461889269 0 0 0 0 -517.44559159126948 -312.65786399976014 0 -312.65786399976014 -63.589064450785372 0 0 0 0 -484.28189713415486 -23.675265067988676 0 -23.675265067988676 38.485121873376556 0 0 0 0 -516.10867408115882 -170.58268705719649 0 -170.58268705719649 18.784974433356183 0 0 0 0 -283.24660454294644 -163.12402449829824 0 -163.12402449829824 17.424970441183689 0 0 0 0 -344.44765869961702 7.5834581608584131 0 7.5834581608584131 44.535743441771046 0 0 0 0 -149.71492043016769 -307.64461408325155 0 -307.64461408325155 -82.526383582538983 0 0 0 0 -356.25757693577907 -347.70070849078695 0 -347.70070849078695 -87.907332192096874 0 0 0 0 -322.98474135500146 -196.32669907539639 0 -196.32669907539639 -1.4630100764297822 0 0 0 0 -170.00982604495948 -144.75145512146827 0 -144.75145512146827 -60.432984901575296 0 0 0 0 -66.970585321774706 26.959116624761521 0 26.959116624761521 -26.039959887362585 0 0 0 0 3787.352213190723 135.22217342492354 0 135.22217342492354 -3059.5460918063527 0 0 0 0 -1491.3114067228744 -782.0763959589367 0 -782.0763959589367 862.19247371732718 0 0 0 0 605.97405300664832 -1258.7431565136831 0 -1258.7431565136831 4184.8387027380231 0 0 0 0 -1140.6134368737985 101.83003208264006 0 101.83003208264006 434.91665756312432 0 0 0 0 -763.95655898557743 -910.7891160556419 0 -910.7891160556419 675.38761519321179 0 0 0 0 -1618.067985126836 -371.59696246668273 0 -371.59696246668273 161.36383693349126 0 0 0 0 -1425.0133405896777 -735.29551886323156 0 -735.29551886323156 845.27486404907177 0 0 0 0 -1574.3157763341442 -596.90672958649293 0 -596.90672958649293 650.87446347723744 0 0 0 0 -99.436711103451671 -255.20106595300695 0 -255.20106595300695 -163.61363626426146 0 0 0 0 -67.613066416728543 -280.44763552693303 0 -280.44763552693303 -161.7042345992943 0 0 0 0 -111.13465775558143 -405.85602564455894 0 -405.85602564455894 -47.120981698442847 0 0 0 0 120.74951386149041 -230.12351052480244 0 -230.12351052480244 -176.58007978222372 0 0 0 0 -0.076436724673840217 -292.24705616805386 0 -292.24705616805386 135.60705612616584 0 0 0 0 -45.643011118401773 -256.27202136817505 0 -256.27202136817505 185.40753710015542 0 0 0 0 499.28210173299885 -108.23468456635965 0 -108.23468456635965 -35.861856442914871 0 0 0 0 -41.422167605662253 -204.77238928340103 0 -204.77238928340103 755.2732644635289 0 0 0 0 115.14272272359995 -595.90788911940581 0 -595.90788911940581 258.35012028072015 0 0 0 0 64.492352262197528 -334.14741041064917 0 -334.14741041064917 -0.61571017369897163 0 0 0 0 126.91480277347728 -361.9271256318716 0 -361.9271256318716 -84.097832518011273 0 0 0 0 -0.024355111992917955 -321.03139719216961 0 -321.03139719216961 255.58562076217277 0 0 0 0 86.479636025527725 -372.89282911523696 0 -372.89282911523696 -3.1792923772118229 0 0 0 0 27.652626704249997 -305.11175989167532 0 -305.11175989167532 29.153096787511458 0 0 0 0 20.824531682912493 -250.88021499268325 0 -250.88021499268325 -26.788146498050992 0 0 0 0 0.027833963817101903 -262.56396862672045 0 -262.56396862672045 -22.680990247983573 0 0 0 0 -39.359632739433437 -212.34865528725732 0 -212.34865528725732 -51.45707285631579 0 0 0 0 77.383619927226391 -255.18644639843615 0 -255.18644639843615 -135.28782260258959 0 0 0 0 -70.1186033525737 -272.31403220805987 0 -272.31403220805987 -72.572569492862385 0 0 0 0 -337.99336953321472 -146.35533943467453 0 -146.35533943467453 -73.506219899667485 0 0 0 0 -361.41270201480074 -220.76661009988129 0 -220.76661009988129 -60.83235202760261 0 0 0 0 -245.16550756210927 -240.14791486431568 0 -240.14791486431568 -74.129344705746917 0 0 0 0 -243.64947633835254 -147.28525130709386 0 -147.28525130709386 -81.391674462036463 0 0 0 0 12.453460106854834 -15.177710847643084 0 -15.177710847643084 12.562724939456544 0 0 0 0 -320.8151516833168 -271.57110600535816 0 -271.57110600535816 -81.78127754329762 0 0 0 0 172.98872977943392 -46.092478239566844 0 -46.092478239566844 -409.18126141744688 0 0 0 0 118.61612058291212 -70.251044405093126 0 -70.251044405093126 -205.38739192265166 0 0 0 0 14.676172603389432 -24.790875547083942 0 -24.790875547083942 4.847218452994575 0 0 0 0 -284.67892383632716 -197.76023449936838 0 -197.76023449936838 -136.09720163081511 0 0 0 0 -322.56894139671931 -168.81346746395502 0 -168.81346746395502 -47.219921840864117 0 0 0 0 12.369396959942122 -12.114516509841565 0 -12.114516509841565 -3.2030471860042837 0 0 0 0 -291.6724136894627 -209.11765948058746 0 -209.11765948058746 3.4142578374376171 0 0 0 0 -289.61727807750867 -135.54816698053583 0 -135.54816698053583 -10.115644756006077 0 0 0 0 -235.33796951957629 -205.68881546145531 0 -205.68881546145531 -33.237503150994598 0 0 0 0 -120.44334176942357 -130.56428390456131 0 -130.56428390456131 -41.214217814114818 0 0 0 0 -283.44858009245945 -264.23163554210987 0 -264.23163554210987 31.993864719279372 0 0 0 0 -325.20714152717846 -167.29256886066287 0 -167.29256886066287 -29.762161659313279 0 0 0 0 -455.18637701121042 -231.14115680752184 0 -231.14115680752184 27.992967548090746 0 0 0 0 4.2690436601841952 -3.9582554369088143 0 -3.9582554369088143 -3.2135432813270484 0 0 0 0 -375.88156914926367 -94.471148840433671 0 -94.471148840433671 -41.586471957885806 0 0 0 0 -264.09331719664624 -119.31658774941388 0 -119.31658774941388 3.4170454911654815 0 0 0 0 -255.39561050117481 -168.02581599525365 0 -168.02581599525365 -11.582461991569517 0 0 0 0 -164.51376947338576 -105.01885478249096 0 -105.01885478249096 -55.152140371050336 0 0 0 0 -227.62535255363036 -180.63257510338281 0 -180.63257510338281 -148.39955708726848 0 0 0 0 -238.2752942501902 -201.63353179158821 0 -201.63353179158821 -17.788709458051017 0 0 0 0 -468.33274920575786 -249.11392143601279 0 -249.11392143601279 -57.983860310134332 0 0 0 0 5.0109811697540181 -5.3497209015907288 0 -5.3497209015907288 -3.1639402751666523 0 0 0 0 -175.13041210373922 -203.66292283867188 0 -203.66292283867188 -179.32833273506549 0 0 0 0 -0.029427875182591379 -280.32656631203827 0 -280.32656631203827 -174.78431971545251 0 0 0 0 -79.197534326238383 -341.89472281325106 0 -341.89472281325106 -222.21880698770474 0 0 0 0 -53.060836011834908 -329.99234058360889 0 -329.99234058360889 -64.596562642462231 0 0 0 0 21.99109059778857 -258.25422070245349 0 -258.25422070245349 -176.49238719552159 0 0 0 0 -1997.7074629175695 -1585.4495575689398 0 -1585.4495575689398 -601.91427699994847 0 0 0 0 -2798.8826149578817 -1569.272821006185 0 -1569.272821006185 -564.76424289616898 0 0 0 0 52.538864682887251 -71.413722684066869 0 -71.413722684066869 88.567548489386269 0 0 0 0 -1678.4671145947323 -1724.8187894279999 0 -1724.8187894279999 -765.66427141859094 0 0 0 0 -2117.2405588577967 -1820.9014321382492 0 -1820.9014321382492 -700.20285503402556 0 0 0 0 -1052.8392423723271 -979.55163489110544 0 -979.55163489110544 -791.36927304596668 0 0 0 0 -2105.8393855438844 -1785.3349763620004 0 -1785.3349763620004 -893.98707911217207 0 0 0 0 -2014.9097386746653 -1699.7919800467034 0 -1699.7919800467034 -558.78323095046289 0 0 0 0 -2840.5424224162416 -1460.6726465466463 0 -1460.6726465466463 -562.07057632015869 0 0 0 0 -49.1932764974772 -141.54952943293029 0 -141.54952943293029 197.02693377354808 0 0 0 0 899.11866316560918 -508.20523926230089 0 -508.20523926230089 15.15244164536125 0 0 0 0 289.83951169313514 -726.573726030736 0 -726.573726030736 360.39104766806486 0 0 0 0 1288.1611911152722 -1111.7828561011229 0 -1111.7828561011229 241.64727485459116 0 0 0 0 1091.9715427969313 -1872.4230627120669 0 -1872.4230627120669 257.59512092789373 0 0 0 0 469.39258120190061 -2081.8780181803158 0 -2081.8780181803158 746.91038433740323 0 0 0 0 689.32502573382226 -2163.4154055593353 0 -2163.4154055593353 84.528153275059594 0 0 0 0 2379.5189512403772 -2564.7821095318923 0 -2564.7821095318923 -103.42194966208626 0 0 0 0 2157.4115825170302 -580.84430485749908 0 -580.84430485749908 -172.75666328515217 0 0 0 0 784.63104083646613 -716.02105648981433 0 -716.02105648981433 -15.765605649787176 0 0 0 0 -2102.4697205390476 -926.99911826050629 0 -926.99911826050629 -40.228112770881125 0 0 0 0 19.371772157025163 -24.888025726875142 0 -24.888025726875142 29.57558731579266 0 0 0 0 6018.3238695327309 -779.94541362840209 0 -779.94541362840209 -441.70780800609646 0 0 0 0 2213.5227699953466 -2928.8282992481381 0 -2928.8282992481381 1564.4722646379632 0 0 0 0 703.63857470176299 -1276.7696302483564 0 -1276.7696302483564 393.02174192004895 0 0 0 0 1018.5383695790588 -1483.5041316193765 0 -1483.5041316193765 -464.97602880774139 0 0 0 0 2265.4058062645927 -146.98166759057858 0 -146.98166759057858 862.11752491239395 0 0 0 0 1842.9359724963651 -5180.2055466744805 0 -5180.2055466744805 -2618.8963405414179 0 0 0 0 4024.1999761415063 -2859.9553333582789 0 -2859.9553333582789 -1651.1710022545085 0 0 0 0 -4523.2687993078289 -5416.2297661217817 0 -5416.2297661217817 619.37930911416333 0 0 0 0 -1996.7938533471097 -1847.6637572293621 0 -1847.6637572293621 2444.8728105672053 0 0 0 0 -22.498550445464161 -21.056451732855521 0 -21.056451732855521 -15.124621773436679 0 0 0 0 -4203.4526191338955 -1944.516565772341 0 -1944.516565772341 944.80104895148725 0 0 0 0 -3171.8682718460113 -3728.1477571951564 0 -3728.1477571951564 -2640.7984805802043 0 0 0 0 -1617.8053086272557 -2082.1934270369056 0 -2082.1934270369056 -932.17423822429191 0 0 0 0 -2206.2973708598474 -2133.1109986359579 0 -2133.1109986359579 -893.18981295327831 0 0 0 0 -1384.874977100666 -2005.9659252214187 0 -2005.9659252214187 -1933.4833141729396 0 0 0 0 -463.44212970476656 -757.79448568058433 0 -757.79448568058433 -146.52890185414435 0 0 0 0 8.3381678618115984 -218.20872524647621 0 -218.20872524647621 -1505.3943370576453 0 0 0 0 -409.36865090501669 -1672.6885564893382 0 -1672.6885564893382 -4801.5537253188886 0 0 0 0 -270.2805441834571 -102.21664772157965 0 -102.21664772157965 -463.778825101861 0 0 0 0 -503.60835116481576 -363.44890405590468 0 -363.44890405590468 287.80484255736519 0 0 0 0 -367.54318705705373 -370.60280432675791 0 -370.60280432675791 -525.46850215786253 0 0 0 0 -562.07536218389214 -1048.7464055398132 0 -1048.7464055398132 -1008.2977642411897 0 0 0 0 -963.50931162130291 -925.54682157697061 0 -925.54682157697061 -531.27887949719479 0 0 0 0 105.45840995109029 74.768793167615513 0 74.768793167615513 79.122729219823668 0 0 0 0 -246.58763330327929 79.297410682283953 0 79.297410682283953 411.37945075553216 0 0 0 0 76.369643296231516 54.26590333286731 0 54.26590333286731 -104.80370781567035 0 0 0 0 -513.16236638886767 -448.57300949900309 0 -448.57300949900309 -182.08718694153617 0 0 0 0 -243.35561412125935 -263.86092566654406 0 -263.86092566654406 -186.20077515527373 0 0 0 0 -263.61773963072847 67.241851161512386 0 67.241851161512386 130.46140264049063 0 0 0 0 -621.11909364395615 -226.65745183974286 0 -226.65745183974286 -45.5609945630531 0 0 0 0 -567.21691717663089 -615.17995517567522 0 -615.17995517567522 -562.70442680138513 0 0 0 0 -765.41170397162205 -598.97843911234941 0 -598.97843911234941 -550.16235353964839 0 0 0 0 -1256.2733162417062 -879.14109246424414 0 -879.14109246424414 -447.38405656641407 0 0 0 0 -626.31249203819425 -292.70685230561867 0 -292.70685230561867 30.999386985621207 0 0 0 0 -457.61028609378263 -544.85024903982048 0 -544.85024903982048 -471.33391925138676 0 0 0 0 -764.53772582870442 -699.5686617949541 0 -699.5686617949541 -362.29217453501133 0 0 0 0 -1329.9925636862936 -1406.5272555358729 0 -1406.5272555358729 -898.61536651366077 0 0 0 0 -1789.1188847823287 -1566.1704034394079 0 -1566.1704034394079 -814.85436799630315 0 0 0 0 -1301.9255980981761 -768.87155257699897 0 -768.87155257699897 -534.87295665684724 0 0 0 0 -1131.6334014320892 -869.59829278058896 0 -869.59829278058896 -507.78966818661195 0 0 0 0 -1144.1214584954905 -993.76614164834609 0 -993.76614164834609 -988.4076154912018 0 0 0 0 -1663.4893396389962 -1257.1162483453627 0 -1257.1162483453627 -831.95845439024288 0 0 0 0 -2107.0734657763824 -1119.36451485814 0 -1119.36451485814 -824.30172467245575 0 0 0 0 -2507.3887986457848 -922.15512416376259 0 -922.15512416376259 -847.8286707825838 0 0 0 0 -2140.9604019106264 -2010.2763398744673 0 -2010.2763398744673 -1170.9409941595068 0 0 0 0 -1564.6954264567848 -1259.7688612300794 0 -1259.7688612300794 -1574.0407506187266 0 0 0 0 -1725.7660579679723 -1451.9401884670422 0 -1451.9401884670422 -642.25492486732423 0 0 0 0 -1781.4176410690782 -1248.2029910167305 0 -1248.2029910167305 -772.88212094181199 0 0 0 0 -1168.5593649160401 -1088.1219666464872 0 -1088.1219666464872 -866.83110367376275 0 0 0 0 -1777.5491595052881 -1162.6010852124548 0 -1162.6010852124548 -809.58152222752199 0 0 0 0 -1975.5268612024265 -1121.3575199195734 0 -1121.3575199195734 -50.792708699757441 0 0 0 0 -1799.6482991836674 -1334.7097087544325 0 -1334.7097087544325 -734.00899006364648 0 0 0 0 -1246.4097413442414 -734.80285285434957 0 -734.80285285434957 -873.26028395091362 0 0 0 0 -840.40005380913317 -310.86811267684334 0 -310.86811267684334 -587.83851824320845 0 0 0 0 -1504.9045992445499 -965.05662731489565 0 -965.05662731489565 -623.06236555586304 0 0 0 0 -2108.3133576248074 -1230.9629898423941 0 -1230.9629898423941 -682.31852380105795 0 0 0 0 -391.48646716636449 -1202.637356922065 0 -1202.637356922065 30.381230354912987 0 0 0 0 -1177.2084381212699 -1819.1516019284318 0 -1819.1516019284318 659.97431963680356 0 0 0 0 -42.535376214347949 -70.052855233137649 0 -70.052855233137649 -60.038467032691365 0 0 0 0 -1557.4816867264049 -447.77165272328386 0 -447.77165272328386 -1021.8190943778736 0 0 0 0 -1356.5121386078345 -1395.7729276672253 0 -1395.7729276672253 11.35350844597815 0 0 0 0 -1231.6422196773074 -1594.0792239783877 0 -1594.0792239783877 -876.6245853060027 0 0 0 0 -1656.8035489341612 -1570.3339161448584 0 -1570.3339161448584 -758.24414659439935 0 0 0 0 -1834.5472748626903 -1287.4379571358586 0 -1287.4379571358586 296.94106258148531 0 0 0 0 -1633.5925335895756 -1794.1333853689839 0 -1794.1333853689839 -1975.8801726547463 0 0 0 0 -2297.8524258044172 -1535.7173343314698 0 -1535.7173343314698 -721.6209066346164 0 0 0 0 -1886.7323891360907 -1614.3583401552905 0 -1614.3583401552905 -760.84895811435126 0 0 0 0 -1469.9007312955346 -1884.0387230384295 0 -1884.0387230384295 -1482.5762237806994 0 0 0 0 -101.17476438664744 -152.30668173388767 0 -152.30668173388767 43.521322449335457 0 0 0 0 -1801.7204844919179 -1080.0364974048632 0 -1080.0364974048632 -330.69566382964695 0 0 0 0 -18.178539301514647 -108.5526312692446 0 -108.5526312692446 98.320504134181476 0 0 0 0 -12.32242085901089 -52.063060939661227 0 -52.063060939661227 -3.3953670904811588 0 0 0 0 -16.101810111106062 -78.469080126229585 0 -78.469080126229585 122.98887052438789 0 0 0 0 -30.501581558274495 -63.995732194980746 0 -63.995732194980746 -1.5512242028505767 0 0 0 0 -22.392404961963621 -63.894340359915077 0 -63.894340359915077 14.761615717361565 0 0 0 0 -29.502342683139432 -59.296463608698105 0 -59.296463608698105 11.954080459589022 0 0 0 0 -65.690770917456646 -28.5923873755196 0 -28.5923873755196 102.45566211742521 0 0 0 0 45.908502470439998 -127.3960859561339 0 -127.3960859561339 237.56541546346853 0 0 0 0 -9.9493299727037083 -54.045437699358445 0 -54.045437699358445 -2.0024437814718112 0 0 0 0 -31.024806058543618 -51.08681791528943 0 -51.08681791528943 37.080099228420295 0 0 0 0 -11.099653638692786 -56.277946128524377 0 -56.277946128524377 77.545143548033977 0 0 0 0 -35.878575740806482 -78.98571265722002 0 -78.98571265722002 -17.728714609538599 0 0 0 0 -2.2844503275283756 -11.38162918182843 0 -11.38162918182843 58.314956879112998 0 0 0 0 -3.9326627033005934 14.846180368156638 0 14.846180368156638 347.38118510204367 0 0 0 0 -55.627414668252584 -44.068663619729627 0 -44.068663619729627 63.60616529674504 0 0 0 0 -18.712235131002672 -43.824828199445619 0 -43.824828199445619 172.83455446989683 0 0 0 0 -20.253696318811038 -88.90649368558401 0 -88.90649368558401 23.855546958488802 0 0 0 0 -1453.0699797222569 -861.37825478650223 0 -861.37825478650223 -425.85794055639531 0 0 0 0 -1.6056114681675524 -86.057385167330807 0 -86.057385167330807 116.78850897510799 0 0 0 0 -1571.5240955125846 -1506.0769557138656 0 -1506.0769557138656 -554.66696536049585 0 0 0 0 -2031.9685032020589 -1803.9734711831043 0 -1803.9734711831043 -360.87797485903138 0 0 0 0 -37.293580495694222 -81.487572353767376 0 -81.487572353767376 -35.122324365596853 0 0 0 0 -1816.3757820918836 -877.36833677030518 0 -877.36833677030518 -678.96024283227598 0 0 0 0 -224.44611510431787 -202.05657629278721 0 -202.05657629278721 46.570027379755629 0 0 0 0 -311.37168666574416 -145.68290363025699 0 -145.68290363025699 396.71314306157001 0 0 0 0 -39.974269994900254 -14.688604091630864 0 -14.688604091630864 50.16020423582205 0 0 0 0 10.08412699988617 -68.346713020357058 0 -68.346713020357058 124.07040107682337 0 0 0 0 -2239.2160540204468 -2006.3438913117716 0 -2006.3438913117716 -878.44463831709982 0 0 0 0 56.121958169474965 144.57930920058425 0 144.57930920058425 337.21247989367112 0 0 0 0 70.883636318075332 -59.697897380903669 0 -59.697897380903669 275.41817557415925 0 0 0 0 37.39915971737355 -10.346722151858557 0 -10.346722151858557 278.81014630291611 0 0 0 0 36.842572715213464 -105.13537284698396 0 -105.13537284698396 289.27510522410739 0 0 0 0 -34.234554070535523 -156.32610418638797 0 -156.32610418638797 415.6242177967215 0 0 0 0 33.422625249182602 -102.21111957077665 0 -102.21111957077665 336.18457410513656 0 0 0 0 45.797710421280499 -119.11743990070499 0 -119.11743990070499 301.45745326386532 0 0 0 0 -58.610982244310435 -79.96445367106935 0 -79.96445367106935 332.39997500377285 0 0 0 0 -50.129090069869562 -86.197318903490668 0 -86.197318903490668 302.2615682456817 0 0 0 0 -122.36321285554004 -0.94110353500582278 0 -0.94110353500582278 341.00928981241304 0 0 0 0 -187.23930163326258 -169.32330624129099 0 -169.32330624129099 279.20397675674758 0 0 0 0 -191.44726395936596 -194.05324258362089 0 -194.05324258362089 379.14121495647123 0 0 0 0 -248.34948438560605 -245.61093891420751 0 -245.61093891420751 240.18612220443902 0 0 0 0 -115.05615276999015 -178.65151491941651 0 -178.65151491941651 250.82162129391145 0 0 0 0 -179.8440796560717 -265.63692221770543 0 -265.63692221770543 212.49199419515207 0 0 0 0 -275.61956566056324 -301.07228484003281 0 -301.07228484003281 218.1867903592356 0 0 0 0 -212.5166053133762 -199.99829858779776 0 -199.99829858779776 323.51155746291624 0 0 0 0 -123.92531226291612 -224.10002890016767 0 -224.10002890016767 329.38916476274608 0 0 0 0 -26.800953926984221 -101.88329775615421 0 -101.88329775615421 344.81131780307624 0 0 0 0 -156.23019863041554 -162.79045205615694 0 -162.79045205615694 318.75480146147311 0 0 0 0 -21.491271687846165 -484.20906432310585 0 -484.20906432310585 -356.13800314042601 0 0 0 0 -292.11135759428544 -389.65452643274693 0 -389.65452643274693 525.47465071966872 0 0 0 0 -198.00319636554923 -334.12233092883253 0 -334.12233092883253 422.29714516419335 0 0 0 0 -295.72280480782138 -423.84152851340332 0 -423.84152851340332 307.46970213897293 0 0 0 0 -275.57052991431556 -405.71080229984364 0 -405.71080229984364 226.25031783618033 0 0 0 0 -317.55713414675301 -324.5533470924147 0 -324.5533470924147 271.78049356242991 0 0 0 0 -134.17508526122401 -193.15324499564304 0 -193.15324499564304 298.51990539162944 0 0 0 0 -129.82222156732314 -335.68420258437982 0 -335.68420258437982 159.8152815368594 0 0 0 0 -31.115991934370783 -50.315155939257608 0 -50.315155939257608 -2.3873992578428442 0 0 0 0 -65.568030727779842 -48.009693631458504 0 -48.009693631458504 147.65069150520139 0 0 0 0 -22.970741666264075 -52.501018555558403 0 -52.501018555558403 136.21301486301672 0 0 0 0 -32.98202010699606 -105.38718020922533 0 -105.38718020922533 133.81460654790317 0 0 0 0 -17.772824345464244 -69.746722326481063 0 -69.746722326481063 25.676666932049578 0 0 0 0 -30.667830879066813 -47.406113060677569 0 -47.406113060677569 32.777438491601856 0 0 0 0 -96.178507049102336 -73.65605638371926 0 -73.65605638371926 125.97182959441125 0 0 0 0 -107.55148195756192 -169.72382498784282 0 -169.72382498784282 358.84978086447518 0 0 0 0 -23.315935176477069 -88.358636101249431 0 -88.358636101249431 93.350301407386723 0 0 0 0 -84.322213932158775 -157.40159930908703 0 -157.40159930908703 111.62524242371182 0 0 0 0 -13.760235920544957 -49.153148017264748 0 -49.153148017264748 148.17582519467607 0 0 0 0 -1379.2421110000832 -528.00966566398438 0 -528.00966566398438 -213.96844031946966 0 0 0 0 -71.320652904143117 -74.125832274229111 0 -74.125832274229111 82.924704985078023 0 0 0 0 35.695635486219544 -133.15632975339395 0 -133.15632975339395 114.39702807055073 0 0 0 0 -193.59914424667659 74.577398797468049 0 74.577398797468049 175.96107401855988 0 0 0 0 -87.67220865038432 -25.529569294291644 0 -25.529569294291644 88.590451693158556 0 0 0 0 -96.036832425204921 -103.97899047576357 0 -103.97899047576357 110.82906992746939 0 0 0 0 -141.64969900483266 -277.0551036600973 0 -277.0551036600973 230.99566361096367 0 0 0 0 -139.56103177311888 -87.087627607794275 0 -87.087627607794275 217.50762998514983 0 0 0 0 51.351744412472712 -117.80987810585174 0 -117.80987810585174 151.50727263146899 0 0 0 0 -1231.0029786975138 -2309.6934222489017 0 -2309.6934222489017 -2151.7381269604925 0 0 0 0 11.151282497316643 -37.283133866899412 0 -37.283133866899412 36.156697685178806 0 0 0 0 -3577.1392330737435 -975.3066227324307 0 -975.3066227324307 199.69989598495158 0 0 0 0 -176.90632810888928 -237.97412833099224 0 -237.97412833099224 677.40631825263335 0 0 0 0 -587.99707443955413 -321.55634576326702 0 -321.55634576326702 1856.847055618593 0 0 0 0 -271.97719588107429 -1151.2529980340478 0 -1151.2529980340478 1364.5128884687801 0 0 0 0 189.43552952048231 -1372.1970279880843 0 -1372.1970279880843 1462.4948758703249 0 0 0 0 267.73057250824786 -820.72636161827904 0 -820.72636161827904 574.017601351341 0 0 0 0 146.38189064039034 -669.86954506870097 0 -669.86954506870097 595.49845001836366 0 0 0 0 253.96402899488021 -370.97010420092192 0 -370.97010420092192 278.63835280922649 0 0 0 0 135.77271881981869 -740.06465329822095 0 -740.06465329822095 888.58403867960442 0 0 0 0 -47.352242381478391 -220.99650162200078 0 -220.99650162200078 620.83325976491324 0 0 0 0 -126.19700315040973 -120.02497285258687 0 -120.02497285258687 410.44433851462964 0 0 0 0 -35.133544972180971 -100.57105832950765 0 -100.57105832950765 227.52250491657469 0 0 0 0 -178.40157941616962 -31.830038239484566 0 -31.830038239484566 229.82900751287525 0 0 0 0 -108.8167587803182 161.23346706968005 0 161.23346706968005 214.61526193040481 0 0 0 0 -68.146521668775677 -481.16188025098018 0 -481.16188025098018 1029.3539006818028 0 0 0 0 -342.05241781806399 77.943690593114297 0 77.943690593114297 976.01024693205181 0 0 0 0 -41.779322053372567 -10.840449602695145 0 -10.840449602695145 3.0024873938716716 0 0 0 0 -30.553082251019077 -94.800734359283524 0 -94.800734359283524 173.86572618354694 0 0 0 0 46.894886999707524 40.946371498394001 0 40.946371498394001 43.370080556691391 0 0 0 0 -25.408418668856029 -53.435210793264559 0 -53.435210793264559 111.86477210601151 0 0 0 0 4.2470462227647658 -17.389915951709554 0 -17.389915951709554 37.469571266250568 0 0 0 0 -42.645595762312553 -19.572256494571292 0 -19.572256494571292 28.342731118017269 0 0 0 0 -45.410058742182514 -10.866296800855217 0 -10.866296800855217 69.690321020347454 0 0 0 0 168.26297897544282 626.92251495306846 0 626.92251495306846 482.9768363450421 0 0 0 0 84.546371579883271 53.595148665488523 0 53.595148665488523 45.119572311115917 0 0 0 0 -2.5552886092852276 -4.0277305294617634 0 -4.0277305294617634 -7.0252078557793993 0 0 0 0 -133.88877373967989 -685.08547150192317 0 -685.08547150192317 289.36798260029173 0 0 0 0 -186.88516718911706 -356.8813000539667 0 -356.8813000539667 460.71557096147444 0 0 0 0 -186.6876322410244 -461.09756928980642 0 -461.09756928980642 1050.0028901404312 0 0 0 0 -152.5815361067871 -415.53022172788769 0 -415.53022172788769 508.65264371369267 0 0 0 0 44.111010031308979 76.345186358710635 0 76.345186358710635 81.778304213912634 0 0 0 0 -29.33640929019748 134.94787483583059 0 134.94787483583059 43.017540892629768 0 0 0 0 81.28519254821822 107.53709622738324 0 107.53709622738324 1.5161650604277384 0 0 0 0 -303.41901476420753 158.09161955156014 0 158.09161955156014 147.04216297031599 0 0 0 0 -202.35398085298948 -44.566678651712209 0 -44.566678651712209 329.89925064650015 0 0 0 0 -30.208713466630115 -4.6763698154811948 0 -4.6763698154811948 -0.43613449681357608 0 0 0 0 -438.69569815707655 -133.88115498272964 0 -133.88115498272964 49.38675804605009 0 0 0 0 -200.72615064094134 -206.55172059655888 0 -206.55172059655888 -111.13517283603142 0 0 0 0 -302.37803133470879 -67.589875936791941 0 -67.589875936791941 328.63806522151572 0 0 0 0 -153.55547716817819 -35.97148941870546 0 -35.97148941870546 210.40996677768271 0 0 0 0 -560.34860737533018 -64.883176483141142 0 -64.883176483141142 215.03402857185756 0 0 0 0 235.37819199301157 237.75150897947606 0 237.75150897947606 -125.85251360178518 0 0 0 0 171.60907650760782 389.32155296869314 0 389.32155296869314 -220.53851283316362 0 0 0 0 -449.11979213773157 250.53545328450855 0 250.53545328450855 231.14685892974012 0 0 0 0 -201.62438531989937 283.33229158417817 0 283.33229158417817 227.63822093323688 0 0 0 0 -274.69586454845921 -585.39915641931748 0 -585.39915641931748 -399.06811622613168 0 0 0 0 -46.401723426068202 -56.276414486128488 0 -56.276414486128488 -239.72106392771821 0 0 0 0 -11.142587142007812 -4.2308737204880345 0 -4.2308737204880345 -0.85448731962306113 0 0 0 0 -637.83449749370629 -236.27571144702961 0 -236.27571144702961 -734.06365165192619 0 0 0 0 -632.29647805690911 -241.34580721030943 0 -241.34580721030943 -999.83834170846967 0 0 0 0 -31.919578288448974 -919.87262907021795 0 -919.87262907021795 -475.64484137936961 0 0 0 0 482.17465616369736 -1251.9945291206095 0 -1251.9945291206095 -654.80703448840359 0 0 0 0 -53.829492587465211 -2.8939849811067688 0 -2.8939849811067688 -78.845111350434308 0 0 0 0 470.17460767945158 -1177.946861830118 0 -1177.946861830118 -552.94037208418013 0 0 0 0 -13.966634478090157 -24.36304337798942 0 -24.36304337798942 -24.250373503281367 0 0 0 0 -30.940444389644142 1.4455129909513857 0 1.4455129909513857 12.867594847353189 0 0 0 0 -42.457195617636899 -15.837646010666504 0 -15.837646010666504 -85.952165712180431 0 0 0 0 262.99263874963799 -738.92774491487216 0 -738.92774491487216 -368.45272753725294 0 0 0 0 1075.1979670167202 -1693.808555494863 0 -1693.808555494863 308.12797467962082 0 0 0 0 -2096.9441044920241 428.31347932195058 0 428.31347932195058 -637.24391286565879 0 0 0 0 -11.511676940847593 -6.8941509613461278 0 -6.8941509613461278 5.6653395255084149 0 0 0 0 2472.0865506744594 -899.78375767548278 0 -899.78375767548278 -746.25066037580837 0 0 0 0 186.81370383626199 -1560.1942571691761 0 -1560.1942571691761 1936.6249269614636 0 0 0 0 839.7199747095583 -1451.8056395812455 0 -1451.8056395812455 1953.4693069702989 0 0 0 0 1438.4203879551787 -2208.7461284299061 0 -2208.7461284299061 1291.2810437904554 0 0 0 0 388.57337296835613 -1562.5136867500696 0 -1562.5136867500696 1101.004890443699 0 0 0 0 985.54091760705342 -3180.9227537632541 0 -3180.9227537632541 4208.7293150866462 0 0 0 0 508.23451193606888 -1812.5512299726688 0 -1812.5512299726688 2526.6115504755289 0 0 0 0 584.02283331289618 -2480.625780627719 0 -2480.625780627719 3391.6736333290173 0 0 0 0 -554.09386546498899 177.80205963588833 0 177.80205963588833 796.46425503789214 0 0 0 0 -251.53653143323027 -1435.6448163394671 0 -1435.6448163394671 879.15142652278882 0 0 0 0 430.48793359100819 -925.6306151114477 0 -925.6306151114477 1232.1631618968677 0 0 0 0 865.34671993149095 -854.89933246662258 0 -854.89933246662258 1622.546874494059 0 0 0 0 2274.8217945983051 -2081.7848065721919 0 -2081.7848065721919 1647.5130962665353 0 0 0 0 1373.2200470551616 -926.27276701410301 0 -926.27276701410301 690.43046236352711 0 0 0 0 1386.5036353037067 -1108.0255309466738 0 -1108.0255309466738 -689.36971523902321 0 0 0 0 158.35719392652391 -78.288497810404806 0 -78.288497810404806 -283.61823724583519 0 0 0 0 1235.0504207806662 -3348.0846680481263 0 -3348.0846680481263 12455.91768499072 0 0 0 0 -0.95002251622787526 -86.646113363886101 0 -86.646113363886101 -19.470050631155793 0 0 0 0 580.63372092087229 -2755.6471489605174 0 -2755.6471489605174 12158.184808185179 0 0 0 0 3650.9225908409571 -3802.9765240688139 0 -3802.9765240688139 2451.8824180362499 0 0 0 0 55.591398322396969 -106.24902359993087 0 -106.24902359993087 -30.46976194972752 0 0 0 0 33.047164675139356 -195.23891313597414 0 -195.23891313597414 -8.9583009181878879 0 0 0 0 -168.92228198890371 -2558.026374786743 0 -2558.026374786743 5834.038877078885 0 0 0 0 720.95488456878229 -2469.1472378129401 0 -2469.1472378129401 4533.0015947067732 0 0 0 0 19.119274028140353 -147.45188872664585 0 -147.45188872664585 -73.408783174301789 0 0 0 0 66.655562294705305 -211.40563270528219 0 -211.40563270528219 -67.333898448270247 0 0 0 0 35.165576384533779 -249.8221208037794 0 -249.8221208037794 -102.21453370770178 0 0 0 0 83.747436395904515 -58.15935991222068 0 -58.15935991222068 -245.24800351113663 0 0 0 0 185.83148612418154 -132.94100562704989 0 -132.94100562704989 -226.82015999270516 0 0 0 0 4.8259180571003526 -85.565543368335966 0 -85.565543368335966 -131.07661509404716 0 0 0 0 83.857569748543028 -149.73866378078492 0 -149.73866378078492 -160.71565762582759 0 0 0 0 83.962890197246452 -147.96500670867317 0 -147.96500670867317 -164.28126500535291 0 0 0 0 2912.4661675801799 -3283.520713697777 0 -3283.520713697777 1038.7151543497021 0 0 0 0 14.429706940290451 -18.813482086966303 0 -18.813482086966303 -106.86364972428899 0 0 0 0 206.91180955437449 -144.3592761313248 0 -144.3592761313248 -221.11145864252103 0 0 0 0 170.78633328445721 -103.10126453894372 0 -103.10126453894372 -267.57590812984563 0 0 0 0 828.98285628024314 -3878.6843312885758 0 -3878.6843312885758 4863.5880225507717 0 0 0 0 -1284.5921357777552 -1745.9416541446117 0 -1745.9416541446117 8517.4004446153413 0 0 0 0 993.24045169827878 -2851.1569080182526 0 -2851.1569080182526 1798.4870335768428 0 0 0 0 -346.18821018853305 -1642.737940667781 0 -1642.737940667781 3442.322072847528 0 0 0 0 -321.46361472440185 -1604.0201383260719 0 -1604.0201383260719 4682.4209754907351 0 0 0 0 -853.38291169313015 -549.29598933273519 0 -549.29598933273519 2593.5195124615711 0 0 0 0 12.023293497665463 -21.661460158696457 0 -21.661460158696457 6.4578948682491486 0 0 0 0 -1242.6001534385141 2315.4650069248237 0 2315.4650069248237 4050.3764524422877 0 0 0 0 274.07919491708162 75.33050248656582 0 75.33050248656582 -372.60456610461551 0 0 0 0 -252.90248016627447 1696.0638753955573 0 1696.0638753955573 930.53609281677564 0 0 0 0 -323.08124787452834 -713.5427973411206 0 -713.5427973411206 2323.9957430691575 0 0 0 0 15.628712890855752 -17.720186623266386 0 -17.720186623266386 11.774139935285945 0 0 0 0 3134.8711792083777 -5237.9237108860034 0 -5237.9237108860034 10903.811002619281 0 0 0 0 -1280.381475352493 1261.0248120072356 0 1261.0248120072356 6139.9687542032916 0 0 0 0 600.58042016818217 -1172.6541623501798 0 -1172.6541623501798 754.3566082224861 0 0 0 0 141.3082964779129 -124.35627411823475 0 -124.35627411823475 -42.48683114142726 0 0 0 0 2296.0819840399781 -358.32591523251176 0 -358.32591523251176 -1035.5629958276404 0 0 0 0 -502.29611739385291 481.39732293311681 0 481.39732293311681 2023.6607879895892 0 0 0 0 278.99416770081734 -664.75133128574817 0 -664.75133128574817 1459.4340494224016 0 0 0 0 1646.6894580153166 -3835.1420494820632 0 -3835.1420494820632 3871.0514168601803 0 0 0 0 297.33693689531356 -150.06430144446858 0 -150.06430144446858 5348.6137686032453 0 0 0 0 4194.5459939787688 464.09094837349403 0 464.09094837349403 1101.6436418253288 0 0 0 0 2407.440606804972 -4187.7725482290552 0 -4187.7725482290552 5159.0300681883127 0 0 0 0 -709.30088917423564 -142.50621933372895 0 -142.50621933372895 4318.4412213797914 0 0 0 0 186.20286241278154 -1802.8984900297419 0 -1802.8984900297419 2645.0616367750627 0 0 0 0 -458.78652483480982 -2130.6241031900572 0 -2130.6241031900572 2658.4117372079054 0 0 0 0 165.17896952904994 -233.51430052443175 0 -233.51430052443175 -1040.6058254365089 0 0 0 0 361.9379243857984 -2222.4155770632642 0 -2222.4155770632642 1929.2296606612799 0 0 0 0 -652.12745228855056 -2446.9377329920826 0 -2446.9377329920826 2347.1128213676857 0 0 0 0 6.8185678204031461 -73.88603440578504 0 -73.88603440578504 40.563271360774422 0 0 0 0 1335.1671864868258 -902.04166239907499 0 -902.04166239907499 -769.51913927201531 0 0 0 0 -235.99122831721616 -2872.2907830420154 0 -2872.2907830420154 1282.5055876540719 0 0 0 0 532.23162471555406 -1194.0928561526525 0 -1194.0928561526525 2054.7018929377955 0 0 0 0 376.11179006245948 -1760.7736056375325 0 -1760.7736056375325 2424.7798653609643 0 0 0 0 360.48713429725103 -2185.7057941914472 0 -2185.7057941914472 1914.3307112328766 0 0 0 0 430.63010906519776 -1985.7713136062594 0 -1985.7713136062594 2228.8919830982923 0 0 0 0 138.69102487244345 -2079.3068342806437 0 -2079.3068342806437 2459.5745738128026 0 0 0 0 -165.16775954280456 -1154.5543469219701 0 -1154.5543469219701 3439.8186999508907 0 0 0 0 -214.03043446233278 -621.09617683641773 0 -621.09617683641773 1498.7645866294042 0 0 0 0 603.41520679171663 -1807.416069344792 0 -1807.416069344792 2171.337344906744 0 0 0 0 408.56800624492462 -1465.1708687625214 0 -1465.1708687625214 2261.4559901984831 0 0 0 0 722.67238561841077 -1632.7203086365189 0 -1632.7203086365189 1766.0700471052005 0 0 0 0 518.80974383086141 -265.46596484003385 0 -265.46596484003385 538.15845645510126 0 0 0 0 274.2150610506942 -1202.3809232418571 0 -1202.3809232418571 1910.3153176572232 0 0 0 0 552.8214083055791 -771.86880586465122 0 -771.86880586465122 907.78295846900437 0 0 0 0 811.69874143891502 -1742.6633542680356 0 -1742.6633542680356 1384.2389120812586 0 0 0 0 1066.5653609462315 -1494.1540629610317 0 -1494.1540629610317 1442.9106469774852 0 0 0 0 775.10571366760996 -1048.4199205609475 0 -1048.4199205609475 762.36803975827934 0 0 0 0 836.07437100727111 -1093.447558681306 0 -1093.447558681306 3373.9655508461146 0 0 0 0 766.12868604174582 -2046.9221127393103 0 -2046.9221127393103 2085.3349757401556 0 0 0 0 826.91452070334344 -1630.4560354898495 0 -1630.4560354898495 2177.1096604266713 0 0 0 0 621.76837725244695 -1634.1242649392225 0 -1634.1242649392225 1993.1195548010874 0 0 0 0 -27.151661284384318 -1254.9356840142209 0 -1254.9356840142209 4876.1759359659845 0 0 0 0 72.987938951686374 -193.97732895216723 0 -193.97732895216723 -44.789074498017726 0 0 0 0 34.494400477327872 -213.41003709784854 0 -213.41003709784854 -5.9100593369003036 0 0 0 0 64.175349981054751 -114.53168904785366 0 -114.53168904785366 73.666031540124095 0 0 0 0 117.62997673985956 -107.44481934152645 0 -107.44481934152645 2.5578542444654886 0 0 0 0 515.07784055819502 -1617.4884974109445 0 -1617.4884974109445 2470.5161082992563 0 0 0 0 130.54100320130237 -140.88086506389209 0 -140.88086506389209 59.416803873456956 0 0 0 0 97.79970922319626 -139.87568549686694 0 -139.87568549686694 88.926320180098628 0 0 0 0 120.59444391077744 -106.01079170070835 0 -106.01079170070835 -55.531029416537194 0 0 0 0 17.269217048304228 -43.49390121099232 0 -43.49390121099232 -21.971495128853121 0 0 0 0 293.9268074358697 -228.907649097383 0 -228.907649097383 24.936745163875457 0 0 0 0 318.354345863856 -264.17153856464483 0 -264.17153856464483 62.259581217174855 0 0 0 0 283.99290978787758 -231.95945154225319 0 -231.95945154225319 103.05371428886883 0 0 0 0 233.88149854760559 -278.17615277562072 0 -278.17615277562072 76.373008502176177 0 0 0 0 291.95041595779185 -256.33486811719922 0 -256.33486811719922 76.461510557987538 0 0 0 0 170.02981068534791 -242.65836228311139 0 -242.65836228311139 70.771400952689874 0 0 0 0 243.46479293087032 -219.64795741702255 0 -219.64795741702255 28.397986197025602 0 0 0 0 310.49390426763421 -365.54946900625328 0 -365.54946900625328 181.91514624509364 0 0 0 0 246.97937809597352 -238.76941142550641 0 -238.76941142550641 65.312778168320619 0 0 0 0 155.01274370609099 -373.40850183351859 0 -373.40850183351859 123.85669392993441 0 0 0 0 593.50754769615014 -333.70696315034547 0 -333.70696315034547 67.330107475901968 0 0 0 0 446.69243550223473 -250.52370912799051 0 -250.52370912799051 149.32718278017001 0 0 0 0 -7.6842622318431069 -9.1209042659789219 0 -9.1209042659789219 -23.384055922926194 0 0 0 0 -136.65379914078949 -108.96553925281296 0 -108.96553925281296 5.4002034618920334 0 0 0 0 -81.321819978948042 -244.57197142470613 0 -244.57197142470613 -13.804788116998679 0 0 0 0 -67.088544416361401 -211.23523118749108 0 -211.23523118749108 62.728429354279797 0 0 0 0 -855.59009801945649 -32.290811797907736 0 -32.290811797907736 35.231437344375081 0 0 0 0 -478.95602375722956 -569.60201159153894 0 -569.60201159153894 19.14222494475689 0 0 0 0 -127.61751873660978 -113.31541078667397 0 -113.31541078667397 407.93837468779748 0 0 0 0 -36.71569524676903 -58.584212585172452 0 -58.584212585172452 -53.434219357124036 0 0 0 0 301.92131678174337 -1068.6424700158459 0 -1068.6424700158459 247.41921089497737 0 0 0 0 947.50850299647936 -381.61276014891655 0 -381.61276014891655 -10.49397443457201 0 0 0 0 514.70175281431875 -540.09168224258974 0 -540.09168224258974 -50.278261987721635 0 0 0 0 -2.2768028642752682 -6.3633721370198657 0 -6.3633721370198657 -6.2852025308828701 0 0 0 0 465.2699496164023 -334.41761416593272 0 -334.41761416593272 179.77046483161394 0 0 0 0 481.77028599641926 -322.08171503265157 0 -322.08171503265157 160.90399967748419 0 0 0 0 -22.320927465889156 -27.632402048058538 0 -27.632402048058538 4.2086472251702212 0 0 0 0 341.40714107328677 -860.33630792726763 0 -860.33630792726763 529.41421516592482 0 0 0 0 27.901006334275195 -47.732018297943867 0 -47.732018297943867 -77.388455842685659 0 0 0 0 237.90877328999341 -173.90908505732659 0 -173.90908505732659 488.165947313988 0 0 0 0 403.86558618297568 -564.44685297848991 0 -564.44685297848991 231.79415667171997 0 0 0 0 -83.615631125120274 -56.136330743583343 0 -56.136330743583343 2.6904113735474056 0 0 0 0 4.2533411302113535 -23.599195696724138 0 -23.599195696724138 -49.917028083743574 0 0 0 0 -2472.5094113075102 -1529.2692364635823 0 -1529.2692364635823 384.59069344329691 0 0 0 0 481.92698349130978 -928.35287873070251 0 -928.35287873070251 -665.831903816048 0 0 0 0 2065.7949967326131 -2060.4979273385725 0 -2060.4979273385725 -539.67707273022825 0 0 0 0 478.80120260166586 -2161.3301756374312 0 -2161.3301756374312 1397.7523574230327 0 0 0 0 193.7695019283783 -185.36449321924738 0 -185.36449321924738 -172.46804016104716 0 0 0 0 171.15841729545355 -164.71437900066212 0 -164.71437900066212 -183.84544838783404 0 0 0 0 6.9916141067515127 -345.13544736173935 0 -345.13544736173935 -71.977305662745493 0 0 0 0 157.74118962801913 -298.21413986880179 0 -298.21413986880179 -88.365689745056443 0 0 0 0 254.08675486428547 -303.32164797594123 0 -303.32164797594123 -111.92085795631192 0 0 0 0 342.63755176995983 -393.22612656974616 0 -393.22612656974616 -111.3677583198205 0 0 0 0 720.43565156134719 -132.72738853554529 0 -132.72738853554529 -196.16891062977629 0 0 0 0 505.90820857621657 -102.95128587077215 0 -102.95128587077215 52.010007131520979 0 0 0 0 164.3204731562073 -640.55166262699095 0 -640.55166262699095 -191.31956908892425 0 0 0 0 275.03385396114027 -184.78174774230501 0 -184.78174774230501 -118.57563860564528 0 0 0 0 1574.6215064092394 -119.36231559418138 0 -119.36231559418138 -222.67411453981822 0 0 0 0 617.81065189186484 -545.39693727866597 0 -545.39693727866597 21.979676729351922 0 0 0 0 -5074.2100752452097 -840.95647304716113 0 -840.95647304716113 645.97918770832439 0 0 0 0 -2155.789635910256 -1751.1489233345451 0 -1751.1489233345451 -464.65101449700705 0 0 0 0 0.3352265757240076 -11.120595006114726 0 -11.120595006114726 -14.130274008594355 0 0 0 0 -1202.3324314046477 -711.10784055201657 0 -711.10784055201657 -556.5959014713444 0 0 0 0 -83.260991470386216 -2092.3720840761298 0 -2092.3720840761298 291.93522236562785 0 0 0 0 -652.09746526696836 -193.16331977724258 0 -193.16331977724258 -74.319094136421882 0 0 0 0 -776.6499411343284 -1323.6783205821166 0 -1323.6783205821166 -237.54364260621514 0 0 0 0 -1128.8311883506176 -1144.7075671436887 0 -1144.7075671436887 -320.90897328525352 0 0 0 0 -714.50003259781806 -880.29034941730242 0 -880.29034941730242 -298.6273649113391 0 0 0 0 -1280.5133984186687 -980.43213493587245 0 -980.43213493587245 -189.57870986281341 0 0 0 0 -1856.9109164102774 -846.57752214842731 0 -846.57752214842731 -217.04930208880796 0 0 0 0 -1041.9578509935236 -917.91127386755898 0 -917.91127386755898 -704.00676259095417 0 0 0 0 -1193.6221211752418 -1131.6547216663548 0 -1131.6547216663548 -3.5324966935831981 0 0 0 0 -1872.724651256518 -848.73421339720267 0 -848.73421339720267 447.74902569580081 0 0 0 0 291.48116637478961 -82.924732313199911 0 -82.924732313199911 459.98108931020033 0 0 0 0 -1702.6822274040387 -1149.8144123474967 0 -1149.8144123474967 857.95421819438297 0 0 0 0 -12.709439495121927 -15.772511567944385 0 -15.772511567944385 -17.80024017529098 0 0 0 0 -1788.8634833013421 -1727.5902008554704 0 -1727.5902008554704 -1.9907396348285147 0 0 0 0 -2921.1445550336102 242.39818902628031 0 242.39818902628031 509.16963976273109 0 0 0 0 -1302.4299485486117 -1986.5192297451167 0 -1986.5192297451167 -1648.0628475528738 0 0 0 0 269.45319858566654 965.32021271160829 0 965.32021271160829 -2262.005122077373 0 0 0 0 1061.8940127895112 386.53652632493686 0 386.53652632493686 283.99304683945502 0 0 0 0 -9.2281839190402764 -12.630422296264815 0 -12.630422296264815 -4.777917162388384 0 0 0 0 -2798.1329573960247 -1503.5524567978218 0 -1503.5524567978218 3057.2008613342505 0 0 0 0 -1634.8512717459816 -1330.2269701698506 0 -1330.2269701698506 557.73732195933871 0 0 0 0 -1785.3698990989724 -955.41459766472371 0 -955.41459766472371 -231.15896438202617 0 0 0 0 -1626.3311789161162 -804.30850126965106 0 -804.30850126965106 -271.86316503179842 0 0 0 0 -1014.4262171562877 -866.80321213709794 0 -866.80321213709794 -398.41416210034549 0 0 0 0 -1100.1984600469004 -774.83285554414397 0 -774.83285554414397 -311.89971760892695 0 0 0 0 -1033.1436903075992 -895.44539503780061 0 -895.44539503780061 -375.51584865464247 0 0 0 0 -665.19370225710736 -906.71500510701844 0 -906.71500510701844 -413.84959455838271 0 0 0 0 -1099.2405801575062 -850.30798490485074 0 -850.30798490485074 -247.85719453010461 0 0 0 0 -943.24848954191111 -773.5934138728353 0 -773.5934138728353 -451.90412949606252 0 0 0 0 -701.94894511202438 -971.85142464471301 0 -971.85142464471301 -365.24721844532542 0 0 0 0 -1402.942276903239 -401.8763041722068 0 -401.8763041722068 -1335.2229102121219 0 0 0 0 -1483.7709338134955 -1456.1753923157985 0 -1456.1753923157985 -1097.31145227259 0 0 0 0 -1279.3676367125881 -762.1947252699083 0 -762.1947252699083 -284.65341708503001 0 0 0 0 104.95384624964936 -602.03704458120319 0 -602.03704458120319 -29.809311280211205 0 0 0 0 250.87108396572148 -397.06349209165023 0 -397.06349209165023 -455.70187513880364 0 0 0 0 660.86007051545312 -495.01127785119024 0 -495.01127785119024 -748.36208738980622 0 0 0 0 558.49691270643234 -810.84993508931905 0 -810.84993508931905 412.55404214585633 0 0 0 0 627.71525832504267 -146.72604023854547 0 -146.72604023854547 -159.83584331015118 0 0 0 0 565.31622907581186 -618.01410020747926 0 -618.01410020747926 -630.20368727337541 0 0 0 0 498.80176968542219 -461.78001586134906 0 -461.78001586134906 -748.47626572621982 0 0 0 0 497.00301522067457 -621.98524324830578 0 -621.98524324830578 -753.40513397119412 0 0 0 0 147.51133105263216 -611.29097581385645 0 -611.29097581385645 -477.08740971399675 0 0 0 0 293.91862613100966 -330.49624947081065 0 -330.49624947081065 -392.55925301760271 0 0 0 0 187.89066529685806 -992.70075095426762 0 -992.70075095426762 -1002.9682489939071 0 0 0 0 -728.38182413676986 -582.4691379812316 0 -582.4691379812316 -451.55423869807601 0 0 0 0 583.08906662234222 -567.55185250181512 0 -567.55185250181512 -733.74254756345499 0 0 0 0 675.23285845816827 -479.18260633431311 0 -479.18260633431311 -943.63503268146769 0 0 0 0 -408.21431672995095 -539.13891118153197 0 -539.13891118153197 -368.44769455128369 0 0 0 0 311.84917488708743 2178.7687437171617 0 2178.7687437171617 1932.310339674375 0 0 0 0 1.8813665474780521 -5.6457692087362119 0 -5.6457692087362119 -13.118721304918918 0 0 0 0 680.15711920228932 -841.73831793672207 0 -841.73831793672207 565.12186781509627 0 0 0 0 -38.535511169924973 -41.529797859280919 0 -41.529797859280919 -41.088913345134927 0 0 0 0 -742.22529829008272 -1470.0752361744162 0 -1470.0752361744162 -1831.2339011801951 0 0 0 0 560.97369327169145 -51.176765851168966 0 -51.176765851168966 -540.73344466078515 0 0 0 0 -88.384217913728207 81.854533063567033 0 81.854533063567033 -566.6614056523722 0 0 0 0 80.866216387177701 -284.84032664054939 0 -284.84032664054939 -240.13504609690426 0 0 0 0 -16.469853748934213 -25.962357059532945 0 -25.962357059532945 -11.691147427989574 0 0 0 0 484.46551401359829 -1507.960508922974 0 -1507.960508922974 1055.909829324446 0 0 0 0 141.27565707413305 -534.59327817230405 0 -534.59327817230405 852.3825709820353 0 0 0 0 590.95488584850318 -467.77244547030659 0 -467.77244547030659 -455.59777778747048 0 0 0 0 350.20507616637042 -105.10057423578564 0 -105.10057423578564 -155.48225772023761 0 0 0 0 221.29007694598113 -421.33217665302436 0 -421.33217665302436 -493.07000229799451 0 0 0 0 -9.6513758894792545 -23.443917612996849 0 -23.443917612996849 -12.181125232030798 0 0 0 0 369.38990347195795 -605.64748119341721 0 -605.64748119341721 -327.22757200648994 0 0 0 0 208.49703744689759 -594.13337214988496 0 -594.13337214988496 1240.565049889266 0 0 0 0 152.61979737032379 -421.05915695768726 0 -421.05915695768726 1046.68059080083 0 0 0 0 477.08022372906271 -240.19577732192192 0 -240.19577732192192 1053.3257917466544 0 0 0 0 328.30174482890288 -384.10906089992204 0 -384.10906089992204 952.77934324990929 0 0 0 0 265.61521539915702 -107.48126088222489 0 -107.48126088222489 -1900.9531459277723 0 0 0 0 -76.6132277524448 -36.616916365361249 0 -36.616916365361249 -54.061489954166063 0 0 0 0 228.37247110360022 -563.30407665157281 0 -563.30407665157281 520.5744975389789 0 0 0 0 -46.856707572915184 -205.03155511833955 0 -205.03155511833955 -12.117355597831192 0 0 0 0 266.63504722941434 -191.34736674724627 0 -191.34736674724627 -113.36812639399432 0 0 0 0 579.07842136547697 -882.51171792758578 0 -882.51171792758578 324.82885403286127 0 0 0 0 33.298623147551552 -484.44254320860819 0 -484.44254320860819 1298.7334713046475 0 0 0 0 176.58810141423601 -408.34185646911283 0 -408.34185646911283 603.65425696673628 0 0 0 0 5.3556066248092975 -605.81095984601143 0 -605.81095984601143 918.93260427713722 0 0 0 0 162.08290133523406 -310.13419342175621 0 -310.13419342175621 -118.12022649226674 0 0 0 0 -113.69672630065179 -217.55119057465708 0 -217.55119057465708 662.6378152901425 0 0 0 0 193.04441204053001 -176.10870388440344 0 -176.10870388440344 -15.736391498383455 0 0 0 0 -0.19090704455624063 -43.231446402747501 0 -43.231446402747501 16.542627941435246 0 0 0 0 17.283139118102554 -508.02141870458945 0 -508.02141870458945 1088.1103326206703 0 0 0 0 270.3946637973786 -569.72190158000922 0 -569.72190158000922 851.61027953937901 0 0 0 0 -713.48620424295814 -1572.2203378620263 0 -1572.2203378620263 -3023.0002654486307 0 0 0 0 -481.60526142995514 -987.23908647029953 0 -987.23908647029953 -2309.2286446316971 0 0 0 0 9.0427285008148033 -50.343904522807755 0 -50.343904522807755 23.428581403173887 0 0 0 0 -287.44212544850598 -1069.2746387580619 0 -1069.2746387580619 -2213.9989780152455 0 0 0 0 -512.61284007487848 -1065.0466498222247 0 -1065.0466498222247 -1800.6573315839414 0 0 0 0 -482.24819441234285 -1004.2643687785928 0 -1004.2643687785928 -1720.3100474060843 0 0 0 0 -211.27092081955925 -772.20972274217252 0 -772.20972274217252 -1866.4926531655362 0 0 0 0 -175.32858649977425 -599.29122570566062 0 -599.29122570566062 -1236.6509820445815 0 0 0 0 -472.96729376387611 -1091.3404356004494 0 -1091.3404356004494 -1503.7665452874353 0 0 0 0 -1230.4477378844895 -1218.9640635734804 0 -1218.9640635734804 -858.94074820463175 0 0 0 0 -1572.9424777081003 -1440.6095958069145 0 -1440.6095958069145 -995.63552214773154 0 0 0 0 -1663.3175488779671 -1335.0154307962957 0 -1335.0154307962957 -541.8443466448042 0 0 0 0 -1207.0710896845703 -1095.926458478516 0 -1095.926458478516 -734.49896630552757 0 0 0 0 -666.03269962569175 -920.23056521393119 0 -920.23056521393119 -1052.4983719760585 0 0 0 0 -868.68142964722938 -940.44658873611343 0 -940.44658873611343 -664.51364563042443 0 0 0 0 -1592.8813954501675 -1037.4192123807388 0 -1037.4192123807388 -437.15307936464524 0 0 0 0 -1557.8419337545711 -918.65502851765905 0 -918.65502851765905 -273.16725190994657 0 0 0 0 -1918.1515794626102 -1042.9557827438502 0 -1042.9557827438502 -315.96565767478387 0 0 0 0 -2439.879849751349 -1524.6843876613511 0 -1524.6843876613511 -564.49648467639054 0 0 0 0 -2180.8881291403814 -3384.5644877529403 0 -3384.5644877529403 1381.1960555430478 0 0 0 0 482.481823709124 -672.79354617791796 0 -672.79354617791796 -1398.2120051940983 0 0 0 0 143.1164220814444 0.19436793988074896 0 0.19436793988074896 1302.3862204923353 0 0 0 0 -3.149180921619859 -18.596621617614701 0 -18.596621617614701 6.9545277783093606 0 0 0 0 -1604.5235609103693 -480.57999619476868 0 -480.57999619476868 4594.1086536408257 0 0 0 0 -1174.1643002528363 -2781.6579776093122 0 -2781.6579776093122 -5140.1495569997605 0 0 0 0 -993.69630505144596 -1310.6755196250347 0 -1310.6755196250347 -2371.0819989295851 0 0 0 0 -2135.8498422654229 -2008.2327403127347 0 -2008.2327403127347 -1305.7703836657893 0 0 0 0 -772.38321881813999 -1083.8999227247641 0 -1083.8999227247641 -2469.7994997213618 0 0 0 0 -1287.5145484718159 -1623.7377254970061 0 -1623.7377254970061 -2005.8864731832691 0 0 0 0 -1086.4856134034198 -778.92082273207416 0 -778.92082273207416 -1436.1951628468441 0 0 0 0 -1138.6536237568362 -873.22823255846197 0 -873.22823255846197 -1078.8989655500536 0 0 0 0 -651.39357824563922 -920.44887103494875 0 -920.44887103494875 -1549.8798899052545 0 0 0 0 -1095.7551325104723 -1036.6195473453954 0 -1036.6195473453954 -1221.5650869970759 0 0 0 0 -883.55455442173297 -1125.1816404926144 0 -1125.1816404926144 -1515.6387347362052 0 0 0 0 -582.85229468320176 -887.29601481858663 0 -887.29601481858663 -1327.3527852240186 0 0 0 0 -596.9339768798236 -793.48502664285786 0 -793.48502664285786 -1015.3616439386424 0 0 0 0 -941.1416313196878 -908.61998254116156 0 -908.61998254116156 -1009.6654702289597 0 0 0 0 -733.40200624648423 -699.09213233469109 0 -699.09213233469109 -989.29993778696553 0 0 0 0 -555.66132004193059 -776.51002150180557 0 -776.51002150180557 -1114.4622957923184 0 0 0 0 -578.67034369408793 -853.43419699560582 0 -853.43419699560582 -1089.0248881824373 0 0 0 0 -352.35915379891958 -461.11736307504543 0 -461.11736307504543 -556.23017175797759 0 0 0 0 -459.84316125330224 -983.5596147992128 0 -983.5596147992128 -1188.8117764247763 0 0 0 0 0.36778221821958823 -1.756874325245235 0 -1.756874325245235 -0.96522965971850283 0 0 0 0 -171.17477902748215 -944.98714566991475 0 -944.98714566991475 -1198.3826841944683 0 0 0 0 127.88686533427972 -919.69516360593116 0 -919.69516360593116 -996.50280939963091 0 0 0 0 -63.39236078736576 -791.83622979046595 0 -791.83622979046595 -980.82327580999481 0 0 0 0 -391.61325455496262 -894.68810726894662 0 -894.68810726894662 -931.42136291900806 0 0 0 0 -465.42816860211315 -763.98351299954084 0 -763.98351299954084 -1075.606877532131 0 0 0 0 -360.34768960153451 -761.18324520681017 0 -761.18324520681017 -1050.8791359047882 0 0 0 0 1129.9576869786106 -544.84402753736094 0 -544.84402753736094 -509.10142072819508 0 0 0 0 933.08586760929029 -548.77056650380837 0 -548.77056650380837 -166.32883581567467 0 0 0 0 -429.9703608168129 -1236.1229512829905 0 -1236.1229512829905 -926.85354380014905 0 0 0 0 1.9542829863407718 -1.581920076695809 0 -1.581920076695809 -3.8121881647761739 0 0 0 0 1427.6595382874693 -35.726218617766335 0 -35.726218617766335 -274.9678511234215 0 0 0 0 182.09967843567574 -1002.0607435406828 0 -1002.0607435406828 -1119.3036201906616 0 0 0 0 597.28522975208762 -830.77821358457368 0 -830.77821358457368 -1063.9361348349794 0 0 0 0 589.8731270746357 -829.0674736784058 0 -829.0674736784058 -666.671270564304 0 0 0 0 1147.3731176286092 -588.56247850475302 0 -588.56247850475302 -717.55142643998624 0 0 0 0 885.6628305434424 -920.61842878369134 0 -920.61842878369134 -655.76751006682025 0 0 0 0 1125.6286743513774 -853.68288827282413 0 -853.68288827282413 -830.57305697943229 0 0 0 0 929.04034015398065 -725.45457600663485 0 -725.45457600663485 -786.46690346461401 0 0 0 0 907.19461654320185 -738.96795840273808 0 -738.96795840273808 -838.66869967988168 0 0 0 0 858.38134847232141 -898.36665606218594 0 -898.36665606218594 -867.86177215421048 0 0 0 0 556.13130584449027 -814.59731301577176 0 -814.59731301577176 -760.10372393325815 0 0 0 0 556.12735151342736 -814.33341763340752 0 -814.33341763340752 -657.81265278640785 0 0 0 0 165.64880926310434 -829.00846761713183 0 -829.00846761713183 -781.44870527261082 0 0 0 0 208.30997214355739 -1031.9705245198747 0 -1031.9705245198747 -812.40749378091232 0 0 0 0 472.45699081868224 -724.27276009754496 0 -724.27276009754496 -461.63561107558235 0 0 0 0 185.25013695217785 -913.55549965095088 0 -913.55549965095088 -571.0522515089433 0 0 0 0 658.00035627583566 -869.93404514544818 0 -869.93404514544818 -708.47844124541734 0 0 0 0 730.22368308270234 -739.48118803876696 0 -739.48118803876696 -517.05381300228146 0 0 0 0 933.45161789879785 -739.89491795360118 0 -739.89491795360118 -802.50314140534465 0 0 0 0 -437.65087270327786 -914.20711884800767 0 -914.20711884800767 -886.00916194362253 0 0 0 0 -670.46573790753973 -938.69680239791887 0 -938.69680239791887 -860.72171448594963 0 0 0 0 -114.62833366687119 -960.51045760669967 0 -960.51045760669967 -850.7350967343084 0 0 0 0 -248.50636305978696 -774.55759052230314 0 -774.55759052230314 -837.27953496819828 0 0 0 0 35.542860908288276 -756.4240369670124 0 -756.4240369670124 -609.89486837233562 0 0 0 0 189.99822847200267 -871.31973499791275 0 -871.31973499791275 -710.59380776552007 0 0 0 0 -177.00005762655564 -804.74118252555854 0 -804.74118252555854 -409.18713688127536 0 0 0 0 -562.12855569388194 -826.06384711169858 0 -826.06384711169858 -443.96078191413835 0 0 0 0 -246.15549231000477 -974.79809558533452 0 -974.79809558533452 -618.59114439720315 0 0 0 0 -391.80922814369842 -785.93833277525118 0 -785.93833277525118 -657.99197994156566 0 0 0 0 -845.93143861313729 -888.61420285090799 0 -888.61420285090799 -552.86465349312857 0 0 0 0 -579.87308295987896 -890.35531655417253 0 -890.35531655417253 -611.27665719254037 0 0 0 0 -216.83376664784737 -878.76099396874451 0 -878.76099396874451 -469.86818965338898 0 0 0 0 -657.04042722239501 -869.50477639840483 0 -869.50477639840483 -250.33113350118219 0 0 0 0 -273.80701818573289 -954.27627593662328 0 -954.27627593662328 -324.55625305212743 0 0 0 0 -326.91568541624292 -1060.0305986384028 0 -1060.0305986384028 -312.36257941326949 0 0 0 0 -706.94982200219602 -945.98680511204111 0 -945.98680511204111 -138.86814846516063 0 0 0 0 -32.171265520380985 -984.77444509896713 0 -984.77444509896713 329.34266179714177 0 0 0 0 -4.41541225691617 -1001.9627881547403 0 -1001.9627881547403 -150.38522504290268 0 0 0 0 -370.71822154869733 -1134.4632381382926 0 -1134.4632381382926 133.84262307487006 0 0 0 0 -321.36476890211634 -976.46627219859147 0 -976.46627219859147 -59.069599926764567 0 0 0 0 102.87287710740929 -814.84727987604128 0 -814.84727987604128 -333.4211139494837 0 0 0 0 -195.82461200814942 -978.68032457072718 0 -978.68032457072718 -390.51691431919971 0 0 0 0 379.73242033559654 -923.87222559698239 0 -923.87222559698239 -419.14767983176716 0 0 0 0 532.36846043272089 -737.7707919984723 0 -737.7707919984723 -193.5275883417271 0 0 0 0 90.798017871949924 -852.86221265020959 0 -852.86221265020959 -82.170600069683132 0 0 0 0 542.49178183394542 -828.0220121117718 0 -828.0220121117718 8.4745714656110067 0 0 0 0 780.60743515496142 -664.38335642043239 0 -664.38335642043239 -458.98388947380954 0 0 0 0 603.4573479208193 -655.4967546606822 0 -655.4967546606822 197.80126541037862 0 0 0 0 434.54608675534837 -1072.6337882213757 0 -1072.6337882213757 829.41155929820707 0 0 0 0 246.21282267961942 -916.29824106828528 0 -916.29824106828528 -157.40792588188742 0 0 0 0 242.75114331218356 -896.22048304126474 0 -896.22048304126474 312.51354311765317 0 0 0 0 456.62049694718735 -908.56898332071978 0 -908.56898332071978 265.74169576750683 0 0 0 0 -15.684363266904256 -1269.8628072305 0 -1269.8628072305 160.44341230723603 0 0 0 0 23.933478279745032 -1088.7762471488268 0 -1088.7762471488268 966.64099056872874 0 0 0 0 -15.189355692535173 -1421.1585333042276 0 -1421.1585333042276 775.76121708278515 0 0 0 0 537.73405827509123 -807.84347800828618 0 -807.84347800828618 1126.4730277009967 0 0 0 0 810.87429409419565 -1515.2971564133804 0 -1515.2971564133804 1514.2800119839194 0 0 0 0 226.9011941313438 -936.81775151882175 0 -936.81775151882175 1743.7940088828618 0 0 0 0 5.9505375715958451 -21.54252810697929 0 -21.54252810697929 -6.8294249253206365 0 0 0 0 889.88322550008888 -1409.053972037676 0 -1409.053972037676 -1021.3464972601905 0 0 0 0 380.01869057472504 -918.47514523487007 0 -918.47514523487007 2609.2471451084693 0 0 0 0 393.65096281228034 -2108.5706957716557 0 -2108.5706957716557 4159.6860723061654 0 0 0 0 857.46006965777633 -949.11302120495293 0 -949.11302120495293 1979.120655106839 0 0 0 0 720.27559925854439 -1360.8672135003544 0 -1360.8672135003544 2099.642993507272 0 0 0 0 -67.254363571608906 -53.489958840386649 0 -53.489958840386649 -15.613859530599306 0 0 0 0 -288.63189441959548 -1815.0052061769111 0 -1815.0052061769111 1533.7671686260983 0 0 0 0 -518.60874720205902 -1568.1998109952838 0 -1568.1998109952838 1838.9031650640359 0 0 0 0 -438.34215444442816 -1791.6347433790888 0 -1791.6347433790888 1683.0394336027384 0 0 0 0 -1761.8666584704551 -2774.5502973518528 0 -2774.5502973518528 1689.7606908513917 0 0 0 0 -1339.3705794090929 -1583.2625871472192 0 -1583.2625871472192 2589.8754761339878 0 0 0 0 -335.15297564215143 -3274.1357551203073 0 -3274.1357551203073 1451.8221031130579 0 0 0 0 296.56420696632995 -2321.5002537624587 0 -2321.5002537624587 370.27829283982101 0 0 0 0 -224.20758163004939 -3542.2037558355878 0 -3542.2037558355878 -586.48021520846305 0 0 0 0 -298.11557073904714 -2026.8878121256612 0 -2026.8878121256612 291.21251428311007 0 0 0 0 705.46651961668249 -1672.9293001896422 0 -1672.9293001896422 -258.87373339026453 0 0 0 0 -212.55910320360272 -949.79728089832679 0 -949.79728089832679 -515.17948916714749 0 0 0 0 -279.58762301109527 -1129.4970600188281 0 -1129.4970600188281 -207.10609075846878 0 0 0 0 -499.77269036260986 -1233.592501938997 0 -1233.592501938997 -131.769188532322 0 0 0 0 72.997807908424875 -1333.9021725030489 0 -1333.9021725030489 -160.2995159920265 0 0 0 0 -54.336703119552112 -1457.1878164045265 0 -1457.1878164045265 694.2372259873955 0 0 0 0 -88.096543106228637 -55.763851222104677 0 -55.763851222104677 76.395947679757228 0 0 0 0 45.525058734681807 -1417.8872396460374 0 -1417.8872396460374 2455.9390765933022 0 0 0 0 -52.972821004178428 -34.205005403286911 0 -34.205005403286911 -11.047843731363741 0 0 0 0 -86.244320322173735 -59.929642800826969 0 -59.929642800826969 52.089621789571538 0 0 0 0 -29.822426340094239 -8.4097482955972325 0 -8.4097482955972325 43.069711718691508 0 0 0 0 -78.493950708663121 -47.05721726057623 0 -47.05721726057623 18.411485050212477 0 0 0 0 -67.486607142578578 -46.354282028296439 0 -46.354282028296439 20.733955767726002 0 0 0 0 -60.612664507505542 -16.666449253234532 0 -16.666449253234532 59.206935569738562 0 0 0 0 -28.836280675401213 -94.99792472363697 0 -94.99792472363697 81.610400019296094 0 0 0 0 391.11022002404934 -1342.4351290473169 0 -1342.4351290473169 2368.3624910883718 0 0 0 0 -46.571658603285684 -58.150817948617046 0 -58.150817948617046 -8.8259204382482039 0 0 0 0 -55.345019760573962 -23.583225815362351 0 -23.583225815362351 1.6768691826382565 0 0 0 0 601.75458355463707 -1196.4347361486421 0 -1196.4347361486421 1999.7492543011831 0 0 0 0 745.65413422897109 -1086.9005617391017 0 -1086.9005617391017 868.02676474594773 0 0 0 0 297.20608617976541 -787.31547083324767 0 -787.31547083324767 1844.1956339710923 0 0 0 0 285.22840308364539 -1038.328389840839 0 -1038.328389840839 2309.7084661859899 0 0 0 0 658.13503443147783 -874.36057797816193 0 -874.36057797816193 571.37995890445927 0 0 0 0 379.3692760635804 -519.97517534012218 0 -519.97517534012218 1320.6392711572007 0 0 0 0 654.18086894945736 -510.1841166690856 0 -510.1841166690856 109.00584049293684 0 0 0 0 574.85219719886754 -864.95502001616717 0 -864.95502001616717 860.5062161949827 0 0 0 0 758.87913667694556 -771.74832793188455 0 -771.74832793188455 -156.51885193616909 0 0 0 0 325.59451320599328 -253.14145804848977 0 -253.14145804848977 -155.22097852625848 0 0 0 0 25.522398635388527 -246.9286232624363 0 -246.9286232624363 -1289.0554426531835 0 0 0 0 225.12829524926201 -824.24935941421063 0 -824.24935941421063 -230.76272625101592 0 0 0 0 -1539.6096644191275 -118.2903210633649 0 -118.2903210633649 64.837343530263752 0 0 0 0 -309.17757256015466 -79.884673066162577 0 -79.884673066162577 853.23110183364406 0 0 0 0 573.13763667902822 -1206.522697801169 0 -1206.522697801169 1595.4001960754067 0 0 0 0 46.334685408004589 -794.84502867340689 0 -794.84502867340689 348.92181248211637 0 0 0 0 -233.27098533169192 -696.39510601640177 0 -696.39510601640177 3638.1527389992989 0 0 0 0 -14.191136822564701 -4.4955017429918911 0 -4.4955017429918911 5.5248398253826352 0 0 0 0 1885.8552675035899 -2440.977966550734 0 -2440.977966550734 3018.2395200983992 0 0 0 0 -314.47522137666238 -245.6038642242529 0 -245.6038642242529 2305.9760889871814 0 0 0 0 2003.5429964086361 -2406.8647418752862 0 -2406.8647418752862 -406.37497293651359 0 0 0 0 -2046.7079875909694 -2925.4394738658593 0 -2925.4394738658593 147.03881865984386 0 0 0 0 1537.4947088291719 297.39671942519681 0 297.39671942519681 -597.19193550089403 0 0 0 0 1.5180104056682922 -4.517769365421529 0 -4.517769365421529 2.8137582439417912 0 0 0 0 -149.04985370681061 -595.48265804899256 0 -595.48265804899256 -1924.068047115943 0 0 0 0 -1346.6099264736549 -1477.6539617359631 0 -1477.6539617359631 -351.68091210934608 0 0 0 0 -651.0291817695761 -922.50851636894367 0 -922.50851636894367 -2886.6966973699782 0 0 0 0 -372.30096887866966 -1669.6678937686811 0 -1669.6678937686811 -1621.3456659294898 0 0 0 0 13.990646411371955 -13.498632810214175 0 -13.498632810214175 -1.2617398686127927 0 0 0 0 -943.93758421092934 -1329.1690749619811 0 -1329.1690749619811 -1020.245706807078 0 0 0 0 -1569.7690221939411 -1771.9532508276243 0 -1771.9532508276243 -1142.7083145258639 0 0 0 0 -1296.7882371532396 -796.04541611065906 0 -796.04541611065906 574.12116707999849 0 0 0 0 14.493940871121424 -14.17283951838786 0 -14.17283951838786 0.44286479395800882 0 0 0 0 -934.95459484597268 856.13322934145253 0 856.13322934145253 2212.7330564510085 0 0 0 0 -950.65299588224298 -2624.7206549355033 0 -2624.7206549355033 -3601.0834365421406 0 0 0 0 -3.3012998678396173 -9.1783659244943721 0 -9.1783659244943721 11.500727454793438 0 0 0 0 785.28088153363933 -526.49302875055764 0 -526.49302875055764 -557.07804384409974 0 0 0 0 943.60165377477824 -689.31655073219736 0 -689.31655073219736 -834.58113205977679 0 0 0 0 174.79384608644614 -368.55081949133546 0 -368.55081949133546 -811.40211002291835 0 0 0 0 804.27237406444601 -622.06319337079037 0 -622.06319337079037 -803.67616106365676 0 0 0 0 338.94182099726459 -627.79493171849572 0 -627.79493171849572 -694.27832027389923 0 0 0 0 315.79576716967131 -418.69524660699699 0 -418.69524660699699 -619.0488165493025 0 0 0 0 221.77608365757624 -697.65342792991578 0 -697.65342792991578 -760.98566874077892 0 0 0 0 1030.1755191766088 -732.30865382924981 0 -732.30865382924981 -815.08763671165798 0 0 0 0 998.73585605433618 -502.82210069784105 0 -502.82210069784105 -877.80271066744535 0 0 0 0 956.71888075776224 -756.70326453296911 0 -756.70326453296911 -756.57801277375847 0 0 0 0 1627.8593586450079 -920.40564121040916 0 -920.40564121040916 -519.41453989882393 0 0 0 0 5.4771076048144067 -6.0296159994406935 0 -6.0296159994406935 1.7419142145923061 0 0 0 0 1913.916605023318 211.42662551740068 0 211.42662551740068 -380.19268559449574 0 0 0 0 -1971.2488280690377 -1452.2583716739673 0 -1452.2583716739673 -346.15190199791323 0 0 0 0 -591.81935814963799 -1394.0145946989305 0 -1394.0145946989305 -438.9322638441663 0 0 0 0 816.46551284143061 -771.80841301686223 0 -771.80841301686223 40.936715076310065 0 0 0 0 -891.80049183103256 -1073.8992683970246 0 -1073.8992683970246 1766.5611604610458 0 0 0 0 -298.28267577822771 -1013.0653649757069 0 -1013.0653649757069 -637.48670262885207 0 0 0 0 -1410.703693076226 -1539.0566091653263 0 -1539.0566091653263 -959.29836055483247 0 0 0 0 -1148.5237117041834 -439.99866566767741 0 -439.99866566767741 -448.67534823446204 0 0 0 0 -601.13710286955757 -426.90194596330912 0 -426.90194596330912 -402.16034451751511 0 0 0 0 -754.91788569233904 -648.01092343724486 0 -648.01092343724486 -541.73633047501426 0 0 0 0 -592.2895249085559 -428.70793257703735 0 -428.70793257703735 -451.57476897369907 0 0 0 0 -537.88842784033477 -467.88579731938353 0 -467.88579731938353 -478.82140535604049 0 0 0 0 -684.50723251595628 -548.47884493079255 0 -548.47884493079255 -464.29641295733927 0 0 0 0 -712.82263843005057 -205.41618866302633 0 -205.41618866302633 -95.97579572477116 0 0 0 0 -428.69168921394885 -374.62297299103466 0 -374.62297299103466 -347.79982221323007 0 0 0 0 -119.02211982229346 -551.32748982080375 0 -551.32748982080375 -227.67239270277969 0 0 0 0 -542.31496974592665 -605.85077599590022 0 -605.85077599590022 -193.70043166249525 0 0 0 0 -240.6198457831415 -563.71423883381431 0 -563.71423883381431 -168.51230585763369 0 0 0 0 -331.8326077806496 -181.4672733685295 0 -181.4672733685295 -94.198486937293637 0 0 0 0 814.46597844778444 -637.85300244397786 0 -637.85300244397786 -439.44429044622848 0 0 0 0 759.11396284231159 -528.11118841627649 0 -528.11118841627649 -145.33973470958881 0 0 0 0 -218.43167345171878 -937.69539193119431 0 -937.69539193119431 -284.02243299699694 0 0 0 0 762.35589634835196 -979.01650588232405 0 -979.01650588232405 -458.14057041931483 0 0 0 0 419.47898803469434 -774.22989812370906 0 -774.22989812370906 -282.52734398644679 0 0 0 0 467.6177270857952 -687.44828384307948 0 -687.44828384307948 -387.23650850203558 0 0 0 0 473.37197274899518 -671.98102999361436 0 -671.98102999361436 -436.99965404649993 0 0 0 0 459.7535365615131 -645.99389662150656 0 -645.99389662150656 -341.83006834372645 0 0 0 0 334.71072096933494 -631.4463633534142 0 -631.4463633534142 -323.8577803866574 0 0 0 0 323.97071005917633 -583.58391636233955 0 -583.58391636233955 -150.81964302742927 0 0 0 0 36.448748688017076 -718.4213347972227 0 -718.4213347972227 -213.77430883852139 0 0 0 0 266.61387242597266 -448.3436156156622 0 -448.3436156156622 84.595601122524386 0 0 0 0 368.1692208587483 -647.24980025529294 0 -647.24980025529294 -112.34091065088069 0 0 0 0 333.61819404049311 -527.07680861128574 0 -527.07680861128574 -173.21727012840893 0 0 0 0 279.74417694499971 -416.07279879443558 0 -416.07279879443558 -225.51670042410478 0 0 0 0 30.845746818162297 -201.10294486492057 0 -201.10294486492057 -93.477175569729297 0 0 0 0 -85.107016623856907 -344.61842683340819 0 -344.61842683340819 -122.0296552428772 0 0 0 0 154.94305904741486 -481.29498928679459 0 -481.29498928679459 -173.81369036728938 0 0 0 0 433.46528683247016 -583.72356457938986 0 -583.72356457938986 75.233564924334132 0 0 0 0 208.80312699135902 -416.85065795164883 0 -416.85065795164883 -18.079981239759945 0 0 0 0 617.98321985608345 -186.16299043425761 0 -186.16299043425761 -149.58737034270234 0 0 0 0 88.90236008066131 -88.892018423739501 0 -88.892018423739501 -144.67384967157705 0 0 0 0 338.11391917809669 -409.50869264034918 0 -409.50869264034918 -113.75189057491161 0 0 0 0 442.77183306295774 -252.39298321406022 0 -252.39298321406022 258.15394601646767 0 0 0 0 624.82998057563236 -803.74629470580658 0 -803.74629470580658 604.42956574169511 0 0 0 0 796.95216944038839 -1129.1057956123441 0 -1129.1057956123441 1188.1751483197222 0 0 0 0 1907.4427256760027 -67.787115390785402 0 -67.787115390785402 -658.10581892319897 0 0 0 0 0.62867095454623723 -12.529133827212107 0 -12.529133827212107 -12.518648648731997 0 0 0 0 -45.497770279500401 65.393368024419033 0 65.393368024419033 4344.4048778774304 0 0 0 0 205.35637437002151 -678.63492099366704 0 -678.63492099366704 1764.4529191874717 0 0 0 0 233.1936832574429 1016.3053764518445 0 1016.3053764518445 569.56375496291912 0 0 0 0 839.56803315374418 -2032.6139566953534 0 -2032.6139566953534 119.35453410157061 0 0 0 0 626.25899790328913 -2209.633350889997 0 -2209.633350889997 1444.777183995262 0 0 0 0 148.23392698485986 -203.5221558790563 0 -203.5221558790563 257.54324506202829 0 0 0 0 54.426053941303095 -44.736252877158265 0 -44.736252877158265 -41.242844056803051 0 0 0 0 304.81396932072676 -377.78673965680173 0 -377.78673965680173 -109.14664332461689 0 0 0 0 43.131068993185181 -340.86562133475582 0 -340.86562133475582 1116.8716957178913 0 0 0 0 235.40808840674072 -535.91494251466247 0 -535.91494251466247 565.28160520640085 0 0 0 0 473.69839482160751 -340.85856473883905 0 -340.85856473883905 298.05731579535859 0 0 0 0 203.10814682215278 -381.52733032217657 0 -381.52733032217657 35.356265524951596 0 0 0 0 208.24101161224098 -230.345992662149 0 -230.345992662149 236.97338605083678 0 0 0 0 224.26047008505338 -249.40111831687227 0 -249.40111831687227 14.722589494638669 0 0 0 0 172.54328724524748 -183.65228192844188 0 -183.65228192844188 179.7570667930886 0 0 0 0 542.45977589054564 16.859921324670722 0 16.859921324670722 -842.14905458406975 0 0 0 0 217.34655838096694 -261.93495955820356 0 -261.93495955820356 57.351603600080978 0 0 0 0 88.651404935674691 38.803627810313628 0 38.803627810313628 -171.20140560022992 0 0 0 0 -301.55216224588003 562.47477343313585 0 562.47477343313585 -717.86346503326786 0 0 0 0 42.433928408100797 -13.060214991402724 0 -13.060214991402724 -105.07739965443523 0 0 0 0 -486.38984740975729 -1106.8676368097858 0 -1106.8676368097858 -671.05708431376843 0 0 0 0 570.582385922904 -746.59813869261416 0 -746.59813869261416 -2049.6163448870211 0 0 0 0 578.74641022300784 -359.43500026177207 0 -359.43500026177207 -889.84178691245324 0 0 0 0 648.12641462001557 -387.65201134317613 0 -387.65201134317613 -972.3913087596593 0 0 0 0 367.31248795784632 -509.62598801884451 0 -509.62598801884451 -841.46711509514353 0 0 0 0 230.08043917208613 -214.80985785876814 0 -214.80985785876814 38.798554897472741 0 0 0 0 883.94504303484428 145.11002629344148 0 145.11002629344148 -1263.0615801740278 0 0 0 0 -114.01685996896958 -506.1510196816962 0 -506.1510196816962 94.326970885093033 0 0 0 0 116.00324702884936 -264.53722495587851 0 -264.53722495587851 64.30741437447098 0 0 0 0 -12.406506361869106 -204.63612343465138 0 -204.63612343465138 404.42971843584746 0 0 0 0 -703.77442200223595 -450.64419772179099 0 -450.64419772179099 -1592.2311288335259 0 0 0 0 1412.9962652804243 -745.13077408685785 0 -745.13077408685785 -3303.4531078492 0 0 0 0 278.77714237695727 611.10865235989331 0 611.10865235989331 -829.7609268148517 0 0 0 0 327.30106002292086 -895.49030316729477 0 -895.49030316729477 -1909.5338036065805 0 0 0 0 212.31442963806239 66.085786216863198 0 66.085786216863198 -1860.4022879190397 0 0 0 0 126.40310131729348 -209.33769825318632 0 -209.33769825318632 345.76463978502989 0 0 0 0 172.08368838638648 -262.14303747413288 0 -262.14303747413288 64.934313879001976 0 0 0 0 55.673691002863052 -292.97377246541055 0 -292.97377246541055 -3.6383892915764591 0 0 0 0 219.42808276346477 -167.29017260621185 0 -167.29017260621185 11.986177700156986 0 0 0 0 247.73728029570339 -264.37588840583976 0 -264.37588840583976 24.255403888935689 0 0 0 0 249.63836268795421 -309.23743776269839 0 -309.23743776269839 -209.04865297722608 0 0 0 0 83.600830103896442 -303.59334469941314 0 -303.59334469941314 -630.95089188472593 0 0 0 0 -187.08406590031518 -292.95739538156704 0 -292.95739538156704 -54.974460764737159 0 0 0 0 141.04030289861839 -307.3534230217324 0 -307.3534230217324 -58.15147750466349 0 0 0 0 21.514989233241067 -199.99066324532214 0 -199.99066324532214 -120.52730885264828 0 0 0 0 -112.89902727400113 -287.14847531703617 0 -287.14847531703617 -394.24164627125356 0 0 0 0 -661.85205755721108 -867.55477224773949 0 -867.55477224773949 -596.22505182674945 0 0 0 0 761.03904051991776 280.46800298136031 0 280.46800298136031 -407.48588288762403 0 0 0 0 0.072379595050477974 0.055600979295604702 0 0.055600979295604702 -2.9743371300498112 0 0 0 0 164.70068809629083 -168.19369162240582 0 -168.19369162240582 -380.82212619355778 0 0 0 0 268.28599557621055 -507.13720781320353 0 -507.13720781320353 -507.2989474459846 0 0 0 0 444.21744252756707 -555.65249314848268 0 -555.65249314848268 -474.97952413924395 0 0 0 0 301.3352060088946 -440.08977122033411 0 -440.08977122033411 -371.81780218130552 0 0 0 0 585.64662270457484 -617.22477150974191 0 -617.22477150974191 -448.94569797168606 0 0 0 0 280.92628278689699 -378.74351617064031 0 -378.74351617064031 -446.85314986979211 0 0 0 0 281.85158134056474 -368.46387337088481 0 -368.46387337088481 -387.77977413504777 0 0 0 0 406.71358322286324 -47.760379300466866 0 -47.760379300466866 -97.756679520342004 0 0 0 0 752.78576584149778 -468.35482503687808 0 -468.35482503687808 -366.86866055596329 0 0 0 0 651.34380160104047 -523.53701531932893 0 -523.53701531932893 -147.10939904550605 0 0 0 0 -71.088009665552818 -447.66127755485104 0 -447.66127755485104 -278.69249667246731 0 0 0 0 3.3708204998529254 -2.3254844122168805 0 -2.3254844122168805 -7.8379940173937257 0 0 0 0 122.17225533668716 -5.1075020247287739 0 -5.1075020247287739 -384.01906320510352 0 0 0 0 -169.41162492688454 -632.14538942223521 0 -632.14538942223521 -537.63605344387906 0 0 0 0 1.6621236277933349 -2.5112652387632153 0 -2.5112652387632153 -1.0102850006286843 0 0 0 0 -502.62116293374856 -466.56859030365376 0 -466.56859030365376 -744.4972610966397 0 0 0 0 -418.17993424405904 -686.64925405032932 0 -686.64925405032932 -1143.0556501612191 0 0 0 0 -505.40607563125741 -813.68001983708155 0 -813.68001983708155 -597.54850590016213 0 0 0 0 -357.883729367044 -100.57487698968362 0 -100.57487698968362 13.79529143848049 0 0 0 0 -458.74900478967174 -273.52073195089815 0 -273.52073195089815 -513.42390447494927 0 0 0 0 -0.51917825953958641 -2.3065793720523118 0 -2.3065793720523118 0.78914866673186168 0 0 0 0 -596.98166834418953 -726.89950973036548 0 -726.89950973036548 -1140.2179273216025 0 0 0 0 -776.6076063199871 -730.30116915722192 0 -730.30116915722192 -528.64103431674187 0 0 0 0 -747.39404192077018 -1155.3507421182405 0 -1155.3507421182405 -1204.559939491417 0 0 0 0 -950.57800875368412 -985.43903321121797 0 -985.43903321121797 -1299.5447256441948 0 0 0 0 -693.10358107244247 -820.7144989922399 0 -820.7144989922399 -798.48922550454881 0 0 0 0 -549.16749618388712 -769.32180651977524 0 -769.32180651977524 -724.15127560687051 0 0 0 0 -994.27734229606722 -689.34459813100239 0 -689.34459813100239 -676.95666458675805 0 0 0 0 -437.03902219257498 -417.87043485261296 0 -417.87043485261296 -442.79312912403657 0 0 0 0 -2.862386125395858 -1.4092855091240466 0 -1.4092855091240466 2.2286657564871817 0 0 0 0 -479.98404902633183 -899.13674776209007 0 -899.13674776209007 -779.34520171791883 0 0 0 0 -520.31499258210533 -722.4358910179526 0 -722.4358910179526 -498.81112976779877 0 0 0 0 -294.56941717430891 -691.40412704600385 0 -691.40412704600385 -533.65685889696852 0 0 0 0 -521.80654803576908 -715.45996317976187 0 -715.45996317976187 -554.10531988457387 0 0 0 0 -303.14508765682695 -490.0879586565552 0 -490.0879586565552 -427.16365441292419 0 0 0 0 -72.022837765609438 -403.3279147928406 0 -403.3279147928406 -480.64035168731925 0 0 0 0 -335.92277102962544 -222.01377305347705 0 -222.01377305347705 -442.76654609273828 0 0 0 0 -419.16400285386044 -1241.1482212576479 0 -1241.1482212576479 -1286.7247782365212 0 0 0 0 -411.09917505928752 -1219.3989814364029 0 -1219.3989814364029 -1364.552687511743 0 0 0 0 -379.43527234031762 -1079.5637805126958 0 -1079.5637805126958 -1247.0122927160583 0 0 0 0 -378.30803987599211 -1117.3963530288179 0 -1117.3963530288179 -1571.414128369423 0 0 0 0 -472.54796281014569 -1226.1787234285848 0 -1226.1787234285848 -1700.4531446599449 0 0 0 0 -616.15423842972086 -1316.3687972275843 0 -1316.3687972275843 -1366.0071716030452 0 0 0 0 -476.33598534167686 -1211.3116326431746 0 -1211.3116326431746 -1356.3364302644668 0 0 0 0 -581.95752141853882 -1206.9407924429938 0 -1206.9407924429938 -1185.5417914893487 0 0 0 0 -632.68955352503554 -1099.4682689619701 0 -1099.4682689619701 -1259.2318512940947 0 0 0 0 -892.09829648194136 -1500.6155224256718 0 -1500.6155224256718 -1684.78636390262 0 0 0 0 -732.20478421179723 -1214.4666594385426 0 -1214.4666594385426 -1069.2708692324413 0 0 0 0 -336.30328985022788 -737.77935862183222 0 -737.77935862183222 -637.53682538637759 0 0 0 0 -568.10339485688928 -974.51527512237772 0 -974.51527512237772 -712.84072268176715 0 0 0 0 -571.55590487420523 -1111.3257763750632 0 -1111.3257763750632 -958.85619622390004 0 0 0 0 -517.38981768392114 -916.12641387979238 0 -916.12641387979238 -848.84359388680696 0 0 0 0 -411.33710621709179 -1111.3345095032555 0 -1111.3345095032555 -1189.9199434560473 0 0 0 0 -435.89249200565973 -905.92421776121955 0 -905.92421776121955 -773.67613498708306 0 0 0 0 -430.12196027535401 -1047.3088803334033 0 -1047.3088803334033 -1062.8136783902337 0 0 0 0 -428.29907338647172 -1066.8622860946093 0 -1066.8622860946093 -1043.7870358224554 0 0 0 0 -362.97548405987618 -1171.3439428732365 0 -1171.3439428732365 -1322.1656823972098 0 0 0 0 -395.08347805213634 -937.70733976759857 0 -937.70733976759857 -985.55618860248069 0 0 0 0 -348.50407812984486 -828.1657178512869 0 -828.1657178512869 -873.96142705868442 0 0 0 0 -451.97012786296546 -824.0084599066231 0 -824.0084599066231 -599.49196640627633 0 0 0 0 -405.75235364012769 -868.12103791230766 0 -868.12103791230766 -811.73920541825282 0 0 0 0 -562.98787647836434 -609.5462033507938 0 -609.5462033507938 -671.68900346165901 0 0 0 0 -454.87200489420866 -795.54642338536632 0 -795.54642338536632 -397.73646490785541 0 0 0 0 -245.36962524069531 -597.46230478897633 0 -597.46230478897633 -579.59623179436198 0 0 0 0 -466.36389973295445 -816.04150856660817 0 -816.04150856660817 -553.97257636927679 0 0 0 0 -372.95195356889599 -583.21552464009255 0 -583.21552464009255 -196.36839675831834 0 0 0 0 -106.85178591800286 -472.78397139108893 0 -472.78397139108893 -211.35727650354602 0 0 0 0 -133.18237923178208 -239.29921485545088 0 -239.29921485545088 73.769234525835373 0 0 0 0 173.25982690782257 -306.31669930856333 0 -306.31669930856333 -335.15342347046681 0 0 0 0 -27.867913590502965 -53.678508360246482 0 -53.678508360246482 -37.864121947521539 0 0 0 0 -992.69127064048371 -616.979565904021 0 -616.979565904021 -457.00174013460492 0 0 0 0 -737.48263316334487 -297.2776036388168 0 -297.2776036388168 -245.2921348277232 0 0 0 0 -513.78945173470129 -329.04147427420503 0 -329.04147427420503 -674.53454054095346 0 0 0 0 -509.77751795580843 -528.54217312682158 0 -528.54217312682158 -577.63488667016281 0 0 0 0 -44.588953090380528 -403.99468391609571 0 -403.99468391609571 -481.50410299545365 0 0 0 0 -89.947509574732976 -285.05429680249654 0 -285.05429680249654 -67.542742153716063 0 0 0 0 -222.30937901747529 -478.01418747300795 0 -478.01418747300795 -131.23037322491655 0 0 0 0 -130.04071347549325 -548.34482820486664 0 -548.34482820486664 -410.82137816937029 0 0 0 0 -450.00665238964939 -660.46606535644059 0 -660.46606535644059 -394.79887759635676 0 0 0 0 -179.54897208433977 -589.68544313030725 0 -589.68544313030725 -423.79554762862426 0 0 0 0 -285.03372719951585 -448.57668394738175 0 -448.57668394738175 -153.47972545121047 0 0 0 0 -136.12093901072512 -524.44303461778327 0 -524.44303461778327 -115.06120143214321 0 0 0 0 -44.474134328491346 -280.59458537869887 0 -280.59458537869887 7.6753351533116074 0 0 0 0 -224.75554272147565 -441.87623169469953 0 -441.87623169469953 15.050107383060094 0 0 0 0 -742.8815895995358 -320.94952521950472 0 -320.94952521950472 989.14139307109508 0 0 0 0 -94.573844606818284 -248.1555957082241 0 -248.1555957082241 66.224282012401588 0 0 0 0 -35.634293832388266 -259.13221509187963 0 -259.13221509187963 68.782882196929279 0 0 0 0 -200.66905982711614 -312.32279931506855 0 -312.32279931506855 356.16844532349569 0 0 0 0 -38.307443600933766 -860.80051373128117 0 -860.80051373128117 -1379.2621131853375 0 0 0 0 -948.25005870236782 -1024.427715665428 0 -1024.427715665428 323.69524092230495 0 0 0 0 20.837305579909298 -417.189970894613 0 -417.189970894613 59.67741145769287 0 0 0 0 -88.790250751517306 -221.90069684807622 0 -221.90069684807622 394.02006227599122 0 0 0 0 -65.461763239918582 -887.19799966878236 0 -887.19799966878236 -1002.256038387728 0 0 0 0 422.10419509738131 -1365.5727105272235 0 -1365.5727105272235 -1971.8366405536726 0 0 0 0 42.329209879556032 -265.61087891462171 0 -265.61087891462171 66.948203223731426 0 0 0 0 -254.08831259838917 -779.45809885753988 0 -779.45809885753988 -1058.2980468598034 0 0 0 0 -55.511265567852547 -43.774543491865074 0 -43.774543491865074 -6.5098206561130603 0 0 0 0 -198.3715781454739 -645.04174155581859 0 -645.04174155581859 -852.96395761126041 0 0 0 0 -51.515501460671658 -352.96662237562668 0 -352.96662237562668 110.9055813227169 0 0 0 0 116.59106527312568 -45.293283648305376 0 -45.293283648305376 -3.0169949583780635 0 0 0 0 -591.07976924812829 -52.971583895625372 0 -52.971583895625372 689.33483970112138 0 0 0 0 -19.069282245362842 -16.694018803228801 0 -16.694018803228801 -5.4200107511880944 0 0 0 0 212.35464836702158 -63.157361828940338 0 -63.157361828940338 -167.35162186721573 0 0 0 0 -185.65413530585647 -515.02433051458502 0 -515.02433051458502 -1274.620706867805 0 0 0 0 243.90734793446609 -962.42810655754874 0 -962.42810655754874 -3789.2611694390362 0 0 0 0 -611.47619135824789 -1876.0159139069001 0 -1876.0159139069001 -1555.8824211266256 0 0 0 0 -733.25483676262957 456.41208980904776 0 456.41208980904776 -619.55832253102562 0 0 0 0 -432.13952980921022 -1471.5351826176411 0 -1471.5351826176411 -1496.5142603767454 0 0 0 0 178.34725418229937 -788.64114884256924 0 -788.64114884256924 -2091.7216373969713 0 0 0 0 -906.07637891058403 -410.98350904268591 0 -410.98350904268591 296.62435167150397 0 0 0 0 -1151.4263000019128 -1130.9078158832981 0 -1130.9078158832981 -428.08631698667887 0 0 0 0 -104.40510395084857 -337.25023110229813 0 -337.25023110229813 -417.56076769603533 0 0 0 0 -303.83527645003051 -461.99308226451103 0 -461.99308226451103 -332.71709426898451 0 0 0 0 -394.97929798522091 -388.60060081783377 0 -388.60060081783377 -306.41727434821951 0 0 0 0 -74.667023737289128 -243.96581078101735 0 -243.96581078101735 -429.13277733433642 0 0 0 0 -384.93367672574823 -539.13684533754349 0 -539.13684533754349 -406.0932797161513 0 0 0 0 -119.15041873765585 -827.50013548188872 0 -827.50013548188872 -911.58675213535025 0 0 0 0 6.310399887006497 -122.09425200053738 0 -122.09425200053738 -149.70576196512411 0 0 0 0 -117.3668796660495 -409.77866733134579 0 -409.77866733134579 -540.33639877053793 0 0 0 0 -26.071257287768447 -13.794530446962611 0 -13.794530446962611 13.647182329662428 0 0 0 0 -104.90857044709992 -28.132758617270156 0 -28.132758617270156 42.11689356827992 0 0 0 0 -106.6767627960071 -24.564332375302911 0 -24.564332375302911 34.916154749156703 0 0 0 0 -259.91842275275849 -286.34947548627315 0 -286.34947548627315 -294.72193062021688 0 0 0 0 3.7511211314962942 -75.870303015999724 0 -75.870303015999724 -0.82500889942073741 0 0 0 0 -149.48679676605389 -159.22228348259887 0 -159.22228348259887 72.401084395925864 0 0 0 0 157.2454879650104 -229.6582995244753 0 -229.6582995244753 -2.7653785377915483 0 0 0 0 -21.190753363349359 -380.29209927623742 0 -380.29209927623742 -308.23918579649035 0 0 0 0 -30.357031508935506 -117.8716244296761 0 -117.8716244296761 -31.208539532395662 0 0 0 0 -40.791499042014038 -276.55501277995791 0 -276.55501277995791 -101.53736884704995 0 0 0 0 -85.783748669113265 -241.2826827216486 0 -241.2826827216486 -318.87710149704071 0 0 0 0 -99.566871380869998 -310.16928890482814 0 -310.16928890482814 -292.98840157977975 0 0 0 0 115.38771235784378 -58.729205620854295 0 -58.729205620854295 2.3858010110461407 0 0 0 0 -890.68879965433734 -622.80509053287824 0 -622.80509053287824 -187.81707488500979 0 0 0 0 -663.75937868707115 -508.3008019425688 0 -508.3008019425688 -40.965817447548034 0 0 0 0 -645.09001568777603 -483.59545336709562 0 -483.59545336709562 -169.58025107998401 0 0 0 0 -712.99761864187894 -626.68367689151273 0 -626.68367689151273 -281.49334067103337 0 0 0 0 -771.73943161682109 -550.48078271496342 0 -550.48078271496342 -137.07634570871596 0 0 0 0 -642.40780956836534 -530.18696094921324 0 -530.18696094921324 -308.74343428169959 0 0 0 0 -551.17085191438673 -434.23257979041955 0 -434.23257979041955 -227.65277381983469 0 0 0 0 -613.22239842369891 -329.64461000086885 0 -329.64461000086885 -9.9897633076179773 0 0 0 0 -558.58731323713437 -88.970563130209484 0 -88.970563130209484 237.06308281271777 0 0 0 0 -591.68781606225457 -260.46431126158313 0 -260.46431126158313 -101.95494590587623 0 0 0 0 -32.444052087737816 -68.872208761845741 0 -68.872208761845741 12.7326679155438 0 0 0 0 -976.05229357560165 -470.35298879852053 0 -470.35298879852053 -6.5770925909000653 0 0 0 0 -43.447215668864374 4.0241606828440126 0 4.0241606828440126 65.018013355205767 0 0 0 0 -155.61250885269931 -201.78393043383704 0 -201.78393043383704 60.597580622934764 0 0 0 0 -24.743740064179292 -17.121284067310626 0 -17.121284067310626 65.097998483421208 0 0 0 0 -970.04816176745226 -1107.5293296928558 0 -1107.5293296928558 -347.37660372568644 0 0 0 0 -11.591077595540696 -3.0208474944144328 0 -3.0208474944144328 8.4285070405607598 0 0 0 0 -939.93191514983482 -1341.2737127478322 0 -1341.2737127478322 -888.40099381041364 0 0 0 0 -374.48518620611867 -170.5773351284879 0 -170.5773351284879 445.87662544401246 0 0 0 0 249.3784595402758 -391.19694741447529 0 -391.19694741447529 -835.14552034782537 0 0 0 0 -502.6837963865546 -1091.3314036230149 0 -1091.3314036230149 -847.68750673172326 0 0 0 0 -112.11015862629574 -1070.4086872930638 0 -1070.4086872930638 -1008.0454892921261 0 0 0 0 -66.008053606838075 -468.42490359754447 0 -468.42490359754447 -678.39740925683873 0 0 0 0 278.87029654417711 -885.56227996807502 0 -885.56227996807502 -1121.3695376408432 0 0 0 0 -56.713459249731386 -861.50060755703453 0 -861.50060755703453 -893.75840426608193 0 0 0 0 -289.53433091042098 -1307.4244501205067 0 -1307.4244501205067 -1338.032469355705 0 0 0 0 -30.630581399032963 -653.24796665789472 0 -653.24796665789472 -687.24171168963949 0 0 0 0 177.59591811936116 -411.67529697754435 0 -411.67529697754435 -811.87409506138829 0 0 0 0 -3.0005444433152491 -7.7005802183430774 0 -7.7005802183430774 -29.604923784266788 0 0 0 0 911.73951517787646 -354.03471046937557 0 -354.03471046937557 -1430.3839652703846 0 0 0 0 -360.61356035161589 -1789.7160569796288 0 -1789.7160569796288 -2168.8773062267428 0 0 0 0 -1967.2899894719012 -1686.4940665080285 0 -1686.4940665080285 -666.39626128121745 0 0 0 0 16.753029662941117 -1.6728593655170698 0 -1.6728593655170698 -4.8272938101217733 0 0 0 0 -968.89538514586457 223.89771037357423 0 223.89771037357423 6.5474130598595366 0 0 0 0 -12.39015032075298 -3.2109024974226656 0 -3.2109024974226656 15.638569265574574 0 0 0 0 -942.44090750042233 604.69951553920509 0 604.69951553920509 -1741.1687429068261 0 0 0 0 -3256.5553540084366 -1597.2705021794209 0 -1597.2705021794209 -435.58635456403863 0 0 0 0 -779.53017739762436 -1895.8626247804932 0 -1895.8626247804932 -2562.3661021933221 0 0 0 0 -594.78880273022514 -1054.1736772265704 0 -1054.1736772265704 -1151.8929810336558 0 0 0 0 -193.87446458989871 -373.78611009649831 0 -373.78611009649831 -653.32938769183238 0 0 0 0 -53.671000007891053 -472.72846533569646 0 -472.72846533569646 -587.73387623888266 0 0 0 0 -381.55354802228976 -1169.0980201137136 0 -1169.0980201137136 -1235.4055245225609 0 0 0 0 -180.15116122007021 -1094.8976112014134 0 -1094.8976112014134 -1305.1101531095919 0 0 0 0 -391.34438356655301 -982.1690166667031 0 -982.1690166667031 -1220.6460427809507 0 0 0 0 -3.8360470586291626 4.1464365266651271 0 4.1464365266651271 35.632026779737004 0 0 0 0 -722.1690121490974 -434.07606414052862 0 -434.07606414052862 -402.08907827630173 0 0 0 0 2.2995299818754802 -4.3481836622737262 0 -4.3481836622737262 -3.413108390235891 0 0 0 0 1052.4716792864492 -179.19162619669805 0 -179.19162619669805 -1204.5155103824591 0 0 0 0 -848.47178892139345 -460.9335032218878 0 -460.9335032218878 -262.7597293817671 0 0 0 0 -781.82825970067643 -547.59072279387328 0 -547.59072279387328 -150.71562612881826 0 0 0 0 -626.40975739969872 -515.59850658496725 0 -515.59850658496725 -345.5176493433537 0 0 0 0 -591.66574723187296 -1245.2965838301925 0 -1245.2965838301925 -976.52221272612223 0 0 0 0 -531.82237148807326 -1080.9067159703268 0 -1080.9067159703268 -688.34331431690225 0 0 0 0 -585.68958633689908 -1516.9490013840987 0 -1516.9490013840987 -1219.5699059729586 0 0 0 0 -1712.9607261184356 -871.57866034087965 0 -871.57866034087965 -152.90277374614379 0 0 0 0 -672.21459600239177 -712.34466699870973 0 -712.34466699870973 -477.69343568079057 0 0 0 0 -246.44136002560845 -425.02528768812772 0 -425.02528768812772 -285.64315196616371 0 0 0 0 -4.9005962649445394 -30.458302490020884 0 -30.458302490020884 -71.236779101316102 0 0 0 0 -356.16571048060723 -328.6587239176115 0 -328.6587239176115 -270.05311921708198 0 0 0 0 70.808567415369907 -100.63762816705275 0 -100.63762816705275 66.808484379231231 0 0 0 0 316.54772556852549 -520.91413212472253 0 -520.91413212472253 176.48632034329967 0 0 0 0 54.70221757129184 -207.53275242016389 0 -207.53275242016389 99.349644374058698 0 0 0 0 280.53916439414024 -409.20502819288595 0 -409.20502819288595 318.03782784407304 0 0 0 0 3.2923885786544815 -21.096024049885465 0 -21.096024049885465 -17.690415417216194 0 0 0 0 243.38070942217018 -517.60956678119328 0 -517.60956678119328 802.64349679389125 0 0 0 0 173.36741940003412 40.412016058278823 0 40.412016058278823 -48.409042298448185 0 0 0 0 155.48115657857852 -72.04058983624418 0 -72.04058983624418 -186.15416906346945 0 0 0 0 0.61760390896961326 -39.144801732330563 0 -39.144801732330563 -84.779871629009392 0 0 0 0 167.35439263562148 -101.81028984910517 0 -101.81028984910517 -131.02589127633837 0 0 0 0 11.332734414594597 -74.844071612144035 0 -74.844071612144035 -74.40595498381299 0 0 0 0 162.58117091297754 -161.98546354101563 0 -161.98546354101563 -97.642784758849302 0 0 0 0 37.759187929530469 -51.176030291777806 0 -51.176030291777806 -74.950856301613527 0 0 0 0 -16.935980752844102 -64.853542615114833 0 -64.853542615114833 -12.297905319389827 0 0 0 0 21.082540549570695 -60.702124866496888 0 -60.702124866496888 -19.499148237402551 0 0 0 0 35.143508209688378 -71.36088032982687 0 -71.36088032982687 -69.828064873837391 0 0 0 0 39.487576929728675 -56.825818832188816 0 -56.825818832188816 -63.96887307651923 0 0 0 0 1.7581287483335473 -67.907140059687663 0 -67.907140059687663 -54.118059299696242 0 0 0 0 -7.2599690990313661 -60.464116922026236 0 -60.464116922026236 -6.8788176147596918 0 0 0 0 -2.2491304099676199 -53.578725283172389 0 -53.578725283172389 -80.030845590837998 0 0 0 0 18.063079693748591 -22.570305399875238 0 -22.570305399875238 -14.098474592724571 0 0 0 0 -189.33763992358581 -93.180314986871963 0 -93.180314986871963 -102.07542343696696 0 0 0 0 13.429026777150284 -75.120752388114852 0 -75.120752388114852 -106.50956814043457 0 0 0 0 144.29722653509089 -321.95716539829482 0 -321.95716539829482 -734.90767576577491 0 0 0 0 -1.2231777785505642 -59.734918625638244 0 -59.734918625638244 -5.8402617754590294 0 0 0 0 -11.495394914381905 -60.28592292594476 0 -60.28592292594476 -65.782476131666044 0 0 0 0 -25.565006664663088 -50.919066346603358 0 -50.919066346603358 -57.92874137009494 0 0 0 0 -12.917259534942218 -23.587638286187314 0 -23.587638286187314 -12.670890489556285 0 0 0 0 3.549297878249206 -9.6105139907154609 0 -9.6105139907154609 3.7212114601162511 0 0 0 0 330.35627996183757 -287.01191760180518 0 -287.01191760180518 -2237.6533858542098 0 0 0 0 -375.52590731874807 -221.53426233931532 0 -221.53426233931532 -426.74967532146184 0 0 0 0 -301.82518735575559 -32.810346954388478 0 -32.810346954388478 183.12662838710821 0 0 0 0 -18.100941322681962 -74.953722100781732 0 -74.953722100781732 12.378834610161988 0 0 0 0 -95.847686014829378 -89.82388329917012 0 -89.82388329917012 -28.612724003058247 0 0 0 0 213.26488420601163 -172.70975457844906 0 -172.70975457844906 61.584535028086975 0 0 0 0 -23.66623861186963 56.021240330039291 0 56.021240330039291 123.61063247149286 0 0 0 0 -2.4201573608490961 1.8269294164598335 0 1.8269294164598335 6.5281299845449325 0 0 0 0 281.75661331469382 -116.15235380867671 0 -116.15235380867671 9.9633449302637018 0 0 0 0 -36.288923623022129 -229.76547962794575 0 -229.76547962794575 287.73473389331048 0 0 0 0 -80.578066216607112 -93.900767029579583 0 -93.900767029579583 -47.986465577872877 0 0 0 0 -27.401078316150233 -111.59861835325864 0 -111.59861835325864 11.997259862189821 0 0 0 0 -78.926569737544924 -35.910833783251292 0 -35.910833783251292 -22.199288870724558 0 0 0 0 -50.651572528411634 -81.712660166194837 0 -81.712660166194837 49.907891040898903 0 0 0 0 226.84092926437734 -30.112292451187386 0 -30.112292451187386 -32.049137922971568 0 0 0 0 -67.5743279443559 -153.70846278574754 0 -153.70846278574754 -69.520778198428161 0 0 0 0 835.11537330990541 -691.82182146037667 0 -691.82182146037667 222.79548431136027 0 0 0 0 -293.32965942271403 85.339201474453148 0 85.339201474453148 78.368902268419333 0 0 0 0 911.69044587211101 261.68217340882984 0 261.68217340882984 -502.98447520541959 0 0 0 0 -163.02010829824394 -38.982075464437003 0 -38.982075464437003 76.195682919889805 0 0 0 0 -167.8697838533335 -149.71347027858428 0 -149.71347027858428 126.58950194939098 0 0 0 0 140.39389028292499 -378.80026697544236 0 -378.80026697544236 247.33702653029468 0 0 0 0 111.7830257792084 -63.250218090739509 0 -63.250218090739509 -33.568201294350729 0 0 0 0 230.56020919491129 -223.27101112495438 0 -223.27101112495438 30.223580541176489 0 0 0 0 255.34454615898721 -104.14092849898589 0 -104.14092849898589 95.541790397910518 0 0 0 0 3.0069158407859504 -254.25212341974839 0 -254.25212341974839 149.93121199476082 0 0 0 0 89.473493381359731 -100.63290067865819 0 -100.63290067865819 4.6372795571805909 0 0 0 0 859.96069192823779 -319.69697407506828 0 -319.69697407506828 -42.029611622205266 0 0 0 0 -1334.8180347922898 -1058.2149614974187 0 -1058.2149614974187 1303.1267293034143 0 0 0 0 0.51961884922802071 8.7337311359169973 0 8.7337311359169973 -8.3252066816315846 0 0 0 0 250.34471042108635 -9.9740525111919851 0 -9.9740525111919851 -304.61523773546651 0 0 0 0 99.133676714613102 -226.06518842399964 0 -226.06518842399964 -342.03777041274407 0 0 0 0 -93.03498090393623 -203.6705270100806 0 -203.6705270100806 -45.441802370885853 0 0 0 0 -9.5144414013484493 -133.33106614716235 0 -133.33106614716235 13.528063017797699 0 0 0 0 29.550422467292407 -18.863824762045851 0 -18.863824762045851 -20.684736460103196 0 0 0 0 66.078159957641788 -67.376695503034824 0 -67.376695503034824 -28.779183261449834 0 0 0 0 149.50686839178749 -88.459845589984468 0 -88.459845589984468 -1.8841494563851797 0 0 0 0 206.53052557152114 -123.86182153119989 0 -123.86182153119989 -25.499285305268131 0 0 0 0 328.7850180578389 -195.32283224035882 0 -195.32283224035882 -17.436198426432384 0 0 0 0 115.07494082956691 -203.15810496161794 0 -203.15810496161794 6.5365278525350732 0 0 0 0 -1.2155145176948281 -61.467742928114603 0 -61.467742928114603 -1.7090594256751146 0 0 0 0 49.673137196178772 -85.71378821675215 0 -85.71378821675215 37.054552624254001 0 0 0 0 27.371838022585194 -68.296722008326185 0 -68.296722008326185 12.857998968084301 0 0 0 0 25.780179515474277 -45.666346328400394 0 -45.666346328400394 -14.680848360997317 0 0 0 0 -44.014522245065109 -51.608980516960401 0 -51.608980516960401 5.4789609955332708 0 0 0 0 2.9599212416956355 -76.425461994726703 0 -76.425461994726703 21.807343462062562 0 0 0 0 -92.799895191303222 -149.90969862148086 0 -149.90969862148086 150.39774561661034 0 0 0 0 -171.80565135333018 23.591655560427171 0 23.591655560427171 10.791087729869105 0 0 0 0 -26.7231534613855 -2.8323206607209741 0 -2.8323206607209741 16.117815811495262 0 0 0 0 -76.528740944595484 -49.855444851365974 0 -49.855444851365974 5.472062679597002 0 0 0 0 -10.034400851416649 25.63610608185445 0 25.63610608185445 -27.312209922260081 0 0 0 0 -1.1434319916682085 -54.466674897054205 0 -54.466674897054205 -0.91626666639830212 0 0 0 0 11.157147177524166 -31.360210414954054 0 -31.360210414954054 -63.949650724178355 0 0 0 0 -4.3667509217393672 -11.853049647184889 0 -11.853049647184889 2.0603849044637172 0 0 0 0 89.330096186144146 -43.869999706446833 0 -43.869999706446833 -45.59277421650404 0 0 0 0 18.41278503637497 -50.7741142935715 0 -50.7741142935715 -0.72754880239267039 0 0 0 0 152.72402431421142 -238.74497464520027 0 -238.74497464520027 126.12795817945153 0 0 0 0 83.128868108943607 -174.68974883302781 0 -174.68974883302781 174.87085896475764 0 0 0 0 105.04138037248049 -156.58506625214432 0 -156.58506625214432 141.30707397337392 0 0 0 0 219.74532923014158 -178.74429669094025 0 -178.74429669094025 70.779140634436772 0 0 0 0 240.48154554741359 -334.46476429999416 0 -334.46476429999416 210.19525340510882 0 0 0 0 266.55826815233559 -393.16449772210763 0 -393.16449772210763 103.69346857554228 0 0 0 0 705.59641272367298 -482.7517164574092 0 -482.7517164574092 121.65053696549876 0 0 0 0 182.98782266577655 -218.51607077582776 0 -218.51607077582776 213.45200984139956 0 0 0 0 255.15108370036614 -98.088110481745389 0 -98.088110481745389 188.84392625283363 0 0 0 0 505.63543120835857 -952.6467600654214 0 -952.6467600654214 181.5700731096149 0 0 0 0 384.40749669428988 -645.29661310341544 0 -645.29661310341544 437.75929249944238 0 0 0 0 251.60730562386652 -621.39556639021248 0 -621.39556639021248 657.85004689630296 0 0 0 0 185.59381540946742 -472.06214701646604 0 -472.06214701646604 323.37145097259418 0 0 0 0 220.61843961428144 -117.60711641352464 0 -117.60711641352464 461.92638096532028 0 0 0 0 185.03657720861338 -428.87766985733833 0 -428.87766985733833 417.80339680936595 0 0 0 0 44.496164121343099 -169.7596443621278 0 -169.7596443621278 363.48157900889601 0 0 0 0 30.808033005624409 -47.448552438655881 0 -47.448552438655881 -1.3736822477174186 0 0 0 0 173.68012843101599 -244.38135478375716 0 -244.38135478375716 198.54491847785903 0 0 0 0 354.8994583660251 -792.8190039167057 0 -792.8190039167057 1190.9060482402238 0 0 0 0 30.19702354932905 -38.629015423335204 0 -38.629015423335204 -1.3799827264268894 0 0 0 0 960.71420556562407 -1003.3356338213816 0 -1003.3356338213816 532.94627722089353 0 0 0 0 358.85813626563504 -990.40073319821749 0 -990.40073319821749 704.11887901720183 0 0 0 0 249.71697601492809 -545.11538441708035 0 -545.11538441708035 744.48528657306451 0 0 0 0 1062.8284907053012 -513.11046506941784 0 -513.11046506941784 436.64620709821975 0 0 0 0 -127.88237689139351 -1679.0546606312655 0 -1679.0546606312655 3862.443826538838 0 0 0 0 1296.9689211884397 -1471.1581632102752 0 -1471.1581632102752 398.80374723401474 0 0 0 0 13.010768038670633 -17.894076812327214 0 -17.894076812327214 -0.53597422053943489 0 0 0 0 360.23891979932523 -1328.6459654084101 0 -1328.6459654084101 615.2612127027387 0 0 0 0 335.7698552870296 -644.57080719503165 0 -644.57080719503165 1208.7352743617957 0 0 0 0 -172.71418832412019 -345.53734410393736 0 -345.53734410393736 298.50747166109068 0 0 0 0 607.52770440631866 -424.24276061302953 0 -424.24276061302953 -772.84920137724839 0 0 0 0 667.9852229101889 -611.28289857922209 0 -611.28289857922209 -1552.5198740773703 0 0 0 0 23.104509167732061 -8.7571556594432849 0 -8.7571556594432849 -4.2982123279613766 0 0 0 0 -210.80477927281754 147.07909655108233 0 147.07909655108233 -2205.6996514359489 0 0 0 0 2.6201425224873418 -1.1165102902948512 0 -1.1165102902948512 -0.38216202186117698 0 0 0 0 -304.60707003725042 -862.67471953255472 0 -862.67471953255472 -981.08687803870998 0 0 0 0 -81.006076074892917 -148.02097131183837 0 -148.02097131183837 -840.26407150086743 0 0 0 0 31.380546551187763 72.228938888483754 0 72.228938888483754 125.81503749188414 0 0 0 0 204.28549393954927 75.729824757403549 0 75.729824757403549 17.521625401299389 0 0 0 0 4.3683400261785721 -8.6771397110686266 0 -8.6771397110686266 -35.190996601502491 0 0 0 0 249.13637876155553 -289.46263293414813 0 -289.46263293414813 275.94873377625481 0 0 0 0 158.89926172373816 5.497458674466543 0 5.497458674466543 -53.792461185948923 0 0 0 0 403.52725863182286 -324.4060616863062 0 -324.4060616863062 963.17861212682328 0 0 0 0 8.8045503501291051 -7.8608427636176543 0 -7.8608427636176543 2.1466141803179895 0 0 0 0 338.577986345265 -1237.9082385294969 0 -1237.9082385294969 556.93813930492615 0 0 0 0 262.79531024990138 268.44777757099291 0 268.44777757099291 229.57134765392129 0 0 0 0 1285.1424057492459 -765.02332499740805 0 -765.02332499740805 313.96940542933589 0 0 0 0 -8.4456657479638579 -364.16766251518129 0 -364.16766251518129 192.44813231244916 0 0 0 0 75.924375453401808 -325.32552701368331 0 -325.32552701368331 206.47201631404459 0 0 0 0 -1437.4406157934732 204.58350973572306 0 204.58350973572306 80.812225486653915 0 0 0 0 -593.97969593035123 -1655.5115053856643 0 -1655.5115053856643 -805.46608086566266 0 0 0 0 441.27192598062175 -475.05531132737087 0 -475.05531132737087 174.05482835781368 0 0 0 0 309.91920517186372 -311.22845699941536 0 -311.22845699941536 203.62749706202794 0 0 0 0 125.33701506003854 162.84505590243498 0 162.84505590243498 163.53725199202381 0 0 0 0 43.256696166490201 303.23925394703099 0 303.23925394703099 46.842255771720374 0 0 0 0 1133.1402402507847 113.06722661163076 0 113.06722661163076 -526.23495531053777 0 0 0 0 0.8722332261733996 -7.2911521990674544 0 -7.2911521990674544 -37.993291256112315 0 0 0 0 809.87580428981528 -400.6879609684438 0 -400.6879609684438 -182.24924814966653 0 0 0 0 527.1910901242627 -295.81053820213856 0 -295.81053820213856 -9.1219769320232444 0 0 0 0 748.86680359526872 179.58663998117117 0 179.58663998117117 -1466.4825451028155 0 0 0 0 -300.12581356589999 -1869.360274727158 0 -1869.360274727158 -1608.4104251415702 0 0 0 0 1.7778017859569246 -2.8116480758002922 0 -2.8116480758002922 -19.773129305813711 0 0 0 0 693.7866565864424 -265.94727899129066 0 -265.94727899129066 -1207.6389672336736 0 0 0 0 609.69612307635634 288.4425789775305 0 288.4425789775305 -752.96360323588306 0 0 0 0 -269.81475205868628 -28.582642030181887 0 -28.582642030181887 738.96130597720912 0 0 0 0 -327.9335850374764 -668.21147073420434 0 -668.21147073420434 -2968.6570731632964 0 0 0 0 -1261.1485935426845 -2299.7285969138211 0 -2299.7285969138211 -1278.8047078154195 0 0 0 0 -774.46033713660472 -1364.6600716642351 0 -1364.6600716642351 -1131.719068485756 0 0 0 0 -18.943660389910189 21.688095105986143 0 21.688095105986143 -13.810727222962441 0 0 0 0 -148.37932336118479 829.89388332227099 0 829.89388332227099 -396.17534280245309 0 0 0 0 565.67317675918275 115.86839352225616 0 115.86839352225616 -664.65802964514296 0 0 0 0 296.03594696714572 751.42995183142193 0 751.42995183142193 -1473.9493665203117 0 0 0 0 1122.7553562447811 858.24823096102045 0 858.24823096102045 324.63317498937437 0 0 0 0 817.93901103260396 -1700.3409293657169 0 -1700.3409293657169 345.24592208238897 0 0 0 0 363.07176880864426 89.996990496372746 0 89.996990496372746 -432.03764103224239 0 0 0 0 1659.6168266432069 -1476.4404593655599 0 -1476.4404593655599 -1198.8492817963852 0 0 0 0 2058.1561117386891 -1214.343656571371 0 -1214.343656571371 176.88234861410456 0 0 0 0 -211.36965404906368 -421.29992969900195 0 -421.29992969900195 567.16466961488186 0 0 0 0 -9.3090334129089172 -10.378589045258508 0 -10.378589045258508 10.022624220165682 0 0 0 0 1079.7066434148801 -1146.6153417808637 0 -1146.6153417808637 1173.7555553965285 0 0 0 0 762.55796763022954 277.77578313613776 0 277.77578313613776 -288.28982426344919 0 0 0 0 32.889260620371772 -18.200807350580732 0 -18.200807350580732 -4.7032260293802572 0 0 0 0 1798.6197997126728 25.283880462746311 0 25.283880462746311 -405.04130977903696 0 0 0 0 619.33842490658571 -21.610709795080766 0 -21.610709795080766 -210.24710552558099 0 0 0 0 -98.350249930412247 -17.759067346116353 0 -17.759067346116353 21.634730144964124 0 0 0 0 619.11168734347302 -24.427090805787884 0 -24.427090805787884 -112.91552571427746 0 0 0 0 447.89759867302564 -112.3140623340696 0 -112.3140623340696 3.797244721048628 0 0 0 0 189.90258297598166 8.5568768756406826 0 8.5568768756406826 -24.628915973909898 0 0 0 0 440.81883290705832 -238.95785182494069 0 -238.95785182494069 -65.867243131549913 0 0 0 0 1082.3926172299398 -149.25718876173778 0 -149.25718876173778 -196.27061094580131 0 0 0 0 629.68902402036929 -680.98118141907617 0 -680.98118141907617 -189.49024194366939 0 0 0 0 715.58476575564964 -861.91855255957489 0 -861.91855255957489 10.121592224793858 0 0 0 0 1163.1049153359711 -724.17738883101538 0 -724.17738883101538 -366.37538345734356 0 0 0 0 635.49166625590624 -973.57921113529301 0 -973.57921113529301 -122.84226950470475 0 0 0 0 441.10618545928037 -1055.1443919871308 0 -1055.1443919871308 56.36758158520388 0 0 0 0 189.23867451425485 -735.57493787060957 0 -735.57493787060957 17.377487267061952 0 0 0 0 2181.8363068148433 -817.96795555561221 0 -817.96795555561221 -453.98224523616955 0 0 0 0 307.70123928092653 -1375.5535392518832 0 -1375.5535392518832 1741.4244690780179 0 0 0 0 301.23362417155295 -1400.5577139275083 0 -1400.5577139275083 1645.4724169640958 0 0 0 0 -9.9151982857860617 2.1655720772626523 0 2.1655720772626523 18.966423506022224 0 0 0 0 -0.054625354270683601 -1563.0086796357737 0 -1563.0086796357737 1090.8460586129222 0 0 0 0 409.56469523547275 -1275.2391704678776 0 -1275.2391704678776 1291.5350609681846 0 0 0 0 1389.2935945783756 -1653.8616070052676 0 -1653.8616070052676 485.5356289061674 0 0 0 0 478.12188491685083 -1080.9278610897127 0 -1080.9278610897127 1834.0439154171454 0 0 0 0 -5.7770493091569506 -0.85306223068042186 0 -0.85306223068042186 6.3594461803721174 0 0 0 0 -582.5068429242092 -107.59687679734634 0 -107.59687679734634 32.323415770665633 0 0 0 0 -64.762027917226078 -222.29336230309127 0 -222.29336230309127 51.834644380491227 0 0 0 0 -406.28937252987816 -717.75222013245366 0 -717.75222013245366 -658.56178557177918 0 0 0 0 -276.37555024717585 -402.61122359750152 0 -402.61122359750152 -24.079047939645534 0 0 0 0 49.095569713361328 -22.679513221923116 0 -22.679513221923116 9.1087965866190643 0 0 0 0 9.0573099324103907 -6.3580297264919068 0 -6.3580297264919068 -4.5960773392920089 0 0 0 0 82.850450032223307 -43.479466880649852 0 -43.479466880649852 -22.323311900167027 0 0 0 0 45.179320433060639 24.926487644483132 0 24.926487644483132 -52.873605693330319 0 0 0 0 -238.66034071377362 -112.50329281136874 0 -112.50329281136874 137.35790119661397 0 0 0 0 58.95138287152804 -68.105125514121028 0 -68.105125514121028 -88.236405513162026 0 0 0 0 -1.4001672599545856 -5.9845186537713175 0 -5.9845186537713175 -2.6228980245352602 0 0 0 0 -230.6292971244925 -362.44054504113257 0 -362.44054504113257 -181.24370866789832 0 0 0 0 -31.329697449575178 -36.545579464886032 0 -36.545579464886032 57.289145332098997 0 0 0 0 8.380400233277328 -15.967078253437162 0 -15.967078253437162 10.70295950498031 0 0 0 0 -4.4747911726299208 -28.855433981041642 0 -28.855433981041642 14.326177671107871 0 0 0 0 20.819640398602701 -27.361733532687907 0 -27.361733532687907 11.958012740101537 0 0 0 0 17.362880022934405 -52.606005883095349 0 -52.606005883095349 -3.0732383572694744 0 0 0 0 22.188131061702734 -46.238067553756991 0 -46.238067553756991 4.3172949337549653 0 0 0 0 30.570247247350153 -21.328149224381868 0 -21.328149224381868 11.056392948205602 0 0 0 0 14.170662567194086 -42.107606804064744 0 -42.107606804064744 -37.137479079045988 0 0 0 0 3.1283802751277108 -21.168019521130191 0 -21.168019521130191 64.387036312204145 0 0 0 0 2.8774468876390529 -24.760372232713848 0 -24.760372232713848 38.915034188772552 0 0 0 0 23.467087103927042 -55.519358780744369 0 -55.519358780744369 -52.41190811947672 0 0 0 0 1.5907525564252865 -538.86799895593958 0 -538.86799895593958 1619.1947218863497 0 0 0 0 18.922308821983847 -15.785188638546789 0 -15.785188638546789 8.8751746644162495 0 0 0 0 13.476701598876389 -26.86476254345871 0 -26.86476254345871 -122.14059024604649 0 0 0 0 -0.28422218776677255 -9.5150712297758844 0 -9.5150712297758844 20.865480057783813 0 0 0 0 0.0057265252253273502 -76.58964385771651 0 -76.58964385771651 -43.87284190490027 0 0 0 0 -0.010350596421631053 -72.401854913024181 0 -72.401854913024181 27.659789589662978 0 0 0 0 4.9201071465395216 -53.707919471443574 0 -53.707919471443574 1.4242727804521564 0 0 0 0 7.7731037931225728 -54.563704445909934 0 -54.563704445909934 21.485505636974267 0 0 0 0 9.0687042850659054 -70.660609165276128 0 -70.660609165276128 0.0053512349877564702 0 0 0 0 11.101195830888173 -65.003038612583623 0 -65.003038612583623 33.418308907668688 0 0 0 0 -6.3981318333535455 -52.319406371728746 0 -52.319406371728746 71.357274422825867 0 0 0 0 4.1591742391174193 -45.980816820054542 0 -45.980816820054542 69.420396842944683 0 0 0 0 -16.533218260214198 -24.140509845827182 0 -24.140509845827182 176.66232699770035 0 0 0 0 0.058383616866194643 -69.609889604580985 0 -69.609889604580985 88.753839797373075 0 0 0 0 7.5542028881318402 -20.860999555487524 0 -20.860999555487524 55.542366500903881 0 0 0 0 -52.325813673523953 -160.28076653135008 0 -160.28076653135008 -202.4035079520304 0 0 0 0 0.0040024737099884078 -312.08182434058631 0 -312.08182434058631 -287.02072746472481 0 0 0 0 -0.16517036153800291 4.8724927711800845 0 4.8724927711800845 -1.5177991845338934 0 0 0 0 16.649654292094056 -217.22835252879804 0 -217.22835252879804 -517.30193216192902 0 0 0 0 8.3887037410895573 -70.121689632211456 0 -70.121689632211456 -90.933280750550296 0 0 0 0 789.54563204566875 -545.58571867878277 0 -545.58571867878277 -217.87441907230641 0 0 0 0 -13.984279976290395 -11.201939701292766 0 -11.201939701292766 8.7671489483357199 0 0 0 0 -39.859648684621789 -54.341392692241698 0 -54.341392692241698 -319.80124072681156 0 0 0 0 -9.0753376969235973 -24.216790853632233 0 -24.216790853632233 16.499556418846034 0 0 0 0 -73.626056687673554 -119.63951957349309 0 -119.63951957349309 -74.945831510841998 0 0 0 0 -111.26994983963959 -123.16857723447791 0 -123.16857723447791 -53.744619953040541 0 0 0 0 -3.4144059567930753 -0.87312273712021948 0 -0.87312273712021948 2.4949074440070405 0 0 0 0 -13.17354137043003 -48.389244814490667 0 -48.389244814490667 36.094879066707108 0 0 0 0 -15.040795024862746 -31.229026344053636 0 -31.229026344053636 62.282906438027112 0 0 0 0 -8.0484782972740447 -22.611326842843255 0 -22.611326842843255 19.688783843366323 0 0 0 0 12.596188492549118 -15.385225594099893 0 -15.385225594099893 6.5993351259567135 0 0 0 0 -29.896861278451979 -12.189068989822772 0 -12.189068989822772 38.973018048418453 0 0 0 0 -17.813395549557754 -30.731489103161948 0 -30.731489103161948 21.08447814081228 0 0 0 0 2.9652906107869228 -19.370690742988842 0 -19.370690742988842 20.355569643767865 0 0 0 0 -25.557081725979515 -42.180776603308004 0 -42.180776603308004 35.17543365111851 0 0 0 0 -20.839802688235068 -43.698851503241713 0 -43.698851503241713 12.24750147751547 0 0 0 0 -10.177775119314902 -46.700282139212504 0 -46.700282139212504 26.387509367492385 0 0 0 0 2.5326389927933946 -27.118577616822051 0 -27.118577616822051 15.906160923765611 0 0 0 0 -4.9339070083515253 -43.687976673420053 0 -43.687976673420053 33.377850685672456 0 0 0 0 -8.5114236625959165 -51.636736266063963 0 -51.636736266063963 38.768233187035548 0 0 0 0 3.1053987665509339 -51.049976022977717 0 -51.049976022977717 6.2740277256234549 0 0 0 0 6.7388636295909237 -59.038117634423315 0 -59.038117634423315 20.148606061469764 0 0 0 0 1.9296731272334 -26.860129540964408 0 -26.860129540964408 11.035447781250696 0 0 0 0 -8.2671524802863132 -44.675142475474786 0 -44.675142475474786 24.274845706631822 0 0 0 0 0.13762144272598675 -22.873835512818857 0 -22.873835512818857 18.713943863174762 0 0 0 0 3.6873421474276711 -22.210638524643883 0 -22.210638524643883 19.630655648502398 0 0 0 0 -22.189351654378697 -6.3729478940194895 0 -6.3729478940194895 29.188576716220268 0 0 0 0 -39.32295516817976 -2.2292400794890455 0 -2.2292400794890455 54.570016930250858 0 0 0 0 -12.15686925733462 16.928345183954661 0 16.928345183954661 50.156477504020586 0 0 0 0 117.12787247038796 121.52362928693037 0 121.52362928693037 -649.09485500950541 0 0 0 0 3.4886190441492886 -18.429639010329197 0 -18.429639010329197 -13.354801713598448 0 0 0 0 -51.580932248354657 -1.0113304609340048 0 -1.0113304609340048 197.56721312778973 0 0 0 0 51.461477122444194 -68.986629508826809 0 -68.986629508826809 21.891011491557947 0 0 0 0 61.243666558584664 -153.61527255585008 0 -153.61527255585008 152.37565450852708 0 0 0 0 -10.774849901910784 -30.743742434146185 0 -30.743742434146185 -43.938836386881896 0 0 0 0 -78.343977347103646 -59.907476813774338 0 -59.907476813774338 53.793722060147047 0 0 0 0 -34.105505703017116 -31.295293765882889 0 -31.295293765882889 20.309071692441648 0 0 0 0 -34.356945342762629 -34.041181961198163 0 -34.041181961198163 127.13749218164958 0 0 0 0 -6.6439246596419252 -72.818988821876701 0 -72.818988821876701 8.688925420608939 0 0 0 0 9.1017624662862318 -20.82427208351055 0 -20.82427208351055 10.660229242901643 0 0 0 0 -7.3992326995958706 -17.893139143864119 0 -17.893139143864119 -29.113980750541344 0 0 0 0 -3.4924039979196095 -52.179600280236855 0 -52.179600280236855 31.37188911139674 0 0 0 0 12.964656818716321 -73.495314038016659 0 -73.495314038016659 0.052476879411187838 0 0 0 0 -3.9060946376994252 -47.510012160653787 0 -47.510012160653787 -19.549021682680177 0 0 0 0 3.2728286433703033 -28.901529844839615 0 -28.901529844839615 -38.106703482619196 0 0 0 0 140.08720424064086 -40.714589935990773 0 -40.714589935990773 0.29539729657517455 0 0 0 0 127.91354912742099 -138.45442903890694 0 -138.45442903890694 -38.390147960647482 0 0 0 0 111.9397853264818 -26.467826496280509 0 -26.467826496280509 45.199861166233859 0 0 0 0 258.52442326475284 -115.36385881776687 0 -115.36385881776687 6.5788308907322062 0 0 0 0 -1.0736175670699879 -4.3613039617391678 0 -4.3613039617391678 -2.4252349580632604 0 0 0 0 -206.04402691785072 215.32783004238195 0 215.32783004238195 -139.19524443469163 0 0 0 0 3.6213440664578229 -94.807546618883862 0 -94.807546618883862 -401.1786019274823 0 0 0 0 -6.1351073408404773 -26.219666805409418 0 -26.219666805409418 14.322163381467906 0 0 0 0 39.675057542335708 -14.054767267931311 0 -14.054767267931311 -18.755370424827561 0 0 0 0 62.651139495545067 -33.838622853200832 0 -33.838622853200832 160.80799148283631 0 0 0 0 376.36665502822871 17.439792305646279 0 17.439792305646279 -0.27998880233644741 0 0 0 0 -299.80795981292613 -199.0341399492911 0 -199.0341399492911 90.605043963968001 0 0 0 0 4.5517063136926197 -9.4470915309625525 0 -9.4470915309625525 22.017634700021574 0 0 0 0 17.682683155806444 -207.76814710215228 0 -207.76814710215228 26.302779477488457 0 0 0 0 29.04960944566119 -38.917843034886573 0 -38.917843034886573 58.08846874120718 0 0 0 0 67.079268030531239 -4.8306432313793266 0 -4.8306432313793266 -96.199412611787949 0 0 0 0 53.999470022885362 24.84192715390418 0 24.84192715390418 -34.865701485379759 0 0 0 0 13.594255960782903 -207.74800071253298 0 -207.74800071253298 -97.400763051056856 0 0 0 0 329.04902875331754 -41.410043133685576 0 -41.410043133685576 -87.29736753729685 0 0 0 0 0.92007978881943586 -22.538007236367605 0 -22.538007236367605 27.267401547047555 0 0 0 0 -30.373043599000084 -157.27633527567514 0 -157.27633527567514 -8.0612291296536114 0 0 0 0 5.4149805401975755 3.5415385481219346 0 3.5415385481219346 197.33262068164549 0 0 0 0 -7.8119849648599029 -19.542064402893288 0 -19.542064402893288 -17.236050525698687 0 0 0 0 60.135164137725951 -268.09223950865817 0 -268.09223950865817 -39.901248292441011 0 0 0 0 -192.89815106859896 9.3810773262312068 0 9.3810773262312068 64.771950425572868 0 0 0 0 -1497.8421487885789 -735.422487348299 0 -735.422487348299 -162.22930344318593 0 0 0 0 151.72812618818716 -259.87191866416106 0 -259.87191866416106 -1082.0901237448888 0 0 0 0 -7.0916296045848526 -6.7979236611712111 0 -6.7979236611712111 -6.8347844613107895 0 0 0 0 -1213.6158850716311 -1253.8686303174727 0 -1253.8686303174727 -1068.6993345010669 0 0 0 0 -131.17569271102548 -943.25404120889289 0 -943.25404120889289 -1534.8454444137897 0 0 0 0 -1574.8884367836581 -491.23083200173642 0 -491.23083200173642 -1072.7157955167495 0 0 0 0 -424.56304782022198 -404.58084691971953 0 -404.58084691971953 -416.22765398647243 0 0 0 0 -195.49993511464709 246.19044828220058 0 246.19044828220058 53.118681670079241 0 0 0 0 21.677300871058833 -591.31231995687108 0 -591.31231995687108 286.50677931730752 0 0 0 0 -3.5817320814334153 2.8204788549194539 0 2.8204788549194539 -1.362831716684866 0 0 0 0 60.054105002462165 -339.58014088331402 0 -339.58014088331402 -393.45425949122364 0 0 0 0 313.08890332454757 -401.68282244350485 0 -401.68282244350485 -339.98358224447293 0 0 0 0 -668.2064614603878 -145.40779152830146 0 -145.40779152830146 28.600380017858697 0 0 0 0 688.39775521110278 186.26625662167135 0 186.26625662167135 -251.16723965828533 0 0 0 0 -33.511141849929118 -196.76438324479932 0 -196.76438324479932 -686.77566819029016 0 0 0 0 6.7790509108329502 -6.4432133472750763 0 -6.4432133472750763 -21.661585399923098 0 0 0 0 -1189.1702608549094 -820.62823045727055 0 -820.62823045727055 -262.63271509712467 0 0 0 0 -199.94086602199241 28.428853269590036 0 28.428853269590036 279.2967554020579 0 0 0 0 409.47966369711503 -531.1298208201988 0 -531.1298208201988 -1279.9056553744667 0 0 0 0 1133.099623316637 341.67197438919902 0 341.67197438919902 -417.25323435609243 0 0 0 0 -984.41909458575537 -1302.9127064973218 0 -1302.9127064973218 -2530.3613087987815 0 0 0 0 -1704.781300439121 -1751.0052921396982 0 -1751.0052921396982 -1457.4921661009139 0 0 0 0 2.5344348510633665 -4.4497863446162853 0 -4.4497863446162853 -13.105360399156211 0 0 0 0 -672.58958053696551 -2323.1916751783792 0 -2323.1916751783792 -3396.1905042343087 0 0 0 0 -816.15118877665373 -1618.271793500393 0 -1618.271793500393 -1992.3787077160923 0 0 0 0 -3.8024344098191136 3.8234724144012233 0 3.8234724144012233 -12.45963777460824 0 0 0 0 -227.23466710094362 -2817.4479446465957 0 -2817.4479446465957 -3137.8385445829445 0 0 0 0 -4449.41696588583 -2164.361999517545 0 -2164.361999517545 2818.9613550215581 0 0 0 0 -5330.8665273671504 -4955.8374125154296 0 -4955.8374125154296 -1777.5001673395018 0 0 0 0 -1391.1301958181139 -5396.8093824993048 0 -5396.8093824993048 -7956.3495251898057 0 0 0 0 -672.17169696165365 -1046.7812549314094 0 -1046.7812549314094 -1272.446170076626 0 0 0 0 -8364.9916012208851 -6092.2074638780487 0 -6092.2074638780487 -8013.0260411372583 0 0 0 0 -980.60212796526321 -764.39174950025335 0 -764.39174950025335 -1010.104766845925 0 0 0 0 -729.29779342992697 -1214.547543541099 0 -1214.547543541099 -1077.9900767132858 0 0 0 0 2.0718324040483367 13.410381686800008 0 13.410381686800008 -30.4015914543116 0 0 0 0 -532.15748542911024 -1200.3023441329678 0 -1200.3023441329678 -1485.237241810566 0 0 0 0 -572.99183376569999 -938.6375394562383 0 -938.6375394562383 -1739.1038015910308 0 0 0 0 -596.73872321491945 -510.67910584307538 0 -510.67910584307538 1672.4409578887571 0 0 0 0 -103.74548895858356 -36.870566315032065 0 -36.870566315032065 16.536966460729765 0 0 0 0 -2411.2227694694302 -4568.0486292221485 0 -4568.0486292221485 -6317.928966929273 0 0 0 0 -2068.9931808953988 -4309.9716059409229 0 -4309.9716059409229 -8483.9800588261678 0 0 0 0 -2868.1602833913057 -4003.5311295511092 0 -4003.5311295511092 -6841.8481955349225 0 0 0 0 -3674.5741001144052 -4913.8466979911491 0 -4913.8466979911491 -6739.9673097159357 0 0 0 0 -3027.4871886716573 -4978.69620840471 0 -4978.69620840471 -8113.8866666525737 0 0 0 0 -1984.1884745564894 -4074.9783962596398 0 -4074.9783962596398 -8594.1037764311332 0 0 0 0 -2436.251922810683 -4121.0272578013028 0 -4121.0272578013028 -7071.5140202033454 0 0 0 0 105.01514915114967 -5902.0947730629396 0 -5902.0947730629396 -16108.724291345728 0 0 0 0 -455.25914452032885 -836.08256031638302 0 -836.08256031638302 -1054.0924951900906 0 0 0 0 -37.695760634678777 -16.432316596438515 0 -16.432316596438515 0.37156067862610698 0 0 0 0 1340.4013293309545 648.12703677914396 0 648.12703677914396 1480.2303027675953 0 0 0 0 -2406.4862216615002 744.9985248002049 0 744.9985248002049 4937.3750892316421 0 0 0 0 -3953.1815978438826 -1276.3343149556531 0 -1276.3343149556531 4050.5292845891709 0 0 0 0 -1828.7536251298152 -1652.3187631851979 0 -1652.3187631851979 -510.50227026097855 0 0 0 0 -741.58659798814915 -112.77281661975212 0 -112.77281661975212 1349.2172944603008 0 0 0 0 -862.58587589127637 -1037.7755401931834 0 -1037.7755401931834 833.20136604629806 0 0 0 0 -326.58853549801279 -1453.3396122964587 0 -1453.3396122964587 35.564126701710848 0 0 0 0 242.11215725590591 -570.6142988556021 0 -570.6142988556021 -299.32181072499952 0 0 0 0 461.27380206959788 -1166.5001527701615 0 -1166.5001527701615 872.90201860712114 0 0 0 0 -243.94507401826559 -609.28538450645647 0 -609.28538450645647 472.61225252016447 0 0 0 0 -618.08188208733918 -706.95330357186685 0 -706.95330357186685 -118.28451951120223 0 0 0 0 -601.07466343071428 -882.58519334841912 0 -882.58519334841912 -160.57252454966397 0 0 0 0 -703.35525645548478 -452.3174730608298 0 -452.3174730608298 -125.50109133866863 0 0 0 0 -442.28513244092028 -1111.7201917157781 0 -1111.7201917157781 379.14980601348361 0 0 0 0 -480.60073901130818 -98.171914831244067 0 -98.171914831244067 625.54049605961609 0 0 0 0 -611.71774869664659 -620.05789649571034 0 -620.05789649571034 -647.07461132983735 0 0 0 0 -562.29572321530577 -445.52322790946073 0 -445.52322790946073 -490.44213412648969 0 0 0 0 -554.90776093889144 -486.00116565997814 0 -486.00116565997814 -352.35393302049124 0 0 0 0 -693.40098509794916 -484.50001075245018 0 -484.50001075245018 -384.48657561797881 0 0 0 0 -730.45247356579057 -406.18451214465313 0 -406.18451214465313 -407.89192974103935 0 0 0 0 -126.58717177697099 -46.186632128434759 0 -46.186632128434759 1.7654076580843645 0 0 0 0 -1163.069421742257 -51.923019008614574 0 -51.923019008614574 -528.52796570539795 0 0 0 0 -25.226204583263439 -96.404746154741645 0 -96.404746154741645 -85.561051150146312 0 0 0 0 -903.16150261388975 -256.73784740082192 0 -256.73784740082192 -503.12538984606363 0 0 0 0 -0.79430448984527402 -58.899797963856457 0 -58.899797963856457 -66.268918820075712 0 0 0 0 -1032.8622448108508 -255.32515261059598 0 -255.32515261059598 -429.89670311045302 0 0 0 0 -4313.8902186232735 -2000.1484096638887 0 -2000.1484096638887 -451.54004070549945 0 0 0 0 -1116.3565072460915 1191.0423582451313 0 1191.0423582451313 -450.0011876688659 0 0 0 0 -707.0740704620257 -138.04088164687073 0 -138.04088164687073 -912.3440390008152 0 0 0 0 -1152.2184079354047 828.73519831941303 0 828.73519831941303 2455.9126783406537 0 0 0 0 -1405.7869293416152 194.88333325446001 0 194.88333325446001 3785.7238931503234 0 0 0 0 234.83721584395971 -628.74435724088835 0 -628.74435724088835 1437.2885941010027 0 0 0 0 221.01357925822958 -145.61012906894757 0 -145.61012906894757 -1590.2606728640676 0 0 0 0 -139.69691003750165 -79.250466876459896 0 -79.250466876459896 -37.653079380534507 0 0 0 0 -4040.3982265684754 185.94385606082506 0 185.94385606082506 236.68737564812864 0 0 0 0 -525.26614734684699 -339.47673359842884 0 -339.47673359842884 -387.41270396568507 0 0 0 0 369.8291643523844 469.37615159305687 0 469.37615159305687 -4325.5052426567354 0 0 0 0 817.21624088170938 -3976.0989057731899 0 -3976.0989057731899 -8492.1150672255371 0 0 0 0 -1798.0525106636924 -2654.9806859939063 0 -2654.9806859939063 -8810.0665818378438 0 0 0 0 -1595.2868313867075 -4787.9718959642805 0 -4787.9718959642805 -8875.783141480144 0 0 0 0 -4365.2553338286234 -7503.9451270628069 0 -7503.9451270628069 -11063.491848148215 0 0 0 0 -2830.9349279189482 -4128.300456613264 0 -4128.300456613264 -7146.9714792960849 0 0 0 0 -2823.9492184603005 -3816.5804649094262 0 -3816.5804649094262 -7346.816333122686 0 0 0 0 -2198.9911369605688 -5062.8892547652231 0 -5062.8892547652231 -8805.3405291456402 0 0 0 0 -2524.7225575892953 -5044.5289958458543 0 -5044.5289958458543 -8900.9240818184771 0 0 0 0 -4421.6199196582311 -3245.6317115672991 0 -3245.6317115672991 -9494.238928256731 0 0 0 0 -10.009646280304537 -22.155176250350806 0 -22.155176250350806 -17.620061155562478 0 0 0 0 -58.863841157814022 -1327.5544187554842 0 -1327.5544187554842 -4986.5867631478322 0 0 0 0 1079.4394482078496 625.70821960664762 0 625.70821960664762 -4657.9477989405932 0 0 0 0 631.07030240489985 -194.68212311162461 0 -194.68212311162461 -1780.4794745089748 0 0 0 0 -143.17671388899907 1493.3688947310184 0 1493.3688947310184 -2775.0141369876947 0 0 0 0 -957.39807456234121 -3272.067585509104 0 -3272.067585509104 -9818.2728642394868 0 0 0 0 -1094.7970720445737 987.69593153144751 0 987.69593153144751 -5597.1981223715338 0 0 0 0 -4880.4442677608458 -4330.0050817804677 0 -4330.0050817804677 -3169.4894865557035 0 0 0 0 -45.661379884376714 -24.102468779023269 0 -24.102468779023269 -8.2455759006193041 0 0 0 0 -4024.8041797332698 -2105.6654186052765 0 -2105.6654186052765 -2911.4995259191473 0 0 0 0 -10597.831217339728 -5619.0600561563842 0 -5619.0600561563842 -4353.8266074766852 0 0 0 0 -2198.9178183402983 -4086.1602946130388 0 -4086.1602946130388 -6031.2111171847118 0 0 0 0 33.684739589414676 -1180.2674084967312 0 -1180.2674084967312 -5432.0071975148931 0 0 0 0 -2493.9627996739582 -2858.9458347759319 0 -2858.9458347759319 -2541.9624150733716 0 0 0 0 -2908.8184146476706 -2335.6260577182006 0 -2335.6260577182006 -1175.1112613956575 0 0 0 0 -535.87158058737987 -690.12558955859276 0 -690.12558955859276 -669.78082260523024 0 0 0 0 -3153.5696030712279 -476.95423927984939 0 -476.95423927984939 -226.0582633325057 0 0 0 0 63.132717917040225 -8.2564230356581163 0 -8.2564230356581163 -99.074988589336243 0 0 0 0 -480.24672389612533 -690.79596394247528 0 -690.79596394247528 -673.22193222723217 0 0 0 0 -474.18158085382311 -784.63334368524738 0 -784.63334368524738 -674.72905763592507 0 0 0 0 -442.40200181948603 -805.6786914966433 0 -805.6786914966433 -872.66830684771412 0 0 0 0 -437.1939290240407 -741.92454436639309 0 -741.92454436639309 -682.90376319028383 0 0 0 0 -394.17373994816444 -666.81543365453399 0 -666.81543365453399 -808.71392307796123 0 0 0 0 40.664947758284484 6.4804484483966291 0 6.4804484483966291 -56.78194750063448 0 0 0 0 -474.89545979155082 -681.12267022063907 0 -681.12267022063907 -780.37162806424021 0 0 0 0 -288.22634367545834 -328.305245159896 0 -328.305245159896 -813.02424996524496 0 0 0 0 -271.95988016447518 -702.10252415456489 0 -702.10252415456489 -883.63095226669975 0 0 0 0 -273.58872249862179 -3585.0790995924735 0 -3585.0790995924735 -11568.509326944608 0 0 0 0 8.3453754901538559 6.1476378062524475 0 6.1476378062524475 -4.128214086006766 0 0 0 0 -604.97817729963572 -1218.3407645209172 0 -1218.3407645209172 -1818.0123657241784 0 0 0 0 -538.91405785977258 -922.76836154086959 0 -922.76836154086959 -871.23204102770978 0 0 0 0 -99.881336878082948 -276.7983842283902 0 -276.7983842283902 -1460.2080073654361 0 0 0 0 -334.95870251982706 -861.27571342686861 0 -861.27571342686861 -1270.1311150559668 0 0 0 0 -505.60418089710583 -797.21289351727773 0 -797.21289351727773 -644.93393100864705 0 0 0 0 -454.23340711218771 -719.19906326985438 0 -719.19906326985438 -627.09904966310341 0 0 0 0 -673.38164366765704 -495.33285107319807 0 -495.33285107319807 -162.8272292704969 0 0 0 0 -484.99731594583136 -567.05696951926802 0 -567.05696951926802 -238.98746934413066 0 0 0 0 -546.01689222428831 -746.40583924027396 0 -746.40583924027396 -549.89610657929006 0 0 0 0 -515.4719591186149 -734.54362998294891 0 -734.54362998294891 -585.47100108515951 0 0 0 0 -419.91315954475431 -677.8261884687272 0 -677.8261884687272 -624.30516203005755 0 0 0 0 -609.41366853858926 -596.47082307923483 0 -596.47082307923483 -411.56560376707421 0 0 0 0 -344.28051862088614 -341.9743239992622 0 -341.9743239992622 -115.24052136254249 0 0 0 0 -309.44113359735456 -545.75884790643386 0 -545.75884790643386 -471.1482022427881 0 0 0 0 -325.45157914093579 -484.29148624868776 0 -484.29148624868776 -362.26261672491091 0 0 0 0 -262.22784901369596 -118.5392168698254 0 -118.5392168698254 -7.1527342394765583 0 0 0 0 -69.961098254920216 -279.6653851541937 0 -279.6653851541937 -178.7500172902819 0 0 0 0 -202.31424824503483 -125.73978841761254 0 -125.73978841761254 28.874713765547313 0 0 0 0 -124.66476002115451 -386.69376004892979 0 -386.69376004892979 -368.46513156537912 0 0 0 0 -196.3081233741832 -251.96360382509829 0 -251.96360382509829 471.54056252594455 0 0 0 0 -174.58786219256581 -312.39543577011125 0 -312.39543577011125 134.67446815058247 0 0 0 0 192.50157029797992 -218.94904630270003 0 -218.94904630270003 46.443487689863105 0 0 0 0 -726.08982554565591 -801.32736808396248 0 -801.32736808396248 -383.01200733440055 0 0 0 0 -257.21480701162363 -390.79144061281931 0 -390.79144061281931 -242.04154463949817 0 0 0 0 -319.41711105151626 -531.00313334444945 0 -531.00313334444945 121.84860869213298 0 0 0 0 -137.55611775052239 -77.105767938549434 0 -77.105767938549434 119.71292417704171 0 0 0 0 -279.89334511317429 -178.77412874248876 0 -178.77412874248876 34.133177922318282 0 0 0 0 -385.68455335867475 -498.09269812356433 0 -498.09269812356433 -178.40670858702015 0 0 0 0 -384.04303331547999 -354.30308371865704 0 -354.30308371865704 -574.85164042424731 0 0 0 0 -1073.0939708263322 -773.01961519693214 0 -773.01961519693214 -503.57935582946493 0 0 0 0 -581.30506087274989 -546.38814926621126 0 -546.38814926621126 -299.65307354797869 0 0 0 0 -521.55441889584472 -530.38364840575105 0 -530.38364840575105 -648.6434169273416 0 0 0 0 -590.65983095933916 -814.94366070951764 0 -814.94366070951764 -753.6988160516089 0 0 0 0 -2355.9676667855965 -1982.9815191562534 0 -1982.9815191562534 -1263.9881315226053 0 0 0 0 67.790488604437087 -31.760784902283831 0 -31.760784902283831 -81.026656007226009 0 0 0 0 -1066.6580194293929 -887.8861732785972 0 -887.8861732785972 -604.17653738681111 0 0 0 0 -1388.1040310080571 -1390.9368444647857 0 -1390.9368444647857 -1306.9671511007127 0 0 0 0 -2351.3828269532023 -1970.9046426008501 0 -1970.9046426008501 -1551.8105598236689 0 0 0 0 -656.71899517829297 -1169.3032703543477 0 -1169.3032703543477 -1381.6378316480368 0 0 0 0 -917.44385724785388 -1707.445309258962 0 -1707.445309258962 -1863.4019554958995 0 0 0 0 82.716359086922552 -49.180246068039111 0 -49.180246068039111 -58.819070819617281 0 0 0 0 -1728.2862721786223 -1647.5921640331665 0 -1647.5921640331665 -1233.7014440701982 0 0 0 0 -1149.3657676495641 -1289.9422088640222 0 -1289.9422088640222 -933.1300787953478 0 0 0 0 -735.80310495494632 -639.78488586205276 0 -639.78488586205276 -929.33823133926455 0 0 0 0 -1203.8194030078012 -1146.0535576367204 0 -1146.0535576367204 -1049.2611135925808 0 0 0 0 -1067.880522797539 -1385.5035315481778 0 -1385.5035315481778 -1232.9274923737212 0 0 0 0 -1034.6011872692179 -1215.7788317896527 0 -1215.7788317896527 -1034.7394805879026 0 0 0 0 -1416.0390088615532 -1648.8537739742333 0 -1648.8537739742333 148.5790136362466 0 0 0 0 -1023.6681830196303 -1147.7294233973021 0 -1147.7294233973021 -898.97951081829524 0 0 0 0 90.124925060947675 -58.236690750492897 0 -58.236690750492897 -41.072841812968541 0 0 0 0 -1630.1684632422694 -900.98190290417369 0 -900.98190290417369 -49.065103736393212 0 0 0 0 -751.72266559393029 -1341.6857028642125 0 -1341.6857028642125 81.200312595425657 0 0 0 0 -436.63918349363666 -1111.6041117102391 0 -1111.6041117102391 -1134.6538399300912 0 0 0 0 -438.76299980895419 -1193.7053034296691 0 -1193.7053034296691 -1339.235363867132 0 0 0 0 -649.54657256894279 -825.2893844783539 0 -825.2893844783539 -635.48565515243445 0 0 0 0 -515.89303594199009 -1084.447045654993 0 -1084.447045654993 -1139.0191900589089 0 0 0 0 -642.36343449636479 -1165.8237685562099 0 -1165.8237685562099 -1138.2939999856508 0 0 0 0 -624.43962508852564 -1261.7474314444298 0 -1261.7474314444298 -1240.1504653811062 0 0 0 0 -456.84389963418653 -1221.0049655631601 0 -1221.0049655631601 -1260.415442141697 0 0 0 0 -456.56200189684751 -1221.3355901402347 0 -1221.3355901402347 -1345.5143827145612 0 0 0 0 -446.33784222901886 -1227.2909856371271 0 -1227.2909856371271 -1319.3809181985616 0 0 0 0 -602.32262448169058 -1368.6251612448505 0 -1368.6251612448505 -1548.5960714879211 0 0 0 0 -556.46623909320624 -1183.8203717760107 0 -1183.8203717760107 -1297.7454575465044 0 0 0 0 -511.2917829937287 -1258.1620396008152 0 -1258.1620396008152 -1490.4595161757825 0 0 0 0 -192.11746613436844 -911.55156123078086 0 -911.55156123078086 -1222.5487356216991 0 0 0 0 -260.30228898547648 -367.6334068008 0 -367.6334068008 -326.47720565748205 0 0 0 0 -2.6278152500504461 -6.7508804143237597 0 -6.7508804143237597 1.1639114503258909 0 0 0 0 -349.32198863578378 -612.30471281486098 0 -612.30471281486098 -1283.8600796014944 0 0 0 0 -0.65458681996790347 -6.4483199118254078 0 -6.4483199118254078 3.1950276211907003 0 0 0 0 -235.50910070358077 -593.61247048582572 0 -593.61247048582572 -1223.8030880378992 0 0 0 0 -140.13391821576806 -509.6896982526614 0 -509.6896982526614 -1109.0883314253069 0 0 0 0 -129.71098856136996 -680.80507412663064 0 -680.80507412663064 -1499.0880893989688 0 0 0 0 -1061.3718782311043 -1590.1039800399649 0 -1590.1039800399649 -1707.0264166895795 0 0 0 0 -945.13032484910218 -1773.5564591529946 0 -1773.5564591529946 -1879.4371649630011 0 0 0 0 -1957.3629802977957 -2776.3737887792704 0 -2776.3737887792704 -2816.0882985684657 0 0 0 0 -852.99769155695685 -1996.1148522365875 0 -1996.1148522365875 -2798.7858248501998 0 0 0 0 -411.94663661524464 -1023.2771598612744 0 -1023.2771598612744 -1855.6019587124356 0 0 0 0 -345.22601573349675 379.22005759494095 0 379.22005759494095 -1450.7755639930219 0 0 0 0 0.35337442383752204 -1446.4594104541284 0 -1446.4594104541284 -4407.7514434205368 0 0 0 0 519.55270181054948 251.70683151767298 0 251.70683151767298 -3060.4213722783898 0 0 0 0 335.05232232261915 -304.82703373102413 0 -304.82703373102413 -2724.4599184807739 0 0 0 0 2.3278303601255175 -1011.7920166263193 0 -1011.7920166263193 -2312.2197985196053 0 0 0 0 -152.07418278335535 -383.40366378879298 0 -383.40366378879298 -813.53515942806916 0 0 0 0 -193.53307341786058 -199.21632888623571 0 -199.21632888623571 -605.10278658989409 0 0 0 0 -178.46658985569957 -294.79096057233619 0 -294.79096057233619 -615.36778456160755 0 0 0 0 -25.495910424331669 -319.32076929189498 0 -319.32076929189498 -992.81062972986183 0 0 0 0 -2.3821551839786252 -24.066920171887432 0 -24.066920171887432 -19.565379973820498 0 0 0 0 -16.490130444290116 -59.48487141519945 0 -59.48487141519945 -854.46812614035298 0 0 0 0 31.215057169726862 -36.510369362063699 0 -36.510369362063699 -113.78767120432232 0 0 0 0 -39.440957731319941 -222.41781661642381 0 -222.41781661642381 -593.73173344483166 0 0 0 0 -89.031152681600361 -147.84190825614243 0 -147.84190825614243 -350.83128466452945 0 0 0 0 -19.539087053985227 -115.92402841288558 0 -115.92402841288558 -82.581231161511269 0 0 0 0 -54.663146091479575 -319.76098243495653 0 -319.76098243495653 -530.48243979941617 0 0 0 0 -154.15765903581632 -134.43158695520106 0 -134.43158695520106 -321.00092536607917 0 0 0 0 -8.1894862006424773 -8.2929589169850857 0 -8.2929589169850857 -21.745555964209416 0 0 0 0 131.50876123947091 -112.68224732864837 0 -112.68224732864837 -1044.461790428013 0 0 0 0 -682.69170389861392 -550.45382954401612 0 -550.45382954401612 -577.22896982914608 0 0 0 0 -218.09260683547473 -53.173138275786187 0 -53.173138275786187 -295.27705069740659 0 0 0 0 -7.0917764116592252 -6.1370004529657081 0 -6.1370004529657081 7.2038064596002656 0 0 0 0 -318.7889259190415 -694.18691983814642 0 -694.18691983814642 -1269.5615957931923 0 0 0 0 -216.87143963003473 -258.742839782386 0 -258.742839782386 -461.39249363174895 0 0 0 0 -56.579740816261619 -131.60701730392248 0 -131.60701730392248 -744.74214793208739 0 0 0 0 63.985200152099424 -234.86289888404463 0 -234.86289888404463 -707.5763427104248 0 0 0 0 -238.71345431849477 -147.42728348959645 0 -147.42728348959645 132.72830369882286 0 0 0 0 -363.14627234605723 -125.50462730265281 0 -125.50462730265281 154.20962034875993 0 0 0 0 -389.63760915701278 -420.57046970090596 0 -420.57046970090596 -0.13666775247111218 0 0 0 0 -544.19393207354005 -299.69835907978995 0 -299.69835907978995 -94.601198856689734 0 0 0 0 -471.54643606752506 -442.54814432114654 0 -442.54814432114654 -179.55343448289204 0 0 0 0 -516.16152715138742 -435.38796279572125 0 -435.38796279572125 87.086150774062844 0 0 0 0 -473.02523554785876 -204.96405744165531 0 -204.96405744165531 159.81474054926366 0 0 0 0 -113.56150688609341 -384.42227776114305 0 -384.42227776114305 249.13730048249272 0 0 0 0 -640.87800293252803 -271.48815344194736 0 -271.48815344194736 -354.74883725189648 0 0 0 0 -151.60315368978843 -198.40835113816621 0 -198.40835113816621 56.658556380385512 0 0 0 0 -563.51679092894483 -251.873484273965 0 -251.873484273965 568.01335789394216 0 0 0 0 -249.4485935086559 83.787896279256529 0 83.787896279256529 423.1350447836594 0 0 0 0 -137.29092459414352 -199.51483309542368 0 -199.51483309542368 27.205701350735144 0 0 0 0 -305.94636793239624 -526.32598311615129 0 -526.32598311615129 -702.84587376532727 0 0 0 0 -5.6567066108400468 23.34023484998761 0 23.34023484998761 232.79737834661501 0 0 0 0 -143.26080903119873 -422.98883969426606 0 -422.98883969426606 -975.03821576471091 0 0 0 0 -53.385660827729225 -99.739629852653053 0 -99.739629852653053 17.524444359059729 0 0 0 0 -125.17033871327385 -138.82912062209297 0 -138.82912062209297 17.424127176504477 0 0 0 0 -162.68309759651311 -267.13853849815462 0 -267.13853849815462 -463.72715116426076 0 0 0 0 -148.58518175838981 -69.96130893559166 0 -69.96130893559166 111.57684281293768 0 0 0 0 -87.941160018206574 -251.44480694681852 0 -251.44480694681852 -520.04876549006349 0 0 0 0 -44.696592636247033 -64.810529929652034 0 -64.810529929652034 -76.22939496274185 0 0 0 0 -9.3979326817694968 -142.10523479342663 0 -142.10523479342663 -78.599360785382871 0 0 0 0 -336.37225150098675 -123.21059708063331 0 -123.21059708063331 198.40144816665997 0 0 0 0 -17.315255600749111 -17.824991349606933 0 -17.824991349606933 55.990431798088935 0 0 0 0 -318.99746501416666 -216.49466512950312 0 -216.49466512950312 287.89101841184311 0 0 0 0 -31.90036433862133 -21.14645257695139 0 -21.14645257695139 48.545582422466111 0 0 0 0 -315.35519293805555 2.6277920668962906 0 2.6277920668962906 367.30031096115999 0 0 0 0 -12.76334404181398 -361.02303038163518 0 -361.02303038163518 225.5583965240512 0 0 0 0 -275.63979908003239 -22.233781312868814 0 -22.233781312868814 -4.0929465637309477 0 0 0 0 -390.13298203871818 -96.831916127215663 0 -96.831916127215663 174.82657629252935 0 0 0 0 -209.41485533975356 -136.74073704110197 0 -136.74073704110197 41.115558133955346 0 0 0 0 -564.61954281530052 -69.555003631729051 0 -69.555003631729051 20.256111959595728 0 0 0 0 1337.5232115901617 -1478.702850874789 0 -1478.702850874789 1057.0751104569208 0 0 0 0 2.6698715615387982 1.8078132604979942 0 1.8078132604979942 21.554517757181515 0 0 0 0 -681.41028577493853 -688.74736127226151 0 -688.74736127226151 1062.9233751855427 0 0 0 0 -750.21750631587929 -1143.7293398299917 0 -1143.7293398299917 -869.74990300776699 0 0 0 0 -706.42545055929804 -338.13272816043172 0 -338.13272816043172 -216.5773239732298 0 0 0 0 -379.96891752161901 -273.24979883732158 0 -273.24979883732158 -248.5079159931629 0 0 0 0 -192.7082403036984 -424.77755196154612 0 -424.77755196154612 -125.96873896563193 0 0 0 0 -639.30742775803083 -748.80288782395291 0 -748.80288782395291 -637.89448281617297 0 0 0 0 -658.48585568895214 -508.087001600652 0 -508.087001600652 -138.18591413073591 0 0 0 0 -531.27090632155887 -542.44021250590595 0 -542.44021250590595 -452.87789128057193 0 0 0 0 -577.50075550290057 -589.2052916312532 0 -589.2052916312532 -67.780975499255874 0 0 0 0 -2.9449145853189407 -9.3154577376773418 0 -9.3154577376773418 9.8760072253108433 0 0 0 0 -790.10219772573328 -683.37853676883969 0 -683.37853676883969 -215.53419358982501 0 0 0 0 -603.08887271297863 -983.15570881314488 0 -983.15570881314488 -485.57366513427405 0 0 0 0 -2.8088184051880489 -4.3974547286102634 0 -4.3974547286102634 5.4301259062309839 0 0 0 0 -551.63609397237678 -180.31125236193611 0 -180.31125236193611 547.92502285745286 0 0 0 0 -253.3927455235098 -1434.5853168171234 0 -1434.5853168171234 -890.20941305156884 0 0 0 0 -1002.8738104432923 -1084.8522273138205 0 -1084.8522273138205 283.67403777726577 0 0 0 0 -1134.7672812193632 -1363.060695236818 0 -1363.060695236818 -451.4499225753616 0 0 0 0 -601.27593467094994 -1161.9414958017296 0 -1161.9414958017296 -874.18178933305899 0 0 0 0 -1674.7417443457234 -1061.4156104482245 0 -1061.4156104482245 -882.9166485412261 0 0 0 0 -1035.5077588551794 -1688.2013108148312 0 -1688.2013108148312 -1309.7985082138475 0 0 0 0 -1677.266209116031 -1460.6323596094735 0 -1460.6323596094735 -1256.7672814610924 0 0 0 0 0.15313814986421903 -4.7663773419122322 0 -4.7663773419122322 -9.2486625233904647 0 0 0 0 -182.75086782542166 -1133.4797389863766 0 -1133.4797389863766 -1983.4689220314758 0 0 0 0 -191.90221438297885 -1232.7315098912659 0 -1232.7315098912659 -1854.6180581507506 0 0 0 0 -455.83729542481888 -771.83430394444076 0 -771.83430394444076 -2188.4313948126655 0 0 0 0 -692.75646201919881 -1621.3544749457942 0 -1621.3544749457942 -2141.7061552760424 0 0 0 0 -32.865893925874843 -21.512046250230355 0 -21.512046250230355 -0.19808618678126388 0 0 0 0 -327.97539692305145 -938.75354259923915 0 -938.75354259923915 -1435.8811441508369 0 0 0 0 -31.108235179126495 -17.439476469920919 0 -17.439476469920919 54.953193311281211 0 0 0 0 -1096.2689311867289 -1116.6026053652822 0 -1116.6026053652822 -1133.69539592812 0 0 0 0 -1.6728415935117482 -6.5115757557240954 0 -6.5115757557240954 -5.2196467021409916 0 0 0 0 -44.484661611844786 117.97708937246352 0 117.97708937246352 -179.00393281914876 0 0 0 0 -43.416780581069247 -33.296778966764904 0 -33.296778966764904 -2.6757992748639992 0 0 0 0 -12.782932087586573 -8.5833533593272762 0 -8.5833533593272762 -2.0388583030361462 0 0 0 0 253.19482732223696 -1217.4940816560083 0 -1217.4940816560083 -4963.3582173059913 0 0 0 0 -101.23482491006143 -760.70210259686428 0 -760.70210259686428 -1609.0657731292376 0 0 0 0 -232.95253652587417 -356.83290143162594 0 -356.83290143162594 -2847.3305029627663 0 0 0 0 88.355686102673644 -1421.5124266831408 0 -1421.5124266831408 -2645.7509204965118 0 0 0 0 -129.38211130272248 -1394.3379657407277 0 -1394.3379657407277 -1546.0275662528729 0 0 0 0 -829.34901870702743 -1155.6113295998985 0 -1155.6113295998985 -1514.2979332904797 0 0 0 0 469.87659074534895 -1082.1946523923107 0 -1082.1946523923107 -1554.7744449569582 0 0 0 0 -47.974371154909022 -1161.0758910147051 0 -1161.0758910147051 -1487.8154035798925 0 0 0 0 -356.93761159868154 -1043.9515080325546 0 -1043.9515080325546 -463.4862636783073 0 0 0 0 665.90010104351677 -1747.2203746846062 0 -1747.2203746846062 -69.660787967146462 0 0 0 0 504.48127676265813 76.959671222588668 0 76.959671222588668 409.11432030658762 0 0 0 0 -478.30336313658336 -652.23725761120295 0 -652.23725761120295 52.880221222490945 0 0 0 0 -294.91286331001174 -155.4103397951385 0 -155.4103397951385 -332.49288315772719 0 0 0 0 -339.20323104083946 -472.22768482551692 0 -472.22768482551692 -834.52817287109065 0 0 0 0 -30.561334135723882 -690.06836053864754 0 -690.06836053864754 -535.01374099559325 0 0 0 0 -594.23349654496997 -310.62343941972358 0 -310.62343941972358 -679.33597672701944 0 0 0 0 -204.93512489669956 -659.91455916037376 0 -659.91455916037376 -1557.4424817158142 0 0 0 0 -310.80161226756172 -415.42926071988404 0 -415.42926071988404 -905.97987882563029 0 0 0 0 -288.68431143720227 -979.21231267357507 0 -979.21231267357507 -2146.5749839575437 0 0 0 0 -299.54671623003378 -1004.7549246228482 0 -1004.7549246228482 -655.19300393507001 0 0 0 0 -813.59335888081114 -1962.688448605717 0 -1962.688448605717 -3145.0872632599639 0 0 0 0 -1167.3863959399168 -716.77066054415627 0 -716.77066054415627 -1117.1125380721132 0 0 0 0 328.03425725220586 -1942.4991404744796 0 -1942.4991404744796 -168.63279922357106 0 0 0 0 116.33649101955234 -681.55153319629608 0 -681.55153319629608 -1368.6439954219677 0 0 0 0 2.362547565759769 -5.2593916301426873 0 -5.2593916301426873 -3.5773428845344029 0 0 0 0 -1644.9864897810185 -1147.1051989365842 0 -1147.1051989365842 -483.77442045766657 0 0 0 0 -329.08446680547786 -533.64696538255885 0 -533.64696538255885 -493.6036793716703 0 0 0 0 -601.1541647194681 -579.34414411971738 0 -579.34414411971738 -407.94008274231237 0 0 0 0 209.89653541504958 -128.75879784262543 0 -128.75879784262543 -21.534320290404139 0 0 0 0 12.834061171898611 -12.90634784843084 0 -12.90634784843084 -17.99434383820639 0 0 0 0 32.825810302146465 -45.88953849383519 0 -45.88953849383519 22.480564846182773 0 0 0 0 -1065.4815099231055 580.44994744938776 0 580.44994744938776 1772.8965205803252 0 0 0 0 454.51543518493418 -1578.7976731979215 0 -1578.7976731979215 -850.16791610912696 0 0 0 0 -68.176246641436592 -333.08859998886328 0 -333.08859998886328 2271.0944964477931 0 0 0 0 322.88583287602523 -609.05733125345432 0 -609.05733125345432 1749.0332239945565 0 0 0 0 -430.33511706048739 -320.9380609708096 0 -320.9380609708096 2706.4889906164753 0 0 0 0 267.33487990801223 58.443322002145578 0 58.443322002145578 2055.8745940885128 0 0 0 0 26.156607649540774 -23.388496003123958 0 -23.388496003123958 6.2820448180046782 0 0 0 0 742.03105194929958 -919.13949382106875 0 -919.13949382106875 1085.7477589654663 0 0 0 0 -502.00367796387582 -538.94453090757452 0 -538.94453090757452 -483.44933464214409 0 0 0 0 9.7604279960773965 -13.555762455741757 0 -13.555762455741757 1.0453172861080873 0 0 0 0 305.78837843282963 -1016.6676064764542 0 -1016.6676064764542 -1554.9409107101019 0 0 0 0 10.505120989577335 -7.662764177795232 0 -7.662764177795232 5.1686107656896354 0 0 0 0 557.48698015145783 -1990.6826469294501 0 -1990.6826469294501 991.49819673546608 0 0 0 0 1498.8659834265709 -653.16348630416906 0 -653.16348630416906 -3.4870340452180244 0 0 0 0 1185.3921165071006 -2127.2998666799858 0 -2127.2998666799858 2697.8697809984005 0 0 0 0 112.49985462240875 542.82299172402418 0 542.82299172402418 387.60384207175412 0 0 0 0 -632.57469707843848 -677.67478322547686 0 -677.67478322547686 5235.2392448946339 0 0 0 0 -349.30736565735424 -32.31968327778668 0 -32.31968327778668 3026.9870666438364 0 0 0 0 417.02479632315226 -1023.8235731506575 0 -1023.8235731506575 1973.950127596363 0 0 0 0 318.02241406630492 -250.77753167522314 0 -250.77753167522314 1373.8678654059331 0 0 0 0 528.27841400753823 -156.72909965665167 0 -156.72909965665167 -422.67944102515321 0 0 0 0 -54.06575524865184 323.23837859311607 0 323.23837859311607 267.41903157978959 0 0 0 0 68.90512028753335 -54.985606603452169 0 -54.985606603452169 14.512018834637914 0 0 0 0 -111.95288827872719 -4.1776076000460307 0 -4.1776076000460307 1397.9457534612011 0 0 0 0 513.9266268631618 -651.80020450048687 0 -651.80020450048687 -494.43892436314491 0 0 0 0 -377.57118544913828 -35.582039364562661 0 -35.582039364562661 228.65940847823367 0 0 0 0 440.4325188692892 -791.27927166697918 0 -791.27927166697918 441.37877444864716 0 0 0 0 -454.63435128104902 182.42926167602945 0 182.42926167602945 300.043458914035 0 0 0 0 609.51362055488062 -97.247889930856218 0 -97.247889930856218 175.45226142660249 0 0 0 0 783.57322878504056 -689.99241721398721 0 -689.99241721398721 671.94036912608863 0 0 0 0 -348.27564228972187 -229.46272182870598 0 -229.46272182870598 161.10393120877779 0 0 0 0 124.98489539360162 36.805137883544376 0 36.805137883544376 -670.34951762591663 0 0 0 0 -40.681470664498192 -150.35962426852939 0 -150.35962426852939 -294.74241190783869 0 0 0 0 55.354858312920555 -45.001679094700265 0 -45.001679094700265 -36.672765281022656 0 0 0 0 -16.509103278360044 -84.776058250216892 0 -84.776058250216892 39.012862681455317 0 0 0 0 -499.48126909858547 -402.46455835617962 0 -402.46455835617962 -461.31807774175832 0 0 0 0 -424.9737813288375 -488.34613541725321 0 -488.34613541725321 -667.75785202722182 0 0 0 0 -6.4018716249534009 -6.6637537422967661 0 -6.6637537422967661 5.4472271407753929 0 0 0 0 70.678424311830895 -1023.2211116318013 0 -1023.2211116318013 -2079.8793986686505 0 0 0 0 38.197447417624062 -1116.0752652307201 0 -1116.0752652307201 -1027.6427959853281 0 0 0 0 -411.5442618112429 -1481.1553108137232 0 -1481.1553108137232 -944.19900360021802 0 0 0 0 -691.82772731015575 -556.13342142885449 0 -556.13342142885449 -1158.2737955946322 0 0 0 0 -836.39075132890139 -1157.1032611793125 0 -1157.1032611793125 -543.91179469076815 0 0 0 0 -526.3536332960357 -854.41061117367644 0 -854.41061117367644 -1933.2956516806807 0 0 0 0 -544.24009450047743 -756.13238135577194 0 -756.13238135577194 -1183.1519894674566 0 0 0 0 -1520.6945844700676 -700.13674669227476 0 -700.13674669227476 -374.3754898916095 0 0 0 0 -1270.3254959690385 -886.42248127688072 0 -886.42248127688072 -1202.2030337820324 0 0 0 0 -763.97310764028862 -984.99879678161358 0 -984.99879678161358 -1953.6965756466379 0 0 0 0 39.374705545604229 -619.63734226892848 0 -619.63734226892848 1749.4622918496862 0 0 0 0 39.54220940217499 -41.728844994339923 0 -41.728844994339923 26.502236629415989 0 0 0 0 -271.43209278641734 -1407.04663203378 0 -1407.04663203378 -1592.0739207220468 0 0 0 0 -649.79359116544947 -124.69702906279417 0 -124.69702906279417 2020.8900956882935 0 0 0 0 -1418.7259823408094 -2714.8320924699219 0 -2714.8320924699219 373.20762025668955 0 0 0 0 -931.91844339089585 -2501.3976832834705 0 -2501.3976832834705 -1772.7772781794938 0 0 0 0 -895.37021465061116 -2114.3664024134705 0 -2114.3664024134705 -3256.6490774164704 0 0 0 0 -1673.3751796549477 -1686.8767133195906 0 -1686.8767133195906 -1562.4208652110692 0 0 0 0 -770.70948467342532 -1104.44822535494 0 -1104.44822535494 -2158.498724047633 0 0 0 0 -1628.2199007201707 -1408.4892562868954 0 -1408.4892562868954 -1581.8060398368252 0 0 0 0 -1327.3026992613086 -1061.1365371295396 0 -1061.1365371295396 -1293.4055149684937 0 0 0 0 -2375.5001183619315 -1605.5163478264185 0 -1605.5163478264185 -1127.2504348387956 0 0 0 0 -2278.0205840520794 -1992.4864217217764 0 -1992.4864217217764 -392.59349712465155 0 0 0 0 -2371.7713183346204 -2986.9859240312071 0 -2986.9859240312071 -2755.3913157970674 0 0 0 0 -901.94119402836077 -1750.268766098874 0 -1750.268766098874 -3370.9805717320187 0 0 0 0 -1467.4974493682676 -2132.2772322021519 0 -2132.2772322021519 -1981.1882750075238 0 0 0 0 -1152.3005676340254 -1645.4934786761878 0 -1645.4934786761878 -2012.1923463974163 0 0 0 0 -940.68800155376084 -1990.9790419558194 0 -1990.9790419558194 -2614.49181866054 0 0 0 0 -1502.7037333118642 -1408.7606805409268 0 -1408.7606805409268 -2018.2948492472788 0 0 0 0 -1488.840675744279 -2151.0493717570134 0 -2151.0493717570134 -1328.8834273221146 0 0 0 0 -952.15628924540943 -1651.6817768778037 0 -1651.6817768778037 -1028.9482916815177 0 0 0 0 -59.431224843749078 -1775.4122993033816 0 -1775.4122993033816 -1973.8948367360099 0 0 0 0 -484.46537413165788 -2194.1820612144802 0 -2194.1820612144802 -1198.7515178181011 0 0 0 0 -1068.1738049647247 -2058.5808067486396 0 -2058.5808067486396 -1311.1856731874504 0 0 0 0 -1223.9310210824406 -1989.0394793668511 0 -1989.0394793668511 -135.15975309951318 0 0 0 0 -1462.1020529490488 -1793.4325326623839 0 -1793.4325326623839 -189.95620537337527 0 0 0 0 -365.03164276416646 -1659.3230722463122 0 -1659.3230722463122 -661.80509729637197 0 0 0 0 -667.36907938868512 -863.72997790492116 0 -863.72997790492116 -1050.3897118432506 0 0 0 0 -650.49559870276425 -1576.0561052704688 0 -1576.0561052704688 -1624.6079428748562 0 0 0 0 -35.62232172631775 -314.20552623553158 0 -314.20552623553158 -392.07203628541174 0 0 0 0 -1531.7833400183845 -1556.3827687967819 0 -1556.3827687967819 1300.3817356353538 0 0 0 0 -1115.0597381105472 743.38242443755735 0 743.38242443755735 5121.9381417457298 0 0 0 0 12.319197557132043 -14.495558004315328 0 -14.495558004315328 9.2257072012456405 0 0 0 0 -872.81183804833563 -1546.110054261495 0 -1546.110054261495 2475.0501915482018 0 0 0 0 40.354302024750496 -39.03236087218513 0 -39.03236087218513 16.293218263922967 0 0 0 0 663.46703999004239 -810.09191408785409 0 -810.09191408785409 623.37803984910715 0 0 0 0 160.75164147879696 -74.270376831809699 0 -74.270376831809699 187.73264350205864 0 0 0 0 1958.7704766164825 -1399.3297234892379 0 -1399.3297234892379 839.51669525123725 0 0 0 0 1109.3902459831806 -2559.2006083114065 0 -2559.2006083114065 1708.5686162438215 0 0 0 0 1062.3811042218413 -2121.3871735783705 0 -2121.3871735783705 300.90630891179899 0 0 0 0 1456.5726116789738 -2771.5057931561196 0 -2771.5057931561196 1788.0591474264293 0 0 0 0 1469.639689017582 -2813.2231587715833 0 -2813.2231587715833 1636.730740491681 0 0 0 0 1476.3533550523134 -2762.2939396619004 0 -2762.2939396619004 971.70388682150951 0 0 0 0 1270.4158551995497 -2780.2807481476739 0 -2780.2807481476739 1964.4432756674723 0 0 0 0 1440.5455281947943 -2560.4626891311054 0 -2560.4626891311054 1731.7289120949936 0 0 0 0 1717.3090773833683 -3624.65666684592 0 -3624.65666684592 3143.0091039362014 0 0 0 0 48.152257242814812 -1939.8253456742641 0 -1939.8253456742641 6095.3545656706992 0 0 0 0 -222.51339598264894 -816.26445577369304 0 -816.26445577369304 2591.2598422345436 0 0 0 0 1220.6107449259434 -2721.882543680098 0 -2721.882543680098 -3350.9296406458616 0 0 0 0 18.046473983531655 -16.510233550133272 0 -16.510233550133272 7.7031955498618387 0 0 0 0 829.34474209474865 -3833.2799497895721 0 -3833.2799497895721 1773.5562241182679 0 0 0 0 1574.9870050435129 -2359.1666456844614 0 -2359.1666456844614 1730.6520380906732 0 0 0 0 105.46252852294128 -2975.9642453145789 0 -2975.9642453145789 1893.5787600054173 0 0 0 0 1266.111474698846 -2401.084205006282 0 -2401.084205006282 1759.4541559826521 0 0 0 0 -680.91279107496666 -2274.4456038265198 0 -2274.4456038265198 1911.3365537649806 0 0 0 0 110.82050908292604 -2674.6565688909814 0 -2674.6565688909814 1806.4637268106599 0 0 0 0 -0.57675199951336253 -2207.3540599990811 0 -2207.3540599990811 1156.8056454386096 0 0 0 0 -926.72331907520129 -1907.4360711219379 0 -1907.4360711219379 1513.1306020042102 0 0 0 0 138.45132598749478 -2876.707422520034 0 -2876.707422520034 1512.7397314765785 0 0 0 0 -0.3693499334185617 -2513.6653889752597 0 -2513.6653889752597 1628.2015617655125 0 0 0 0 0.078656247089384124 -2435.4275459300352 0 -2435.4275459300352 781.03618049568468 0 0 0 0 491.88737221689371 -2433.4792449543384 0 -2433.4792449543384 476.38690800524273 0 0 0 0 477.42389661906054 -2362.5514913789029 0 -2362.5514913789029 135.95375353817508 0 0 0 0 554.05343446465849 -2935.7110035828628 0 -2935.7110035828628 624.23034787487995 0 0 0 0 505.10482302998753 -2674.4086974000193 0 -2674.4086974000193 -55.055586527945707 0 0 0 0 348.46394966008666 -2324.2008283952891 0 -2324.2008283952891 -643.95369456727349 0 0 0 0 235.9607457449456 -2390.8578770962995 0 -2390.8578770962995 156.9518256882493 0 0 0 0 463.33102829341078 -2462.3249017867729 0 -2462.3249017867729 -166.62611045579251 0 0 0 0 376.66056683870647 -1699.4638082579943 0 -1699.4638082579943 -150.08919751029316 0 0 0 0 -354.62255294870556 -1828.6501641906079 0 -1828.6501641906079 -306.9059550384336 0 0 0 0 34.902372722681321 -1346.4664720663804 0 -1346.4664720663804 -172.61671626710449 0 0 0 0 361.54034946206957 -1873.2583382192097 0 -1873.2583382192097 -1153.1347522057258 0 0 0 0 495.52593434920709 -2017.3511193016602 0 -2017.3511193016602 433.30950092391367 0 0 0 0 648.92561635543825 -1609.4651179586781 0 -1609.4651179586781 517.04281660950801 0 0 0 0 1.116518969531171 -2069.645195930616 0 -2069.645195930616 207.66897364040051 0 0 0 0 -2824.2275260088791 -604.78820684565289 0 -604.78820684565289 841.13596890311601 0 0 0 0 5.2177604449696844 -13.350704300817597 0 -13.350704300817597 15.686142967550893 0 0 0 0 -0.63495450935442932 -1784.0946185498615 0 -1784.0946185498615 2019.002498010319 0 0 0 0 1763.632444430521 -1763.6032320081322 0 -1763.6032320081322 488.03981734406261 0 0 0 0 381.83709710772382 -968.15901958496397 0 -968.15901958496397 -19.484061186041799 0 0 0 0 -11.639542141114362 -2259.6271963079926 0 -2259.6271963079926 28.393742907079286 0 0 0 0 -1417.1026896972762 -1622.0536486910423 0 -1622.0536486910423 1316.4013240336571 0 0 0 0 -1465.6885461068596 -1221.7976738982907 0 -1221.7976738982907 -91.085310802012827 0 0 0 0 -820.65403261396568 -858.48878022843564 0 -858.48878022843564 -92.512108056616853 0 0 0 0 -233.73467740968044 -834.51461008057231 0 -834.51461008057231 -91.902497856761329 0 0 0 0 -1452.3940171022107 -773.19854272446503 0 -773.19854272446503 -553.14191935103736 0 0 0 0 -1454.0502378785022 -242.61469239776488 0 -242.61469239776488 -14.702862402686151 0 0 0 0 -840.63680215433124 -1380.1788850259672 0 -1380.1788850259672 657.54744203000155 0 0 0 0 139.77574879617896 -234.24063744591695 0 -234.24063744591695 -331.66369880005368 0 0 0 0 -3428.1041779047519 -1322.4111409620746 0 -1322.4111409620746 302.65941247512819 0 0 0 0 -607.32200581171492 -925.07404884331663 0 -925.07404884331663 -592.78377642048872 0 0 0 0 12.343368586838608 -31.989564951438979 0 -31.989564951438979 39.285052526442144 0 0 0 0 1.1582632281788392 -556.23505717077205 0 -556.23505717077205 -243.36644828823046 0 0 0 0 -685.95194042372168 -1058.2106126928629 0 -1058.2106126928629 -609.24644250240817 0 0 0 0 -0.58049609109002631 -1115.906441021576 0 -1115.906441021576 -1029.3774295057447 0 0 0 0 -1859.26974503581 -1051.7238652513042 0 -1051.7238652513042 -537.04281606072618 0 0 0 0 -575.99085148810991 -1361.8199558460037 0 -1361.8199558460037 -1157.0178256604995 0 0 0 0 -591.60906684292422 -1309.6150798851486 0 -1309.6150798851486 -716.83628124368261 0 0 0 0 -834.8750995836017 -1592.5854361507572 0 -1592.5854361507572 679.78469464576483 0 0 0 0 -0.33574110615882091 -1583.4159249149852 0 -1583.4159249149852 -590.06221442005699 0 0 0 0 -1603.5505906887702 -1495.074233053354 0 -1495.074233053354 -350.09474035068706 0 0 0 0 -775.3850811123848 -1360.8025621687157 0 -1360.8025621687157 -483.85254182505014 0 0 0 0 -353.87177097325912 -1734.718739449585 0 -1734.718739449585 606.82170353439869 0 0 0 0 -204.10209071206918 -3448.4900740841858 0 -3448.4900740841858 1890.3968830325975 0 0 0 0 -3034.3988596750132 -2321.5906328573765 0 -2321.5906328573765 1667.755992926981 0 0 0 0 1292.2075414680294 513.11737676388293 0 513.11737676388293 -896.97972909896635 0 0 0 0 -4296.2396308382449 -1453.4822731532768 0 -1453.4822731532768 1103.6241777455725 0 0 0 0 7.8935463311853482 -18.111100197684635 0 -18.111100197684635 14.046536251260079 0 0 0 0 3504.8089167708458 -3516.7768578250834 0 -3516.7768578250834 -987.96153496518673 0 0 0 0 1769.4260196369723 -913.71982825530722 0 -913.71982825530722 -2328.2691948424326 0 0 0 0 -10.563126270757152 -11.055724043931889 0 -11.055724043931889 -4.7854137398919647 0 0 0 0 -1481.4682793632674 -2907.7545730850707 0 -2907.7545730850707 2838.2230611844716 0 0 0 0 44.378468955052085 -976.76447645454755 0 -976.76447645454755 -1376.1332218714633 0 0 0 0 -2287.0215176201309 -1906.8156707279777 0 -1906.8156707279777 -714.7791994774052 0 0 0 0 15.269282413585472 -37.590417759319109 0 -37.590417759319109 37.003930138642147 0 0 0 0 -1751.1134994612949 -1089.4818744056902 0 -1089.4818744056902 -1461.7497738236125 0 0 0 0 -1413.1468335953978 -54.142862500815681 0 -54.142862500815681 -1227.1708509517339 0 0 0 0 -1958.843758790943 -2827.2766235803683 0 -2827.2766235803683 1431.3899687067315 0 0 0 0 953.90987129177665 17.640475553133001 0 17.640475553133001 1695.8974326355419 0 0 0 0 1216.8919420302263 -2278.7856685181832 0 -2278.7856685181832 1562.3617955755908 0 0 0 0 -15.370917204477735 -24.581625049214949 0 -24.581625049214949 -14.516491603647694 0 0 0 0 1463.393154783058 -2553.3599722245053 0 -2553.3599722245053 1803.5483899807878 0 0 0 0 1621.9464074415009 -2200.8223126460362 0 -2200.8223126460362 1437.3094009545748 0 0 0 0 1648.464648001871 -3129.4354064752115 0 -3129.4354064752115 492.45475931594046 0 0 0 0 1700.4187417772264 -2929.3560855315754 0 -2929.3560855315754 1262.967324336918 0 0 0 0 1312.3509428070683 -3050.0382801208834 0 -3050.0382801208834 1251.7154659896332 0 0 0 0 1703.6937978040514 -3619.6505782362146 0 -3619.6505782362146 1804.6264185644104 0 0 0 0 1083.2192532936751 -2891.0875719564865 0 -2891.0875719564865 1123.2142640369129 0 0 0 0 1356.1369903169507 -2788.6592570559578 0 -2788.6592570559578 1141.1824970564776 0 0 0 0 1139.9796698813298 -3129.124939336587 0 -3129.124939336587 1340.2442914457497 0 0 0 0 1223.1612828276411 -2923.2714491043371 0 -2923.2714491043371 1811.0225605960295 0 0 0 0 225.76989417108416 -2697.7407144223689 0 -2697.7407144223689 3442.759318304059 0 0 0 0 1545.4126328813672 -2173.3323921613196 0 -2173.3323921613196 2112.6558547493332 0 0 0 0 426.18151201832188 -3729.6726751453389 0 -3729.6726751453389 1789.6012985215057 0 0 0 0 -401.41209777611948 -2248.206039099874 0 -2248.206039099874 382.74283153933357 0 0 0 0 -215.69275616772939 -2305.0618058239561 0 -2305.0618058239561 -673.85534061445287 0 0 0 0 1237.1864871560829 -1454.9673655091174 0 -1454.9673655091174 -1130.4257026850828 0 0 0 0 -7.1840103336156176 -12.677840982205851 0 -12.677840982205851 -6.1926525376314032 0 0 0 0 497.08201177840238 -752.04552937444532 0 -752.04552937444532 965.2459612898856 0 0 0 0 898.45769064939668 -1239.4126087473778 0 -1239.4126087473778 -323.74231954365678 0 0 0 0 -238.60361082144664 -893.2365819018014 0 -893.2365819018014 -334.64948122708256 0 0 0 0 254.17717472885124 -1825.6449541003485 0 -1825.6449541003485 -253.75405568601855 0 0 0 0 427.8443469947124 -1287.4628219362912 0 -1287.4628219362912 -364.00964143390593 0 0 0 0 -269.09853894796106 -1253.0375251713704 0 -1253.0375251713704 -361.95678137628374 0 0 0 0 -674.12875374982832 -1250.8705805395148 0 -1250.8705805395148 -313.18845152537506 0 0 0 0 -409.33815831935499 -1319.657053507457 0 -1319.657053507457 -305.25440701728803 0 0 0 0 -78.702049196697772 -1655.7779419408143 0 -1655.7779419408143 -256.51245416975871 0 0 0 0 -237.66679141164059 -1477.2122948847973 0 -1477.2122948847973 -300.06063271488165 0 0 0 0 -254.93492946724291 -1551.652120181694 0 -1551.652120181694 -27.839417241484625 0 0 0 0 -455.85858679261582 -1265.4096038080825 0 -1265.4096038080825 -181.72574631363386 0 0 0 0 -224.57989800066571 -1529.8990404781871 0 -1529.8990404781871 -76.423442147308378 0 0 0 0 -525.57807155854971 -1529.1981451362808 0 -1529.1981451362808 305.2273748893349 0 0 0 0 -312.50864756648662 -1600.5539079424198 0 -1600.5539079424198 -51.95359621371972 0 0 0 0 -299.10086169803981 -1743.6121486854536 0 -1743.6121486854536 -261.95325884431077 0 0 0 0 -6120.9212996512506 -1191.008062733119 0 -1191.008062733119 1247.4894524507254 0 0 0 0 -1.1815249031000548 -14.453268550538041 0 -14.453268550538041 20.525084841618934 0 0 0 0 -366.6527543127595 -4616.8612356179219 0 -4616.8612356179219 3069.5126643695839 0 0 0 0 -704.78253077068075 -1554.6742902853657 0 -1554.6742902853657 742.10881595022511 0 0 0 0 -434.25788892371565 -1736.5144248653251 0 -1736.5144248653251 167.72231198390364 0 0 0 0 -1682.816480336478 -1055.3635930566561 0 -1055.3635930566561 -30.482690567965619 0 0 0 0 -1060.5910983745998 -1678.1390032623603 0 -1678.1390032623603 164.08660332316867 0 0 0 0 -1755.7312285345106 -1248.2302341215036 0 -1248.2302341215036 -429.30297997234447 0 0 0 0 7502.7019377895631 -2951.0698373663618 0 -2951.0698373663618 -8.5361533072209568 0 0 0 0 7427.592430547229 -2000.8528568221664 0 -2000.8528568221664 2315.6194566027843 0 0 0 0 5990.2403618285316 -2501.0402364174442 0 -2501.0402364174442 2549.385314944011 0 0 0 0 4882.3528519423708 -2412.5587049760006 0 -2412.5587049760006 2632.5368986817775 0 0 0 0 5429.5852481298061 -5051.5801490701269 0 -5051.5801490701269 3223.5580894366067 0 0 0 0 9731.1084761942093 -4911.2693587555596 0 -4911.2693587555596 1438.3825947847508 0 0 0 0 3267.7475688968407 -3429.1054463623441 0 -3429.1054463623441 2252.9224005282085 0 0 0 0 3747.4237088569389 -1815.6260364194959 0 -1815.6260364194959 402.55206293250376 0 0 0 0 3041.4791736938641 -3308.4417195544083 0 -3308.4417195544083 885.02482569208223 0 0 0 0 4350.3398297823442 -3705.7149382051211 0 -3705.7149382051211 995.65160307873157 0 0 0 0 1671.4338439877611 -3985.1888491127902 0 -3985.1888491127902 1509.7412334093897 0 0 0 0 3111.2521311521414 -3557.204291039081 0 -3557.204291039081 1342.8635658940766 0 0 0 0 3463.3148335234946 -3760.2940695376765 0 -3760.2940695376765 851.79377015215869 0 0 0 0 -778.78785901025549 -2205.6196377910856 0 -2205.6196377910856 1614.9884581333899 0 0 0 0 1623.6626343137614 -2962.560178856831 0 -2962.560178856831 885.71508905184965 0 0 0 0 2151.8531762758503 -2893.0916595325034 0 -2893.0916595325034 2098.9811871527709 0 0 0 0 2682.7915020941728 -4138.3616240529136 0 -4138.3616240529136 2070.3837835791346 0 0 0 0 925.39096016618714 -3018.9977829025265 0 -3018.9977829025265 2347.0496036512595 0 0 0 0 1686.6713925042986 -3599.0663453112929 0 -3599.0663453112929 941.37033012803295 0 0 0 0 1825.4029611768756 -2036.4806796207949 0 -2036.4806796207949 -1810.4294244008343 0 0 0 0 1335.1117442110553 -2202.1481498066387 0 -2202.1481498066387 -775.87736845442123 0 0 0 0 -890.02614234334033 -1636.4261228957221 0 -1636.4261228957221 -513.79343018176587 0 0 0 0 250.97808483956032 -525.97065667631978 0 -525.97065667631978 -3241.8269669724832 0 0 0 0 67.464502745061623 -30.893586696593928 0 -30.893586696593928 2.9258299924281843 0 0 0 0 -290.69907223796326 -989.27258921735665 0 -989.27258921735665 -410.96511356637347 0 0 0 0 366.79462631056958 -1445.7664725717113 0 -1445.7664725717113 1821.1755061325821 0 0 0 0 1084.2326142884558 -862.41007728005934 0 -862.41007728005934 711.2348428696132 0 0 0 0 1315.1836624986754 -3495.030217141335 0 -3495.030217141335 6054.7988547774239 0 0 0 0 27.508068957296359 -13.061889650952367 0 -13.061889650952367 3.069328719869489 0 0 0 0 2365.0744989128143 -2989.7877103957508 0 -2989.7877103957508 2311.0951842248032 0 0 0 0 1705.8714789069818 -1312.4260047657554 0 -1312.4260047657554 701.63788592627679 0 0 0 0 99.196070162593969 -174.67476399123188 0 -174.67476399123188 951.06116918199405 0 0 0 0 399.47779911283578 153.37079693924898 0 153.37079693924898 210.03195158751623 0 0 0 0 310.66314221450011 63.237414612765861 0 63.237414612765861 121.53914229260408 0 0 0 0 549.72469609606196 -865.23763818242878 0 -865.23763818242878 1244.003306140432 0 0 0 0 231.61292491256609 -391.40031608746358 0 -391.40031608746358 -2035.6565736096554 0 0 0 0 81.071469384388081 -37.534396886557715 0 -37.534396886557715 3.6445103764566582 0 0 0 0 401.94493152684299 -157.07573851281632 0 -157.07573851281632 -1171.3588011569664 0 0 0 0 -336.84062761447422 -465.10313248854072 0 -465.10313248854072 78.188579214423953 0 0 0 0 716.89182179768977 -168.91487588341261 0 -168.91487588341261 58.186731291061733 0 0 0 0 -973.80306437585386 -529.03432989260182 0 -529.03432989260182 2161.8962656177223 0 0 0 0 -85.288861532812007 -219.97964547667652 0 -219.97964547667652 403.68968634398595 0 0 0 0 124.54229005755656 -374.9585239185231 0 -374.9585239185231 42.170544365086243 0 0 0 0 -361.03433506449801 -338.59505538117082 0 -338.59505538117082 1127.8105168872682 0 0 0 0 129.81422974659108 7.8288210020556335 0 7.8288210020556335 227.99698404595256 0 0 0 0 -178.20082959785941 -264.58976986661582 0 -264.58976986661582 203.1566229651562 0 0 0 0 79.238796825027293 -40.188148598090038 0 -40.188148598090038 5.6265703861960077 0 0 0 0 139.05197268483607 -408.76802414973099 0 -408.76802414973099 -568.41700476847473 0 0 0 0 165.03607174591161 280.65356874791905 0 280.65356874791905 434.57418742168375 0 0 0 0 26.05739755029208 -56.319020513241412 0 -56.319020513241412 -72.280256001282396 0 0 0 0 -28.235066202498274 -9.8084119714330882 0 -9.8084119714330882 266.02933096734341 0 0 0 0 17.408410021074815 -109.53244561296742 0 -109.53244561296742 34.945894109172514 0 0 0 0 39.791881560289767 108.72368113432458 0 108.72368113432458 354.56700600570184 0 0 0 0 85.538871055890922 -360.11690776117757 0 -360.11690776117757 43.083254345940077 0 0 0 0 139.78031169173482 -293.80152970078052 0 -293.80152970078052 -650.32809834717773 0 0 0 0 -158.66447749215877 -52.558978652705264 0 -52.558978652705264 21.116456243653374 0 0 0 0 74.606881267507561 -261.14652875999491 0 -261.14652875999491 236.15549808445212 0 0 0 0 -15.176032518473221 -226.59259014262352 0 -226.59259014262352 223.82512794256036 0 0 0 0 236.25609136246203 -261.56007117938861 0 -261.56007117938861 328.01233332441188 0 0 0 0 -2.2625611837775068 -0.76737289403953923 0 -0.76737289403953923 0.89307696417336047 0 0 0 0 -80.930606147892831 -174.66709082915258 0 -174.66709082915258 1331.1218029413722 0 0 0 0 268.29688877615263 -382.7235095302749 0 -382.7235095302749 762.14846122901508 0 0 0 0 1691.710387463434 -294.60968812248029 0 -294.60968812248029 381.26418243944499 0 0 0 0 1809.9924408656661 -1631.5817922703573 0 -1631.5817922703573 1044.5098368489707 0 0 0 0 3682.4612696629774 -689.79531275757472 0 -689.79531275757472 -677.0330508893021 0 0 0 0 4673.8725186491356 -3277.029203143793 0 -3277.029203143793 1546.0218568684504 0 0 0 0 906.90343048822251 928.58166804225039 0 928.58166804225039 -1602.1241562896976 0 0 0 0 32.559931281116633 -5.5265134782990799 0 -5.5265134782990799 0.10256575938156232 0 0 0 0 6081.1502393366682 -2606.544258302747 0 -2606.544258302747 2486.5311148504406 0 0 0 0 3668.9158683348069 -4314.0710699020929 0 -4314.0710699020929 5341.8494373754729 0 0 0 0 908.60593277266162 -1632.3566633312512 0 -1632.3566633312512 2773.3086485948734 0 0 0 0 74.996311900724379 -10.311818928468824 0 -10.311818928468824 -5.9337510026448115 0 0 0 0 1320.8014702513901 -1387.1600317535049 0 -1387.1600317535049 1544.7836718576837 0 0 0 0 45.773379193982692 -347.97803238918277 0 -347.97803238918277 74.181918172922451 0 0 0 0 48.007438084008754 -694.67112599653046 0 -694.67112599653046 298.76232605098812 0 0 0 0 303.18718020330562 -275.64168852626972 0 -275.64168852626972 -1074.7908651815815 0 0 0 0 2262.373394215072 -2257.0270293077992 0 -2257.0270293077992 723.13759017195844 0 0 0 0 1612.0380884421756 -1328.1043402202558 0 -1328.1043402202558 294.90215358801652 0 0 0 0 2381.4556543718354 -1709.2088410266151 0 -1709.2088410266151 384.98339732186287 0 0 0 0 1469.6027838967057 -1746.6501174786863 0 -1746.6501174786863 1109.4818740689225 0 0 0 0 501.16657453668995 -757.65079297897319 0 -757.65079297897319 1198.675597948939 0 0 0 0 3526.6056958350964 -3252.0669142684783 0 -3252.0669142684783 1499.81486983988 0 0 0 0 4823.2457635357714 -3447.8609506166249 0 -3447.8609506166249 2273.7577727951466 0 0 0 0 4046.3852127201535 -2520.5525172376656 0 -2520.5525172376656 1224.345213624998 0 0 0 0 4456.5970012400503 -3625.6597004435316 0 -3625.6597004435316 489.25887416248588 0 0 0 0 4378.662578500167 -2786.3199744191879 0 -2786.3199744191879 -730.5815400343854 0 0 0 0 4097.5350039180503 -2707.8237782910473 0 -2707.8237782910473 -632.59791122013121 0 0 0 0 4390.8180290149758 -2957.9443537038787 0 -2957.9443537038787 -1715.5215665451542 0 0 0 0 4359.2042985925073 -2637.4821386388794 0 -2637.4821386388794 -1365.6081329035223 0 0 0 0 4147.0303751001411 -2434.5458327023953 0 -2434.5458327023953 -560.32465211430099 0 0 0 0 4087.7166702730356 -2720.7341445344955 0 -2720.7341445344955 -270.14858761259529 0 0 0 0 3399.8128420079302 -1095.6444288617276 0 -1095.6444288617276 -842.61712165572681 0 0 0 0 1890.130521574305 -1468.1853989349038 0 -1468.1853989349038 280.79303172038635 0 0 0 0 3147.1794332817954 -613.04813297603687 0 -613.04813297603687 -1195.4834541667515 0 0 0 0 2478.6322643707244 355.68163551946054 0 355.68163551946054 -512.31649852599367 0 0 0 0 57.094617468275999 -34.740594284194401 0 -34.740594284194401 20.87353178171378 0 0 0 0 5198.8784191673476 1259.1916188224714 0 1259.1916188224714 -2876.3066384491976 0 0 0 0 7576.700473840363 -1569.4969623241122 0 -1569.4969623241122 -2628.5026012477465 0 0 0 0 6521.5265243855538 -3890.0742686098383 0 -3890.0742686098383 -710.71789987142256 0 0 0 0 6521.8392035095603 -438.61779216853756 0 -438.61779216853756 1680.3692635815823 0 0 0 0 505.47407496651431 -2762.9174132308253 0 -2762.9174132308253 3315.6175926110591 0 0 0 0 5584.9988489790121 -4166.5827677164634 0 -4166.5827677164634 1266.9628952295752 0 0 0 0 7968.4558150242228 -1983.2827619171658 0 -1983.2827619171658 -284.44490600904101 0 0 0 0 6751.149438174969 -2485.0335173597614 0 -2485.0335173597614 581.92084408490337 0 0 0 0 6837.0267012069671 -2294.118429715556 0 -2294.118429715556 -369.83918783915578 0 0 0 0 4934.1535092290942 -1496.7853619806992 0 -1496.7853619806992 4.7972483024932444 0 0 0 0 1153.6739056259648 -961.77110844739582 0 -961.77110844739582 925.87028636387549 0 0 0 0 2029.3862058710802 -1062.2621871940937 0 -1062.2621871940937 -0.70933555264491588 0 0 0 0 1028.1320049956703 -486.78770620013529 0 -486.78770620013529 1.7846688689009382 0 0 0 0 21.580085662726788 -2.1307340937001982 0 -2.1307340937001982 -5.5732747125475726 0 0 0 0 2916.8135830242245 -2741.6110359345184 0 -2741.6110359345184 872.07280166108103 0 0 0 0 16.511374157299997 0.60946240718561739 0 0.60946240718561739 -3.4692091673591676 0 0 0 0 1156.9184651773248 733.28606187584592 0 733.28606187584592 -461.13589087626315 0 0 0 0 2158.743867926547 -2124.3264781112084 0 -2124.3264781112084 1346.2461336947308 0 0 0 0 3440.7571883310393 -2281.5505019962875 0 -2281.5505019962875 173.01168100359791 0 0 0 0 2623.2932861885638 -1538.2256631006458 0 -1538.2256631006458 -458.79209865667508 0 0 0 0 3063.4363009568915 -2983.1818361921032 0 -2983.1818361921032 2661.0873001696455 0 0 0 0 2649.8841771639854 -1025.7039317553863 0 -1025.7039317553863 -3172.8206008079142 0 0 0 0 -642.98083614495408 -976.38465349219769 0 -976.38465349219769 568.33598837579484 0 0 0 0 2741.3787791130599 -1353.0709687931958 0 -1353.0709687931958 157.82940036043874 0 0 0 0 -492.01922600335092 -1040.5481797724206 0 -1040.5481797724206 561.68234531334019 0 0 0 0 1563.7599792875262 -333.10612727077751 0 -333.10612727077751 501.29559472321125 0 0 0 0 -64.282946089748293 -1525.4153388281484 0 -1525.4153388281484 1.5134958614798961 0 0 0 0 1695.8426975816546 -537.37864131553215 0 -537.37864131553215 451.59898214683744 0 0 0 0 1528.6947583805304 -956.95895045225916 0 -956.95895045225916 443.0462275236423 0 0 0 0 14.329925385856768 -22.217175910569495 0 -22.217175910569495 0.32982521244617996 0 0 0 0 -1139.3024154473824 -363.87729531081277 0 -363.87729531081277 808.04312396224122 0 0 0 0 4.0275049174234709 -3.6268424810355668 0 -3.6268424810355668 -7.3973013155763852 0 0 0 0 6.4139643482493511 0.79379898124773263 0 0.79379898124773263 -3.2658050832300773 0 0 0 0 199.76070174601045 -643.13060796014906 0 -643.13060796014906 838.2271022816858 0 0 0 0 -455.38886587953311 -951.83576217171503 0 -951.83576217171503 712.86561629085918 0 0 0 0 285.62150057229155 -857.01492775259248 0 -857.01492775259248 71.133487220882671 0 0 0 0 330.50417927774834 -594.53280020266538 0 -594.53280020266538 920.18628994234314 0 0 0 0 348.72329967666519 -1095.4314002902429 0 -1095.4314002902429 660.38114234185196 0 0 0 0 116.80837011442054 72.957810984691605 0 72.957810984691605 93.988517820951529 0 0 0 0 9.7923497898017899 2.5786325393325455 0 2.5786325393325455 -1.8648630834687197 0 0 0 0 -6.2182967443438599 -10.867855625308607 0 -10.867855625308607 -12.243162444001484 0 0 0 0 1121.3193139968062 -239.96182520627917 0 -239.96182520627917 35.475277051504236 0 0 0 0 629.23197343200445 -1204.7367427380377 0 -1204.7367427380377 -1361.6265428124461 0 0 0 0 203.98956900092162 -1785.7849094259 0 -1785.7849094259 -1993.8892443397199 0 0 0 0 572.34854295307014 -745.73403543615132 0 -745.73403543615132 106.17485497699818 0 0 0 0 1033.7398893065983 -213.48337387231004 0 -213.48337387231004 -2771.874290036445 0 0 0 0 683.74029599811183 -853.85939846890687 0 -853.85939846890687 -1760.4674404525722 0 0 0 0 791.51963174052071 -272.16716875733982 0 -272.16716875733982 -1622.837245705945 0 0 0 0 591.28015812254307 -703.73184903145739 0 -703.73184903145739 -1525.8128079203889 0 0 0 0 -92.746961748547619 -713.51424330887676 0 -713.51424330887676 -1261.8890092550428 0 0 0 0 72.182092901406577 -214.22590155620856 0 -214.22590155620856 -641.90061080202577 0 0 0 0 -83.276611710462021 -563.94889857265662 0 -563.94889857265662 -1154.9641189677641 0 0 0 0 -1799.708846288042 -2772.2896462986791 0 -2772.2896462986791 -3473.689651063396 0 0 0 0 -260.26392967780703 -773.9088597039663 0 -773.9088597039663 -923.37415754178073 0 0 0 0 -392.69590262899874 -603.29875013293349 0 -603.29875013293349 -666.13678805227119 0 0 0 0 193.85640911700466 -628.52377543643524 0 -628.52377543643524 -153.23497130200849 0 0 0 0 -58.384069939638721 -283.21871353156894 0 -283.21871353156894 -563.8944078622153 0 0 0 0 908.48494525050046 438.47015975484828 0 438.47015975484828 -1685.2519150427543 0 0 0 0 360.69434889973854 284.11118582015843 0 284.11118582015843 -247.37632020952879 0 0 0 0 266.35294903216709 -49.455011175494292 0 -49.455011175494292 -1425.0838737739541 0 0 0 0 -158.67335588045535 -1894.1877281637499 0 -1894.1877281637499 -642.77190041857102 0 0 0 0 -2.2315974490767871 -0.21164953030563538 0 -0.21164953030563538 -35.135486970163015 0 0 0 0 3237.7577745191011 -2407.7427980959401 0 -2407.7427980959401 -461.26882890489651 0 0 0 0 3895.4693344090629 -1023.9374992722369 0 -1023.9374992722369 -1017.5110396723103 0 0 0 0 1833.1650260727838 -625.84507736476371 0 -625.84507736476371 -39.112813715270022 0 0 0 0 23.298571191893998 -25.149223683066282 0 -25.149223683066282 -96.965491061812884 0 0 0 0 7196.76635156876 448.05626587592997 0 448.05626587592997 -1139.5333433697378 0 0 0 0 5860.5568624062143 -3617.1489216931659 0 -3617.1489216931659 1246.0352761117974 0 0 0 0 5195.2740597274787 -2323.2135777048752 0 -2323.2135777048752 -604.31355846024235 0 0 0 0 5390.000183940243 -1942.5590233077783 0 -1942.5590233077783 2951.5538643140753 0 0 0 0 1890.045604158684 -2616.0933726628555 0 -2616.0933726628555 3478.054870053631 0 0 0 0 18.21755107780649 -22.431341401100937 0 -22.431341401100937 -2.9273628534110685 0 0 0 0 -2452.1273083441192 -1116.604936194366 0 -1116.604936194366 -82.130069893406471 0 0 0 0 16.29284186515558 -53.589778331989294 0 -53.589778331989294 42.507734780937142 0 0 0 0 -1681.1874453783385 -1179.094246378183 0 -1179.094246378183 -802.26096292282455 0 0 0 0 -1229.6470894347003 -1616.2453106774046 0 -1616.2453106774046 -191.55139130646421 0 0 0 0 -932.27128915314097 -1157.7052143575456 0 -1157.7052143575456 267.14520192713826 0 0 0 0 -1626.6536366842338 -1523.5901590586 0 -1523.5901590586 -33.579668895778013 0 0 0 0 -1069.8115950248866 -1603.9386238954066 0 -1603.9386238954066 -971.03490340261487 0 0 0 0 -1167.7545177295979 -1990.1252781994372 0 -1990.1252781994372 -636.23916307973559 0 0 0 0 -1136.2546749212925 -1953.6012599868554 0 -1953.6012599868554 -1057.2052833815687 0 0 0 0 -1137.3932838891196 -2267.5959132564894 0 -2267.5959132564894 552.71977450611303 0 0 0 0 -1078.9474341897876 -1504.6784530284785 0 -1504.6784530284785 -1445.3985574438266 0 0 0 0 428.22655563711305 -559.73466479746276 0 -559.73466479746276 -705.12485730386106 0 0 0 0 548.9903042770311 -707.92745316693617 0 -707.92745316693617 -603.51573128951713 0 0 0 0 103.07698609574391 -125.35309528213253 0 -125.35309528213253 96.676296196462062 0 0 0 0 -1309.097232542932 -1530.4268967241223 0 -1530.4268967241223 -674.73401561463834 0 0 0 0 20.204806477093371 -892.63990659970659 0 -892.63990659970659 -261.67124936639448 0 0 0 0 -43.122775374315097 -1035.7604463458956 0 -1035.7604463458956 -584.89951368715265 0 0 0 0 -1148.9420443872514 -1205.2369796076091 0 -1205.2369796076091 2751.3332048755183 0 0 0 0 -6.0880901285512437 -11.932393588238909 0 -11.932393588238909 2.4741877264056171 0 0 0 0 -227.19337137392722 -698.06527287921199 0 -698.06527287921199 1216.2161277170671 0 0 0 0 -392.18608467765443 -1512.9600735029235 0 -1512.9600735029235 -81.023586895069457 0 0 0 0 -261.89743742052815 -1199.9181817562057 0 -1199.9181817562057 155.58493611462472 0 0 0 0 -323.83280652714893 -1425.8357146326016 0 -1425.8357146326016 -198.06813668186078 0 0 0 0 -284.2601042603419 -1416.4750849326156 0 -1416.4750849326156 -570.66632802758249 0 0 0 0 -383.73842845257604 -1137.1457697429141 0 -1137.1457697429141 -462.37948904461155 0 0 0 0 -272.61433488314287 -1281.4736278374148 0 -1281.4736278374148 -386.00578916433733 0 0 0 0 -353.017508288729 -1241.6584805264865 0 -1241.6584805264865 -320.65284231497208 0 0 0 0 -863.49427875506808 -1375.0265295106583 0 -1375.0265295106583 -379.40515319522819 0 0 0 0 -492.20515552037978 -1406.6030680843323 0 -1406.6030680843323 -960.861445709088 0 0 0 0 -457.11716208470898 -778.15413355407691 0 -778.15413355407691 -822.85100964338926 0 0 0 0 -336.25777156779077 -1011.862034097845 0 -1011.862034097845 -485.38669911742909 0 0 0 0 -831.48739607277093 -1572.4088267462503 0 -1572.4088267462503 -2715.4431865270453 0 0 0 0 -818.90991560452676 -1585.7848746618984 0 -1585.7848746618984 -2727.3978015815082 0 0 0 0 -13.262529523242961 -25.870159339800637 0 -25.870159339800637 9.1470579020237039 0 0 0 0 -325.12968483137956 -1235.8924218135289 0 -1235.8924218135289 -2153.7730537841962 0 0 0 0 -748.7771909955336 -859.35050024295197 0 -859.35050024295197 -1240.6040319737222 0 0 0 0 -13.435770777022412 -26.885457525777412 0 -26.885457525777412 9.8638126884333133 0 0 0 0 -845.65681860575569 -1726.4304660323687 0 -1726.4304660323687 -2263.5789056046997 0 0 0 0 -389.23851600108901 -979.36409493565225 0 -979.36409493565225 -1959.2784835555794 0 0 0 0 -828.8585889302085 -1584.8274371348607 0 -1584.8274371348607 -2701.9781944203132 0 0 0 0 -368.47167455186718 -820.67522287479369 0 -820.67522287479369 -1127.7714864803274 0 0 0 0 89.606638230805117 -95.205759132670522 0 -95.205759132670522 78.763952833475457 0 0 0 0 -797.02151170586876 -1607.5561956886959 0 -1607.5561956886959 -2706.294070943899 0 0 0 0 -166.71296082308982 -582.72347106499365 0 -582.72347106499365 -955.7286668464003 0 0 0 0 -719.93171120929765 -2533.6366268849233 0 -2533.6366268849233 -5713.9047142131312 0 0 0 0 98.621091653984024 -107.25538490405805 0 -107.25538490405805 91.931004425733875 0 0 0 0 -318.07689955955721 -906.16756808295031 0 -906.16756808295031 -1099.8475321561855 0 0 0 0 -138.99568684320548 -679.93015838481369 0 -679.93015838481369 -1079.9224076218088 0 0 0 0 91.707931792378076 -1489.815271327534 0 -1489.815271327534 -1450.6851690360345 0 0 0 0 -405.73609752120683 -833.97992708600214 0 -833.97992708600214 87.086611112757964 0 0 0 0 313.29895490436684 -557.41134703442913 0 -557.41134703442913 -0.38803563180408673 0 0 0 0 -444.263829186566 -818.14540945937915 0 -818.14540945937915 -1123.2306693014398 0 0 0 0 -362.94199576241226 -805.22591299143096 0 -805.22591299143096 -1296.4772636009584 0 0 0 0 -371.44470920589811 -858.93620503303828 0 -858.93620503303828 -1157.240549238275 0 0 0 0 -585.39297692310356 -1054.7242136846107 0 -1054.7242136846107 -503.48088209403795 0 0 0 0 -445.84937063377583 -1447.460997182774 0 -1447.460997182774 -1174.7073838009383 0 0 0 0 0.056997116153212346 -4.3896906442201384 0 -4.3896906442201384 -8.5990033247323936 0 0 0 0 -778.03000214828353 -1624.0571173411081 0 -1624.0571173411081 -122.3533487226523 0 0 0 0 1120.3356617899581 -1104.2351544084952 0 -1104.2351544084952 -1348.7902462229831 0 0 0 0 300.96785878564697 -356.47867865048465 0 -356.47867865048465 -63.6659506179858 0 0 0 0 636.51984598247509 -670.30408649134915 0 -670.30408649134915 74.611269347456982 0 0 0 0 -918.59842282388126 -1083.0992360365053 0 -1083.0992360365053 307.88143445328751 0 0 0 0 -574.95006316600484 -630.03805384789302 0 -630.03805384789302 -124.24365452407801 0 0 0 0 -520.94421814197267 -778.07170154844061 0 -778.07170154844061 -278.50071616386413 0 0 0 0 -442.50417649297742 -711.37900808508857 0 -711.37900808508857 -824.52389584669436 0 0 0 0 -466.94958069488166 -840.22957046467218 0 -840.22957046467218 -655.79288564044691 0 0 0 0 -602.229225647985 -1066.0230432476965 0 -1066.0230432476965 -326.78158519110002 0 0 0 0 -402.57605632290688 -979.11035154165165 0 -979.11035154165165 -978.62950260500656 0 0 0 0 81.519489687409873 -84.4899275919378 0 -84.4899275919378 68.964074471559059 0 0 0 0 -784.83249560312834 -1703.6567652825033 0 -1703.6567652825033 -2033.0291007871783 0 0 0 0 -753.79611337111055 -950.20226754597888 0 -950.20226754597888 -1545.0157330167713 0 0 0 0 -152.76687976947869 -689.34663266717689 0 -689.34663266717689 2.4736335996349226 0 0 0 0 -71.350596242584288 -934.93643828339555 0 -934.93643828339555 -1235.6553652143557 0 0 0 0 -586.52503496872669 -839.6818636753087 0 -839.6818636753087 -1627.6005398652342 0 0 0 0 -760.08225067827152 -775.25523318283376 0 -775.25523318283376 -1185.4321606899612 0 0 0 0 -616.83405416485039 -1840.6558587496984 0 -1840.6558587496984 -2364.5789318001007 0 0 0 0 -611.81898429151624 -1360.3017678800679 0 -1360.3017678800679 -1258.3984982783441 0 0 0 0 -476.92311940086074 -1147.7717667781981 0 -1147.7717667781981 -2430.7860111995251 0 0 0 0 68.62726265551936 -70.496069727786448 0 -70.496069727786448 56.686924420278842 0 0 0 0 -556.7366222548153 -674.06693156017718 0 -674.06693156017718 77.2110211829131 0 0 0 0 -539.25428816881322 -780.21382801255822 0 -780.21382801255822 -169.93733640108258 0 0 0 0 -433.63197975381627 -577.38891183637315 0 -577.38891183637315 -519.18114241094008 0 0 0 0 -424.45350042080099 -427.67553050014249 0 -427.67553050014249 -86.877257022919366 0 0 0 0 -3.8236659325847313 -3.9517776279009809 0 -3.9517776279009809 3.6514698832358192 0 0 0 0 48.972322194071694 -50.163914543987431 0 -50.163914543987431 39.283688802364338 0 0 0 0 -388.00830107257934 -504.63488371061976 0 -504.63488371061976 72.617257355159381 0 0 0 0 -4.1055735850450787 -4.7385321246932222 0 -4.7385321246932222 7.781971085492188 0 0 0 0 -144.96707302864525 -2421.6983157777067 0 -2421.6983157777067 2484.6211041308707 0 0 0 0 -0.96299747467855923 -557.92702101416216 0 -557.92702101416216 -1738.9479143104982 0 0 0 0 -22.083511535718571 -5589.8193402815668 0 -5589.8193402815668 14719.660274871043 0 0 0 0 1.3262326738431511 -5.2201645311113793 0 -5.2201645311113793 11.591483788038801 0 0 0 0 33.604146478348412 -80.854292454081587 0 -80.854292454081587 38.864198563445825 0 0 0 0 -104.76541965978686 112.97549470834201 0 112.97549470834201 -94.693981328979135 0 0 0 0 -1080.8846917180053 -1534.4898957327678 0 -1534.4898957327678 -1749.658115459315 0 0 0 0 -810.29303199925926 -963.15612239873735 0 -963.15612239873735 -1940.8332959360851 0 0 0 0 -275.26057650905568 -980.20692092209356 0 -980.20692092209356 -2100.0732939788722 0 0 0 0 -258.31144509240403 -1032.7295531309865 0 -1032.7295531309865 -1953.0705845862394 0 0 0 0 22.080211946401164 -22.676800947864777 0 -22.676800947864777 16.79149624133214 0 0 0 0 -224.5582650701981 -1085.9917792627311 0 -1085.9917792627311 -2017.8895299063588 0 0 0 0 -232.48458975733956 -1060.627600425476 0 -1060.627600425476 -2078.4801663128892 0 0 0 0 0.23990597113152035 -1111.7404186814456 0 -1111.7404186814456 -1701.9977292448166 0 0 0 0 -111.52885536319809 -896.81506320659537 0 -896.81506320659537 -1971.2539657798916 0 0 0 0 -191.60750763252145 -1227.4941474502557 0 -1227.4941474502557 -1879.2822721601697 0 0 0 0 -386.58749485190492 -940.91910167707829 0 -940.91910167707829 -1543.5209079576161 0 0 0 0 -288.01511008606758 -1354.8258653599478 0 -1354.8258653599478 -1914.25533064919 0 0 0 0 -66.57112415053416 -1107.8581614078212 0 -1107.8581614078212 -1496.0021421943966 0 0 0 0 -118.30904663224646 -240.66805655392091 0 -240.66805655392091 -32.810739843378542 0 0 0 0 0.53795586252817884 -1093.2716765588775 0 -1093.2716765588775 -211.28142181069416 0 0 0 0 21.750709066251147 -599.48846756953208 0 -599.48846756953208 -1039.7916759188811 0 0 0 0 -568.87114758134703 -457.60088824032573 0 -457.60088824032573 1223.6811480363249 0 0 0 0 -2.1420506875761021 -6.4345453404620514 0 -6.4345453404620514 -1.2229878988321872 0 0 0 0 -3.1494082511635497 -1144.2730109067779 0 -1144.2730109067779 -4948.0602412122789 0 0 0 0 -1.6785401645897822 -1990.977918403358 0 -1990.977918403358 -2760.2331049707427 0 0 0 0 -535.60619443823816 -1680.4939522046116 0 -1680.4939522046116 -2234.3336456780962 0 0 0 0 -555.75258700463746 -443.96909008849616 0 -443.96909008849616 -134.19975218134641 0 0 0 0 -72.793817757163197 -986.46271411468479 0 -986.46271411468479 -1675.7632205565751 0 0 0 0 -184.58114152943017 -1317.1643817326258 0 -1317.1643817326258 -3818.6217273710572 0 0 0 0 -8.8665537888201698 -19.812566563422337 0 -19.812566563422337 5.7345850775815848 0 0 0 0 -233.73312417588022 -1799.0359716386083 0 -1799.0359716386083 -2201.0453441460268 0 0 0 0 -506.38974811675871 -1151.8256203658493 0 -1151.8256203658493 -1476.5765401679673 0 0 0 0 -831.96000677502889 -1222.0173135102159 0 -1222.0173135102159 -133.08786477453759 0 0 0 0 -846.52711289011495 -1683.4710992388427 0 -1683.4710992388427 -935.92909113958012 0 0 0 0 -801.32667264896372 -1483.7081216445931 0 -1483.7081216445931 -986.59260579006514 0 0 0 0 -894.03599488790496 -1643.7866572488201 0 -1643.7866572488201 -232.63059306799551 0 0 0 0 0.76833739106950816 -2046.7513823352783 0 -2046.7513823352783 -760.80261610147136 0 0 0 0 -79.051879396036384 -1270.2685483100795 0 -1270.2685483100795 -2552.0788692115166 0 0 0 0 -232.91768672392936 -2161.9448094588515 0 -2161.9448094588515 -1165.2822839110449 0 0 0 0 -8.7692628104763628 -13.728328367557793 0 -13.728328367557793 -13.333423905662528 0 0 0 0 -1067.1219413161962 78.528951286280062 0 78.528951286280062 -26.498900201739161 0 0 0 0 -155.36854426201899 277.44102093251422 0 277.44102093251422 -311.13350816103048 0 0 0 0 -365.00670802116929 -137.55042867113661 0 -137.55042867113661 16.66505460186454 0 0 0 0 521.51005848129535 -502.8999064736272 0 -502.8999064736272 -529.69540387933375 0 0 0 0 -27.020966127341531 -35.598687915678539 0 -35.598687915678539 -26.103766940127798 0 0 0 0 5.7269825877416523 1.4450086295049687 0 1.4450086295049687 -8.6895781443086548 0 0 0 0 145.31924024012687 -591.99043255814468 0 -591.99043255814468 -816.7775781522796 0 0 0 0 395.67402482707439 -512.930394547584 0 -512.930394547584 -663.3394627609523 0 0 0 0 245.78305811498649 -759.10553334240103 0 -759.10553334240103 -614.25600476883119 0 0 0 0 112.53878224461005 -577.5221912538691 0 -577.5221912538691 -781.97700248241017 0 0 0 0 232.56883872251456 -735.75650365655019 0 -735.75650365655019 -744.25525642902358 0 0 0 0 160.90727021573002 -842.26731097037555 0 -842.26731097037555 -902.50573580949276 0 0 0 0 261.21759549722447 -372.9252701962032 0 -372.9252701962032 -2740.3524679254915 0 0 0 0 -356.71434002571186 -1225.2474370994896 0 -1225.2474370994896 -956.95697211843799 0 0 0 0 176.66128706158179 -184.96124215887539 0 -184.96124215887539 -1391.5284168612561 0 0 0 0 200.81123228076649 -643.9370095379636 0 -643.9370095379636 -1777.0339502078714 0 0 0 0 -397.19473148711154 -675.45318444856548 0 -675.45318444856548 -271.74162365472876 0 0 0 0 -340.37031156410012 349.6706393278364 0 349.6706393278364 -1724.5490329221357 0 0 0 0 -1056.6189179058165 -1609.6134506201197 0 -1609.6134506201197 -1519.8954329895205 0 0 0 0 -263.22422151358478 -1001.6361516762699 0 -1001.6361516762699 -2116.8295870531874 0 0 0 0 -1468.3921620579858 166.7915132214257 0 166.7915132214257 -184.58029041424743 0 0 0 0 -361.33438541305441 -258.82978878049471 0 -258.82978878049471 -659.00722874706844 0 0 0 0 -322.77544656610189 -145.65371614044125 0 -145.65371614044125 -327.04062092193635 0 0 0 0 -10.273990979672817 -583.28194900333983 0 -583.28194900333983 -931.40552645770367 0 0 0 0 -179.51724569500584 -647.08428378064855 0 -647.08428378064855 -575.94253321297583 0 0 0 0 -37.308356173049106 -491.05574024291127 0 -491.05574024291127 -1177.9503715842147 0 0 0 0 -430.09502187503676 -1000.7058958614216 0 -1000.7058958614216 -1073.2174299197795 0 0 0 0 -1645.0840323082557 -1086.3038693617273 0 -1086.3038693617273 -740.18831565816072 0 0 0 0 -690.13242390466621 -373.82051099913951 0 -373.82051099913951 -291.63719617748575 0 0 0 0 -540.36203714937915 -377.67868000690169 0 -377.67868000690169 -317.77998524694704 0 0 0 0 -237.75674966636871 -217.87741338937485 0 -217.87741338937485 -234.40503786898626 0 0 0 0 -1.9839602464198833 -619.51905696524045 0 -619.51905696524045 -572.58030478007277 0 0 0 0 -385.25588268811771 -507.78187387515572 0 -507.78187387515572 -153.67321706961957 0 0 0 0 -2.2939738247841888 -353.37356149563129 0 -353.37356149563129 96.99155802236055 0 0 0 0 -18.598876602394739 -476.92518084356561 0 -476.92518084356561 -153.63321663841432 0 0 0 0 -41.987392943556188 -563.1297282785672 0 -563.1297282785672 304.31842042863718 0 0 0 0 -238.32348731338607 -108.84951200975775 0 -108.84951200975775 -145.87311058820342 0 0 0 0 -104.48661802472634 -322.01937061776698 0 -322.01937061776698 -171.06188798861695 0 0 0 0 -175.13437594762399 -278.85167448571156 0 -278.85167448571156 33.330409554590005 0 0 0 0 49.801367445877986 -382.1704546068795 0 -382.1704546068795 35.741875418194923 0 0 0 0 50.04844223363034 -306.03116485233477 0 -306.03116485233477 -71.807527547927748 0 0 0 0 -29.099716316928607 -14.851230925611162 0 -14.851230925611162 -300.13393338641617 0 0 0 0 60.576034765497752 -236.70065244387661 0 -236.70065244387661 -440.64287380277528 0 0 0 0 48.041031563103388 124.43386537607512 0 124.43386537607512 -410.25531722203596 0 0 0 0 -42.189785872655193 -6.6038461667776573 0 -6.6038461667776573 -298.0190693839686 0 0 0 0 -229.44367030266585 73.544536903966218 0 73.544536903966218 -305.83544724828789 0 0 0 0 -523.30815289192128 205.7395165334583 0 205.7395165334583 -230.03441175166517 0 0 0 0 -173.95608382835962 206.70106306805974 0 206.70106306805974 -340.89340180298313 0 0 0 0 -18.935040356661375 -35.783204448376637 0 -35.783204448376637 -90.379724346596049 0 0 0 0 -2.3421421904513409 -45.401614371308824 0 -45.401614371308824 -660.69666192098521 0 0 0 0 -184.05387249404703 -456.1642591079144 0 -456.1642591079144 -615.50327164154805 0 0 0 0 -94.830214716546834 -25.648482548916945 0 -25.648482548916945 -547.20674627661356 0 0 0 0 -733.81154678551411 -576.6073239211546 0 -576.6073239211546 -718.37384619293152 0 0 0 0 -189.93018172469516 -264.74775624591712 0 -264.74775624591712 -1146.4230258826865 0 0 0 0 1454.5455546392914 -1204.1370676257648 0 -1204.1370676257648 -403.2993697450147 0 0 0 0 1879.6566721173149 -400.71987744804937 0 -400.71987744804937 -889.07253945631965 0 0 0 0 1424.3374853376881 -247.41494204822811 0 -247.41494204822811 -936.86947867287381 0 0 0 0 1265.3488475362801 -417.03349257877016 0 -417.03349257877016 -1107.4436713545583 0 0 0 0 1578.5193957838492 -291.38045279041398 0 -291.38045279041398 -1553.9424173894804 0 0 0 0 393.75005521469575 -603.92517299533938 0 -603.92517299533938 -365.68866799038551 0 0 0 0 -151.65429705617862 -130.76830815023277 0 -130.76830815023277 -724.30975600829697 0 0 0 0 974.95770498890488 -762.24331633282418 0 -762.24331633282418 -156.15604143540259 0 0 0 0 308.27845161641017 -887.46060914135887 0 -887.46060914135887 1237.7719004636165 0 0 0 0 -9.8605857551098666 -6.5900640271687507 0 -6.5900640271687507 -15.735872433131249 0 0 0 0 8.808877778136619 -5.9726566103835808 0 -5.9726566103835808 -7.7358361175581649 0 0 0 0 778.22361207457288 185.08187689229089 0 185.08187689229089 -1592.8344700676062 0 0 0 0 786.11234640743351 -985.20820021306281 0 -985.20820021306281 735.89645737106912 0 0 0 0 651.41498901704472 -77.11412773009215 0 -77.11412773009215 25.455327486619353 0 0 0 0 650.71223337106494 -223.31931609119056 0 -223.31931609119056 6.9045371097454336 0 0 0 0 -171.58043968283164 764.88671595050255 0 764.88671595050255 1579.2619298729696 0 0 0 0 937.16997017601432 -296.71387711719933 0 -296.71387711719933 49.074467711849138 0 0 0 0 -172.93100892349801 199.55346487235374 0 199.55346487235374 -832.45444348911406 0 0 0 0 936.35231354425923 -733.1407453752181 0 -733.1407453752181 348.82398083474254 0 0 0 0 -46.458024653246738 -45.345939690734042 0 -45.345939690734042 -36.798863380999194 0 0 0 0 400.16046469535468 -999.67001352538136 0 -999.67001352538136 416.1715108800563 0 0 0 0 30.147688751753122 -13.826113266945697 0 -13.826113266945697 -19.99042701834523 0 0 0 0 -144.22267709709922 -199.16095640699496 0 -199.16095640699496 -107.14991619862849 0 0 0 0 429.57767175770277 -868.82430011822726 0 -868.82430011822726 810.5194528978609 0 0 0 0 -252.93760945925897 -682.87996426558675 0 -682.87996426558675 -1153.347298435925 0 0 0 0 -260.61695093289927 -658.44132109004386 0 -658.44132109004386 -1139.2376991700148 0 0 0 0 -407.43427798804623 -1068.2285877523464 0 -1068.2285877523464 -1576.0641997412022 0 0 0 0 -0.71916075254609524 0.56161631521260347 0 0.56161631521260347 -34.267001033320298 0 0 0 0 -2566.5059761409211 -1791.8613469799202 0 -1791.8613469799202 -940.5761959492811 0 0 0 0 1154.9977946956715 56.648471158579923 0 56.648471158579923 -906.1146746242157 0 0 0 0 -534.66384713193111 -303.5694854620815 0 -303.5694854620815 -579.90475557997706 0 0 0 0 -1546.207093578123 -688.65462567685609 0 -688.65462567685609 -680.13531922390393 0 0 0 0 1255.173813785339 -339.37826105497425 0 -339.37826105497425 -173.93306481884792 0 0 0 0 0.87041827777954239 16.562544323508746 0 16.562544323508746 -97.299741627135631 0 0 0 0 -145.31668856690521 -75.11403019788122 0 -75.11403019788122 -56.978143291729793 0 0 0 0 -320.60828074054734 -228.02857834378665 0 -228.02857834378665 -814.46268371943734 0 0 0 0 857.83650320698689 -1000.7204885432147 0 -1000.7204885432147 175.15525613132922 0 0 0 0 -390.67496477146051 -330.65260652203142 0 -330.65260652203142 -879.11753330381907 0 0 0 0 -653.7207815735128 -498.08432239235844 0 -498.08432239235844 -812.68613803526387 0 0 0 0 -63.655051287198148 67.215916960209142 0 67.215916960209142 -193.65238250866241 0 0 0 0 30.688296078265921 100.83688149864611 0 100.83688149864611 -384.04579908982851 0 0 0 0 -256.89812272929703 -243.77415717736585 0 -243.77415717736585 -823.70088825876883 0 0 0 0 -10.958132909180733 55.171021763502978 0 55.171021763502978 -44.61067247082255 0 0 0 0 -15.781168642727518 41.543118354063935 0 41.543118354063935 -47.269922417107693 0 0 0 0 -88.33412462996057 4.6537555607646937 0 4.6537555607646937 -279.01988938555587 0 0 0 0 -149.62117965748621 79.305535605992191 0 79.305535605992191 50.00975508990814 0 0 0 0 -10.163484391538077 76.37780712422682 0 76.37780712422682 -1036.9910919245158 0 0 0 0 -65.164593392379174 23.607554422589601 0 23.607554422589601 -517.7194263295969 0 0 0 0 -250.82583680347307 178.52754188333347 0 178.52754188333347 -589.4474207717285 0 0 0 0 -105.33873423268233 -35.401643775956472 0 -35.401643775956472 -713.88230902586656 0 0 0 0 22.551983970379467 -36.514501583687192 0 -36.514501583687192 -116.88357800498841 0 0 0 0 -177.97661499162496 175.35437582653685 0 175.35437582653685 -403.41491838282673 0 0 0 0 32.092995679377253 -120.52588551827216 0 -120.52588551827216 -90.384035791510016 0 0 0 0 33.696622974541242 80.47935183642403 0 80.47935183642403 -560.86663449878688 0 0 0 0 -46.79722972210584 68.814559709862806 0 68.814559709862806 -380.47448424644608 0 0 0 0 532.20224260242674 -238.0201850883027 0 -238.0201850883027 -113.84615185513394 0 0 0 0 424.51305206263351 -207.6748271202523 0 -207.6748271202523 -410.00071178475628 0 0 0 0 346.34093815589586 -367.15828135728952 0 -367.15828135728952 -162.2759565654269 0 0 0 0 335.80604742027936 -256.51897171451128 0 -256.51897171451128 -149.38395829722867 0 0 0 0 415.80979122284407 -588.57830331646255 0 -588.57830331646255 -549.57423397235107 0 0 0 0 353.10109792300136 -345.8237971290946 0 -345.8237971290946 679.17710593249649 0 0 0 0 558.37758558691712 -352.12154554898734 0 -352.12154554898734 -167.13938117359066 0 0 0 0 484.76279450080983 -312.11590875311231 0 -312.11590875311231 196.82996445038589 0 0 0 0 631.03742547951697 -242.59490411260049 0 -242.59490411260049 -167.05557696940377 0 0 0 0 156.42700271887588 75.840394414932234 0 75.840394414932234 48.387280238064704 0 0 0 0 456.14982618378053 67.782902633978665 0 67.782902633978665 -38.174278438556939 0 0 0 0 535.26542412868002 -232.53491936664796 0 -232.53491936664796 109.93533505441155 0 0 0 0 426.09543858503457 -182.41305649201968 0 -182.41305649201968 -153.76583242224297 0 0 0 0 211.66091376269469 96.961678629042581 0 96.961678629042581 -28.792645592846384 0 0 0 0 490.20815172487346 -79.447889402857982 0 -79.447889402857982 -7.459347655356396 0 0 0 0 54.395209967624396 55.945338599514798 0 55.945338599514798 -276.28947257337859 0 0 0 0 44.926885868773752 -36.436250827915501 0 -36.436250827915501 -122.54690566507634 0 0 0 0 167.93611401470844 45.755547600158025 0 45.755547600158025 -365.30999323358992 0 0 0 0 393.40668025634659 -54.750281232496491 0 -54.750281232496491 -271.44133687124122 0 0 0 0 186.71439762122463 -176.93255790905096 0 -176.93255790905096 -340.84978497348493 0 0 0 0 36.980239372314827 -214.29205864976393 0 -214.29205864976393 -614.07255617962801 0 0 0 0 197.02994468438465 -67.890416129963342 0 -67.890416129963342 -481.30628973105922 0 0 0 0 -59.689616874893545 37.748559919506079 0 37.748559919506079 -526.81257660579286 0 0 0 0 -132.05742879440368 77.19596946213278 0 77.19596946213278 -268.33532599811588 0 0 0 0 18.601095698380959 -71.554481807077536 0 -71.554481807077536 -453.73846043509548 0 0 0 0 -114.72954543378364 -73.654229733991087 0 -73.654229733991087 -677.26864881429356 0 0 0 0 -240.92509517849248 58.078390545735601 0 58.078390545735601 -767.90130261713057 0 0 0 0 41.664904556964757 -98.757269849564182 0 -98.757269849564182 -728.07857517397497 0 0 0 0 -69.927305963487015 -239.4486660657567 0 -239.4486660657567 -888.9344901618897 0 0 0 0 84.497225098370109 -316.89643005696053 0 -316.89643005696053 -781.58844006428262 0 0 0 0 -131.84635056076513 -411.3114263403113 0 -411.3114263403113 -748.79546678352199 0 0 0 0 197.75073164605419 -188.35735496509005 0 -188.35735496509005 -644.3506732226524 0 0 0 0 219.77587509910245 -468.14681453974845 0 -468.14681453974845 -618.74348782957532 0 0 0 0 231.38153389032414 -319.7806749689662 0 -319.7806749689662 -474.22115605452564 0 0 0 0 478.17429510629518 -307.76735523190291 0 -307.76735523190291 -525.15240241918946 0 0 0 0 258.29142064660118 -640.50640303094406 0 -640.50640303094406 -755.95959902330651 0 0 0 0 257.75989934459358 -414.02533043592121 0 -414.02533043592121 -753.96123269834789 0 0 0 0 -247.40059638993625 79.601892093167407 0 79.601892093167407 -1250.6686711428119 0 0 0 0 98.29841355125609 -587.64342138028587 0 -587.64342138028587 -787.31999542540871 0 0 0 0 20.061294940715015 -500.31607613319647 0 -500.31607613319647 -827.22249649223522 0 0 0 0 -351.54040872394717 -465.44173351880818 0 -465.44173351880818 -734.98689336678945 0 0 0 0 -12.20978218458913 -136.24137761350721 0 -136.24137761350721 -943.7524029223423 0 0 0 0 49.709044972506419 -203.62071143817613 0 -203.62071143817613 -151.5602964127167 0 0 0 0 -658.45058989263089 -980.63338792393552 0 -980.63338792393552 -587.37932862518937 0 0 0 0 -22.1348140282862 -275.84896786576428 0 -275.84896786576428 -1119.1319834512251 0 0 0 0 -382.11646953287709 -244.50700335064903 0 -244.50700335064903 -886.54055328830145 0 0 0 0 -538.85730565877748 -12.740132280654507 0 -12.740132280654507 -780.05540196319635 0 0 0 0 -156.12034546592986 -503.08223351694323 0 -503.08223351694323 -134.17055046552559 0 0 0 0 -692.49307706976288 -748.64921430670802 0 -748.64921430670802 679.39318497253407 0 0 0 0 -396.74085117823051 -530.94342285628954 0 -530.94342285628954 87.189457825668796 0 0 0 0 -605.59064534649224 -844.60354688747611 0 -844.60354688747611 188.24884106168611 0 0 0 0 -429.61315495523013 -694.20270240948594 0 -694.20270240948594 316.27980366507109 0 0 0 0 -272.94230364671603 -272.9920866647808 0 -272.9920866647808 471.18801867398724 0 0 0 0 -206.9396354648743 -811.09235301570152 0 -811.09235301570152 120.44076244805183 0 0 0 0 422.52462612152158 -356.78821249157045 0 -356.78821249157045 346.45876229456917 0 0 0 0 -512.64342013263013 -249.23618361254194 0 -249.23618361254194 1559.8890552534358 0 0 0 0 -0.8043412963004144 6.5834827202974964 0 6.5834827202974964 -136.3354015437136 0 0 0 0 1352.0620593494032 -995.08792173414349 0 -995.08792173414349 512.19822101443424 0 0 0 0 15.476142893703582 -52.92619547222057 0 -52.92619547222057 444.30735168246611 0 0 0 0 765.94001624023076 -336.34204606876301 0 -336.34204606876301 -88.200133351194381 0 0 0 0 10.559418727809465 -41.469003016635341 0 -41.469003016635341 4.9577631589744442 0 0 0 0 -16.552942074806197 -129.57159952255097 0 -129.57159952255097 264.52350344898514 0 0 0 0 -244.85477197144792 363.11085033268319 0 363.11085033268319 -1165.0121345444059 0 0 0 0 71.223859062878674 -188.7406539379096 0 -188.7406539379096 -163.22927408701088 0 0 0 0 -248.52937096924688 -244.72624450742569 0 -244.72624450742569 506.93315212691959 0 0 0 0 -328.46697401957499 -235.70333183932962 0 -235.70333183932962 1065.196630643557 0 0 0 0 -489.45869127133847 -578.34414457272942 0 -578.34414457272942 350.80010672431308 0 0 0 0 1520.8629653866765 -83.978380536887016 0 -83.978380536887016 -1364.0026906280982 0 0 0 0 233.14659107071566 -1642.2380181662011 0 -1642.2380181662011 524.17888534036319 0 0 0 0 77.708468448121494 -732.06890135101276 0 -732.06890135101276 -1387.9041833569718 0 0 0 0 -875.65626933649582 -595.15170246709931 0 -595.15170246709931 -1367.1298160375154 0 0 0 0 666.50998543507012 -1560.9986164547299 0 -1560.9986164547299 -1390.9410619597816 0 0 0 0 1442.9148505826779 -353.79884737400607 0 -353.79884737400607 -4381.7338283146819 0 0 0 0 -230.94567860538791 -425.60956468653603 0 -425.60956468653603 -206.73839816244072 0 0 0 0 -234.89369886889563 -976.24757006955042 0 -976.24757006955042 -650.92220651757088 0 0 0 0 -554.41582528765866 -620.22888543735098 0 -620.22888543735098 72.357272645951525 0 0 0 0 309.92517040393432 -659.08237309299875 0 -659.08237309299875 -2590.7336162479637 0 0 0 0 -232.97970566860204 -155.53856227630968 0 -155.53856227630968 -1272.8147494351651 0 0 0 0 316.40987975179229 -294.3132827343652 0 -294.3132827343652 -1540.2774210069731 0 0 0 0 -212.43359243895247 -601.99485803536663 0 -601.99485803536663 -52.451989126031549 0 0 0 0 68.731763094986491 -742.20673310479469 0 -742.20673310479469 -897.63550008607854 0 0 0 0 -181.16297012702125 -205.24043232311669 0 -205.24043232311669 -329.71540919451945 0 0 0 0 -66.697464341316845 56.38309840081638 0 56.38309840081638 -784.27358627601643 0 0 0 0 -135.06589987198458 32.426342373633815 0 32.426342373633815 273.27489596153828 0 0 0 0 -298.19700890345052 -149.55320334971111 0 -149.55320334971111 295.11642128775566 0 0 0 0 -5.499445736649589 -14.741996275680478 0 -14.741996275680478 -30.102821928706675 0 0 0 0 3.5714881769536078 -363.32079084833458 0 -363.32079084833458 -283.62366920462955 0 0 0 0 -67.040680635100216 -901.7414950702896 0 -901.7414950702896 -1004.2521512920139 0 0 0 0 -243.54411613379983 -910.26706562473373 0 -910.26706562473373 407.87397821871855 0 0 0 0 249.53293482695881 402.11427184246713 0 402.11427184246713 -728.82237406159402 0 0 0 0 70.30459726240619 -194.63988418364067 0 -194.63988418364067 -139.79815365551895 0 0 0 0 -505.33528192657838 -764.22607003045596 0 -764.22607003045596 334.35493757897348 0 0 0 0 592.76382467981603 -56.018111966404831 0 -56.018111966404831 -874.69711448104499 0 0 0 0 51.846140503631837 -217.80071253425928 0 -217.80071253425928 -88.231928638399268 0 0 0 0 -1209.3085312721523 -1432.422448410769 0 -1432.422448410769 -476.9879750914115 0 0 0 0 -1817.7922520305256 -1129.1970328206662 0 -1129.1970328206662 -1934.6227748770907 0 0 0 0 -1560.2421407783986 -1705.8053865777911 0 -1705.8053865777911 -689.59178535616957 0 0 0 0 -255.93799081055477 -1090.8948865701968 0 -1090.8948865701968 -2116.4049316287856 0 0 0 0 -43.322823167743842 -34.095568127987235 0 -34.095568127987235 8.4771626430891054 0 0 0 0 -35.907284855836281 -162.66108764681849 0 -162.66108764681849 378.77594639519521 0 0 0 0 -510.97819304377117 -575.72632790858916 0 -575.72632790858916 1159.3577700710157 0 0 0 0 -113.43429378203655 -517.79551735746281 0 -517.79551735746281 -242.58269080857281 0 0 0 0 -20.004483512015213 -684.72325134428684 0 -684.72325134428684 -407.58132963225944 0 0 0 0 -212.82361429346338 -920.63773998378747 0 -920.63773998378747 -64.915672261093277 0 0 0 0 -49.194957496356714 -29.050925293711089 0 -29.050925293711089 -98.054089582991367 0 0 0 0 -62.597167492866902 -957.30382135207219 0 -957.30382135207219 -586.12325068516657 0 0 0 0 15.041760018342757 -710.58464050196926 0 -710.58464050196926 -348.94557349392562 0 0 0 0 9.4357694453702265 -543.04444229872024 0 -543.04444229872024 -788.22193543825415 0 0 0 0 28.876598856577402 -715.24392324576911 0 -715.24392324576911 -745.67478746949928 0 0 0 0 6.6125458243805042 -639.74443570926087 0 -639.74443570926087 -653.1705578979163 0 0 0 0 192.14002166155944 -364.9815927867603 0 -364.9815927867603 -486.71868369755248 0 0 0 0 127.62123372179161 -507.01995588408317 0 -507.01995588408317 -780.01645687108976 0 0 0 0 -18.213305343110079 -18.667468664847434 0 -18.667468664847434 -0.70672215570725427 0 0 0 0 -1156.6008968504175 -530.2319995223952 0 -530.2319995223952 1461.0150228405255 0 0 0 0 -883.95066659813574 -1176.4210477314477 0 -1176.4210477314477 -491.00810784182977 0 0 0 0 -891.05729573573467 -706.95088675201873 0 -706.95088675201873 713.35400782438228 0 0 0 0 -705.80138053107657 392.26490131560422 0 392.26490131560422 963.53321425343165 0 0 0 0 -539.12169701250969 19.782737230532803 0 19.782737230532803 -253.31686548856669 0 0 0 0 -1075.9618134486082 290.29976137549966 0 290.29976137549966 2129.1041777068695 0 0 0 0 -291.12881273295352 -181.81085333679221 0 -181.81085333679221 -95.93970528896898 0 0 0 0 40.512442858489521 -1039.1344360991352 0 -1039.1344360991352 321.31878897920251 0 0 0 0 361.63420635924922 605.90879013425547 0 605.90879013425547 650.77532264019828 0 0 0 0 -3.2892604367407756 -29.251674077668099 0 -29.251674077668099 62.132997466208934 0 0 0 0 16.3566316622125 -240.8912797386615 0 -240.8912797386615 54.404331805027908 0 0 0 0 -83.881202027238032 -214.81862265811651 0 -214.81862265811651 214.90645438448701 0 0 0 0 -124.90916977449888 -147.90294430300128 0 -147.90294430300128 607.58053035638295 0 0 0 0 154.18991411861498 -187.96947119814286 0 -187.96947119814286 -2895.8841309542768 0 0 0 0 -0.63379010076629783 -8.233134762849275 0 -8.233134762849275 51.18477109215209 0 0 0 0 42.02931397498196 -198.09289841206919 0 -198.09289841206919 65.46362065662106 0 0 0 0 -42.649085370203466 -308.29589092865444 0 -308.29589092865444 181.70548838758987 0 0 0 0 -27.423533756902614 -155.07754287446008 0 -155.07754287446008 27.224764204126927 0 0 0 0 1140.9608564967057 -562.29535483452491 0 -562.29535483452491 -4233.3233246191685 0 0 0 0 15.285045073265948 -107.05705769126371 0 -107.05705769126371 40.98609705687528 0 0 0 0 -3501.8576141045924 -721.63473258665181 0 -721.63473258665181 -685.29180300026201 0 0 0 0 -140.39309084647539 -235.61097734379291 0 -235.61097734379291 105.56130867589673 0 0 0 0 -35.274961212591734 -192.20998282379151 0 -192.20998282379151 92.721500655090495 0 0 0 0 50.947140775115258 -278.87184093947144 0 -278.87184093947144 -200.42260652375262 0 0 0 0 165.36985292779173 -297.84707717817582 0 -297.84707717817582 -44.624249893226079 0 0 0 0 1.583213135087135 -182.04727826488306 0 -182.04727826488306 -126.13390492361214 0 0 0 0 -71.869017456436268 -302.26252974975796 0 -302.26252974975796 33.805185893141243 0 0 0 0 79.296611937368652 -224.4675992963239 0 -224.4675992963239 -675.29494691249874 0 0 0 0 -24.062061954319233 -118.1067136949564 0 -118.1067136949564 -246.2389258176263 0 0 0 0 -0.98013140688453859 -234.02142861007633 0 -234.02142861007633 -209.69070804238436 0 0 0 0 -13.225616131720017 -191.85959178633493 0 -191.85959178633493 -264.28608998870158 0 0 0 0 -1.3706500698244781 -196.89625418572905 0 -196.89625418572905 -215.58172220409324 0 0 0 0 -33.392299075276242 -273.11171160640515 0 -273.11171160640515 2.355763417941489 0 0 0 0 -44.173917927444563 -176.50725999455244 0 -176.50725999455244 -95.041068911887123 0 0 0 0 69.145029507286381 -214.83053760243274 0 -214.83053760243274 -90.812596451708487 0 0 0 0 89.480219928314909 -319.94724559425958 0 -319.94724559425958 0.80150895562837832 0 0 0 0 -225.8096018799697 -181.27436610915174 0 -181.27436610915174 54.592715719569242 0 0 0 0 142.27798251926652 -336.728187825438 0 -336.728187825438 -138.90518373119994 0 0 0 0 149.13724517582887 -319.05497085735078 0 -319.05497085735078 -301.53529105088091 0 0 0 0 87.801074367394904 -116.12477356466115 0 -116.12477356466115 -274.77173151927491 0 0 0 0 83.236948308382125 -142.12423357679017 0 -142.12423357679017 -18.207134639116703 0 0 0 0 2.3549620198186965 -10.698572372588288 0 -10.698572372588288 0.56595817763499667 0 0 0 0 -156.81193004053785 -206.48325731948717 0 -206.48325731948717 -206.05864823951561 0 0 0 0 33.078792218366289 -25.615220828098245 0 -25.615220828098245 -34.684413858837189 0 0 0 0 88.494508496969502 -45.721293827115005 0 -45.721293827115005 -135.06778681423748 0 0 0 0 -19.701112604379887 -80.528757786945789 0 -80.528757786945789 -54.685868736356497 0 0 0 0 17.830094393670151 -293.49849754091701 0 -293.49849754091701 171.03440568938095 0 0 0 0 -175.60193187420191 -654.79233930196915 0 -654.79233930196915 616.19817103474634 0 0 0 0 369.90775233331806 30.536349618567328 0 30.536349618567328 -149.10761574391458 0 0 0 0 4.7041618245839345 -184.45081429336187 0 -184.45081429336187 19.947759021728416 0 0 0 0 17.946776035617546 -4.8199651109102817 0 -4.8199651109102817 -5.8522592006958973 0 0 0 0 88.272313882771414 -83.256063181375794 0 -83.256063181375794 -46.449265903391151 0 0 0 0 7.6659537367160908 -53.252080970037383 0 -53.252080970037383 -35.997790251740042 0 0 0 0 30.423678479307142 -64.63337335518446 0 -64.63337335518446 -25.576461299455701 0 0 0 0 86.450945805183437 -80.649312340236065 0 -80.649312340236065 -46.944009830913274 0 0 0 0 64.387206320556572 -84.032216311529226 0 -84.032216311529226 -59.266229764059858 0 0 0 0 53.32158872822356 -75.014570251323093 0 -75.014570251323093 -64.714969733606509 0 0 0 0 35.467804122250527 -89.834898749104468 0 -89.834898749104468 -224.43847332079167 0 0 0 0 31.571457047020886 -110.92240659129766 0 -110.92240659129766 -198.25794946096721 0 0 0 0 39.942282039641498 -76.075571477463598 0 -76.075571477463598 -38.850553041190523 0 0 0 0 55.689806248705011 -78.831665157496772 0 -78.831665157496772 -90.000389217492028 0 0 0 0 81.63087813364109 -138.93605286433012 0 -138.93605286433012 -41.481531761324732 0 0 0 0 50.209174823517969 -155.30581495813021 0 -155.30581495813021 -36.906030099024065 0 0 0 0 35.098798205959611 -120.82541921686789 0 -120.82541921686789 -38.546248094877228 0 0 0 0 29.787863010004372 -131.73997550539309 0 -131.73997550539309 -60.087965013625954 0 0 0 0 -0.40588370381297523 -20.584047545102507 0 -20.584047545102507 -21.495560530350375 0 0 0 0 37.372394071076997 -66.708128864134778 0 -66.708128864134778 -459.75455485305247 0 0 0 0 97.873065588627469 -141.04364552187099 0 -141.04364552187099 -412.52001177196507 0 0 0 0 739.9883390578907 -556.49880822739215 0 -556.49880822739215 114.10333847530273 0 0 0 0 40.262572244828334 -115.97753972775536 0 -115.97753972775536 188.21669274680607 0 0 0 0 19.143860273543396 -141.28439562105632 0 -141.28439562105632 198.27348709895159 0 0 0 0 -5.9674140452730633 -75.627196067461853 0 -75.627196067461853 42.995247849125121 0 0 0 0 -32.640746961726109 -128.41242156751105 0 -128.41242156751105 215.47465824433311 0 0 0 0 75.513444482188788 -84.106118704774417 0 -84.106118704774417 -141.90950177219929 0 0 0 0 40.098681380448397 -63.982460004626773 0 -63.982460004626773 -6.0029939881060272 0 0 0 0 -1.125153039458155 -60.412374470170107 0 -60.412374470170107 -40.165246048743313 0 0 0 0 49.353533583683287 -52.250757851247698 0 -52.250757851247698 -82.023670309185604 0 0 0 0 -1.233048725283254 -22.28327400463786 0 -22.28327400463786 -6.4966631172042639 0 0 0 0 -18.542341119493358 -71.713770210990333 0 -71.713770210990333 -118.92118858573667 0 0 0 0 -41.039963441027794 -44.716471258318052 0 -44.716471258318052 -151.06859616472502 0 0 0 0 88.754247882559582 -103.82217680419555 0 -103.82217680419555 16.07705548494846 0 0 0 0 56.351808772116783 -110.88518484475208 0 -110.88518484475208 -1.8555413367139408 0 0 0 0 51.481073733746598 -83.391685253271135 0 -83.391685253271135 14.767848397721536 0 0 0 0 59.963049024401698 -147.57400337781291 0 -147.57400337781291 23.611831383022945 0 0 0 0 89.815164646486664 -161.5162801871229 0 -161.5162801871229 -10.40188767525251 0 0 0 0 -16.159509551911697 -70.627668888046344 0 -70.627668888046344 8.6533763049508252 0 0 0 0 78.438440338228247 -159.12973097739268 0 -159.12973097739268 -38.574951906164642 0 0 0 0 -0.72135887356029116 -97.53756393091777 0 -97.53756393091777 -21.786095201829369 0 0 0 0 215.11796437469093 -244.39363707142911 0 -244.39363707142911 -216.07442507721134 0 0 0 0 131.85847579779511 -196.35344862265629 0 -196.35344862265629 -123.76697741361568 0 0 0 0 42.050272151565878 -25.759128696226981 0 -25.759128696226981 -162.23792168521322 0 0 0 0 524.74936239034287 32.676415414593066 0 32.676415414593066 -161.27485569042619 0 0 0 0 78.133880639972631 -124.88015863797045 0 -124.88015863797045 -54.684535516717006 0 0 0 0 479.6775320173183 -535.45219762297347 0 -535.45219762297347 175.82995966804447 0 0 0 0 -119.29362692026189 -215.41770860727411 0 -215.41770860727411 -230.67136088816915 0 0 0 0 -6.4660903385447455 -135.49433883666643 0 -135.49433883666643 -243.55628010610235 0 0 0 0 -28.626012452300756 -77.062395986736618 0 -77.062395986736618 51.484918751755856 0 0 0 0 -27.906679911335232 -108.25607046458754 0 -108.25607046458754 -166.36605441899155 0 0 0 0 -8.4910987298862892 -73.889596142747905 0 -73.889596142747905 -128.1112295006169 0 0 0 0 -17.51036240850226 -156.23969053075416 0 -156.23969053075416 -149.07683396018547 0 0 0 0 4.8186991880552341 -49.546236465058684 0 -49.546236465058684 -76.381216689524592 0 0 0 0 6.9562778099129066 -30.744048031132664 0 -30.744048031132664 -54.421055254880002 0 0 0 0 44.570927003282122 -37.478960448061116 0 -37.478960448061116 -10.828250836813822 0 0 0 0 -27.204145758398226 -95.662080764770508 0 -95.662080764770508 15.905153348227032 0 0 0 0 -13.648607709968445 -54.261404736149245 0 -54.261404736149245 -55.086962552507629 0 0 0 0 -14.181101361348951 -16.302076858229839 0 -16.302076858229839 15.015474778654607 0 0 0 0 -245.5949182537006 -357.94658122931287 0 -357.94658122931287 -49.492726584838238 0 0 0 0 -59.852081385586644 -65.8895800569735 0 -65.8895800569735 -214.19935762077512 0 0 0 0 -121.11613498804945 -81.11161748234008 0 -81.11161748234008 -169.29059023401351 0 0 0 0 -7.9568469796357277 -83.105793186004917 0 -83.105793186004917 67.463008922435478 0 0 0 0 186.23834742911276 -343.75519085244014 0 -343.75519085244014 -317.14548422954977 0 0 0 0 10.389607951670769 -358.25025585624098 0 -358.25025585624098 -493.11946279685799 0 0 0 0 482.78696883528028 -14.973471360121039 0 -14.973471360121039 -368.56443763575226 0 0 0 0 69.484084371317294 -670.87392439116957 0 -670.87392439116957 -268.56014086632058 0 0 0 0 1456.6732675602107 -1386.0254109682573 0 -1386.0254109682573 -1587.7635869901278 0 0 0 0 -0.065104967549387993 -134.07331763021585 0 -134.07331763021585 -57.910169133441194 0 0 0 0 517.76222912670346 -400.93973815673962 0 -400.93973815673962 562.1985589324031 0 0 0 0 -85.281174568044662 -93.919265797085245 0 -93.919265797085245 -85.712050077301683 0 0 0 0 140.85703881295922 -537.91351867954654 0 -537.91351867954654 550.25040335694212 0 0 0 0 1.578798976509205 -2.2287722818592783 0 -2.2287722818592783 0.82814145829166819 0 0 0 0 41.580942300293827 -112.04566450318089 0 -112.04566450318089 -241.24959455776843 0 0 0 0 146.8131666957197 -121.88668450783007 0 -121.88668450783007 181.12043276558688 0 0 0 0 -324.44201099962811 61.280647985913674 0 61.280647985913674 958.14744069818698 0 0 0 0 -55.808696093430626 -82.604075375209504 0 -82.604075375209504 -179.60189154994441 0 0 0 0 -102.09754398409859 -202.34910777916957 0 -202.34910777916957 -206.33419785712613 0 0 0 0 263.33034888817929 -278.45529162609819 0 -278.45529162609819 -196.67391237601987 0 0 0 0 26.669292052603851 -230.8784557334202 0 -230.8784557334202 -94.751734835685056 0 0 0 0 678.23241680717911 -261.09659478251706 0 -261.09659478251706 -331.06848338911368 0 0 0 0 -74.144061911458266 -158.79948884618716 0 -158.79948884618716 112.02972744419822 0 0 0 0 -8.182489065133268 -106.21075019532873 0 -106.21075019532873 142.71157327383116 0 0 0 0 20.19553886446738 -210.62396078468919 0 -210.62396078468919 60.495292231091298 0 0 0 0 16.57709584425902 -94.482777458921191 0 -94.482777458921191 25.937429890032149 0 0 0 0 -7.3520270514854928 -116.64996425374557 0 -116.64996425374557 24.799371085391613 0 0 0 0 -52.86866993415407 -39.255861703423477 0 -39.255861703423477 4.7676507110481907 0 0 0 0 83.784908517380245 -101.25383644516842 0 -101.25383644516842 5.8947561349741591 0 0 0 0 77.422852940727125 -49.928350188695816 0 -49.928350188695816 1.6956197693784958 0 0 0 0 -769.44134705507895 -300.72019797521352 0 -300.72019797521352 494.20092385504904 0 0 0 0 -48.288641891267105 -55.722548119482951 0 -55.722548119482951 -2.9112340796334024 0 0 0 0 -181.41454591864021 -65.42839084170555 0 -65.42839084170555 122.91713723086832 0 0 0 0 -26.1502989305543 -85.088060194947431 0 -85.088060194947431 6.9746408543099214 0 0 0 0 -18.615966521887458 -104.82772311120061 0 -104.82772311120061 14.836512588779442 0 0 0 0 7.6305137724850738 -16.260086890789978 0 -16.260086890789978 18.31183850151865 0 0 0 0 1.0720953534182627 -82.917872999903921 0 -82.917872999903921 -57.960815524457317 0 0 0 0 -13.313149190638796 -79.670672019477934 0 -79.670672019477934 26.434423924947623 0 0 0 0 47.881480779164121 -96.929632561599647 0 -96.929632561599647 -44.393666705553187 0 0 0 0 -2.3779034368053544 -110.03304445969843 0 -110.03304445969843 -14.378348520018335 0 0 0 0 20.776094131011632 -69.985450051648513 0 -69.985450051648513 -14.865007114661985 0 0 0 0 26.602100314207505 -57.187381752123912 0 -57.187381752123912 -24.846868598671563 0 0 0 0 58.53541077831926 -73.682993387440604 0 -73.682993387440604 -20.268873974081629 0 0 0 0 62.013422698684735 -151.28704510496755 0 -151.28704510496755 -58.473977744541116 0 0 0 0 55.6817031995447 -143.51824626834855 0 -143.51824626834855 -51.857119288964896 0 0 0 0 45.660358089276997 -145.59480496593824 0 -145.59480496593824 -32.928602588370268 0 0 0 0 56.099341204710072 -135.57651241867279 0 -135.57651241867279 -1.2384660032548709 0 0 0 0 13.518159929240937 -313.5208000638886 0 -313.5208000638886 205.17305886669783 0 0 0 0 -34.677119480053079 -252.18773016797786 0 -252.18773016797786 205.80675651491038 0 0 0 0 13.064824241184397 -284.90915169039363 0 -284.90915169039363 110.30912961793365 0 0 0 0 3.7823137811883214 -54.332255780856656 0 -54.332255780856656 3.3859706256916979 0 0 0 0 53.950449907148084 -118.32771259406363 0 -118.32771259406363 61.765390121872827 0 0 0 0 -61.222292502614437 -263.23864648507151 0 -263.23864648507151 250.9164468843519 0 0 0 0 106.74732388625853 -118.87856260582339 0 -118.87856260582339 249.80871767754434 0 0 0 0 57.820398737210382 -153.42116619190705 0 -153.42116619190705 24.143166170239496 0 0 0 0 24.488910550106084 -135.46111615060363 0 -135.46111615060363 11.463891425868496 0 0 0 0 20.468635064780543 -139.39722360429676 0 -139.39722360429676 84.399041349784454 0 0 0 0 32.552242391446157 -166.89961673783182 0 -166.89961673783182 115.28149504128714 0 0 0 0 0.76222922134911641 -106.54750371020054 0 -106.54750371020054 2.4537982435867889 0 0 0 0 9.794369486741914 -27.319392607850091 0 -27.319392607850091 15.797952722146761 0 0 0 0 164.62545786975534 -155.96049459045753 0 -155.96049459045753 282.63428884270979 0 0 0 0 311.45854215725558 -275.80186649164534 0 -275.80186649164534 -204.90669334333506 0 0 0 0 64.552540301685937 -101.78942169346345 0 -101.78942169346345 -12.7719211914158 0 0 0 0 122.61861576947558 -281.16509421970477 0 -281.16509421970477 -75.604701721982565 0 0 0 0 -44.012123400636483 -161.99442506788182 0 -161.99442506788182 -231.24750910024159 0 0 0 0 1.7567501728772186 -364.18092702162539 0 -364.18092702162539 16.48917214476387 0 0 0 0 359.06501966038923 -134.99717982555012 0 -134.99717982555012 -61.51474144635722 0 0 0 0 237.56361612270121 70.609841865541966 0 70.609841865541966 -142.09585298210732 0 0 0 0 -2.2922129558779147 -3.3540297670211316 0 -3.3540297670211316 -1.159314058719275 0 0 0 0 -507.40912271206616 -152.80850971840846 0 -152.80850971840846 116.6344799664148 0 0 0 0 24.108609956965665 -115.82670131866325 0 -115.82670131866325 17.189461163012311 0 0 0 0 -201.32753227377543 -63.677097935826168 0 -63.677097935826168 367.33058848780638 0 0 0 0 -20.531142534801916 -16.864970167383632 0 -16.864970167383632 19.300735614646172 0 0 0 0 -129.30233620671788 -29.529326205229154 0 -29.529326205229154 94.127796542859869 0 0 0 0 -6.1708907569421854 0.60979425147471034 0 0.60979425147471034 -0.39387096138548827 0 0 0 0 -30.246500410059525 -300.50061659101448 0 -300.50061659101448 -305.15201244076889 0 0 0 0 -209.03128810759517 -210.00460807951458 0 -210.00460807951458 -132.85959343300783 0 0 0 0 205.60405695217196 -283.54252301031374 0 -283.54252301031374 -119.82773567728145 0 0 0 0 -367.67993461439619 -549.60116754198498 0 -549.60116754198498 -192.0091485530138 0 0 0 0 -15.312895538430894 -292.91053476048546 0 -292.91053476048546 105.34960851462165 0 0 0 0 -30.995948588446481 87.205325797724072 0 87.205325797724072 733.69319706881652 0 0 0 0 -54.017862393360701 -255.65414820309525 0 -255.65414820309525 492.61309762997553 0 0 0 0 -209.30461337629822 -66.860878469524323 0 -66.860878469524323 228.14673148062138 0 0 0 0 -81.444136708800215 -279.479132070368 0 -279.479132070368 88.257394612272037 0 0 0 0 -91.580180715591268 -148.5218174176407 0 -148.5218174176407 284.10964105679886 0 0 0 0 -224.70366537629161 -282.25703124651773 0 -282.25703124651773 164.92822088142566 0 0 0 0 -22.567887505952967 -145.66283536481933 0 -145.66283536481933 177.70502692906302 0 0 0 0 -156.76908881790587 -372.67951084493689 0 -372.67951084493689 -87.411091260117246 0 0 0 0 -22.08979998245195 -237.11375553945982 0 -237.11375553945982 -60.379117200645851 0 0 0 0 53.334428650064694 -107.51269122012701 0 -107.51269122012701 104.66486521446478 0 0 0 0 34.065191960520821 -130.71989901379717 0 -130.71989901379717 155.9357062025382 0 0 0 0 -270.65159540780587 -156.3444731168056 0 -156.3444731168056 291.76764858902607 0 0 0 0 114.58365200587286 -212.28348502223525 0 -212.28348502223525 154.41339231503662 0 0 0 0 45.830032503828988 -74.537652110157069 0 -74.537652110157069 34.672458432876738 0 0 0 0 -19.702912942695548 -144.85558857674187 0 -144.85558857674187 294.7157175248667 0 0 0 0 40.973323738631734 -277.03546191738133 0 -277.03546191738133 285.33841359865619 0 0 0 0 43.342659697802446 -473.90171262522927 0 -473.90171262522927 -527.61480203983956 0 0 0 0 221.12669102364453 13.276486625371035 0 13.276486625371035 -258.64310071841464 0 0 0 0 137.27747415349586 -312.73219809393049 0 -312.73219809393049 -278.62079575099051 0 0 0 0 75.789420693909051 -570.13370172634313 0 -570.13370172634313 -396.62630314123817 0 0 0 0 -75.708810352507498 -682.71912255886218 0 -682.71912255886218 -461.96947900168016 0 0 0 0 -91.037249189917929 -522.23706487921299 0 -522.23706487921299 -208.42908868577797 0 0 0 0 -468.92496797940203 -706.90240883509432 0 -706.90240883509432 368.94266842221259 0 0 0 0 -443.39856096484164 -964.24961950992656 0 -964.24961950992656 -65.234222987230169 0 0 0 0 -400.55574082241219 -1032.2261600960774 0 -1032.2261600960774 -23.736192294672946 0 0 0 0 -552.37075471576463 -1174.1348443497991 0 -1174.1348443497991 -156.19878387867357 0 0 0 0 -723.99447729241365 -846.9486839463425 0 -846.9486839463425 161.82133619434899 0 0 0 0 -1076.0169105921523 -1302.6029466960463 0 -1302.6029466960463 -346.21658599725924 0 0 0 0 -554.12820298872248 -914.25627800989605 0 -914.25627800989605 188.29008556673944 0 0 0 0 240.68063234251167 -198.38364688384172 0 -198.38364688384172 -70.410912073421059 0 0 0 0 4.4713774324411588 -21.371758923769931 0 -21.371758923769931 -11.872773089010607 0 0 0 0 -1184.9763564365103 -25.127893739177125 0 -25.127893739177125 185.19286691231537 0 0 0 0 -616.45581671134278 -158.49240111291147 0 -158.49240111291147 161.38687514181947 0 0 0 0 -19.476723814645041 -0.65907400240030256 0 -0.65907400240030256 5.9347200045489217 0 0 0 0 -711.80759060011769 -353.92094212080701 0 -353.92094212080701 408.83265748986742 0 0 0 0 -35.465940273046726 -352.37198995516519 0 -352.37198995516519 29.641871785497642 0 0 0 0 -11.152240282102866 -393.70292162382611 0 -393.70292162382611 -89.746305454318644 0 0 0 0 44.883135851036059 -164.025915905484 0 -164.025915905484 -47.496293855219847 0 0 0 0 42.248842865034788 -95.076793902353245 0 -95.076793902353245 46.168077996037198 0 0 0 0 -71.392996354654315 -208.97513207812881 0 -208.97513207812881 -10.744617107528029 0 0 0 0 -686.13064320655394 -327.0940567661055 0 -327.0940567661055 168.4993761285441 0 0 0 0 -586.46205493544403 -179.80614889840217 0 -179.80614889840217 -153.95459738202044 0 0 0 0 -637.19014238251839 -393.60557083430467 0 -393.60557083430467 157.60358882305445 0 0 0 0 -76.057856064570956 -67.277982000882076 0 -67.277982000882076 -0.61738280558148517 0 0 0 0 -504.79327166342409 -94.427611301340221 0 -94.427611301340221 787.75168869347544 0 0 0 0 -64.157964822938084 -141.94749586514081 0 -141.94749586514081 506.45611060329247 0 0 0 0 14.543358549818464 -18.365050519236831 0 -18.365050519236831 -10.230596561434879 0 0 0 0 314.56662696786225 -268.63630451326026 0 -268.63630451326026 461.7158820161203 0 0 0 0 92.777421931859521 -19.748078194457264 0 -19.748078194457264 -12.462715475976637 0 0 0 0 103.92108567812829 -204.6549741239869 0 -204.6549741239869 -341.03809173696573 0 0 0 0 19.262746812717523 -211.79362247577592 0 -211.79362247577592 48.128463769971859 0 0 0 0 65.965406551375054 -361.18957931466866 0 -361.18957931466866 -106.26396084358566 0 0 0 0 259.03041037425282 -682.4410191525385 0 -682.4410191525385 -872.33797835819496 0 0 0 0 126.23669548826729 -762.35687187120493 0 -762.35687187120493 -851.01695480127819 0 0 0 0 179.61639688340802 -774.63298260781448 0 -774.63298260781448 -917.38425946919597 0 0 0 0 160.42432491616273 -640.8899412370738 0 -640.8899412370738 -747.54767019636347 0 0 0 0 166.07523025515547 -685.16710569393763 0 -685.16710569393763 -1036.0672962182289 0 0 0 0 94.013839768856997 -637.61951667748508 0 -637.61951667748508 -880.20649694521126 0 0 0 0 135.17903091733751 -507.5256033938058 0 -507.5256033938058 -1024.5822686087195 0 0 0 0 129.36829662058881 -539.84559247284051 0 -539.84559247284051 -675.66054452923709 0 0 0 0 226.08492862372987 -408.93232549955428 0 -408.93232549955428 -700.90000730814063 0 0 0 0 -54.789376966040436 -424.59065580143942 0 -424.59065580143942 -455.59801803375012 0 0 0 0 8.9755685912750778 -696.46750203030388 0 -696.46750203030388 -395.13700629505911 0 0 0 0 -192.4156648518474 -1023.5671111805132 0 -1023.5671111805132 -924.94699077444966 0 0 0 0 -293.3710878451966 -83.785973187623313 0 -83.785973187623313 397.06038024599547 0 0 0 0 -469.5362940564446 -459.33398974291049 0 -459.33398974291049 783.56940896407468 0 0 0 0 -185.00900992896641 -69.395477391954046 0 -69.395477391954046 26.332061787165003 0 0 0 0 -5.4069338322344898 -9.2269950661239903 0 -9.2269950661239903 3.4499250548007012 0 0 0 0 -418.95154706080211 -937.347839416645 0 -937.347839416645 346.42692075973991 0 0 0 0 146.04369780609704 105.35846006926295 0 105.35846006926295 131.13340962060465 0 0 0 0 -14.232352458602691 -395.31101919805224 0 -395.31101919805224 566.97053270391189 0 0 0 0 163.85022630675303 -389.40877594490485 0 -389.40877594490485 698.06148366048001 0 0 0 0 -3.5926024980884677 -9.6202499198861346 0 -9.6202499198861346 -6.6932520419251773 0 0 0 0 -66.932559231412597 -897.92625398462405 0 -897.92625398462405 -1120.3519897490005 0 0 0 0 -5.126279124390777 -6.6288973154050268 0 -6.6288973154050268 -19.103467579087635 0 0 0 0 154.48777278949456 -264.34419770352361 0 -264.34419770352361 -988.97663790208753 0 0 0 0 -539.28903804397123 -1457.2597162671009 0 -1457.2597162671009 -658.03720361937303 0 0 0 0 123.83747949789904 -886.22986269903049 0 -886.22986269903049 -1755.9218127672211 0 0 0 0 -17.154990560149599 -852.52659491824306 0 -852.52659491824306 -454.30987975673634 0 0 0 0 -710.2091489607119 -304.11474112942233 0 -304.11474112942233 -880.55122092804231 0 0 0 0 -657.32122478274778 -1146.8279381592379 0 -1146.8279381592379 -517.02658915254869 0 0 0 0 -204.33557571269921 -1179.6078848696052 0 -1179.6078848696052 -147.05567501354381 0 0 0 0 -306.53083390234679 -921.49441331563867 0 -921.49441331563867 -386.95423574779124 0 0 0 0 -300.48217918566661 -987.44061379035702 0 -987.44061379035702 -149.81753247017332 0 0 0 0 -148.41397078003502 -1058.9430323915876 0 -1058.9430323915876 100.90930793820007 0 0 0 0 -409.4896817023473 -1017.8074992414131 0 -1017.8074992414131 109.71107319300063 0 0 0 0 453.95562874517054 -1025.4047618562035 0 -1025.4047618562035 -79.349038027066854 0 0 0 0 -240.91458956197062 -680.46367378310651 0 -680.46367378310651 -247.54046204153565 0 0 0 0 -171.57594858980156 -814.75776064461388 0 -814.75776064461388 472.54858857275394 0 0 0 0 146.81147207435424 -548.34900270069193 0 -548.34900270069193 285.63396712199028 0 0 0 0 365.16692271153443 -643.90639145193563 0 -643.90639145193563 -297.96236703178567 0 0 0 0 198.14677276743532 -463.3175029974991 0 -463.3175029974991 -808.30496224490344 0 0 0 0 149.13412330202846 -623.75151728824858 0 -623.75151728824858 -297.91231906579924 0 0 0 0 -3.4718431033616071 -523.77409769854421 0 -523.77409769854421 -222.81453744298778 0 0 0 0 269.2918592203132 -604.49818107312603 0 -604.49818107312603 -748.56371858798957 0 0 0 0 195.44712351864291 -302.84146737687115 0 -302.84146737687115 336.46995519753546 0 0 0 0 108.22623056948032 -598.21460774981279 0 -598.21460774981279 -217.47714173709392 0 0 0 0 77.022866320505273 -727.97126181979547 0 -727.97126181979547 478.39104629488793 0 0 0 0 106.50395841705767 -527.60781747053716 0 -527.60781747053716 756.84683094112552 0 0 0 0 120.17717988297591 -908.18509308203647 0 -908.18509308203647 1010.3498256256571 0 0 0 0 120.20900431222981 -895.63955932303361 0 -895.63955932303361 1030.0746542682318 0 0 0 0 793.56962285886038 -397.66708526169532 0 -397.66708526169532 -103.77779543096403 0 0 0 0 136.11081318023935 -941.82303481215786 0 -941.82303481215786 1157.5002908430906 0 0 0 0 101.4881674993203 -520.47481084718402 0 -520.47481084718402 1452.1230894190085 0 0 0 0 1132.6137438926307 -440.511403730452 0 -440.511403730452 295.28388374096539 0 0 0 0 505.84612097808713 -1299.4390024342538 0 -1299.4390024342538 791.67958311087568 0 0 0 0 -266.23470338815241 -399.91804472199146 0 -399.91804472199146 369.76232270967739 0 0 0 0 -497.33552169012546 -694.03196109484998 0 -694.03196109484998 641.56464546178177 0 0 0 0 -406.46262311287865 -508.18802022985619 0 -508.18802022985619 319.01142860196705 0 0 0 0 -614.21304256314761 -692.00569087201438 0 -692.00569087201438 -313.9309588865508 0 0 0 0 -30.55282310092187 -111.98111977169822 0 -111.98111977169822 -54.211920946452722 0 0 0 0 1.9622697433896121 -25.332480679661458 0 -25.332480679661458 -38.728477950334224 0 0 0 0 -271.79451419135876 -359.56774229888106 0 -359.56774229888106 1687.9882515499921 0 0 0 0 8.4268613428276353 -126.08058000079583 0 -126.08058000079583 -73.591763379665281 0 0 0 0 66.836539449657721 193.85103846782295 0 193.85103846782295 -783.53492131418716 0 0 0 0 31.787158517232456 -218.07675536390161 0 -218.07675536390161 -269.79741009851568 0 0 0 0 326.6920029308676 -285.67991083545348 0 -285.67991083545348 -848.94016288628336 0 0 0 0 63.0202689139401 -77.809225447317402 0 -77.809225447317402 16.577530595717349 0 0 0 0 -445.65308128292963 -21.464591686206404 0 -21.464591686206404 -586.57904593856074 0 0 0 0 21.290059815022687 -529.52973933678368 0 -529.52973933678368 -371.52479483262869 0 0 0 0 32.385057357998448 -189.7455390443647 0 -189.7455390443647 111.8187524125824 0 0 0 0 -10.778311140387814 -416.47466911055108 0 -416.47466911055108 10.797790274009458 0 0 0 0 3.821247756758595 -3.8580215132941476 0 -3.8580215132941476 -9.3646313862371358 0 0 0 0 -21.399544943684305 -12.866422921433696 0 -12.866422921433696 -159.58804601289012 0 0 0 0 41.060106018063379 -120.70620135539502 0 -120.70620135539502 -140.41974105462759 0 0 0 0 32.503365894319359 -6.4049496921434184 0 -6.4049496921434184 -444.54406103800284 0 0 0 0 194.72311976932178 -911.64366840639559 0 -911.64366840639559 1031.4463606738136 0 0 0 0 -2.8689060032022837 -120.6066871746155 0 -120.6066871746155 -80.254830918331464 0 0 0 0 72.294183612428128 19.050282548833366 0 19.050282548833366 -382.98938470095163 0 0 0 0 1459.8673692588927 -1367.8149060231226 0 -1367.8149060231226 448.37086651245772 0 0 0 0 985.16693770726124 -887.19723065855578 0 -887.19723065855578 244.13274204591289 0 0 0 0 467.88408362907649 -483.49315689900686 0 -483.49315689900686 245.82996241410729 0 0 0 0 666.87604690098306 -272.95759320967045 0 -272.95759320967045 204.50578609018703 0 0 0 0 520.56937691019266 -706.53644081932725 0 -706.53644081932725 636.42612579892739 0 0 0 0 542.37048118733219 -464.32527000537539 0 -464.32527000537539 -605.9245698749146 0 0 0 0 -730.65197216521483 -154.28809649552568 0 -154.28809649552568 119.84722463332582 0 0 0 0 -427.1948267519183 249.08887293413864 0 249.08887293413864 247.231526049276 0 0 0 0 -782.91708489145094 -762.16205376028665 0 -762.16205376028665 218.49031851137988 0 0 0 0 -361.71512746048393 -660.54544853931293 0 -660.54544853931293 -830.47371346689761 0 0 0 0 13.336438176844183 -27.555548126085625 0 -27.555548126085625 -1.3353375784452339 0 0 0 0 246.05825538949284 -613.12582821989054 0 -613.12582821989054 324.2751495478733 0 0 0 0 -1.0708399460701372 -44.484679387871935 0 -44.484679387871935 73.970910156104082 0 0 0 0 -1264.9293708069672 -478.10083726873563 0 -478.10083726873563 469.15490601095371 0 0 0 0 -968.08132862671482 -216.07098040734127 0 -216.07098040734127 230.05455069986056 0 0 0 0 -31.036148531186541 -110.41105471064887 0 -110.41105471064887 -59.283653078025736 0 0 0 0 -1150.5106711778499 -557.0641759061109 0 -557.0641759061109 52.565587765711825 0 0 0 0 -1019.6512146478199 -696.47331032728835 0 -696.47331032728835 97.507647789807379 0 0 0 0 2.7787715747930832 -57.229427382197258 0 -57.229427382197258 -52.660111742311813 0 0 0 0 -204.43038092722418 -295.85193993063876 0 -295.85193993063876 -49.003476255733403 0 0 0 0 -402.44844937072048 -470.62047295892989 0 -470.62047295892989 -530.51223656855291 0 0 0 0 -740.59525227663107 -895.03377708295011 0 -895.03377708295011 -1048.2993192981667 0 0 0 0 -1584.7387124756788 -863.1125949996931 0 -863.1125949996931 -108.31636776268715 0 0 0 0 -509.44720620328735 -800.41297849897092 0 -800.41297849897092 -17.626157328224508 0 0 0 0 -718.5658939089044 -347.70514511047804 0 -347.70514511047804 236.54224819461524 0 0 0 0 -770.97279716629419 -458.19945115208975 0 -458.19945115208975 -926.4041409225465 0 0 0 0 -719.47455720094149 -700.79118644044502 0 -700.79118644044502 -57.445227217911452 0 0 0 0 -1227.9945061155595 -366.51351883969619 0 -366.51351883969619 357.25908187552704 0 0 0 0 -633.33177274127956 -497.76156379157328 0 -497.76156379157328 -602.5043594649178 0 0 0 0 -814.91159708546184 -958.11442910983169 0 -958.11442910983169 -1497.9022515448451 0 0 0 0 0.96177231042383937 -315.17567287350539 0 -315.17567287350539 -288.78803285250615 0 0 0 0 46.678578430321068 -431.75556742805929 0 -431.75556742805929 -220.88089064200176 0 0 0 0 56.745782632206101 -301.46609779806749 0 -301.46609779806749 -307.91276652390661 0 0 0 0 169.37329786713235 -112.80767535601626 0 -112.80767535601626 -663.77647569528199 0 0 0 0 55.593083291699259 -505.63986240178247 0 -505.63986240178247 -644.7872186951281 0 0 0 0 98.579950159637519 -80.685503454338033 0 -80.685503454338033 61.985015404694934 0 0 0 0 -245.64183093471729 -95.183535958538414 0 -95.183535958538414 -480.41191374266054 0 0 0 0 -1574.7535383566719 -2390.6670347882027 0 -2390.6670347882027 -1708.8163948248311 0 0 0 0 -2707.7165607001662 -1856.0878292618581 0 -1856.0878292618581 -96.121477087668609 0 0 0 0 -1636.3402409277624 -1057.4100853451528 0 -1057.4100853451528 -397.73449986139894 0 0 0 0 -1678.7744209309612 -371.97892575388005 0 -371.97892575388005 752.25431703013601 0 0 0 0 4027.5813844718796 -1221.7322642844083 0 -1221.7322642844083 -500.28164483967703 0 0 0 0 -1450.4978024490483 382.48740823046319 0 382.48740823046319 -4609.4258388708404 0 0 0 0 3538.831257687707 -5244.3489424731524 0 -5244.3489424731524 -1023.9161514094449 0 0 0 0 6.1389412049164491 -8.2379618720681975 0 -8.2379618720681975 23.669813752092523 0 0 0 0 -2881.9853484696359 -3283.5201588019117 0 -3283.5201588019117 -105.87779805222817 0 0 0 0 1900.7265480678325 -2651.7149560222024 0 -2651.7149560222024 -28.411352395167341 0 0 0 0 -402.82265627311426 -729.17706556808844 0 -729.17706556808844 498.35683141772461 0 0 0 0 1471.1813876252272 -1177.4423154156102 0 -1177.4423154156102 553.77930229299636 0 0 0 0 1866.4260814340232 -872.87382042898389 0 -872.87382042898389 187.9897474477475 0 0 0 0 50.25893196510151 73.945089241184178 0 73.945089241184178 579.85904996731551 0 0 0 0 569.97830599953886 -47.384798358238186 0 -47.384798358238186 -1136.4965176930746 0 0 0 0 -1670.2932968710084 1462.6487483401434 0 1462.6487483401434 -764.68669992846844 0 0 0 0 186.85666391221457 -881.99649624012818 0 -881.99649624012818 -1296.8505315912189 0 0 0 0 114.84613745324515 -80.342705795115577 0 -80.342705795115577 46.781784584843763 0 0 0 0 -397.0572516949178 -360.54620295860514 0 -360.54620295860514 -411.28262192051625 0 0 0 0 100.8216579046275 -123.58282653714559 0 -123.58282653714559 649.52880064028432 0 0 0 0 690.36125694389921 -412.44095473142806 0 -412.44095473142806 462.36602691948792 0 0 0 0 231.68119148620099 -6.5422014896175824 0 -6.5422014896175824 -240.79933155540493 0 0 0 0 239.49188365303417 -46.113381783172372 0 -46.113381783172372 -15.711339196292101 0 0 0 0 80.632811224226316 -263.43396649974602 0 -263.43396649974602 615.93763112400484 0 0 0 0 -51.540752411878202 -365.79915908185649 0 -365.79915908185649 -487.84294654932455 0 0 0 0 55.076251562149992 -47.965948825098167 0 -47.965948825098167 1.0943422557902522 0 0 0 0 158.06547577629681 -105.71937679580878 0 -105.71937679580878 -546.94936915009748 0 0 0 0 143.49501145794056 -74.54047195585008 0 -74.54047195585008 -257.24184275008156 0 0 0 0 5.4083582705059428 1.8467048841580436 0 1.8467048841580436 -4.9312658075846798 0 0 0 0 29.829705321015354 -16.860976220094017 0 -16.860976220094017 285.06488083412114 0 0 0 0 279.17489578315144 -346.85230437722203 0 -346.85230437722203 220.80657540458196 0 0 0 0 399.63608492045023 -331.61536652413633 0 -331.61536652413633 0.75376283102377784 0 0 0 0 225.53182608236239 -173.28070123721409 0 -173.28070123721409 666.81484222992731 0 0 0 0 911.81603793856266 -1047.0746126779522 0 -1047.0746126779522 811.03131129890971 0 0 0 0 1654.7903581703795 -825.70735164947837 0 -825.70735164947837 0.046861295821145177 0 0 0 0 3083.3370766990265 -2350.0624737785693 0 -2350.0624737785693 999.19730943888862 0 0 0 0 2409.7131699627207 -1779.8457276693662 0 -1779.8457276693662 785.33290137709992 0 0 0 0 527.76393851546163 -1416.8985409688212 0 -1416.8985409688212 2422.6570130979235 0 0 0 0 89.169746259787644 -73.092747547052568 0 -73.092747547052568 22.664924151904415 0 0 0 0 71.949190489689499 -29.037604711535096 0 -29.037604711535096 -1.9462399432086386 0 0 0 0 69.487981922657127 -30.556139385946153 0 -30.556139385946153 8.7669330065546092 0 0 0 0 -1.9180455893937989 -11.486355081097486 0 -11.486355081097486 -15.850342405153128 0 0 0 0 7.7594942086152514 13.266991159583995 0 13.266991159583995 -99.342921354138525 0 0 0 0 173.52475162911287 -85.502844841437764 0 -85.502844841437764 20.724450116307708 0 0 0 0 1.1355904034193713 -8.4613841571362514 0 -8.4613841571362514 -15.006567408926117 0 0 0 0 154.78056627837941 -31.951080080019892 0 -31.951080080019892 -8.6847351841643103 0 0 0 0 73.014440257529714 -45.864261737711786 0 -45.864261737711786 46.978979768813588 0 0 0 0 145.49978343064868 -79.144455891393591 0 -79.144455891393591 45.316368265137044 0 0 0 0 133.9581955260237 -73.148203830111015 0 -73.148203830111015 56.216443324577995 0 0 0 0 141.50590863440448 -64.439685686698795 0 -64.439685686698795 6.3863618489413057 0 0 0 0 5.7659282820351052 1.9714585123174118 0 1.9714585123174118 -4.7289391247863364 0 0 0 0 169.94429022983968 -189.84543818600287 0 -189.84543818600287 0.1504915485274978 0 0 0 0 5.5119200616967134 1.6346625667484602 0 1.6346625667484602 -4.6232346305505985 0 0 0 0 169.65493884064927 -123.43524048609834 0 -123.43524048609834 40.3980566035425 0 0 0 0 116.04886998292932 -86.67401268514368 0 -86.67401268514368 32.021357086749049 0 0 0 0 155.64862917421306 -80.727582695370074 0 -80.727582695370074 0.18689585960237309 0 0 0 0 95.51093704244704 -65.563417766868952 0 -65.563417766868952 19.615458733285777 0 0 0 0 84.72515965290404 -17.541080954270001 0 -17.541080954270001 -12.23478774286923 0 0 0 0 119.24591825372863 -63.514660475436358 0 -63.514660475436358 3.8762417844845913 0 0 0 0 124.05765906552915 -64.810771154363465 0 -64.810771154363465 -0.017178521404275671 0 0 0 0 -17.855165936467529 -17.478549095365452 0 -17.478549095365452 -0.015295672681531869 0 0 0 0 -53.337678015443089 -13.076082744766609 0 -13.076082744766609 10.968269697477808 0 0 0 0 164.61462405527345 -37.361125603871187 0 -37.361125603871187 -7.4369485514180269 0 0 0 0 -2.0749555969846512 5.0198637911438517 0 5.0198637911438517 2.2557667116921039 0 0 0 0 5.5770397849119036 -5.4119054085167591 0 -5.4119054085167591 -6.1237798633228522 0 0 0 0 -214.4271860722838 6.7669382496387698 0 6.7669382496387698 22.359172902870341 0 0 0 0 -4.1193944008056604 -7.2401213360490999 0 -7.2401213360490999 -6.8876848613387551 0 0 0 0 -15.22435448498436 -16.07415534996835 0 -16.07415534996835 12.089726123216678 0 0 0 0 24.170708332516369 -39.519385163308471 0 -39.519385163308471 10.494094029883854 0 0 0 0 -12.908017902045685 -15.828653889911948 0 -15.828653889911948 -4.5076077056874055 0 0 0 0 -5.4210599074167298 2.1460313872894048 0 2.1460313872894048 1.4984893557455052 0 0 0 0 -1021.043625513624 -493.11319478044788 0 -493.11319478044788 -0.22644122088968288 0 0 0 0 11.272334585245062 -20.582706211862387 0 -20.582706211862387 0.018051038641715422 0 0 0 0 -1270.4459511770328 240.5345461392717 0 240.5345461392717 30.536497585955658 0 0 0 0 0.42576314847397612 -2.556509743563538 0 -2.556509743563538 -5.9667483381662691 0 0 0 0 -498.59002725093524 107.97996354483621 0 107.97996354483621 53.129346507626906 0 0 0 0 -804.01543452973056 -326.21872740427352 0 -326.21872740427352 105.23472605767893 0 0 0 0 -531.19143528463155 -242.23027262186952 0 -242.23027262186952 119.04928583315632 0 0 0 0 -404.61527248572747 -86.140432865060575 0 -86.140432865060575 68.662836676536244 0 0 0 0 -436.63176232768319 -182.67560731388403 0 -182.67560731388403 -53.664445890433853 0 0 0 0 -18.860596626844199 -32.37066964605765 0 -32.37066964605765 58.993766475454322 0 0 0 0 -4.8882045481658665 1.0520122203228119 0 1.0520122203228119 9.8085453431677934 0 0 0 0 72.504186483263766 -21.105291941436008 0 -21.105291941436008 -35.649549519250286 0 0 0 0 -258.86822189286977 -117.06477187166456 0 -117.06477187166456 26.455519828101387 0 0 0 0 -192.75496548068622 -37.119725804834161 0 -37.119725804834161 -2.630757547547546 0 0 0 0 185.85244402099488 75.800116589118261 0 75.800116589118261 -84.404987015361257 0 0 0 0 -159.02808177208317 -135.18393286990977 0 -135.18393286990977 39.37291228902177 0 0 0 0 -108.4153601675207 -23.301063186969259 0 -23.301063186969259 58.078885306029406 0 0 0 0 58.134672378248069 48.391534058398975 0 48.391534058398975 -90.961167138215387 0 0 0 0 -143.64901592861133 -193.9075223749096 0 -193.9075223749096 -224.29651294549694 0 0 0 0 -1.4186967008414655 4.4351512534501545 0 4.4351512534501545 4.3556700073218053 0 0 0 0 -370.8345703026207 108.96366654119629 0 108.96366654119629 18.504286828043405 0 0 0 0 220.76689995734341 -512.22980715942685 0 -512.22980715942685 1514.5766493573828 0 0 0 0 376.3575459773092 -774.09240755459905 0 -774.09240755459905 999.45441779095563 0 0 0 0 205.05914799674065 -1038.5589625057037 0 -1038.5589625057037 1437.4509318644996 0 0 0 0 -43.402503438694112 -930.80429741684202 0 -930.80429741684202 1909.6644957528697 0 0 0 0 44.742055981099838 -645.11497572319058 0 -645.11497572319058 1356.5681616701004 0 0 0 0 214.87728743423577 -752.70970389347349 0 -752.70970389347349 972.05694662503083 0 0 0 0 279.71684278764587 198.13470217495342 0 198.13470217495342 -223.92951993554016 0 0 0 0 -41.865945502931936 -211.78797676411341 0 -211.78797676411341 -344.29025705167442 0 0 0 0 -16.053570291435634 -118.84575871886551 0 -118.84575871886551 -74.944061983456294 0 0 0 0 -27.306431168494193 -114.19770425159911 0 -114.19770425159911 -70.21378184778645 0 0 0 0 -304.08907586251735 -1098.3998840167114 0 -1098.3998840167114 1973.1884928687577 0 0 0 0 -172.83185836731354 -578.44080098930863 0 -578.44080098930863 1627.4026826338886 0 0 0 0 -268.71842121516511 -985.14116629258206 0 -985.14116629258206 1201.8193543436064 0 0 0 0 272.11358159872179 -733.44327779765445 0 -733.44327779765445 1225.7879465070437 0 0 0 0 -80.542046350958117 -681.41256315402279 0 -681.41256315402279 1229.8652117547781 0 0 0 0 181.90749647545817 -783.24316630543035 0 -783.24316630543035 833.21688615018502 0 0 0 0 28.724496076403739 -571.23761456846842 0 -571.23761456846842 839.71775335009443 0 0 0 0 -22.960875106997264 -809.36974565998389 0 -809.36974565998389 803.47603043692652 0 0 0 0 -6.8094482982542104 -496.05598241357075 0 -496.05598241357075 531.14702961416333 0 0 0 0 113.92350681963217 -646.94053621113562 0 -646.94053621113562 338.2767537132604 0 0 0 0 -131.20100518348454 -592.35554844139915 0 -592.35554844139915 724.68313628275064 0 0 0 0 -88.308226365123119 -498.18289765495865 0 -498.18289765495865 110.53979069946217 0 0 0 0 -69.615377974438161 -643.00309466813633 0 -643.00309466813633 333.06448992431979 0 0 0 0 -267.41591062562475 -757.16894357281853 0 -757.16894357281853 602.65089546388481 0 0 0 0 -214.59869115371475 -616.66729014094744 0 -616.66729014094744 -0.58693279093131423 0 0 0 0 -59.95367639326787 -387.51028806691329 0 -387.51028806691329 -27.772267911816016 0 0 0 0 -65.469384985807267 -291.50962522411419 0 -291.50962522411419 -393.41254791492247 0 0 0 0 96.308437145897187 -393.64789447441581 0 -393.64789447441581 35.509516910649836 0 0 0 0 12.463751203595166 -417.57584267581115 0 -417.57584267581115 -78.41683030812419 0 0 0 0 -18.003009758314874 -529.07498718550778 0 -529.07498718550778 390.16440641546069 0 0 0 0 -20.979786909279937 -268.80975164718257 0 -268.80975164718257 58.053807260352187 0 0 0 0 -83.475505215945304 -382.52697038176848 0 -382.52697038176848 236.38976872022613 0 0 0 0 46.844721605377345 -505.57164089935759 0 -505.57164089935759 476.24386131961364 0 0 0 0 151.14311754258961 -483.90957793722919 0 -483.90957793722919 230.49728018234964 0 0 0 0 125.24668483165442 -477.14398119533143 0 -477.14398119533143 344.56718354174518 0 0 0 0 -15.501068817713531 -600.47976577482041 0 -600.47976577482041 661.50248575060687 0 0 0 0 246.96383599957335 -694.6557441975674 0 -694.6557441975674 644.34091812020051 0 0 0 0 20.549813992249256 -771.64385408951057 0 -771.64385408951057 999.43764492138871 0 0 0 0 51.714717336952162 -676.65387880407798 0 -676.65387880407798 969.190919199571 0 0 0 0 153.16705799561169 -649.56387022226409 0 -649.56387022226409 504.62144994136179 0 0 0 0 1650.0990123294614 -102.15298209648608 0 -102.15298209648608 91.80679802809027 0 0 0 0 -630.87582171012514 -490.34790272860027 0 -490.34790272860027 129.0975230877084 0 0 0 0 1557.8557802979049 -2792.7601441115767 0 -2792.7601441115767 448.91659251174133 0 0 0 0 -67.911435060088436 -62.288275839813949 0 -62.288275839813949 -24.597599014036859 0 0 0 0 476.59194111472607 69.74972609183169 0 69.74972609183169 1153.4589961946622 0 0 0 0 242.45967471719632 -396.89002552661987 0 -396.89002552661987 527.89697158086346 0 0 0 0 687.2902127563284 82.761788662784966 0 82.761788662784966 -331.29505983466515 0 0 0 0 500.96268145919021 -807.86756479501491 0 -807.86756479501491 -271.91979427039041 0 0 0 0 375.99500768758298 -100.80208037332341 0 -100.80208037332341 -1297.6970825939788 0 0 0 0 40.828902733584982 -278.74951883275935 0 -278.74951883275935 -506.66695458887261 0 0 0 0 214.09689437933412 -226.37131402939121 0 -226.37131402939121 -978.46799078810727 0 0 0 0 76.270049805025337 -292.60212553491147 0 -292.60212553491147 -945.55667371535674 0 0 0 0 -11.128797266603215 -589.21938515348302 0 -589.21938515348302 -1295.8909702340607 0 0 0 0 -93.353693514894985 -759.03134787952877 0 -759.03134787952877 -1504.9051308056514 0 0 0 0 -299.68640861668973 -713.17771744063066 0 -713.17771744063066 -1408.2979164901772 0 0 0 0 -863.94753934078472 -2008.877501604984 0 -2008.877501604984 -2275.2790656080761 0 0 0 0 446.58779055397099 -605.74934571946505 0 -605.74934571946505 -2335.2928744359524 0 0 0 0 -133.39738042721001 -400.69512706890237 0 -400.69512706890237 -441.08548285556753 0 0 0 0 -3184.958259046638 -1409.7913208364043 0 -1409.7913208364043 1717.2812322970422 0 0 0 0 1653.4962648681176 513.55897309909051 0 513.55897309909051 -1950.1833443202195 0 0 0 0 -54.174150412056719 -56.884110205916116 0 -56.884110205916116 -43.852226024144443 0 0 0 0 2783.733516922126 -1461.9486185968708 0 -1461.9486185968708 -1266.720788334831 0 0 0 0 -883.12625751246605 147.60561199848416 0 147.60561199848416 -682.30037570866989 0 0 0 0 3286.7962509209901 -388.32626703570713 0 -388.32626703570713 -2577.563692733791 0 0 0 0 -404.95732285496729 -410.97275170586363 0 -410.97275170586363 -919.25520129784127 0 0 0 0 3049.0682966441818 247.8617625785846 0 247.8617625785846 -3106.3452678183094 0 0 0 0 -1006.3551014820021 -273.51249972215737 0 -273.51249972215737 -345.51634867343819 0 0 0 0 -319.38021826162094 -220.32269504397118 0 -220.32269504397118 -459.04325262055499 0 0 0 0 -479.25320345805267 -218.45498951997433 0 -218.45498951997433 -610.39451281932998 0 0 0 0 -413.52958671997021 -563.76111880857206 0 -563.76111880857206 -335.45885300353257 0 0 0 0 -292.19168485978253 -376.6839616317302 0 -376.6839616317302 -53.64105196291348 0 0 0 0 -197.86832795313967 -746.28428391927446 0 -746.28428391927446 69.06424636545853 0 0 0 0 -438.23765679352391 -673.71199653229269 0 -673.71199653229269 -46.511845878907479 0 0 0 0 -413.04041429158008 -510.42785938238376 0 -510.42785938238376 163.94473375275265 0 0 0 0 -464.97452892084766 -995.778405111967 0 -995.778405111967 633.40467445865943 0 0 0 0 -576.94444624642802 -855.52836796818883 0 -855.52836796818883 -53.532451235470944 0 0 0 0 -505.09006024590303 -616.88683497702732 0 -616.88683497702732 301.99437813842087 0 0 0 0 -445.94690472649654 -1265.7260638669613 0 -1265.7260638669613 1080.9690313302417 0 0 0 0 -667.48163761996398 -805.52202921661183 0 -805.52202921661183 1798.7306093795632 0 0 0 0 -377.17685551970044 -643.16506038032458 0 -643.16506038032458 1013.8371641658596 0 0 0 0 -649.52864474038165 -982.32770503513166 0 -982.32770503513166 1402.4071997027495 0 0 0 0 -162.91326847935852 -675.38117287614295 0 -675.38117287614295 1580.2522403380135 0 0 0 0 -892.60269440839886 -798.6904747214212 0 -798.6904747214212 1825.0625137385105 0 0 0 0 -915.05265912005461 -626.17147933648812 0 -626.17147933648812 2216.8563093524135 0 0 0 0 -855.93871640174621 55.42284439803916 0 55.42284439803916 3092.9756947350252 0 0 0 0 -805.29205873470301 -1375.117806202943 0 -1375.117806202943 4304.685694286396 0 0 0 0 -975.74313576036639 -669.4104848200368 0 -669.4104848200368 2210.0028942044009 0 0 0 0 -272.19069998580085 -996.53304300991294 0 -996.53304300991294 -113.26022813320742 0 0 0 0 243.68463681705543 -2520.8036209956663 0 -2520.8036209956663 2648.9197529478988 0 0 0 0 141.91920515697257 -2137.8651149439247 0 -2137.8651149439247 1801.300287403461 0 0 0 0 1937.9149027769963 -1426.8262008203455 0 -1426.8262008203455 583.66254223286523 0 0 0 0 794.85297770918987 -1161.9748316058685 0 -1161.9748316058685 1345.4985099014521 0 0 0 0 -67.383388037395321 -51.638455823845305 0 -51.638455823845305 9.2919484435075788 0 0 0 0 3748.2556902777269 2636.5001957447093 0 2636.5001957447093 4598.3325237104436 0 0 0 0 1732.3984420473989 -225.04010974821358 0 -225.04010974821358 334.16183970682323 0 0 0 0 2263.9255987842671 -7449.9505417070177 0 -7449.9505417070177 -744.07923008816579 0 0 0 0 5817.0453282375129 -3824.213553829788 0 -3824.213553829788 1869.827318507887 0 0 0 0 -814.98204779749994 422.2250142097364 0 422.2250142097364 1341.9186169574532 0 0 0 0 -11.277423928071737 -13.241841788672176 0 -13.241841788672176 71.02877671392298 0 0 0 0 -32.782440096704548 -107.46851248551539 0 -107.46851248551539 -61.196959731382876 0 0 0 0 -254.23289517670037 292.64065742493403 0 292.64065742493403 366.86748312666896 0 0 0 0 -499.1198880713298 -325.45692435431556 0 -325.45692435431556 761.53857543552294 0 0 0 0 -299.20097367738163 -242.03543751049438 0 -242.03543751049438 -58.264367471827427 0 0 0 0 -467.76977411623648 -312.21919570387399 0 -312.21919570387399 17.719500075123506 0 0 0 0 -9.7546461618350335 -36.486470323329463 0 -36.486470323329463 -37.062046061968658 0 0 0 0 -522.7856514373866 -136.31183781763684 0 -136.31183781763684 1.5398433018126525 0 0 0 0 -205.5283713138474 -312.5259563343061 0 -312.5259563343061 -23.675671224569669 0 0 0 0 2869.7772488068422 -724.24684423099097 0 -724.24684423099097 1056.711250958906 0 0 0 0 -2.1620352873935005 -11.773705821938705 0 -11.773705821938705 8.9561895955314696 0 0 0 0 -553.17080842901669 -340.93549296987476 0 -340.93549296987476 33.905023140352569 0 0 0 0 -31.302531697975294 -108.65729200014766 0 -108.65729200014766 -67.419684656374841 0 0 0 0 -756.23725730603769 -681.49141116329702 0 -681.49141116329702 1891.1418829742033 0 0 0 0 -483.08576476413236 -378.76404894211009 0 -378.76404894211009 40.18269964386127 0 0 0 0 -613.04017336369361 -341.12000031914067 0 -341.12000031914067 119.48356164488359 0 0 0 0 -595.46602555005575 -310.87274272106151 0 -310.87274272106151 16.608373780378315 0 0 0 0 -512.37327487033781 -341.46622173285868 0 -341.46622173285868 43.121620649442775 0 0 0 0 -489.20538115976069 -446.13961697875129 0 -446.13961697875129 -0.015121699660085142 0 0 0 0 -239.93762971817705 -268.58248267650197 0 -268.58248267650197 50.828211963846115 0 0 0 0 -408.13320190940885 -396.87973993425112 0 -396.87973993425112 53.51755413414503 0 0 0 0 -221.66325362982752 -327.63435660292453 0 -327.63435660292453 12.112719275995914 0 0 0 0 -200.55857999384625 -284.12025710818125 0 -284.12025710818125 58.912394496043817 0 0 0 0 -123.01436265242339 -403.08340369658617 0 -403.08340369658617 0.27259942631644662 0 0 0 0 369.36651189445558 -236.84145790123875 0 -236.84145790123875 -26.368388201000926 0 0 0 0 -5655.5108036542151 -921.51306521585502 0 -921.51306521585502 597.90164719312452 0 0 0 0 -6.0954346547363416 -4.5392395453045538 0 -4.5392395453045538 -13.01566094868042 0 0 0 0 140.59501763913977 -2219.4375580594351 0 -2219.4375580594351 1230.447673685514 0 0 0 0 -214.70239180914359 -710.19696016257512 0 -710.19696016257512 -745.07430384519103 0 0 0 0 -1958.6858787160822 -4246.4878253070601 0 -4246.4878253070601 2407.7491288336751 0 0 0 0 -2973.7872831995037 -2770.8096780950727 0 -2770.8096780950727 1.3409950523637235 0 0 0 0 -2868.4267693561897 -2619.2786847457901 0 -2619.2786847457901 168.83399703196483 0 0 0 0 -1740.3213318739595 -580.28300443651096 0 -580.28300443651096 1031.0712191996281 0 0 0 0 1648.2847666681337 -2086.8914117122913 0 -2086.8914117122913 -0.72121658659776833 0 0 0 0 2723.9391039328621 -1122.884717118548 0 -1122.884717118548 500.04627024303772 0 0 0 0 731.36491321948688 -1334.2496399778611 0 -1334.2496399778611 2796.0550640943693 0 0 0 0 4776.1088116935061 -857.00641500402708 0 -857.00641500402708 472.05730809066154 0 0 0 0 2657.5789221921514 -3259.2219113630126 0 -3259.2219113630126 2782.2170676260721 0 0 0 0 -6.921090270396566 -0.4879329228676994 0 -0.4879329228676994 17.265661257064266 0 0 0 0 7693.9381871487349 -3112.0247211316309 0 -3112.0247211316309 1148.0816789678793 0 0 0 0 -259.32153162755276 -3289.4881064772926 0 -3289.4881064772926 -641.50513718220463 0 0 0 0 -677.60702417308312 -2490.4729268939991 0 -2490.4729268939991 1298.7986499113904 0 0 0 0 -34.850124357617084 -31.612463513104615 0 -31.612463513104615 20.945619354812834 0 0 0 0 2428.2650541574176 -3626.2589021987224 0 -3626.2589021987224 748.80576266747084 0 0 0 0 3750.1167131594812 -1587.9527509896725 0 -1587.9527509896725 1039.2765848193958 0 0 0 0 -3739.540786397818 1516.2665044765163 0 1516.2665044765163 -1942.7028110902174 0 0 0 0 -6.0753862952477817 -45.287646406209262 0 -45.287646406209262 12.381265540750519 0 0 0 0 -27.986019144946113 -57.304157378617674 0 -57.304157378617674 26.534154531444074 0 0 0 0 -13.590667547468911 -7777.6249888797174 0 -7777.6249888797174 -2300.6924663853752 0 0 0 0 449.67009308944671 -1315.0358077323272 0 -1315.0358077323272 3012.5161486930447 0 0 0 0 973.25765513672559 -626.68534961983096 0 -626.68534961983096 1462.8233359337901 0 0 0 0 -2419.2946646711698 -2696.3247434599616 0 -2696.3247434599616 1894.8284379553515 0 0 0 0 -2128.3510593999708 -1186.3704492017278 0 -1186.3704492017278 3383.1629978047567 0 0 0 0 -2173.365736818334 -431.97508528095204 0 -431.97508528095204 722.53626760307816 0 0 0 0 -2813.9390294363257 -1836.4485509652004 0 -1836.4485509652004 1606.4469678131463 0 0 0 0 -3111.7466116058458 -2347.9925810719724 0 -2347.9925810719724 1875.920005825843 0 0 0 0 -4274.732561466175 -1135.4233881389373 0 -1135.4233881389373 1746.8046171908099 0 0 0 0 -3904.4752674945121 -2322.334078269836 0 -2322.334078269836 2461.2250968065491 0 0 0 0 -1537.113492950788 -2038.8329179836364 0 -2038.8329179836364 -237.27760669318377 0 0 0 0 -1101.3904200011602 -1315.1381568219367 0 -1315.1381568219367 426.0586278149276 0 0 0 0 -111.54623469866056 -1553.473390367275 0 -1553.473390367275 464.2632740931731 0 0 0 0 3813.2712280549413 -3472.9508731973838 0 -3472.9508731973838 3672.1644154447713 0 0 0 0 -65.41224117064418 -49.726093880913581 0 -49.726093880913581 19.374996323631535 0 0 0 0 1240.4203479382941 -3129.6316997698596 0 -3129.6316997698596 4913.5883221844852 0 0 0 0 -3.7972814055392519 -1125.3863350450119 0 -1125.3863350450119 171.90057868423173 0 0 0 0 4118.5677101796518 -3.3227569666855743 0 -3.3227569666855743 -994.79271589557175 0 0 0 0 4352.4366648533232 -5780.3748840152984 0 -5780.3748840152984 873.54649067488936 0 0 0 0 -6783.7112609446031 1465.2273095356213 0 1465.2273095356213 1289.4017166736012 0 0 0 0 -6003.866418891037 -3001.3893211080431 0 -3001.3893211080431 2191.0061615153099 0 0 0 0 -32.045111427149244 -25.548512890904007 0 -25.548512890904007 3.9983944107940488 0 0 0 0 3.4744787523522973 -367.14265916350996 0 -367.14265916350996 -1.0581194671976846 0 0 0 0 -150.12218835344174 -388.93750401883881 0 -388.93750401883881 106.04220421070931 0 0 0 0 -129.88052130767755 -321.25232602507458 0 -321.25232602507458 59.34186742073507 0 0 0 0 -118.83775325579836 -335.34324093812393 0 -335.34324093812393 -63.275383364030859 0 0 0 0 -120.24691859184077 -342.87085218500215 0 -342.87085218500215 15.091061780025484 0 0 0 0 -362.12065779903787 -363.16177738897386 0 -363.16177738897386 0.11574980680597946 0 0 0 0 -580.82750237905566 -304.40527937558363 0 -304.40527937558363 8.216551820973109 0 0 0 0 -345.1392679595665 -383.88965920111514 0 -383.88965920111514 -32.063466334948316 0 0 0 0 -612.19715521951002 -260.68370977972518 0 -260.68370977972518 54.653460763802286 0 0 0 0 -301.9797103332894 -251.48036038646751 0 -251.48036038646751 32.950981480651535 0 0 0 0 -249.89623662371014 -385.98777580424212 0 -385.98777580424212 31.018031139399682 0 0 0 0 -314.47765518126835 -306.03334569629806 0 -306.03334569629806 26.857579553790856 0 0 0 0 -451.37518606002413 -253.39626452238008 0 -253.39626452238008 125.34899636617047 0 0 0 0 -358.74761886932538 -57.203197290014941 0 -57.203197290014941 64.959870050894096 0 0 0 0 -211.10516494049079 56.557740914926399 0 56.557740914926399 -46.317403243680019 0 0 0 0 -459.47353500033933 -49.410415306701907 0 -49.410415306701907 128.6747161882231 0 0 0 0 -481.06839176748508 229.12836005201098 0 229.12836005201098 -156.52397800137987 0 0 0 0 -746.39422612761336 -113.38154718637816 0 -113.38154718637816 86.086985542846378 0 0 0 0 -579.24158460527542 -105.91244855386321 0 -105.91244855386321 -30.693872165953508 0 0 0 0 -0.12302388527484709 -1.4950278172040896 0 -1.4950278172040896 -0.20589032815729524 0 0 0 0 -1106.9312614171836 346.58959143474021 0 346.58959143474021 -25.57620247171144 0 0 0 0 2036.0704158487424 -1877.4209696803591 0 -1877.4209696803591 853.35411738892435 0 0 0 0 -1214.7741325057941 -238.48843725582992 0 -238.48843725582992 125.85461757192388 0 0 0 0 -48.32056268172164 -836.70974593970459 0 -836.70974593970459 88.737159658805467 0 0 0 0 -241.96327776799262 -1048.5875242638358 0 -1048.5875242638358 1738.5539494699915 0 0 0 0 3372.3023847456061 -2130.0233914839773 0 -2130.0233914839773 339.62892344516877 0 0 0 0 2405.2768372938008 -1546.5294581536145 0 -1546.5294581536145 1.4293102380724456 0 0 0 0 2012.1669749266657 -1983.5512084260117 0 -1983.5512084260117 757.26312126005359 0 0 0 0 228.5437395442932 -844.52310506779759 0 -844.52310506779759 2733.9636439660972 0 0 0 0 3494.0800188494377 -2840.344123696108 0 -2840.344123696108 1251.6676338808611 0 0 0 0 -209.53387863576791 45.282760544374469 0 45.282760544374469 33.416662612900836 0 0 0 0 -5.1633437967986779 -9.4798731972174153 0 -9.4798731972174153 5.3743845874980138 0 0 0 0 -146.8127679140598 21.388202493923018 0 21.388202493923018 26.338201364098495 0 0 0 0 -116.13612941639803 -59.348938621562411 0 -59.348938621562411 169.50177979760338 0 0 0 0 -17.220259625985033 -30.684619442960518 0 -30.684619442960518 71.669454214374355 0 0 0 0 -12.769598906888859 -63.294003865798004 0 -63.294003865798004 -75.9392881388776 0 0 0 0 -63.433507259748389 -165.96607230257666 0 -165.96607230257666 -24.767277691918139 0 0 0 0 -135.73906360221008 -59.595955982571468 0 -59.595955982571468 221.58907256572274 0 0 0 0 -42.598053150835653 -111.20591212854009 0 -111.20591212854009 -37.540420228629316 0 0 0 0 -77.285335506783554 -82.352555227595474 0 -82.352555227595474 2.9926450204520307 0 0 0 0 -82.385726347649324 -164.55624808215362 0 -164.55624808215362 270.3319334234111 0 0 0 0 -110.13798405514535 -103.3142086675216 0 -103.3142086675216 194.71596025960753 0 0 0 0 -219.32117678742361 -109.94649560947437 0 -109.94649560947437 326.95693116038456 0 0 0 0 -223.43449579906883 -230.39326065030764 0 -230.39326065030764 -528.34553710754699 0 0 0 0 -198.26531852418702 -162.34528215923638 0 -162.34528215923638 446.94719427326345 0 0 0 0 -67.594722120034675 -147.41340650604909 0 -147.41340650604909 -10.866614077665403 0 0 0 0 -131.14756639587722 -208.13956333135138 0 -208.13956333135138 361.003883779631 0 0 0 0 -209.5707577176936 -169.04906813913658 0 -169.04906813913658 344.69428983057151 0 0 0 0 -247.4824106236083 -79.300861169242125 0 -79.300861169242125 209.27531717217062 0 0 0 0 -220.06203708673638 -53.098719700996298 0 -53.098719700996298 121.21931325522019 0 0 0 0 -324.27510925503884 -210.77329145464319 0 -210.77329145464319 217.68531693075784 0 0 0 0 -214.73158304134267 -242.29542932420736 0 -242.29542932420736 119.83635290322127 0 0 0 0 -250.22688194048533 -247.92200242326362 0 -247.92200242326362 162.92649431480095 0 0 0 0 -214.31033312287218 -375.7475709487735 0 -375.7475709487735 116.63716578757158 0 0 0 0 -31.514119671417575 -279.37840999345644 0 -279.37840999345644 204.86774825106841 0 0 0 0 -191.4270378531437 -305.05440804515092 0 -305.05440804515092 200.76131659984821 0 0 0 0 -229.94101202334423 -164.83115197849111 0 -164.83115197849111 237.29586534688133 0 0 0 0 -122.86867284073378 -269.7165873835911 0 -269.7165873835911 161.50210414371577 0 0 0 0 -82.707452443428338 -162.09215078287525 0 -162.09215078287525 234.88249171421921 0 0 0 0 -181.37090673828061 -246.87709081481444 0 -246.87709081481444 249.11849782575155 0 0 0 0 92.158888585079694 -174.04130369955965 0 -174.04130369955965 266.66236925113481 0 0 0 0 -112.58272826109896 -86.232130608288571 0 -86.232130608288571 383.67422461340902 0 0 0 0 -37.384736860010889 -316.62168718012981 0 -316.62168718012981 244.51827899710042 0 0 0 0 -126.57261143888172 -320.02618630952202 0 -320.02618630952202 244.92733228641009 0 0 0 0 -101.89187299685727 -305.53482745717338 0 -305.53482745717338 292.06099640746834 0 0 0 0 -356.38363436099462 -356.78318910523376 0 -356.78318910523376 -300.14741237299313 0 0 0 0 -30.548076200666998 -148.32568492059823 0 -148.32568492059823 -32.810565709052703 0 0 0 0 -14.974112641641113 -245.40117701422423 0 -245.40117701422423 184.60331337516254 0 0 0 0 -62.607429207186215 -355.44965364174277 0 -355.44965364174277 111.5983902469743 0 0 0 0 -4.0869873030605959 -370.05604613013566 0 -370.05604613013566 112.4797557911952 0 0 0 0 -54.198347922771063 -333.28328408027301 0 -333.28328408027301 163.07708269311115 0 0 0 0 -116.55347316458938 -367.61006870161509 0 -367.61006870161509 148.79843944034656 0 0 0 0 -84.234438986277382 -323.43036143852805 0 -323.43036143852805 136.56250614885357 0 0 0 0 -63.097951935815217 -397.05302604127792 0 -397.05302604127792 115.02662686980329 0 0 0 0 -53.800284774246393 -356.36832601140486 0 -356.36832601140486 105.82579350518063 0 0 0 0 34.841461966643692 -202.4750842109097 0 -202.4750842109097 -48.240675352470134 0 0 0 0 -13.353704580345948 -181.9743465683714 0 -181.9743465683714 155.07684276800137 0 0 0 0 53.938858043427899 -134.08611442057736 0 -134.08611442057736 -65.917977449571481 0 0 0 0 99.43580731125985 -32.232496883072599 0 -32.232496883072599 112.41370607694262 0 0 0 0 -84.291289020882687 10.536014596869791 0 10.536014596869791 578.5041815902805 0 0 0 0 367.77278857649071 -4.1345413676899625 0 -4.1345413676899625 -898.57937612735259 0 0 0 0 4.7998262664441427 -126.64350153963278 0 -126.64350153963278 158.82938463013852 0 0 0 0 -7.7091037001350742 1.7340564915855623 0 1.7340564915855623 1.6959506366192301 0 0 0 0 -32.400153434718959 -75.629267719996278 0 -75.629267719996278 102.32634811979369 0 0 0 0 -9.6381065936948289 -73.526049394058646 0 -73.526049394058646 -40.480459167913068 0 0 0 0 -53.953208240331151 -131.57516274454247 0 -131.57516274454247 32.800638752218219 0 0 0 0 -19.637863692521933 -197.48396861464425 0 -197.48396861464425 -20.780692327884026 0 0 0 0 -23.035638186716824 -194.44476108327217 0 -194.44476108327217 65.100063046735158 0 0 0 0 -9.57257602509344 -172.1060334244612 0 -172.1060334244612 -58.50821799163532 0 0 0 0 -8.4069983020162908 -212.40348617643758 0 -212.40348617643758 -83.291124470742943 0 0 0 0 -33.89435153992963 -175.82890258187399 0 -175.82890258187399 -43.622505125400494 0 0 0 0 -50.919239351205761 -168.10415997256496 0 -168.10415997256496 -80.608404189042631 0 0 0 0 -34.731989246105513 -182.35942302032163 0 -182.35942302032163 -69.177407427981962 0 0 0 0 -52.152544653348741 -170.52850775361003 0 -170.52850775361003 -79.579185822027284 0 0 0 0 -70.880912577607887 -155.32488323386042 0 -155.32488323386042 -80.670946100493893 0 0 0 0 -89.579870616842527 -138.61458340818353 0 -138.61458340818353 -75.364006634294128 0 0 0 0 -66.768667735090276 -148.54266984866717 0 -148.54266984866717 -77.452733696933137 0 0 0 0 -67.134290955174947 -149.26061125405249 0 -149.26061125405249 -28.633902933870559 0 0 0 0 -51.12623875393183 -117.08083072834415 0 -117.08083072834415 -114.28615234583413 0 0 0 0 -52.162887395272264 -134.83058866915235 0 -134.83058866915235 -61.031187623331789 0 0 0 0 -20.969223606734317 -14.054615047481093 0 -14.054615047481093 -51.334673750524573 0 0 0 0 -61.561191350978334 -119.31885492398578 0 -119.31885492398578 -48.895840730619966 0 0 0 0 -18.460719194168632 -97.251593555469299 0 -97.251593555469299 -102.64622003032127 0 0 0 0 -96.159752521285554 -115.5164135331579 0 -115.5164135331579 -94.466458829527255 0 0 0 0 -61.038497224333696 -121.58814988691847 0 -121.58814988691847 -98.869681369455066 0 0 0 0 -94.374843286030227 -135.42165399603255 0 -135.42165399603255 -68.614896128201508 0 0 0 0 16.479536836688332 -83.674352741814602 0 -83.674352741814602 -89.217663867838553 0 0 0 0 -128.97064214718557 -131.86837869948067 0 -131.86837869948067 -96.6741531327134 0 0 0 0 -2269.4681731570527 50.75599505577884 0 50.75599505577884 -82.427916294429451 0 0 0 0 -2521.0223264987544 -1811.1284353508654 0 -1811.1284353508654 -1237.8566733429907 0 0 0 0 -94.84804991699275 -124.68336349500123 0 -124.68336349500123 -94.89024185721064 0 0 0 0 -118.81277023779694 -131.57413131688372 0 -131.57413131688372 -94.394480107352138 0 0 0 0 -105.86364195788337 -94.369037227312219 0 -94.369037227312219 -135.24379848677199 0 0 0 0 -99.029057543484669 -100.83870995600591 0 -100.83870995600591 -186.33901416289154 0 0 0 0 -116.4062664994417 -127.20872694589525 0 -127.20872694589525 -150.28987620049156 0 0 0 0 -18.028081783413 -17.711902946632335 0 -17.711902946632335 -14.624494083835884 0 0 0 0 -5949.5039414801358 -2093.0221231772157 0 -2093.0221231772157 -375.30244495283114 0 0 0 0 -91.440549427057704 -144.0396228260397 0 -144.0396228260397 -81.7768325630459 0 0 0 0 -120.64472707808454 -118.14244633386625 0 -118.14244633386625 -86.505867171421414 0 0 0 0 -69.286246383286198 -144.61550412869838 0 -144.61550412869838 -108.03101022374176 0 0 0 0 49.646074103705551 -55.803629330957136 0 -55.803629330957136 -37.460343115056816 0 0 0 0 -575.79472004740455 -323.16211832798581 0 -323.16211832798581 -148.01818918730714 0 0 0 0 -61.246193238199339 -161.50214581139153 0 -161.50214581139153 -88.839990726650285 0 0 0 0 20.347535978731589 -3.4114735580095612 0 -3.4114735580095612 -13.96577795693986 0 0 0 0 314.4546820025862 -1442.4010835827357 0 -1442.4010835827357 -3195.2322994975839 0 0 0 0 -1332.5639457505458 -1759.8411572217301 0 -1759.8411572217301 -2866.9001160422777 0 0 0 0 -5869.2531249898966 -2378.6979420660164 0 -2378.6979420660164 -1256.3616684915905 0 0 0 0 -4601.4837462838532 -3813.64221733663 0 -3813.64221733663 -1432.9901881992701 0 0 0 0 -26.225566316470882 -16.578002036160811 0 -16.578002036160811 -6.8937341349040935 0 0 0 0 -4840.5364327468778 -2819.4564474542858 0 -2819.4564474542858 -800.62036250164965 0 0 0 0 -3649.5830464114406 -1074.792157694239 0 -1074.792157694239 -1631.5045858882659 0 0 0 0 -5123.974020180256 -2617.574407417138 0 -2617.574407417138 5.8845190940919565 0 0 0 0 -2195.5099557056292 -1783.2324297805153 0 -1783.2324297805153 -1544.0664729759446 0 0 0 0 -3962.1211706905233 -1320.1162350253653 0 -1320.1162350253653 -101.27050161030638 0 0 0 0 -3117.2722000766953 -2909.1738805149143 0 -2909.1738805149143 -2282.9267240642221 0 0 0 0 19.154434720788295 -8.5502973552505495 0 -8.5502973552505495 -47.291511654721972 0 0 0 0 39.228105015048641 -94.64654052053811 0 -94.64654052053811 -88.492067500890698 0 0 0 0 21.476024487601549 -35.916558366854133 0 -35.916558366854133 9.4278082871369691 0 0 0 0 31.389397928520339 -89.452221476763953 0 -89.452221476763953 -91.875805525894975 0 0 0 0 -3.3499344189622207 -132.20714094951109 0 -132.20714094951109 -81.364701418106051 0 0 0 0 8.0929764591710409 -103.83374996717612 0 -103.83374996717612 -76.000437213539044 0 0 0 0 -58.779720286049269 -170.56283211257323 0 -170.56283211257323 -82.353535089758225 0 0 0 0 -50.644768090976868 -154.87178287985444 0 -154.87178287985444 -88.560249724934692 0 0 0 0 -10.884296104068198 -177.14639352045015 0 -177.14639352045015 -90.022233783471165 0 0 0 0 -11.676097263089105 -182.04320930655831 0 -182.04320930655831 -119.11077200615546 0 0 0 0 13.052390744849617 -174.2589872029148 0 -174.2589872029148 -173.88201030150231 0 0 0 0 9.0939222881133901 -177.72957179589866 0 -177.72957179589866 -119.22414167550596 0 0 0 0 -4.9606337163972967 -166.14463204345998 0 -166.14463204345998 -128.76651178089378 0 0 0 0 28.939078007009812 -129.55358275891922 0 -129.55358275891922 -128.10006698750317 0 0 0 0 26.222730882102042 -126.25754811813385 0 -126.25754811813385 -119.38397424497816 0 0 0 0 48.964670329602086 -83.150452576926909 0 -83.150452576926909 -94.898566169496917 0 0 0 0 48.36752523632822 -118.76197465673613 0 -118.76197465673613 -126.04024893892347 0 0 0 0 0.69453747115039732 -113.57493834794877 0 -113.57493834794877 -135.665112326089 0 0 0 0 50.144572109784349 -121.39865985348297 0 -121.39865985348297 -138.33391378098167 0 0 0 0 32.035993963316287 -144.86775174103514 0 -144.86775174103514 -178.91086664384056 0 0 0 0 -120.99667383402993 -72.76839172252221 0 -72.76839172252221 -218.42795820766332 0 0 0 0 -252.2658795021016 -84.965997884308308 0 -84.965997884308308 -130.84430478679133 0 0 0 0 -23.427398793672182 -157.93387609744605 0 -157.93387609744605 -269.47099069332762 0 0 0 0 -36.79160389759636 -164.04566349397646 0 -164.04566349397646 -150.895515488206 0 0 0 0 -21.74289803179272 -154.01051915031712 0 -154.01051915031712 -178.86529023697949 0 0 0 0 -203.03614644497429 -204.00747047093319 0 -204.00747047093319 -157.71693202513416 0 0 0 0 -44.485231804130308 -222.60215302299184 0 -222.60215302299184 -106.80369402831275 0 0 0 0 -9.695754215847046 -132.28685642909295 0 -132.28685642909295 -133.19817861272895 0 0 0 0 -1423.2848771401168 -614.26715833037815 0 -614.26715833037815 311.82785959760076 0 0 0 0 -1604.2601554953835 -254.09587165381527 0 -254.09587165381527 402.32935675523368 0 0 0 0 -662.35846140149442 319.90319143335364 0 319.90319143335364 -111.76469422680384 0 0 0 0 12.343264053233725 -431.45835434414039 0 -431.45835434414039 361.87808963283896 0 0 0 0 353.36842668231111 -81.191158577603346 0 -81.191158577603346 542.64673134448822 0 0 0 0 -167.45894686382326 -571.40963892719265 0 -571.40963892719265 524.72585764393443 0 0 0 0 -613.22362029928627 -1187.0704492519144 0 -1187.0704492519144 -288.69575921128853 0 0 0 0 -132.14201946485991 -741.83855603331176 0 -741.83855603331176 930.12055538388086 0 0 0 0 671.63477950061497 -145.10894193465356 0 -145.10894193465356 1154.0361727480486 0 0 0 0 1092.2959005384182 -736.88859373441665 0 -736.88859373441665 206.7698954463558 0 0 0 0 -27.159348592409515 -991.49070669451612 0 -991.49070669451612 1104.977933829563 0 0 0 0 -328.15550498282755 -1569.8465199437633 0 -1569.8465199437633 80.988816731842235 0 0 0 0 -983.7469105619457 -1135.2512062438909 0 -1135.2512062438909 143.04567000124371 0 0 0 0 -1110.3843094853364 -1856.7544681604304 0 -1856.7544681604304 -3938.8338788352557 0 0 0 0 -2846.4576110067173 -3939.7826905603433 0 -3939.7826905603433 236.02415287452459 0 0 0 0 -2905.9255868744585 -3030.3247779333615 0 -3030.3247779333615 2629.8926890287621 0 0 0 0 3029.6937358838086 -167.57146170108126 0 -167.57146170108126 -4040.4958304211032 0 0 0 0 -13.550281490627995 -28.542118945656185 0 -28.542118945656185 -15.365405455073358 0 0 0 0 -3298.3987431692585 776.39407809915429 0 776.39407809915429 -573.52252512391715 0 0 0 0 -1380.8408275102556 -3585.7247367594828 0 -3585.7247367594828 -3874.118567685879 0 0 0 0 -4775.1407346343913 -5198.5498247345968 0 -5198.5498247345968 2831.8532880400016 0 0 0 0 4734.6761575514265 -833.95061470278597 0 -833.95061470278597 -4324.6306374760024 0 0 0 0 -1.1714470311464065 -22.068662261875502 0 -22.068662261875502 -43.701882418924015 0 0 0 0 -5962.6113871832567 -1649.621446890782 0 -1649.621446890782 1151.2630295319832 0 0 0 0 -3681.3991812013628 -2810.3205908306991 0 -2810.3205908306991 -1212.5990944445439 0 0 0 0 17.445316044420139 -21.746987138452312 0 -21.746987138452312 -19.731525499158096 0 0 0 0 2976.01683954689 -991.68053422901721 0 -991.68053422901721 -1013.0817144954344 0 0 0 0 -3675.4790829053418 -598.25694484642008 0 -598.25694484642008 70.774904774967581 0 0 0 0 -5189.9532452476778 -1968.4184607054485 0 -1968.4184607054485 -169.88624766780413 0 0 0 0 -4583.6001869875763 -381.60939946907456 0 -381.60939946907456 413.20657106366707 0 0 0 0 -4315.7768095815409 -625.77556075566099 0 -625.77556075566099 179.3918714102474 0 0 0 0 -3136.491967144575 -985.37298642250244 0 -985.37298642250244 -798.04482964540512 0 0 0 0 -2747.8550403549452 704.4009887600987 0 704.4009887600987 -42.657457931461977 0 0 0 0 -1224.4031922016693 -513.55248524017225 0 -513.55248524017225 362.36048796887917 0 0 0 0 -1301.5265827745279 -987.10992404617355 0 -987.10992404617355 461.39917344879359 0 0 0 0 2169.483381973243 533.76952222602995 0 533.76952222602995 155.09271410273504 0 0 0 0 -230.94385162516483 -1902.8558641411219 0 -1902.8558641411219 703.55133374617799 0 0 0 0 590.67501344756965 -1007.382278730227 0 -1007.382278730227 -178.1863765557282 0 0 0 0 -868.50727485068091 -2801.4539913576991 0 -2801.4539913576991 -1732.4807743016718 0 0 0 0 929.23786957818083 -935.93111371219493 0 -935.93111371219493 -2850.6129916777572 0 0 0 0 1127.658788623874 -1528.3079622219448 0 -1528.3079622219448 -354.84103256223898 0 0 0 0 0.66606293319640719 -39.44741970039729 0 -39.44741970039729 -98.876020432518033 0 0 0 0 -2000.6335391781067 -2541.6717976461587 0 -2541.6717976461587 -350.72008105082205 0 0 0 0 3267.2133518307019 -494.11421521524244 0 -494.11421521524244 -1408.8943940440622 0 0 0 0 -2498.9560805747251 -775.48627951886829 0 -775.48627951886829 714.53472022766073 0 0 0 0 -398.72362168947802 -358.19390671178553 0 -358.19390671178553 -602.72915248172649 0 0 0 0 -865.26582219448574 -287.43895989425801 0 -287.43895989425801 -518.47881162123667 0 0 0 0 -474.60853551377295 -358.20403611082293 0 -358.20403611082293 -510.19111989965313 0 0 0 0 -683.70275915225284 -482.416992875289 0 -482.416992875289 -539.79305584874965 0 0 0 0 -521.1977983603656 -654.2501470723073 0 -654.2501470723073 103.09756417822791 0 0 0 0 -1137.7630831565657 -497.34481864322879 0 -497.34481864322879 249.65432059421437 0 0 0 0 -842.15366243379685 -81.268324047152419 0 -81.268324047152419 421.66148138030076 0 0 0 0 275.21482125921511 67.727694341321239 0 67.727694341321239 -32.315914733713726 0 0 0 0 -369.00294716674398 135.87531336637039 0 135.87531336637039 398.43341432250236 0 0 0 0 -682.06270623462478 -188.94366947603703 0 -188.94366947603703 165.07480256873532 0 0 0 0 -309.83290967013454 -26.675465762251406 0 -26.675465762251406 -18.132417695465847 0 0 0 0 -295.48634527145623 -171.50058839414851 0 -171.50058839414851 -112.95473441317154 0 0 0 0 -12.069544150086585 5.8237153164518531 0 5.8237153164518531 -269.72555654552707 0 0 0 0 -433.40514740903745 -236.48419468072825 0 -236.48419468072825 -165.60136422181677 0 0 0 0 -165.13141691618148 -325.92843614182493 0 -325.92843614182493 -840.21164232245064 0 0 0 0 -116.75581185374904 -370.1491120364808 0 -370.1491120364808 -822.76377915186458 0 0 0 0 -254.20416907083563 -607.39878005177161 0 -607.39878005177161 -1038.4131768331172 0 0 0 0 -219.46787734495592 -528.24600884814208 0 -528.24600884814208 -1057.3137024472671 0 0 0 0 -228.80605733976699 -482.08023485638114 0 -482.08023485638114 -1447.0649026033352 0 0 0 0 -438.33199927355054 -856.69122911799059 0 -856.69122911799059 -1375.4769230773527 0 0 0 0 -174.76855150509073 -617.30046329141624 0 -617.30046329141624 -1184.4704461188521 0 0 0 0 -6.2272228242836718 -405.60932924887311 0 -405.60932924887311 -1201.0452194925315 0 0 0 0 -132.25557991991263 -573.05134325455583 0 -573.05134325455583 -1367.8865549464244 0 0 0 0 -237.95524569219197 -51.046566624005209 0 -51.046566624005209 -1021.6415861083624 0 0 0 0 -38.456072347253524 59.931502325102713 0 59.931502325102713 -63.65572869078936 0 0 0 0 324.60626920834329 -1080.6249960358255 0 -1080.6249960358255 931.76794717305529 0 0 0 0 14.375426827007246 -117.70697069791962 0 -117.70697069791962 -89.824822062268282 0 0 0 0 133.90741107547365 -1022.0483583603709 0 -1022.0483583603709 1582.0597489844804 0 0 0 0 -46.01147308995678 68.772119107259641 0 68.772119107259641 -443.30031424363551 0 0 0 0 -0.55533262350218138 -60.596151091660431 0 -60.596151091660431 -424.29440931421414 0 0 0 0 209.72753775953606 -1253.4866141799284 0 -1253.4866141799284 1707.0475577522666 0 0 0 0 304.3331182516049 -1084.1968438567965 0 -1084.1968438567965 1846.2954268134199 0 0 0 0 122.19429883310477 -962.54161409264907 0 -962.54161409264907 1925.7478559519077 0 0 0 0 299.25048321996292 -1051.6115259262369 0 -1051.6115259262369 1214.9631937206286 0 0 0 0 179.92850066471146 -1264.8002975637064 0 -1264.8002975637064 1555.5147254733456 0 0 0 0 71.34670847018424 -1066.4152816221685 0 -1066.4152816221685 1901.3904245726008 0 0 0 0 34.931662490482267 -1143.5154777323733 0 -1143.5154777323733 3278.8621163374919 0 0 0 0 236.70389306798461 -1804.756368730581 0 -1804.756368730581 2048.7120271840977 0 0 0 0 289.2508663505796 -988.75365602970487 0 -988.75365602970487 1826.8498472154024 0 0 0 0 2.5210312348936839 -4.8635749196610334 0 -4.8635749196610334 -56.127916051339866 0 0 0 0 111.57767633913318 -1203.5009157337481 0 -1203.5009157337481 1850.1119971556582 0 0 0 0 51.494673016364686 -1204.9969702957169 0 -1204.9969702957169 2464.3896264057112 0 0 0 0 118.96707569438877 -1315.5684060173371 0 -1315.5684060173371 2090.4882855685719 0 0 0 0 224.56545163516421 -1480.5096959004004 0 -1480.5096959004004 2075.4859410582631 0 0 0 0 -430.38452691735438 -1285.6517378179778 0 -1285.6517378179778 -2941.9149268261481 0 0 0 0 -60.116883339638576 -62.820176415969343 0 -62.820176415969343 -65.007070120120034 0 0 0 0 -748.36868132529344 -503.44877801638359 0 -503.44877801638359 -1733.0113087162754 0 0 0 0 79.089737260825132 -100.40675897670371 0 -100.40675897670371 -2202.4914854828967 0 0 0 0 -788.84938274884189 -948.89259998327907 0 -948.89259998327907 -1791.8850765802672 0 0 0 0 -53.118044960152616 -60.887800548993987 0 -60.887800548993987 -33.439697063013917 0 0 0 0 2848.9516323966418 32.748233538546629 0 32.748233538546629 -3643.7605641090486 0 0 0 0 590.07888112723595 -1236.0577340459131 0 -1236.0577340459131 1924.3369176593478 0 0 0 0 393.13971162309463 -1407.9688152854069 0 -1407.9688152854069 2090.5158220037147 0 0 0 0 -3164.7682474147296 5326.1315182683174 0 5326.1315182683174 -4355.5393667833414 0 0 0 0 483.16369527039024 -877.74516331732048 0 -877.74516331732048 1936.0386561439518 0 0 0 0 2470.2092829037374 -919.9064770549594 0 -919.9064770549594 -5792.7750723711797 0 0 0 0 1281.1606203392075 1520.7716907254253 0 1520.7716907254253 593.64671702224587 0 0 0 0 1.0996038525916878 -9.4384074334065282 0 -9.4384074334065282 -44.069034434833043 0 0 0 0 4205.5963228747823 943.77331395517467 0 943.77331395517467 -3957.8545179530047 0 0 0 0 -2611.9115260622129 -1350.6524554642201 0 -1350.6524554642201 -1159.26365501486 0 0 0 0 -544.79703618971871 -369.47266206082895 0 -369.47266206082895 -709.76250919883751 0 0 0 0 -1141.9912751269303 -488.97580099092011 0 -488.97580099092011 -661.24057375648408 0 0 0 0 1.5518841145241224 -29.543133740591809 0 -29.543133740591809 -99.163739815022382 0 0 0 0 -1043.8666672795807 -2522.8390272936085 0 -2522.8390272936085 -470.11457822975353 0 0 0 0 -3787.8124929433397 -2194.8528482509864 0 -2194.8528482509864 -642.82843596967723 0 0 0 0 -3339.763191495651 -2499.8230479210542 0 -2499.8230479210542 -671.94891699517029 0 0 0 0 -1409.1276463765262 -1535.1502850740817 0 -1535.1502850740817 -710.00251188524999 0 0 0 0 318.09673340042355 -301.91015945167601 0 -301.91015945167601 -446.37461784412153 0 0 0 0 -4235.9913554928771 -2418.4109566337083 0 -2418.4109566337083 -175.59570349747082 0 0 0 0 -3759.9944280924465 -1785.2290112523769 0 -1785.2290112523769 -1032.8880464276444 0 0 0 0 -3532.2322785859724 -2071.8996249461779 0 -2071.8996249461779 -965.94467761162377 0 0 0 0 -844.19220300505549 -839.45617579426471 0 -839.45617579426471 -9920.9391411079487 0 0 0 0 -20.652112748162921 -21.357165947762951 0 -21.357165947762951 -14.6523583550224 0 0 0 0 -4983.4749966037998 -4884.3043231799529 0 -4884.3043231799529 -4475.1877636850186 0 0 0 0 -629.65778391816275 -1539.180057900372 0 -1539.180057900372 -4298.868321030488 0 0 0 0 -1324.8817697725535 609.67489699751604 0 609.67489699751604 -2737.7475259740459 0 0 0 0 -189.89090524690982 -170.55720515490975 0 -170.55720515490975 -101.5481160376803 0 0 0 0 20.530265225888797 -155.5307955592798 0 -155.5307955592798 -155.11950450384757 0 0 0 0 -34.347299003275111 -100.0114437656448 0 -100.0114437656448 -126.63629705252242 0 0 0 0 -96.069348606346466 -165.04206578460435 0 -165.04206578460435 -144.68837088726286 0 0 0 0 -12.836566495883744 -84.160090307399514 0 -84.160090307399514 -145.18886806105729 0 0 0 0 34.541587370040361 -69.847692067341995 0 -69.847692067341995 -102.21600382500037 0 0 0 0 -4.0909755192496959 -57.359330932715238 0 -57.359330932715238 -51.85234809020767 0 0 0 0 6.892928075423697 -114.78536660608916 0 -114.78536660608916 -135.89893889721134 0 0 0 0 -13.112589732903871 -56.734054636443034 0 -56.734054636443034 -82.938954001001548 0 0 0 0 135.9927735348756 1.2448487058718456 0 1.2448487058718456 -95.974037066072924 0 0 0 0 32.778114693996031 44.222530427432503 0 44.222530427432503 70.160390428602113 0 0 0 0 86.318974946596427 54.779734609721345 0 54.779734609721345 -19.609516869173603 0 0 0 0 16.252645314874826 -61.446237707219552 0 -61.446237707219552 1.0894242027425207 0 0 0 0 -9.520529097855615 -105.67923177543344 0 -105.67923177543344 -72.338653960934607 0 0 0 0 55.678208584562526 -46.694024541247927 0 -46.694024541247927 -84.984733336095815 0 0 0 0 46.257170365744969 -127.74590916358284 0 -127.74590916358284 -29.278173674974823 0 0 0 0 0.21040842420916306 -45.579787205249886 0 -45.579787205249886 100.17043372319313 0 0 0 0 -5165.2324693729952 -2566.6115510250847 0 -2566.6115510250847 -4882.1656406968978 0 0 0 0 179.64428794218111 104.7080781307377 0 104.7080781307377 -45.445033413700003 0 0 0 0 25.267922087970675 -16.374318072809643 0 -16.374318072809643 4.9324322197063282 0 0 0 0 642.6001843031263 -75.420059115051117 0 -75.420059115051117 -853.31243679988256 0 0 0 0 1.7605701445692858 -3.0373104931932033 0 -3.0373104931932033 -22.650135915014062 0 0 0 0 -610.7114832998268 -176.45119126326063 0 -176.45119126326063 258.36182375918361 0 0 0 0 84.057594467056333 -7.914824936480727 0 -7.914824936480727 -111.08835082681617 0 0 0 0 282.86776297404867 -100.80233594573292 0 -100.80233594573292 -98.708040612196783 0 0 0 0 -19.171615684739663 48.737164644240693 0 48.737164644240693 -3.2605074367020279 0 0 0 0 -12.948433041863609 -54.950357873829489 0 -54.950357873829489 266.07486871335277 0 0 0 0 117.64066944463048 -220.85470168752181 0 -220.85470168752181 -100.94229442800861 0 0 0 0 -148.69572795223212 -123.86151402293035 0 -123.86151402293035 -99.897736882718164 0 0 0 0 -1789.844209072683 -1924.1188764382161 0 -1924.1188764382161 -1021.6202266507607 0 0 0 0 149.57022409469937 308.79542998431134 0 308.79542998431134 -28.82711985676724 0 0 0 0 8.4888787791479956 -6.8248782511559938 0 -6.8248782511559938 -2.4051732860851018 0 0 0 0 -1840.2013798766411 -2466.7736150085466 0 -2466.7736150085466 -3039.9242273472482 0 0 0 0 -3463.785301493408 -2757.7584396990642 0 -2757.7584396990642 -403.17264480454469 0 0 0 0 -3972.5051787393968 -5129.7507499381718 0 -5129.7507499381718 -1669.6798480085999 0 0 0 0 -2996.8110598100302 -1697.9919506672031 0 -1697.9919506672031 561.99979588533461 0 0 0 0 -1978.0109215400807 -1523.6532088468666 0 -1523.6532088468666 203.00516757896548 0 0 0 0 -1517.1236037691342 -897.00712646481043 0 -897.00712646481043 220.16948268844499 0 0 0 0 -2729.4966037408958 -1616.0915006136565 0 -1616.0915006136565 489.29066514831356 0 0 0 0 -2242.0177411916156 -1699.859442061861 0 -1699.859442061861 47.79931847408443 0 0 0 0 -1634.240921305769 -1644.3810598418386 0 -1644.3810598418386 -430.43633822997435 0 0 0 0 -2270.6804315501267 -2181.7960377572599 0 -2181.7960377572599 -758.56701976439217 0 0 0 0 373.52028346067527 -1904.4950492001153 0 -1904.4950492001153 3391.3587857793755 0 0 0 0 1466.7950453615558 -1561.3236803362088 0 -1561.3236803362088 1383.5455337070307 0 0 0 0 384.23692688607844 -37.353319470712449 0 -37.353319470712449 1888.2273386357083 0 0 0 0 -3051.7301790130514 -2461.9523038409388 0 -2461.9523038409388 4378.962234120143 0 0 0 0 8.7539784630862414 -348.9597191785615 0 -348.9597191785615 630.35577372134503 0 0 0 0 -2168.5895550650112 -1051.8450853177947 0 -1051.8450853177947 1574.0394443179248 0 0 0 0 674.79244200656831 -1049.5478410078376 0 -1049.5478410078376 820.68161476787645 0 0 0 0 -181.75785411296238 -738.8630056512593 0 -738.8630056512593 1515.5899826849927 0 0 0 0 -51.596501962518232 -446.72257886297848 0 -446.72257886297848 652.56477887243818 0 0 0 0 -82.326256266507698 -729.09966797689412 0 -729.09966797689412 94.530270290248154 0 0 0 0 -490.1974135665987 -311.64154586890436 0 -311.64154586890436 26.567126354275388 0 0 0 0 -1598.2378611111999 -860.81472160212434 0 -860.81472160212434 533.81126411697915 0 0 0 0 -451.31348926149076 -630.96921214409304 0 -630.96921214409304 -345.26422134090899 0 0 0 0 -1036.3616331208468 -350.60595500088675 0 -350.60595500088675 98.811388381283905 0 0 0 0 -96.286157414651825 -313.24744764643765 0 -313.24744764643765 -61.326525966698682 0 0 0 0 -2055.2310686024466 -1361.6246754797248 0 -1361.6246754797248 -618.582933869111 0 0 0 0 -2102.011023605417 -1393.1448467823338 0 -1393.1448467823338 -151.64861849798035 0 0 0 0 -2386.2372385210874 -1130.9567972513178 0 -1130.9567972513178 -413.69622638027795 0 0 0 0 -1614.7693502754701 -723.4807517160807 0 -723.4807517160807 -154.24452604232931 0 0 0 0 -1239.6255541378632 -803.06025015206797 0 -803.06025015206797 -555.46441482632508 0 0 0 0 -1492.2477845264657 -510.7599538305667 0 -510.7599538305667 -160.12266627563804 0 0 0 0 -1451.0278380214841 -564.2450508063348 0 -564.2450508063348 -944.31384804972186 0 0 0 0 -2079.4375723199337 -1305.2960182057632 0 -1305.2960182057632 -788.21620390776661 0 0 0 0 -1860.2080324822819 -486.49416181213019 0 -486.49416181213019 -314.17216609606294 0 0 0 0 -1536.0085817174495 -400.02560943449043 0 -400.02560943449043 -383.48873269647447 0 0 0 0 -961.02735263608702 -403.27425162235158 0 -403.27425162235158 -292.72267988428939 0 0 0 0 -1536.7039213844619 -468.63835596827994 0 -468.63835596827994 163.54744100436073 0 0 0 0 -77.541671817969473 -551.95746893846717 0 -551.95746893846717 -496.18726003976917 0 0 0 0 -128.06433401973482 -438.37258246459942 0 -438.37258246459942 -394.29865887450433 0 0 0 0 -918.06172084453283 -590.80920910795248 0 -590.80920910795248 -262.51628288928623 0 0 0 0 31.005087814781291 -517.83730299963281 0 -517.83730299963281 -509.51254048622468 0 0 0 0 -119.99145488881186 -771.17838202634812 0 -771.17838202634812 -249.98206408952683 0 0 0 0 -81.629701387995738 -470.87962691735265 0 -470.87962691735265 -304.06126118235989 0 0 0 0 -87.35188057162668 -472.51689026485838 0 -472.51689026485838 -338.35850374738948 0 0 0 0 61.009924907681125 -575.19634905118073 0 -575.19634905118073 -707.68453829070859 0 0 0 0 -382.83154645126342 -754.71043549345814 0 -754.71043549345814 -526.34706150336569 0 0 0 0 6.7217058062037651 -11.888388249242638 0 -11.888388249242638 11.2398064161018 0 0 0 0 160.04276632131223 -560.66092388861216 0 -560.66092388861216 -558.20290863204355 0 0 0 0 409.25263693624947 -1077.6847156326185 0 -1077.6847156326185 399.38889850402484 0 0 0 0 899.87304119257897 -922.33160681478694 0 -922.33160681478694 547.19066842884786 0 0 0 0 -742.14317650784142 -682.70604562020526 0 -682.70604562020526 -337.35774557073455 0 0 0 0 752.59603284009791 -184.98741738870376 0 -184.98741738870376 -525.74928023148823 0 0 0 0 2.9885218107865796 -6.367554675092066 0 -6.367554675092066 7.2542514635830173 0 0 0 0 1534.1412532382528 -1053.9138450812679 0 -1053.9138450812679 53.094574882685265 0 0 0 0 -1179.1864343234301 -1444.4281938779295 0 -1444.4281938779295 982.86298699352483 0 0 0 0 944.97839101305726 -1277.4492254056131 0 -1277.4492254056131 486.13406964256683 0 0 0 0 1104.398262067607 -1557.1219238800877 0 -1557.1219238800877 976.54983239087596 0 0 0 0 282.27339480752926 -762.26812347031046 0 -762.26812347031046 1331.9946854798618 0 0 0 0 332.05213863854442 -1546.326645348352 0 -1546.326645348352 961.78573750818759 0 0 0 0 771.5971717242428 -1226.0698468160263 0 -1226.0698468160263 978.89216114068768 0 0 0 0 -90.212417402661231 -1522.1744040618287 0 -1522.1744040618287 1285.0509969228842 0 0 0 0 -191.62446616033412 -856.99380647916405 0 -856.99380647916405 742.49012606268843 0 0 0 0 -56.383260334478109 -922.77333725802964 0 -922.77333725802964 1310.5974145366818 0 0 0 0 236.08553441459662 -996.40436131202659 0 -996.40436131202659 740.73176459083334 0 0 0 0 6.8984726592607331 -911.54631096116645 0 -911.54631096116645 1230.783816026983 0 0 0 0 -17.405472738057142 -301.29172776917767 0 -301.29172776917767 158.38481645981301 0 0 0 0 412.50818359826008 -846.62777866607212 0 -846.62777866607212 457.61119199503446 0 0 0 0 119.92635832083215 -596.61188691733605 0 -596.61188691733605 -294.64597971385956 0 0 0 0 -618.61048729926915 -253.36093209091086 0 -253.36093209091086 -109.73340044713404 0 0 0 0 -778.65310747574404 -1462.5323773559617 0 -1462.5323773559617 -833.40329156804364 0 0 0 0 -701.08237372830627 -987.72068286108333 0 -987.72068286108333 -190.31352433301072 0 0 0 0 207.541557727498 -487.59177427246323 0 -487.59177427246323 -534.81626119192333 0 0 0 0 646.24418712835177 -985.6683864548886 0 -985.6683864548886 -43.912298614290194 0 0 0 0 13.563740548575879 -1319.4407773847743 0 -1319.4407773847743 -1415.9081830565265 0 0 0 0 -1041.1228627099918 -644.10675619444009 0 -644.10675619444009 -344.19833919943449 0 0 0 0 -496.27406224676815 -1244.8744089962347 0 -1244.8744089962347 -1187.541001110063 0 0 0 0 19.254890904816676 -22.344306488254063 0 -22.344306488254063 16.510957842350592 0 0 0 0 -528.53436787357373 -333.05824604721431 0 -333.05824604721431 -710.62780095861308 0 0 0 0 260.1187967903461 -585.26990028364889 0 -585.26990028364889 -680.59393743304099 0 0 0 0 -613.18726286037418 -1040.5565879431269 0 -1040.5565879431269 -903.42146155740193 0 0 0 0 6.3533349074138812 -9.3010507493584385 0 -9.3010507493584385 7.0709171148803449 0 0 0 0 -659.16395058689523 -913.40426453304099 0 -913.40426453304099 -782.05150381752492 0 0 0 0 -692.63035324256634 -1017.962073330993 0 -1017.962073330993 -494.37979596043351 0 0 0 0 -1042.8509371072787 -911.22334626491545 0 -911.22334626491545 -309.70106273858983 0 0 0 0 93.514257262198953 -1927.1489684637982 0 -1927.1489684637982 -1316.2956715726032 0 0 0 0 -203.68197271574172 -2204.4912520019661 0 -2204.4912520019661 -1199.7482978319458 0 0 0 0 -1051.5565407491231 -751.87874297074814 0 -751.87874297074814 485.09948336212619 0 0 0 0 -24.011090163760684 -9.5343277811355893 0 -9.5343277811355893 -2.1804747954253543 0 0 0 0 -1424.6874296578026 752.80130507866852 0 752.80130507866852 1179.2964783388634 0 0 0 0 219.10399988110294 -2167.9789951494713 0 -2167.9789951494713 -1228.4854790910613 0 0 0 0 600.83825074981723 -1899.1129438309254 0 -1899.1129438309254 -1339.297877989382 0 0 0 0 -579.99280094652931 -487.30390293692653 0 -487.30390293692653 2238.8603566762649 0 0 0 0 -12.238142173284501 -11.283366878118427 0 -11.283366878118427 -7.5639706512463079 0 0 0 0 237.65645772106654 -311.29001327867445 0 -311.29001327867445 1091.7928238246968 0 0 0 0 231.01295062183635 -13.010764651464342 0 -13.010764651464342 -110.36302174738375 0 0 0 0 -22.167809128033696 -430.73198240899364 0 -430.73198240899364 -638.30944781718426 0 0 0 0 81.334970449242974 -632.98309397589765 0 -632.98309397589765 -268.52586935655563 0 0 0 0 -204.38019222538423 -472.70686801642296 0 -472.70686801642296 -168.11168459326291 0 0 0 0 407.76522611705877 -105.50125660520644 0 -105.50125660520644 62.732364959229017 0 0 0 0 1150.4364383734064 -337.82052100736837 0 -337.82052100736837 -185.65433458598636 0 0 0 0 336.30553945115025 -225.53806010465269 0 -225.53806010465269 252.82469438004046 0 0 0 0 1266.6210216598192 -579.40081430906139 0 -579.40081430906139 18.799358767857484 0 0 0 0 1268.3333346171421 -1024.3119330588561 0 -1024.3119330588561 -508.49452776744874 0 0 0 0 235.55793822262785 -1054.236443195703 0 -1054.236443195703 299.58598116643407 0 0 0 0 622.15925383611466 -1467.8961855287234 0 -1467.8961855287234 -706.21447496324981 0 0 0 0 5.4549990962758415 -6.4924313678890542 0 -6.4924313678890542 2.2442631734081999 0 0 0 0 -1436.0740818020786 -1682.9534816380929 0 -1682.9534816380929 -725.31446924546253 0 0 0 0 4458.4476417652913 197.38766970175857 0 197.38766970175857 -576.30895202898319 0 0 0 0 1127.366068437681 -468.95721454901286 0 -468.95721454901286 -66.582480962872069 0 0 0 0 -1767.0814842485779 -178.28847568617857 0 -178.28847568617857 172.31458967104481 0 0 0 0 -1508.1369814172795 -863.0596150217898 0 -863.0596150217898 6.4737708516840939 0 0 0 0 -426.52201003370283 -1662.0381919354913 0 -1662.0381919354913 -80.152527828548045 0 0 0 0 -1233.0262495728384 -517.33154942845795 0 -517.33154942845795 433.77528089052794 0 0 0 0 -1255.2110035037331 -1641.3169976825984 0 -1641.3169976825984 -1422.0018069971484 0 0 0 0 -2307.7828038145235 -395.94757281927014 0 -395.94757281927014 -199.00427316439891 0 0 0 0 -1713.4006368265709 -626.50337315385968 0 -626.50337315385968 -1918.5771091495626 0 0 0 0 -2641.6553037125559 -1957.1986320058313 0 -1957.1986320058313 -1304.6901984754204 0 0 0 0 416.61707250235486 -221.00790633955148 0 -221.00790633955148 -686.53455297102755 0 0 0 0 -544.66327247622394 -54.582732605136698 0 -54.582732605136698 195.92984662471281 0 0 0 0 -4.2783084307915971 -5.3042407405931584 0 -5.3042407405931584 -21.161308022828507 0 0 0 0 -4319.2657087561129 -783.42043184870454 0 -783.42043184870454 -152.36365273400588 0 0 0 0 1332.2868004922457 477.13528411554489 0 477.13528411554489 106.51723415314336 0 0 0 0 18.62558343670387 -22.819055552851609 0 -22.819055552851609 16.135002591462467 0 0 0 0 2823.1981844749134 226.7996647846594 0 226.7996647846594 -707.95637598401663 0 0 0 0 -64.819145869274507 -132.06018038419279 0 -132.06018038419279 -246.94418069157109 0 0 0 0 1698.8902644623886 -618.74848865299646 0 -618.74848865299646 -308.53997042381161 0 0 0 0 1719.3412488075883 -103.74188650605902 0 -103.74188650605902 -1201.9377860823806 0 0 0 0 1740.8331821975808 -323.28840304290497 0 -323.28840304290497 -114.46400636332692 0 0 0 0 1322.9066184397725 -1162.0250120237515 0 -1162.0250120237515 591.60536056303317 0 0 0 0 10.996902564674627 -10.592648541842209 0 -10.592648541842209 7.871523300276607 0 0 0 0 -792.80927013473411 -851.34470755424627 0 -851.34470755424627 1230.8904623330091 0 0 0 0 1696.0764558503943 -767.59054759832998 0 -767.59054759832998 -1164.8620272742191 0 0 0 0 -1458.4592456136161 -603.41055947187851 0 -603.41055947187851 249.97809148409942 0 0 0 0 -1575.4588082856203 -305.58516079459196 0 -305.58516079459196 -184.90282667225983 0 0 0 0 557.56029859273985 -504.96964499533715 0 -504.96964499533715 32.39323945993965 0 0 0 0 151.47120312227344 -394.32324075323231 0 -394.32324075323231 -91.307489183976941 0 0 0 0 2.945394203866659 -20.986364321183245 0 -20.986364321183245 -59.435962578698252 0 0 0 0 5.6337051213069316 -46.434085939115292 0 -46.434085939115292 37.281916431182623 0 0 0 0 273.34005630083266 -5.015404357076477 0 -5.015404357076477 -355.5749593296714 0 0 0 0 -278.11699276679428 -366.31627522023336 0 -366.31627522023336 -356.09641376709334 0 0 0 0 -15.334311177331628 -8.1712692064988914 0 -8.1712692064988914 -12.630796501218612 0 0 0 0 -575.54225451995808 -148.64296175623167 0 -148.64296175623167 17.964399147764198 0 0 0 0 -652.52054587056045 -429.88526060610093 0 -429.88526060610093 -89.183112740931392 0 0 0 0 -468.04524710451369 -272.80632794255507 0 -272.80632794255507 -17.547011999442475 0 0 0 0 -136.52032101750956 -205.93928554962622 0 -205.93928554962622 -123.61767144814075 0 0 0 0 -1.8220257536449935 -188.47057590291524 0 -188.47057590291524 -273.73454575406504 0 0 0 0 -172.23622467684072 -101.03627305213058 0 -101.03627305213058 -43.428974438240402 0 0 0 0 -0.011469752666611654 -66.522082482558034 0 -66.522082482558034 -27.593977026521458 0 0 0 0 -160.94997909681842 57.650306704541435 0 57.650306704541435 305.19973555490287 0 0 0 0 169.23171343488502 25.707297710308922 0 25.707297710308922 -163.95844073890021 0 0 0 0 241.73169027296535 -31.076386928489228 0 -31.076386928489228 -152.96883292100392 0 0 0 0 -335.90003606569371 -214.99778298068122 0 -214.99778298068122 -113.02220968976326 0 0 0 0 -255.17440179198093 -76.444230741268257 0 -76.444230741268257 -12.564964730867359 0 0 0 0 -393.12940924255236 -69.141654038205161 0 -69.141654038205161 -135.70993855434062 0 0 0 0 -186.91236152107012 -161.06635809678119 0 -161.06635809678119 -201.18484203197295 0 0 0 0 347.00229360343656 -1345.1365874856565 0 -1345.1365874856565 829.21817388421914 0 0 0 0 1318.1130668651749 -819.77455895165258 0 -819.77455895165258 40.583236049904372 0 0 0 0 322.60559771832777 367.1421322001479 0 367.1421322001479 320.54228637321285 0 0 0 0 1068.8743574775217 113.03228406650305 0 113.03228406650305 -53.00454907657695 0 0 0 0 336.28217693807164 -385.93015074588766 0 -385.93015074588766 -373.96825662091578 0 0 0 0 114.70223629366956 -41.254446765095054 0 -41.254446765095054 -95.642065610707505 0 0 0 0 206.53402966575231 -120.10220167189254 0 -120.10220167189254 -38.049677531533234 0 0 0 0 31.45518932135019 -383.87819942720671 0 -383.87819942720671 -101.8100727451947 0 0 0 0 68.160914796681027 -858.3381518432725 0 -858.3381518432725 251.2718181118762 0 0 0 0 -58.457571860126336 -313.06269462260025 0 -313.06269462260025 296.66756551839353 0 0 0 0 -321.60258311591315 -572.17760164314677 0 -572.17760164314677 696.11670056865842 0 0 0 0 -500.54142112473346 -684.61105730651616 0 -684.61105730651616 627.10844250479931 0 0 0 0 -386.94352977864037 -805.39596276603697 0 -805.39596276603697 467.10407824964204 0 0 0 0 -481.22528142862575 -301.99193645620471 0 -301.99193645620471 59.880677336299414 0 0 0 0 -102.10008373772143 -368.23006198469011 0 -368.23006198469011 -838.94598934733403 0 0 0 0 -724.45174689064879 -1211.1447491160925 0 -1211.1447491160925 -397.24958120706287 0 0 0 0 23.104937825436821 -24.007323667993916 0 -24.007323667993916 17.626001576015653 0 0 0 0 -591.57738505281304 -236.75482023224868 0 -236.75482023224868 26.632075390662067 0 0 0 0 1111.8482507606896 -368.80429216979246 0 -368.80429216979246 -53.245266610634644 0 0 0 0 -1561.5118675456906 -306.71296206357147 0 -306.71296206357147 931.10196992185956 0 0 0 0 2.1665789280984171 -6.0001993129951074 0 -6.0001993129951074 11.295060038544875 0 0 0 0 -781.75360414851457 -574.32751236233162 0 -574.32751236233162 1022.9464900696876 0 0 0 0 -524.66832439921654 -480.34511036195431 0 -480.34511036195431 1268.3802743770721 0 0 0 0 124.92120350233745 10.226924911174137 0 10.226924911174137 590.72802235202107 0 0 0 0 -58.187484038092862 -315.00744833860711 0 -315.00744833860711 130.84132740125642 0 0 0 0 187.14435580378631 -612.46599740670513 0 -612.46599740670513 303.06573247267079 0 0 0 0 -336.05068615744676 -250.07959067767661 0 -250.07959067767661 77.907823473335156 0 0 0 0 -60.926593174438494 -771.61174480313593 0 -771.61174480313593 -766.40238220833271 0 0 0 0 -1.8423033272445082 -4.8353157940514109 0 -4.8353157940514109 5.1172701724028968 0 0 0 0 -118.23176565130416 163.99552455245066 0 163.99552455245066 985.50913258122091 0 0 0 0 -114.31238671446044 -531.18017879395484 0 -531.18017879395484 43.297639525739214 0 0 0 0 -92.952451162112993 -434.51698039669645 0 -434.51698039669645 143.09718285451345 0 0 0 0 -19.225356780795664 -460.48899462618783 0 -460.48899462618783 95.762020266498439 0 0 0 0 62.879720155004179 -411.26893931776794 0 -411.26893931776794 175.76187721185124 0 0 0 0 -31.429787088884041 -355.5108270847004 0 -355.5108270847004 154.2764152690288 0 0 0 0 58.98491282436953 -454.01820225038568 0 -454.01820225038568 -180.1927029126382 0 0 0 0 -6.6547703101350635 -108.55699067393107 0 -108.55699067393107 -7.7918684705000487 0 0 0 0 -8.5185577187439776 -179.68486817990015 0 -179.68486817990015 387.88042957474318 0 0 0 0 -193.96248590487812 -389.35749672447855 0 -389.35749672447855 154.35820774905585 0 0 0 0 -4.6128539753960922 -2.8489975310357636 0 -2.8489975310357636 2.4543588154201714 0 0 0 0 -106.2171847380414 -630.78212492777129 0 -630.78212492777129 -1006.761191633821 0 0 0 0 -335.76526515233127 -520.91608320310661 0 -520.91608320310661 -390.81535283142148 0 0 0 0 -201.75685709191021 -342.98163788764305 0 -342.98163788764305 -351.12467280159035 0 0 0 0 -88.501307049315074 -286.70626571442335 0 -286.70626571442335 -711.36571143501715 0 0 0 0 -24.227533301294898 -301.92533982410532 0 -301.92533982410532 -315.7914698671193 0 0 0 0 -234.36171019422181 -285.38074819283247 0 -285.38074819283247 -313.02519968841079 0 0 0 0 -26.03694504298619 -278.78035443109184 0 -278.78035443109184 -486.27913183535566 0 0 0 0 10.54682665906148 -221.32521382127015 0 -221.32521382127015 -321.69908867395134 0 0 0 0 -52.402449729474029 -242.43938008980331 0 -242.43938008980331 -280.83856164103054 0 0 0 0 16.329685056494782 -238.06625705172883 0 -238.06625705172883 -273.79954512335098 0 0 0 0 24.245940887805773 -562.2879745446653 0 -562.2879745446653 286.43462511914549 0 0 0 0 -81.151205739370198 -239.35311123120118 0 -239.35311123120118 -163.08373302768814 0 0 0 0 118.20641605448327 -351.00527694396987 0 -351.00527694396987 -334.64383898933738 0 0 0 0 -140.29984808099834 -71.733970594832499 0 -71.733970594832499 -123.43910871718253 0 0 0 0 -170.84588050720595 -26.917273735374238 0 -26.917273735374238 -151.48402617537067 0 0 0 0 -120.99311994454547 -70.168880469711439 0 -70.168880469711439 -191.77309758461342 0 0 0 0 3.926519192788902 -2.235405451483615 0 -2.235405451483615 -4.238709954410723 0 0 0 0 163.27769227329281 -93.222195960495583 0 -93.222195960495583 -328.96207336372754 0 0 0 0 -7.5342447450015069 -65.748946678062836 0 -65.748946678062836 -61.175035258006091 0 0 0 0 -74.943289104217911 -171.04261141769575 0 -171.04261141769575 -291.28019726386992 0 0 0 0 -91.338980171654839 -87.395998800282541 0 -87.395998800282541 -61.720163774240064 0 0 0 0 -611.9335517585132 -555.66158228383938 0 -555.66158228383938 -254.03157219219975 0 0 0 0 -0.096320038221264781 1.6372100374917125 0 1.6372100374917125 -2.9177082623609465 0 0 0 0 348.62969498536404 -211.17830934089034 0 -211.17830934089034 21.62837080643294 0 0 0 0 -14.731359971950525 -9.0586247885892703 0 -9.0586247885892703 -6.2729125857514987 0 0 0 0 15.612134219736618 -83.626121061617596 0 -83.626121061617596 18.766715615987778 0 0 0 0 -204.52281594083615 -309.52802976082421 0 -309.52802976082421 -451.72388435379253 0 0 0 0 -203.22289900564647 -263.98346671490071 0 -263.98346671490071 -361.60486767715111 0 0 0 0 -133.18226845899335 -64.574580884129318 0 -64.574580884129318 -37.376204465850606 0 0 0 0 2.7550679170383603 -26.222109737334264 0 -26.222109737334264 -67.444992646818037 0 0 0 0 -282.14441407738195 -271.88733380715348 0 -271.88733380715348 -131.68703307006581 0 0 0 0 -140.90252657850579 -102.99129119531062 0 -102.99129119531062 -190.84520344673365 0 0 0 0 -10.710452448402989 -2.9385790614181246 0 -2.9385790614181246 -14.96640018216857 0 0 0 0 -77.643556009587058 -26.564402784939148 0 -26.564402784939148 -16.21908371051132 0 0 0 0 -5.4697322890206124 -197.80363293362825 0 -197.80363293362825 -246.74335584503206 0 0 0 0 -10.257089698878461 -68.361996835648341 0 -68.361996835648341 -92.822618503237067 0 0 0 0 -145.22028914824614 -55.102073197687332 0 -55.102073197687332 -167.08157908139401 0 0 0 0 -130.54955085885013 -149.77118770180095 0 -149.77118770180095 -412.61098266533372 0 0 0 0 -22.975733927552938 -98.398863573595008 0 -98.398863573595008 -176.87870432610362 0 0 0 0 58.800375971775793 -90.88811492826062 0 -90.88811492826062 -21.846787688016775 0 0 0 0 -16.00604608859155 -75.662317297640101 0 -75.662317297640101 -38.197813650914952 0 0 0 0 -8.5380685382951356 -21.377495467838628 0 -21.377495467838628 -32.809855459862433 0 0 0 0 -32.453277505919687 -277.55673849771847 0 -277.55673849771847 -511.91461700333457 0 0 0 0 -269.46344564133324 -394.5068658394739 0 -394.5068658394739 875.59368057565007 0 0 0 0 -214.55472692515468 -510.0784480762668 0 -510.0784480762668 542.30674767239543 0 0 0 0 -1.398615947923787 2.2214911738746821 0 2.2214911738746821 -1.1550203100860372 0 0 0 0 433.92775823266857 -221.14469278652541 0 -221.14469278652541 -1216.0298304133757 0 0 0 0 -100.60813322207832 -289.04221329551365 0 -289.04221329551365 332.28785271101515 0 0 0 0 -122.18701826439064 -94.182332172858878 0 -94.182332172858878 -44.611580046766903 0 0 0 0 -71.694367307125503 -348.00807626370079 0 -348.00807626370079 -308.37663745970349 0 0 0 0 -78.758401105156736 -36.429918172088946 0 -36.429918172088946 -110.92441792675527 0 0 0 0 -99.486682499409653 -157.92610063720349 0 -157.92610063720349 -57.682588238269091 0 0 0 0 94.930835155377281 -432.11923616251443 0 -432.11923616251443 105.60705177165801 0 0 0 0 94.945440652343677 -411.2798797673895 0 -411.2798797673895 102.70247496569937 0 0 0 0 150.71326096543635 -391.35727881497587 0 -391.35727881497587 12.660950613557361 0 0 0 0 130.81763130893887 -304.44366447483844 0 -304.44366447483844 -137.17898606666131 0 0 0 0 392.42571848364605 -489.78513918982935 0 -489.78513918982935 -18.703140026889741 0 0 0 0 -2.7225233698118245 -378.83806965823169 0 -378.83806965823169 76.54837588215014 0 0 0 0 -8.7530869162546878 -222.97160243388498 0 -222.97160243388498 -70.168271912029013 0 0 0 0 14.411967577396979 -143.42150164823363 0 -143.42150164823363 -59.215887345596002 0 0 0 0 168.36636798602558 -253.11608197077294 0 -253.11608197077294 -230.26300997583894 0 0 0 0 -258.1624502519735 -271.24060038704192 0 -271.24060038704192 27.637603916453372 0 0 0 0 181.18351627056836 -326.16964495545835 0 -326.16964495545835 -174.19872022690834 0 0 0 0 -69.744102140335599 -90.96127256701584 0 -90.96127256701584 -113.02781114861136 0 0 0 0 20.101306402189216 -99.955735226844496 0 -99.955735226844496 -89.472664828313384 0 0 0 0 -21.886748795921449 -141.90308981244743 0 -141.90308981244743 -117.14707887468103 0 0 0 0 -16.596047934899445 -108.07003276384584 0 -108.07003276384584 -79.186584094176467 0 0 0 0 -512.65045666993683 -342.79520287895866 0 -342.79520287895866 -35.21171044424409 0 0 0 0 -15.0753135543806 -111.81936378811727 0 -111.81936378811727 28.103251010309009 0 0 0 0 -587.10376388551958 -236.65873829054181 0 -236.65873829054181 -11.852874249860179 0 0 0 0 -3.2672640895842981 -1.9504269907734653 0 -1.9504269907734653 -0.012290500209019228 0 0 0 0 303.54172166454373 -166.94837176584406 0 -166.94837176584406 -147.2311457847245 0 0 0 0 -80.134042536505149 -178.51590963753006 0 -178.51590963753006 -110.99170933343703 0 0 0 0 815.04024563524581 -311.79074639675673 0 -311.79074639675673 -128.07843846120522 0 0 0 0 362.38962818561413 -594.83155034969968 0 -594.83155034969968 206.63938573579071 0 0 0 0 -666.62720521873598 -315.76783950950994 0 -315.76783950950994 -148.79427408776246 0 0 0 0 -10.477225472365767 -1.0266789874615654 0 -1.0266789874615654 4.2537867997341436 0 0 0 0 -732.60048344034658 -352.85029413675511 0 -352.85029413675511 251.67380949412473 0 0 0 0 -570.44394467016537 -203.72871285956353 0 -203.72871285956353 86.742581774538849 0 0 0 0 -597.53350333916023 -140.86218852362072 0 -140.86218852362072 -47.130862541147508 0 0 0 0 -755.11033576977206 -471.35145042138174 0 -471.35145042138174 -336.23797839228064 0 0 0 0 -463.08734910518979 -188.76355369132943 0 -188.76355369132943 48.808463035733439 0 0 0 0 -470.59183228912298 -241.12277601633104 0 -241.12277601633104 -103.50693780992879 0 0 0 0 -401.56195878002472 -196.40984658322122 0 -196.40984658322122 -4.8377515135507565 0 0 0 0 -402.7659811481135 -272.36204256791098 0 -272.36204256791098 -91.827495893390733 0 0 0 0 -518.13700217171572 -341.56241577665787 0 -341.56241577665787 59.325112693069968 0 0 0 0 -394.52370865924968 -357.22700641736265 0 -357.22700641736265 -382.49486546855042 0 0 0 0 -46.738598577204215 -236.87423685259489 0 -236.87423685259489 -48.643079793941524 0 0 0 0 -497.23528414779139 -229.27062412908708 0 -229.27062412908708 261.44644276020699 0 0 0 0 24.239942923727192 -55.015909889852452 0 -55.015909889852452 -159.10727816918333 0 0 0 0 -242.05402484153456 -278.01649343764802 0 -278.01649343764802 -359.56366670103034 0 0 0 0 -243.17383348938893 -284.1699862142159 0 -284.1699862142159 -333.15471051952045 0 0 0 0 -226.30463150720516 -411.45483619740298 0 -411.45483619740298 -23.023804266471416 0 0 0 0 -264.24453758518212 -130.89449132802838 0 -130.89449132802838 30.188601841131458 0 0 0 0 -354.64454383257544 -250.74930490319093 0 -250.74930490319093 -115.87054302712204 0 0 0 0 -389.56038324893962 -459.77798057078689 0 -459.77798057078689 -412.31641874808702 0 0 0 0 -466.01423518134834 -233.7833512174293 0 -233.7833512174293 -115.1529345245799 0 0 0 0 -430.86811792872322 -343.0110323941044 0 -343.0110323941044 -516.8056125769217 0 0 0 0 -569.52958762759044 -1055.562448798566 0 -1055.562448798566 -1049.991034054925 0 0 0 0 -692.64555354860022 -748.76081183432325 0 -748.76081183432325 -135.89693337088102 0 0 0 0 -376.69777880128458 -507.71949143149686 0 -507.71949143149686 -3.4718819707632065 0 0 0 0 -223.82993330273894 -405.11433069888153 0 -405.11433069888153 -101.77351503274986 0 0 0 0 -345.05989007673634 -463.61483635866171 0 -463.61483635866171 -14.126020262629027 0 0 0 0 -339.79973192010948 -402.81754870883015 0 -402.81754870883015 -448.01588362686743 0 0 0 0 -393.49975961302698 -253.25509042965132 0 -253.25509042965132 -88.151909814856481 0 0 0 0 232.46850666147475 -345.14823533031813 0 -345.14823533031813 -43.163011008873582 0 0 0 0 -510.76607839950884 -563.09963499930745 0 -563.09963499930745 380.67705136578297 0 0 0 0 -333.82919060287531 -359.8358825823525 0 -359.8358825823525 86.272292783769331 0 0 0 0 58.021939462109003 -677.87483160558622 0 -677.87483160558622 28.134183428483084 0 0 0 0 -17.056818808945536 -545.16795182238275 0 -545.16795182238275 -154.7345760705939 0 0 0 0 -67.293525268116355 -472.81398186353545 0 -472.81398186353545 -48.627534149418352 0 0 0 0 14.485760252828186 -402.45343628183764 0 -402.45343628183764 0.63382967686629854 0 0 0 0 59.49757132504601 -385.11072995033464 0 -385.11072995033464 225.8591303548892 0 0 0 0 -46.119757417487563 -403.0449076903169 0 -403.0449076903169 170.57840660467627 0 0 0 0 41.405966986170824 -312.38379838289984 0 -312.38379838289984 77.006067493872251 0 0 0 0 130.61994839143881 -363.17326336663245 0 -363.17326336663245 -230.16161542346526 0 0 0 0 -17.684038110550318 -238.17316085175892 0 -238.17316085175892 -50.996144419665512 0 0 0 0 25.46504572325108 -54.428540076024717 0 -54.428540076024717 -123.42892224134312 0 0 0 0 -136.60716411427711 -605.54179203219246 0 -605.54179203219246 -419.75932756059046 0 0 0 0 -132.86452307039872 -561.31496944261016 0 -561.31496944261016 -550.18224673948862 0 0 0 0 -1074.1677193093346 -871.30058465927141 0 -871.30058465927141 -614.20701192034176 0 0 0 0 -398.00555208410879 -191.63694313482847 0 -191.63694313482847 -834.14015241725428 0 0 0 0 -58.299584019064582 -187.60549716208016 0 -187.60549716208016 -22.058953180001502 0 0 0 0 -130.84842277776625 -304.0649761217901 0 -304.0649761217901 -792.95764016573958 0 0 0 0 34.26799281586662 -94.393665945920304 0 -94.393665945920304 17.497946323569593 0 0 0 0 -791.95916406078322 -832.81628854918381 0 -832.81628854918381 -11.420682513176871 0 0 0 0 -16.482293941691751 -276.33655484273186 0 -276.33655484273186 -270.88131786231679 0 0 0 0 -134.51898289532983 -265.02152428100089 0 -265.02152428100089 88.587901989434613 0 0 0 0 -13.369134391185071 -314.51508644051228 0 -314.51508644051228 -132.71561200625001 0 0 0 0 -75.441549861759995 -180.21684039146203 0 -180.21684039146203 -213.45526671736297 0 0 0 0 3.3043550899747061 -149.97720346794085 0 -149.97720346794085 -178.13542059412066 0 0 0 0 -35.691859002858877 -237.56874609682598 0 -237.56874609682598 -54.221195290032014 0 0 0 0 -145.31388468068326 -426.84826109559253 0 -426.84826109559253 -174.61310509154282 0 0 0 0 -363.05301434691501 -339.94613222643966 0 -339.94613222643966 311.45424913252646 0 0 0 0 -72.191666277896729 -182.91517101539648 0 -182.91517101539648 -30.911708036917844 0 0 0 0 -26.544798014991102 -592.67663257283857 0 -592.67663257283857 -443.7809369978786 0 0 0 0 95.313975710636441 -473.74967271151036 0 -473.74967271151036 -425.88029391609598 0 0 0 0 -114.72326646196598 -630.36164606884631 0 -630.36164606884631 -453.05507916188799 0 0 0 0 -153.71393805790285 -535.13783977154526 0 -535.13783977154526 -413.09433239073041 0 0 0 0 -143.65866869848105 -616.85801411401189 0 -616.85801411401189 -607.31617754837498 0 0 0 0 -292.37442205620755 -496.32370385965623 0 -496.32370385965623 -311.7180316074955 0 0 0 0 -290.63637298847607 -379.77319098857697 0 -379.77319098857697 -436.04445586979273 0 0 0 0 -384.00079705294047 -619.57347797697003 0 -619.57347797697003 -700.8008877238608 0 0 0 0 -7.1111345251094065 -8.0296525999231676 0 -8.0296525999231676 1.9351328656180158 0 0 0 0 62.204501214262564 13.392042600084096 0 13.392042600084096 0.26702858034192734 0 0 0 0 63.938552214109222 13.157071021269076 0 13.157071021269076 -0.63130661073955707 0 0 0 0 -57.474206682192744 -814.55442384076014 0 -814.55442384076014 -1921.3014686653332 0 0 0 0 -251.37896723428275 -271.35021157296433 0 -271.35021157296433 -1154.2921810210973 0 0 0 0 -126.00964066461893 -542.18636353319744 0 -542.18636353319744 -658.48539666735451 0 0 0 0 -276.26631614862708 -75.715156915772241 0 -75.715156915772241 -3.680102864454966 0 0 0 0 -17.142403845426799 -10.011502423896275 0 -10.011502423896275 4.6101271827340469 0 0 0 0 -315.02953154292481 -410.74806732372963 0 -410.74806732372963 -652.99859291905159 0 0 0 0 -2.4336938901921599 -5.8066358244579988 0 -5.8066358244579988 1.0115131455108255 0 0 0 0 -6.9718218583147973 -11.336797340074554 0 -11.336797340074554 -0.070418808914837427 0 0 0 0 30.72536635601864 -87.210991813211876 0 -87.210991813211876 -214.97210751277453 0 0 0 0 -80.112840002781013 -466.61304452172772 0 -466.61304452172772 -594.21210092805268 0 0 0 0 27.469045117206406 -198.8701922675973 0 -198.8701922675973 -187.52522842795588 0 0 0 0 -575.0651290910173 -630.22651095905167 0 -630.22651095905167 -196.08446390752215 0 0 0 0 -24.995854981502191 -8.0401863887429386 0 -8.0401863887429386 5.1528241149730434 0 0 0 0 -563.68145222794556 -125.3881479197662 0 -125.3881479197662 447.4174174269574 0 0 0 0 31.807593083860411 -83.356771241655224 0 -83.356771241655224 -210.41587537968007 0 0 0 0 -7.5094330858410103 -11.333501492554205 0 -11.333501492554205 0.1723685851902701 0 0 0 0 -4.3530609669568889 -5.9348531397164379 0 -5.9348531397164379 1.2325719848646344 0 0 0 0 -150.12280372309033 -42.634918653275236 0 -42.634918653275236 -11.571296230373264 0 0 0 0 42.54535695395316 31.800423397507984 0 31.800423397507984 11.901686605728173 0 0 0 0 54.875299777442706 36.673707824826124 0 36.673707824826124 -0.37895415080129169 0 0 0 0 98.098522604443133 -123.10113849904883 0 -123.10113849904883 -276.0452019047807 0 0 0 0 -23.596407682743006 -4.8536278872010143 0 -4.8536278872010143 3.8859089291811983 0 0 0 0 -465.85255548748682 408.80450204553381 0 408.80450204553381 483.26107328743092 0 0 0 0 -105.80475890208618 -692.69767432232766 0 -692.69767432232766 -202.11340351107356 0 0 0 0 -462.27390005873167 -620.81733272996644 0 -620.81733272996644 864.22419110907504 0 0 0 0 369.08037899780902 -199.6713716545928 0 -199.6713716545928 -693.32783099954031 0 0 0 0 -41.338094459288811 -171.960777833463 0 -171.960777833463 -40.889518370904284 0 0 0 0 -573.64728628980811 -295.99213334848901 0 -295.99213334848901 520.60608002419031 0 0 0 0 -274.28718255374406 -386.52917282001363 0 -386.52917282001363 -284.81418869081244 0 0 0 0 -313.16780706407008 -496.26125386112471 0 -496.26125386112471 -611.15894837972155 0 0 0 0 -27.869685545330867 43.461963995549013 0 43.461963995549013 -163.51368159198319 0 0 0 0 -66.186505183926784 71.331165934447199 0 71.331165934447199 380.39314330538036 0 0 0 0 -79.812252133036964 96.907521622706554 0 96.907521622706554 199.80966221194831 0 0 0 0 -76.892907954226303 -35.772721025199417 0 -35.772721025199417 224.88757189497119 0 0 0 0 -83.265751822094899 -16.7074251909944 0 -16.7074251909944 390.51247610695827 0 0 0 0 21.168626450467855 -97.473461465560831 0 -97.473461465560831 397.97345511824824 0 0 0 0 11.769297771208585 36.580646532415813 0 36.580646532415813 284.6113050133863 0 0 0 0 -62.667237166475388 109.96892406734696 0 109.96892406734696 278.74227433706983 0 0 0 0 -57.759445461269934 -67.826270452052995 0 -67.826270452052995 40.100915055059886 0 0 0 0 -115.48948348884005 23.632468746705854 0 23.632468746705854 193.73409493749205 0 0 0 0 -408.0890925671556 -22.56637635370862 0 -22.56637635370862 322.52892654580864 0 0 0 0 -242.35828814594424 142.63014350282174 0 142.63014350282174 61.782908612396568 0 0 0 0 -201.62997648667078 -204.83634889222594 0 -204.83634889222594 -74.067923485912615 0 0 0 0 -477.38131796050584 -339.07948819760713 0 -339.07948819760713 329.89374662269256 0 0 0 0 -186.85343284276314 -120.8309044775815 0 -120.8309044775815 353.73347131197079 0 0 0 0 51.918275948919472 159.83259817672388 0 159.83259817672388 596.37632622764795 0 0 0 0 -119.62110109141213 485.41189543559449 0 485.41189543559449 808.054347376441 0 0 0 0 172.44667890894925 -391.21200742899964 0 -391.21200742899964 332.8711797524179 0 0 0 0 -253.84605827824271 -110.78479496793443 0 -110.78479496793443 1023.586958408494 0 0 0 0 -24.270106492556351 -166.95994603252981 0 -166.95994603252981 -34.971601158102871 0 0 0 0 -555.07010148116387 46.530351334658917 0 46.530351334658917 604.86594786171918 0 0 0 0 -162.05359494124423 27.538494496970088 0 27.538494496970088 663.03350186967873 0 0 0 0 17.240800751838833 -9.7668045725731645 0 -9.7668045725731645 346.62564006868706 0 0 0 0 19.570641297032125 -291.03240904655104 0 -291.03240904655104 626.33501124460145 0 0 0 0 241.94631582642614 -176.60650214020279 0 -176.60650214020279 300.51847785714199 0 0 0 0 923.0817001205869 82.93922590726288 0 82.93922590726288 -717.80289534566691 0 0 0 0 -745.88099256499117 -360.3268341621515 0 -360.3268341621515 -198.58637153462041 0 0 0 0 -461.53232280537486 -406.33160822666832 0 -406.33160822666832 -357.02672526545939 0 0 0 0 -457.55429727910087 118.13865012858878 0 118.13865012858878 -374.86198349494953 0 0 0 0 -413.64320240617963 -206.80098180407367 0 -206.80098180407367 -164.54295666464895 0 0 0 0 -514.99532120375079 -349.75930544626317 0 -349.75930544626317 -215.58476419409271 0 0 0 0 -358.41922356307623 -269.84589644504013 0 -269.84589644504013 -169.31533372809645 0 0 0 0 -371.76250063121552 -253.12585975223919 0 -253.12585975223919 -189.40126428537042 0 0 0 0 -444.47439031433896 -290.0500530511199 0 -290.0500530511199 -316.74340413515165 0 0 0 0 -10.637892441044471 -2.9836006408793878 0 -2.9836006408793878 2.3269948249833305 0 0 0 0 -436.90530974748253 -354.03481991666922 0 -354.03481991666922 -355.50260366068687 0 0 0 0 -359.86243869447208 -253.19690294217435 0 -253.19690294217435 -161.13438923924696 0 0 0 0 -165.42114765775477 43.604610559519642 0 43.604610559519642 46.899062687516562 0 0 0 0 -2.9669357653300494 -5.1469009341859078 0 -5.1469009341859078 0.9813368886286753 0 0 0 0 -593.65139611257473 -292.70016715221573 0 -292.70016715221573 -0.030241228334489278 0 0 0 0 -371.71074830040743 -266.58939204599301 0 -266.58939204599301 -80.760328402684536 0 0 0 0 -218.38466056673496 -204.49868967433576 0 -204.49868967433576 -97.22072521597147 0 0 0 0 -118.35804963564078 -369.01510070278164 0 -369.01510070278164 -0.068709990242496133 0 0 0 0 193.06819743779488 -408.09936845547054 0 -408.09936845547054 -121.74211852365988 0 0 0 0 386.57938732830371 -300.20552772631709 0 -300.20552772631709 -200.85374799091369 0 0 0 0 433.49371503165457 -144.60818669276341 0 -144.60818669276341 -175.9030319598678 0 0 0 0 -700.40609567279171 -5096.959641544272 0 -5096.959641544272 -66.418968674908712 0 0 0 0 -6.699332751753559 -7.4408526414536027 0 -7.4408526414536027 -26.146491692459563 0 0 0 0 -14.052192703238688 -81.186173159308964 0 -81.186173159308964 -167.96467984943592 0 0 0 0 -110.27564394364526 -262.68398695688097 0 -262.68398695688097 -138.38329438283108 0 0 0 0 23.483554882161457 -94.120465745597897 0 -94.120465745597897 -28.470764944487996 0 0 0 0 164.31474556654575 -297.73045871367503 0 -297.73045871367503 -74.611659359419718 0 0 0 0 87.424465918185888 -437.64434087346308 0 -437.64434087346308 18.12742831002106 0 0 0 0 33.829963488038629 -348.51668056816561 0 -348.51668056816561 -154.30275933757366 0 0 0 0 306.39694478013553 -580.75381197186653 0 -580.75381197186653 -225.73107235250063 0 0 0 0 191.76399021601537 -285.64525865271571 0 -285.64525865271571 -262.0465203798376 0 0 0 0 -148.71010436752113 -225.23674515818129 0 -225.23674515818129 -173.3348484064918 0 0 0 0 48.397991222998826 -339.34801436350972 0 -339.34801436350972 -158.7186314741266 0 0 0 0 -151.93900892097008 -233.85972952649172 0 -233.85972952649172 -144.82714631885756 0 0 0 0 -140.15514389623422 -151.68217781023122 0 -151.68217781023122 -256.29339487393008 0 0 0 0 127.40411090131965 -319.34685042730416 0 -319.34685042730416 -195.28046074329177 0 0 0 0 136.68239698337857 -368.4650806709833 0 -368.4650806709833 -167.13571020122617 0 0 0 0 -1202.1400091662072 -620.72673232788657 0 -620.72673232788657 565.17346646019723 0 0 0 0 -127.55926489591366 -102.78166960694944 0 -102.78166960694944 0.10211128758120612 0 0 0 0 -157.83688778658689 -90.773546842028736 0 -90.773546842028736 3.5404776151262922 0 0 0 0 -84.719106182223982 -45.779340814928219 0 -45.779340814928219 39.271036299552065 0 0 0 0 -20.049889683765684 -8.256398808325784 0 -8.256398808325784 22.137912254949015 0 0 0 0 -41.533321305119898 -39.526200004445855 0 -39.526200004445855 -0.030469822090792808 0 0 0 0 0.67855589032160424 -21.094804746319539 0 -21.094804746319539 -13.063153408215015 0 0 0 0 -31.262733089200395 -55.81316447523821 0 -55.81316447523821 -55.250685434990885 0 0 0 0 -1769.4407989325118 -1267.0631153614813 0 -1267.0631153614813 -1512.0426293249984 0 0 0 0 -37.191408516009687 -651.24462780063186 0 -651.24462780063186 -1537.748263492249 0 0 0 0 -118.83167170606612 -745.40322908767848 0 -745.40322908767848 -3189.6821392695419 0 0 0 0 -403.56940676848171 -1404.1530080983066 0 -1404.1530080983066 -1259.3187536042533 0 0 0 0 75.802873850683682 -12.860184766817838 0 -12.860184766817838 -1017.2904718938516 0 0 0 0 -22.06462224065163 -99.654451440697613 0 -99.654451440697613 -9.5681914621598025 0 0 0 0 -110.26605962199392 -263.72970555201755 0 -263.72970555201755 -199.46017500211019 0 0 0 0 99.685654577056084 -153.55840274123148 0 -153.55840274123148 -2.2651794099294307 0 0 0 0 10.423858094148159 -19.208171711239729 0 -19.208171711239729 27.124556131064935 0 0 0 0 -30.875761713391 -28.254449434210386 0 -28.254449434210386 20.522016179337637 0 0 0 0 -161.3282606927387 -2097.1423758624878 0 -2097.1423758624878 -2645.6520413043181 0 0 0 0 -1743.8192676142789 -2571.9787196049292 0 -2571.9787196049292 -256.34469574729155 0 0 0 0 -445.34061981528066 -82.302221245074179 0 -82.302221245074179 342.92911534033192 0 0 0 0 -986.89582506217994 -326.83984471187432 0 -326.83984471187432 392.61462495557498 0 0 0 0 139.58218251779908 -68.160925134870922 0 -68.160925134870922 85.276151309051784 0 0 0 0 43.235790876639925 -122.4966136227209 0 -122.4966136227209 189.31928853663936 0 0 0 0 -147.59226383297209 -396.74535582648605 0 -396.74535582648605 274.1562328129512 0 0 0 0 11.306418422202114 -14.42669964441302 0 -14.42669964441302 147.71402392881282 0 0 0 0 -466.99395830070716 -278.83952634354137 0 -278.83952634354137 326.89741467366548 0 0 0 0 27.940383097709855 -259.53596365214617 0 -259.53596365214617 -36.376547600324557 0 0 0 0 53.237200982270252 -112.85813301389817 0 -112.85813301389817 217.42347743871395 0 0 0 0 -96.079321814009745 -99.759782169126993 0 -99.759782169126993 167.49144994294329 0 0 0 0 -354.34281631233171 -379.7047103215009 0 -379.7047103215009 111.02874836303818 0 0 0 0 -104.55777260995819 -167.75100796762126 0 -167.75100796762126 406.73146048413037 0 0 0 0 5.0152422833311903 -162.818164886397 0 -162.818164886397 -44.429778722265823 0 0 0 0 141.69904341263464 -15.767564363446581 0 -15.767564363446581 137.4056389714242 0 0 0 0 98.627837185224053 103.31966133175592 0 103.31966133175592 111.1307094236472 0 0 0 0 -25.847214542658321 -23.387544789723208 0 -23.387544789723208 113.41638086225555 0 0 0 0 16.061987668513609 -42.996364673703766 0 -42.996364673703766 3.4257930992549745 0 0 0 0 116.5969022406498 -178.68723712090286 0 -178.68723712090286 164.44855006891521 0 0 0 0 35.108678414658129 -73.913237556587461 0 -73.913237556587461 -28.832311907705702 0 0 0 0 -60.579786102640355 -402.47736774109762 0 -402.47736774109762 289.02883953135461 0 0 0 0 378.18253802791878 -330.10905378783355 0 -330.10905378783355 169.99558029009495 0 0 0 0 33.1300456054596 -182.15089572146826 0 -182.15089572146826 321.33380006111747 0 0 0 0 367.97884135238746 -402.69972851638749 0 -402.69972851638749 289.85073765105335 0 0 0 0 2.3743337703737666 1.9629760044736884 0 1.9629760044736884 15.679063175414285 0 0 0 0 -57.371143842086894 -73.539474848766986 0 -73.539474848766986 172.81879851812846 0 0 0 0 -20.576870640099514 157.93112982935418 0 157.93112982935418 152.74032433852699 0 0 0 0 -6.1024467750272606 -9.0062299549445726 0 -9.0062299549445726 2.4728131589806708 0 0 0 0 520.28589972783084 -180.81673765354935 0 -180.81673765354935 322.96070671710186 0 0 0 0 351.86458813445643 -269.16299563375651 0 -269.16299563375651 290.14688494027359 0 0 0 0 323.52028530072857 -169.22869444119715 0 -169.22869444119715 284.95427840467892 0 0 0 0 311.33603861159645 -256.02566170810314 0 -256.02566170810314 419.22657497420732 0 0 0 0 213.84284505620599 -167.25514182016195 0 -167.25514182016195 157.56320057274661 0 0 0 0 -94.605643729795702 -219.55044526938946 0 -219.55044526938946 350.00084164030704 0 0 0 0 299.21381044243753 -299.96521437585761 0 -299.96521437585761 305.88699348774389 0 0 0 0 197.44679052347783 -186.99222953486606 0 -186.99222953486606 306.4598193505517 0 0 0 0 65.024656467139721 -362.49824191795778 0 -362.49824191795778 815.7147366076606 0 0 0 0 175.97975073580528 -280.67935242335352 0 -280.67935242335352 323.47520391920989 0 0 0 0 -136.19511939422227 -74.215916842935258 0 -74.215916842935258 466.04727853983422 0 0 0 0 313.16610984090948 -362.84973667042505 0 -362.84973667042505 273.06795084454643 0 0 0 0 412.8810023116821 -365.79397370859806 0 -365.79397370859806 104.37878883909434 0 0 0 0 259.21713113036822 -246.16547102303593 0 -246.16547102303593 291.11652249453982 0 0 0 0 291.97294174980198 -224.85814900317928 0 -224.85814900317928 294.56132937817893 0 0 0 0 -93.396428439562442 -41.072924052910821 0 -41.072924052910821 343.50771027670999 0 0 0 0 -70.265817545325262 -261.41886132724903 0 -261.41886132724903 141.51151624759223 0 0 0 0 -167.15931031348009 -178.87488265779393 0 -178.87488265779393 350.41857662981784 0 0 0 0 -399.95141550413973 -114.44782712159576 0 -114.44782712159576 369.01189807255651 0 0 0 0 51.502282058652781 -341.00019499020345 0 -341.00019499020345 296.05956380905991 0 0 0 0 18.266776418096214 -112.32799358349536 0 -112.32799358349536 240.16140579527783 0 0 0 0 32.814220526779536 257.37490629609601 0 257.37490629609601 219.04419673657685 0 0 0 0 -19.824524808159595 5.2981129121894242 0 5.2981129121894242 16.729210708631967 0 0 0 0 -80.449369612585798 -46.135769295410554 0 -46.135769295410554 194.76064415894467 0 0 0 0 -54.140438825488673 20.033540932945471 0 20.033540932945471 185.70560334844049 0 0 0 0 -255.36109679582296 29.972876669493417 0 29.972876669493417 374.07187672954751 0 0 0 0 -110.48136307157256 133.9596129323254 0 133.9596129323254 192.36877752323926 0 0 0 0 -328.70666824819637 21.078248257756059 0 21.078248257756059 311.34250864310889 0 0 0 0 -81.256630246355911 -32.985899232572905 0 -32.985899232572905 196.84072237534122 0 0 0 0 -289.27156039597321 -116.51239734568298 0 -116.51239734568298 782.56911126241903 0 0 0 0 -391.29422326965869 -1489.5726466859924 0 -1489.5726466859924 -994.35183834774944 0 0 0 0 258.61839788986254 -878.14307658942562 0 -878.14307658942562 -789.91665654498502 0 0 0 0 -287.15149765464594 -1223.054013787314 0 -1223.054013787314 -567.20860937834368 0 0 0 0 -194.0746590916242 -639.16106172733271 0 -639.16106172733271 146.22215487940412 0 0 0 0 76.279079838757752 314.25022750724747 0 314.25022750724747 812.63354543936725 0 0 0 0 6.5486068574114427 -4.0597448077417937 0 -4.0597448077417937 -3.0302307779378452 0 0 0 0 -1479.9862741247925 -1158.6416911515189 0 -1158.6416911515189 -476.00183085904428 0 0 0 0 -1528.2694290742511 -1325.7448267559339 0 -1325.7448267559339 -294.63780833016062 0 0 0 0 -24.640021871941428 5.0650730946833562 0 5.0650730946833562 40.854109158886473 0 0 0 0 -1.7216721849927126 -1674.261837318767 0 -1674.261837318767 -407.51720108228619 0 0 0 0 -153.65183872618945 -1073.6865569332658 0 -1073.6865569332658 -1097.0368477870215 0 0 0 0 -150.51901426449331 -1101.6321839193242 0 -1101.6321839193242 -884.51161775033688 0 0 0 0 637.13802598102484 -1261.834463018371 0 -1261.834463018371 -914.2549905119231 0 0 0 0 122.84077382396208 -1017.9389985226808 0 -1017.9389985226808 -678.94585825892864 0 0 0 0 435.88302860823387 -543.84652052341517 0 -543.84652052341517 -983.1807059123239 0 0 0 0 934.38705712545197 -753.61977454797307 0 -753.61977454797307 -894.97762919285742 0 0 0 0 8.4689819107745166 -10.688314467908953 0 -10.688314467908953 11.55838970127985 0 0 0 0 3.6924864498141687 -506.20722779111384 0 -506.20722779111384 -972.49693332089919 0 0 0 0 -862.34065364385606 -710.63228144473396 0 -710.63228144473396 -574.54472067895404 0 0 0 0 -373.2954901298217 -534.19709895090637 0 -534.19709895090637 0.77618574363441439 0 0 0 0 -161.86819480443955 -923.49029527296079 0 -923.49029527296079 -511.54034933952062 0 0 0 0 -839.70977903334369 -1340.6170616228815 0 -1340.6170616228815 -654.21188671847631 0 0 0 0 -415.64241852905252 -1033.6125388527144 0 -1033.6125388527144 -769.36760382608918 0 0 0 0 20.980471790587728 -30.495970834604719 0 -30.495970834604719 36.356381999850612 0 0 0 0 -344.2533598787486 -287.82907799868372 0 -287.82907799868372 18.074444213023526 0 0 0 0 -421.15053131217428 -468.35119112683606 0 -468.35119112683606 -78.590194327716745 0 0 0 0 -0.6807256140329514 -10.297832267432341 0 -10.297832267432341 10.066159589623851 0 0 0 0 -288.0853072515165 -103.01626965349351 0 -103.01626965349351 381.89814545511035 0 0 0 0 -343.44279281728086 -529.23305130369044 0 -529.23305130369044 -299.84353439039842 0 0 0 0 30.280891761765815 -132.69295963381228 0 -132.69295963381228 -28.675610163001693 0 0 0 0 -237.73668215988073 -69.158266014148467 0 -69.158266014148467 -10.636938711737457 0 0 0 0 33.139436557188475 -46.272334642341491 0 -46.272334642341491 53.976529921193787 0 0 0 0 -417.52926416871196 -630.55528806256916 0 -630.55528806256916 -219.42876049019287 0 0 0 0 -1096.6926829485019 -812.13618102296459 0 -812.13618102296459 -705.35826786454709 0 0 0 0 -457.00457035088039 -277.77854988098625 0 -277.77854988098625 252.91421570819512 0 0 0 0 61.202957932924619 -287.33611084857876 0 -287.33611084857876 -366.77503403411538 0 0 0 0 36.684778711071147 -51.676579424119637 0 -51.676579424119637 77.504851960260453 0 0 0 0 -231.07469173086429 -500.83506881417452 0 -500.83506881417452 -358.14897397720415 0 0 0 0 -885.39221597203868 -1125.9998157331138 0 -1125.9998157331138 -456.82289993620361 0 0 0 0 -776.47188392101089 -524.37761762313312 0 -524.37761762313312 -509.97502389640431 0 0 0 0 -548.52673127739399 -664.42040414899384 0 -664.42040414899384 -747.36704544253007 0 0 0 0 -587.83246311750554 -693.51845037549356 0 -693.51845037549356 -365.82924610233749 0 0 0 0 -380.65025480077747 139.73038861373789 0 139.73038861373789 -171.36389572294138 0 0 0 0 -775.20736295441748 -355.51180427076179 0 -355.51180427076179 -31.416595421120292 0 0 0 0 -895.22972679874511 -15.8198943255411 0 -15.8198943255411 -216.45769121868943 0 0 0 0 -422.4791436531159 -437.42237801239389 0 -437.42237801239389 -444.90261818892031 0 0 0 0 -812.72239930988871 -684.66563819820294 0 -684.66563819820294 -474.47595320771325 0 0 0 0 -1.232065727850653 0.94587266383652491 0 0.94587266383652491 5.3570049056831408 0 0 0 0 63.682339068342117 75.741099777485942 0 75.741099777485942 -81.230535012484324 0 0 0 0 597.90093243757656 -526.25083860041605 0 -526.25083860041605 163.85894676835596 0 0 0 0 -4.9547433684432463 -1.2318178951291543 0 -1.2318178951291543 -0.59597543760483518 0 0 0 0 406.77704827249545 -586.34164255828637 0 -586.34164255828637 173.9603064558687 0 0 0 0 -252.70319764294254 -715.74807607454568 0 -715.74807607454568 148.58450987574179 0 0 0 0 -377.0473293618852 -478.34400025540162 0 -478.34400025540162 -346.31161650996364 0 0 0 0 -943.94750811147969 -499.11747803667095 0 -499.11747803667095 -64.563022036963957 0 0 0 0 -509.507443711831 -2346.1570095098868 0 -2346.1570095098868 -5910.9616293884337 0 0 0 0 -473.52244203185546 -3413.4964074021482 0 -3413.4964074021482 -4845.5613165573741 0 0 0 0 902.15491356770508 536.45761542147375 0 536.45761542147375 -6198.4793473385798 0 0 0 0 -7.7165566968001258 -13.504061525166378 0 -13.504061525166378 -9.4511761930533282 0 0 0 0 -845.57225862784253 -956.79127370253991 0 -956.79127370253991 -805.05534593266202 0 0 0 0 -2096.9857852489586 -3973.5079198130297 0 -3973.5079198130297 -2.5877028029863141 0 0 0 0 1.8716878324375235 -4495.3916242981486 0 -4495.3916242981486 -2869.290986481923 0 0 0 0 -2558.715175747755 -3111.6571685871459 0 -3111.6571685871459 -1465.7009592599643 0 0 0 0 -1304.7166357245296 -3554.0666684255411 0 -3554.0666684255411 -1646.2450241564184 0 0 0 0 -2427.3901519086448 -2653.0571809445319 0 -2653.0571809445319 -869.57025395237724 0 0 0 0 -2186.8835069633642 -1868.8423714178134 0 -1868.8423714178134 -1488.9502674196119 0 0 0 0 -25.842462697800954 -14.687295392192709 0 -14.687295392192709 3.258228851540764 0 0 0 0 -58.85516231591464 -39.161541685898555 0 -39.161541685898555 -14.875967164247413 0 0 0 0 -1542.5392477370906 -1967.0326983834188 0 -1967.0326983834188 -1754.3169393228309 0 0 0 0 -1514.40408037835 -2277.7045970658755 0 -2277.7045970658755 -3474.8729361263977 0 0 0 0 -123.5287511148781 -3117.6682775925146 0 -3117.6682775925146 -4514.272053113833 0 0 0 0 -70.97404704883229 -87.694333856605226 0 -87.694333856605226 161.07540645461995 0 0 0 0 -46.5384264413442 -14.671404506385443 0 -14.671404506385443 185.34243561732001 0 0 0 0 -7.5972856431430955 -5.3636076921133622 0 -5.3636076921133622 1.7034649140081228 0 0 0 0 -15.527864775867783 -44.686922969325678 0 -44.686922969325678 -19.378725020826096 0 0 0 0 -6.2451559076443175 -16.985039844017081 0 -16.985039844017081 49.570758233104925 0 0 0 0 -37.635251842992147 -101.90495303500211 0 -101.90495303500211 98.01756875825231 0 0 0 0 -6.8261130531412277 0.835588537945398 0 0.835588537945398 6.7787287923547979 0 0 0 0 -35.771287152863806 -91.890366498526419 0 -91.890366498526419 18.241079447281663 0 0 0 0 -28.75707897292159 -34.447207792371046 0 -34.447207792371046 48.775392524548806 0 0 0 0 303.28540175326634 -78.095103050014586 0 -78.095103050014586 -307.65017716311559 0 0 0 0 60.566031163107255 286.73148233100073 0 286.73148233100073 143.39503795962082 0 0 0 0 -227.77633617001629 -540.80632364620396 0 -540.80632364620396 -853.93821696256055 0 0 0 0 -438.67870826531725 347.90112068581948 0 347.90112068581948 334.19401960806135 0 0 0 0 -25.414275587643715 -19.933000542396655 0 -19.933000542396655 34.923467499390654 0 0 0 0 -37.661915340676615 -23.364568566370906 0 -23.364568566370906 26.016187312843527 0 0 0 0 -51.940731824026443 -49.755497807374923 0 -49.755497807374923 -19.641799682809506 0 0 0 0 -7.4673291448099661 -30.643480717536249 0 -30.643480717536249 -14.205662568946082 0 0 0 0 -7.7805744758440767 -12.773270087106198 0 -12.773270087106198 -29.207453288225565 0 0 0 0 -4557.2917216212663 -2721.0803286645896 0 -2721.0803286645896 -1.634019142613397 0 0 0 0 -4.6595861107925884 -52.388423054275336 0 -52.388423054275336 -84.328549244004535 0 0 0 0 -4.1650188329034847 -0.93244890699014604 0 -0.93244890699014604 -8.1165081904451881 0 0 0 0 -135.87254797990317 -118.84024488386785 0 -118.84024488386785 -0.022764296954846941 0 0 0 0 99.850819394690916 -35.250214166682781 0 -35.250214166682781 -81.706544888380449 0 0 0 0 -70.712609255293387 -35.08698959534189 0 -35.08698959534189 49.241182663727471 0 0 0 0 -61.731515878433129 -89.334718423546292 0 -89.334718423546292 -134.85143846471328 0 0 0 0 -13.82517296098365 -11.939949229434774 0 -11.939949229434774 -8.9128008730739339 0 0 0 0 -93.759418945424841 -141.12516027009042 0 -141.12516027009042 -55.938519965537125 0 0 0 0 -59.150820817681961 -137.24485790728795 0 -137.24485790728795 -98.214394412760157 0 0 0 0 -153.72430699381221 -80.613437735970365 0 -80.613437735970365 -41.869343769314582 0 0 0 0 -31.049000868137227 -61.227640366007108 0 -61.227640366007108 -63.56184716837015 0 0 0 0 -5.1056547322506844 1.7025299574895598 0 1.7025299574895598 6.5151802260218687 0 0 0 0 -78.554455346988107 -139.50805302289518 0 -139.50805302289518 -0.11705560324480757 0 0 0 0 -127.50792769112741 -81.468579334512469 0 -81.468579334512469 -64.037855605216464 0 0 0 0 -86.860107431300889 -34.904966224374675 0 -34.904966224374675 44.415171594720846 0 0 0 0 -547.62819263210986 64.21340116810461 0 64.21340116810461 868.14386351645953 0 0 0 0 75.249327319063013 245.1129138854667 0 245.1129138854667 -2955.4967122865201 0 0 0 0 -625.23380103519594 -1370.6474347229814 0 -1370.6474347229814 -442.28118296916364 0 0 0 0 -955.33671218248492 -1633.7965724754904 0 -1633.7965724754904 -561.06584162694344 0 0 0 0 -769.88067319781112 -1140.1831218226798 0 -1140.1831218226798 -803.35073105008632 0 0 0 0 -1520.0733666187152 -934.84065229165572 0 -934.84065229165572 58.208410520848702 0 0 0 0 441.9957239201467 -770.33982823992119 0 -770.33982823992119 -385.5991494654445 0 0 0 0 -7.5602916095975843 -5.5262704557930959 0 -5.5262704557930959 -11.846943349954529 0 0 0 0 -1726.7153433476196 -250.9486839129022 0 -250.9486839129022 83.220342429718585 0 0 0 0 -388.35621632041875 96.272650458166027 0 96.272650458166027 96.365557633722347 0 0 0 0 -811.65943939561112 -619.16650297078741 0 -619.16650297078741 -439.33486826025182 0 0 0 0 -6.0020800707852118 -36.149226686745834 0 -36.149226686745834 -4.6779760401337285 0 0 0 0 -21.880119289271533 -242.70827308284788 0 -242.70827308284788 2.3028656086244155 0 0 0 0 541.84896580214263 -191.54645090647682 0 -191.54645090647682 90.790508569058147 0 0 0 0 75.176772876409814 28.885343877278501 0 28.885343877278501 23.762724665614769 0 0 0 0 -151.50195420476666 -540.34700441993846 0 -540.34700441993846 664.44137622175913 0 0 0 0 -615.03522167971823 -265.32301771108905 0 -265.32301771108905 339.16944654550753 0 0 0 0 -610.1151846399589 -308.7093213193948 0 -308.7093213193948 591.91717424703529 0 0 0 0 -802.54289886711922 -304.40049382523284 0 -304.40049382523284 479.60552037261368 0 0 0 0 -168.89513200978399 -875.01661213607076 0 -875.01661213607076 404.9529182662227 0 0 0 0 -721.40241591683298 -533.18973649825057 0 -533.18973649825057 505.80156883806922 0 0 0 0 -194.37196012519416 -419.73255223193701 0 -419.73255223193701 -821.38900382688007 0 0 0 0 -1308.5137939924316 -62.132014641087153 0 -62.132014641087153 281.65013427724625 0 0 0 0 -957.4546604900388 -993.35501847209525 0 -993.35501847209525 -200.18615791082266 0 0 0 0 -1041.948561246958 -800.20472695150238 0 -800.20472695150238 10.645407881500432 0 0 0 0 -916.80026642312987 -170.45001246247557 0 -170.45001246247557 261.81820800915011 0 0 0 0 -9.5205181454368812 -6.3804445979338311 0 -6.3804445979338311 5.2293401476978545 0 0 0 0 -82.205435682881216 -19.305347414170683 0 -19.305347414170683 164.98101011052495 0 0 0 0 35.159078673750628 9.2603106274982565 0 9.2603106274982565 34.171293017978314 0 0 0 0 -16.261892927731367 -32.482678650225864 0 -32.482678650225864 -7.2063440975947231 0 0 0 0 595.5027908453194 -501.76457788502739 0 -501.76457788502739 307.40511838238308 0 0 0 0 -42.058256996504497 -107.76203239111055 0 -107.76203239111055 91.269789023557678 0 0 0 0 639.35660140181426 -684.06669626294206 0 -684.06669626294206 314.0708690721367 0 0 0 0 -2.3292266760439446 -6.4484725467078761 0 -6.4484725467078761 3.0731960830551657 0 0 0 0 -77.113911434571492 -133.84952028543921 0 -133.84952028543921 -237.93130702455528 0 0 0 0 929.69620199536439 -626.2851057586231 0 -626.2851057586231 300.3727327100205 0 0 0 0 473.34470084542409 -600.5757378401031 0 -600.5757378401031 369.4298603964271 0 0 0 0 431.01576370702242 -468.7415444334838 0 -468.7415444334838 360.04442629692494 0 0 0 0 623.52623736769601 -493.43729785936739 0 -493.43729785936739 299.88938386387599 0 0 0 0 629.28317432667245 -505.56398709792848 0 -505.56398709792848 200.84455124038504 0 0 0 0 -19.878934085121386 -21.581715315969063 0 -21.581715315969063 -20.142814676426156 0 0 0 0 129.07535691800877 -268.01800996188103 0 -268.01800996188103 211.77784269477706 0 0 0 0 107.4043030029643 -156.95017171480322 0 -156.95017171480322 170.39331798406783 0 0 0 0 0.040923498178017326 -190.06951958230638 0 -190.06951958230638 197.12169048453507 0 0 0 0 0.21609659833484329 -117.62543987314712 0 -117.62543987314712 156.84139118484745 0 0 0 0 -8.2853096672920401 -7.5812415275896115 0 -7.5812415275896115 -5.0187695207157503 0 0 0 0 526.15512929213583 -136.27449531867751 0 -136.27449531867751 -397.2121664838196 0 0 0 0 775.48299791599857 -644.60086057701847 0 -644.60086057701847 295.83045090662199 0 0 0 0 774.16763201195863 -1450.6830689185226 0 -1450.6830689185226 1376.8545309329274 0 0 0 0 -16.623590543992805 -27.844182364503126 0 -27.844182364503126 -14.741807341762609 0 0 0 0 -0.59035517372831237 -2125.6587576894162 0 -2125.6587576894162 2575.3599602271788 0 0 0 0 916.95181150801363 -1077.987184437312 0 -1077.987184437312 -344.80891513387905 0 0 0 0 -103.79248092298803 -160.6364018375134 0 -160.6364018375134 -202.63742865182576 0 0 0 0 0.21144723499310203 -253.20101709160735 0 -253.20101709160735 -459.9242960768388 0 0 0 0 -0.1636265362467384 -237.69410997275554 0 -237.69410997275554 68.045543064086814 0 0 0 0 119.72091093489144 -147.74765455406668 0 -147.74765455406668 -201.91843751115084 0 0 0 0 76.935027370462194 -175.79621507680713 0 -175.79621507680713 95.15851352061145 0 0 0 0 59.075310063315555 -175.02179998913198 0 -175.02179998913198 202.87492521439435 0 0 0 0 -16.52412126037234 -193.42400174251816 0 -193.42400174251816 137.06156274479963 0 0 0 0 -31.733385114980877 -34.726871600432794 0 -34.726871600432794 -33.14580436171309 0 0 0 0 533.8008167402586 -652.67124768194481 0 -652.67124768194481 362.32159534573657 0 0 0 0 236.85226419346145 -346.8312334490729 0 -346.8312334490729 153.22021009559103 0 0 0 0 468.99658275130787 -368.86488659388215 0 -368.86488659388215 346.62696795529337 0 0 0 0 -41.666308975537447 -42.703062876229616 0 -42.703062876229616 -46.056295913952056 0 0 0 0 33.721805085675442 -694.94085352948605 0 -694.94085352948605 383.78937550884439 0 0 0 0 312.22328966367786 -374.52808672762694 0 -374.52808672762694 -207.13577588889166 0 0 0 0 134.53432187694852 -202.40727152693762 0 -202.40727152693762 -601.75923905373929 0 0 0 0 -150.79967045120429 -254.32823429232667 0 -254.32823429232667 -234.9761108181483 0 0 0 0 63.965608647049521 -505.76223093213048 0 -505.76223093213048 -600.56572483292257 0 0 0 0 80.988175438251346 -74.353498090116773 0 -74.353498090116773 488.5314463172399 0 0 0 0 37.024466819221061 -40.637375078816859 0 -40.637375078816859 15.189020553278525 0 0 0 0 17.558075623528566 -102.47373507712473 0 -102.47373507712473 55.47643269476248 0 0 0 0 -148.94997760665137 149.5233464056073 0 149.5233464056073 304.5071827628708 0 0 0 0 22.818245007599387 -82.510181012546354 0 -82.510181012546354 55.675338110021357 0 0 0 0 10.899996295102426 -69.272020540169734 0 -69.272020540169734 82.31302146912634 0 0 0 0 -231.80939250508527 -485.29745812018518 0 -485.29745812018518 82.662158747378271 0 0 0 0 -202.96828914400976 -480.22502462168268 0 -480.22502462168268 -238.85850623110309 0 0 0 0 -38.568146896989333 -63.729029712215777 0 -63.729029712215777 -36.22338181462726 0 0 0 0 18.683678081937614 -585.55210210239602 0 -585.55210210239602 216.51523633132456 0 0 0 0 8.942119949409971 -727.74684746419371 0 -727.74684746419371 269.66140610806542 0 0 0 0 -199.01607892117318 -305.84904089853808 0 -305.84904089853808 322.15130615774251 0 0 0 0 -509.31855396764877 -466.99261374398338 0 -466.99261374398338 490.10995195957184 0 0 0 0 -296.34289645811077 -385.02119690707332 0 -385.02119690707332 99.083820135059796 0 0 0 0 -295.60472506160841 -377.88655487382402 0 -377.88655487382402 133.5404932218953 0 0 0 0 -253.89344213152071 -274.48345229511324 0 -274.48345229511324 271.98373089390225 0 0 0 0 -2.1264188211750934 3.0533503230907684 0 3.0533503230907684 -5.7283470526807037 0 0 0 0 -981.51918938463496 24.135183527334448 0 24.135183527334448 231.40587020273961 0 0 0 0 368.52906033764884 -84.914409632547176 0 -84.914409632547176 120.62447808578145 0 0 0 0 254.48860146038351 -181.9785929020145 0 -181.9785929020145 657.14158788604072 0 0 0 0 21.742320177883812 -40.6720577878678 0 -40.6720577878678 26.747159503106502 0 0 0 0 118.32507224724395 -251.92303526547039 0 -251.92303526547039 24.215490469316137 0 0 0 0 -266.82671568769729 -228.88434062078522 0 -228.88434062078522 143.3240719508758 0 0 0 0 -3.3089716321992455 -137.11671868256963 0 -137.11671868256963 43.03490532161959 0 0 0 0 38.699289143697456 -94.771008744788077 0 -94.771008744788077 89.535210194875276 0 0 0 0 6.9736629440003526 -14.732257175517645 0 -14.732257175517645 -23.411476353927299 0 0 0 0 2.383518463379005 -98.25030432393396 0 -98.25030432393396 92.299143226045999 0 0 0 0 -13.049416096421254 -71.838579225555819 0 -71.838579225555819 96.981550005511224 0 0 0 0 -155.3637384758913 -189.36864216270624 0 -189.36864216270624 157.22673564356228 0 0 0 0 15.514599536574678 -107.22886069282686 0 -107.22886069282686 27.913121827823488 0 0 0 0 -144.34214590082411 -262.1242535203055 0 -262.1242535203055 15.634772890080058 0 0 0 0 22.733316379803 -99.400697887329443 0 -99.400697887329443 35.249782441620482 0 0 0 0 25.071058022723491 -87.422337988874347 0 -87.422337988874347 64.461271696404765 0 0 0 0 2.3372294950531796 -137.13088950993551 0 -137.13088950993551 75.159129102568841 0 0 0 0 5.0581947542814305 -115.06563857127912 0 -115.06563857127912 71.529608316239319 0 0 0 0 7.1595320682525312 -89.541667587237669 0 -89.541667587237669 63.831346564334623 0 0 0 0 -27.374902127223322 -104.62656065445481 0 -104.62656065445481 -145.15253979170666 0 0 0 0 -61.339279339270433 -173.65145344006851 0 -173.65145344006851 54.214745047975157 0 0 0 0 -78.158061852460378 -68.550543611579997 0 -68.550543611579997 129.49266144207286 0 0 0 0 9.4319935106050252 -19.280855315698616 0 -19.280855315698616 21.283070913859106 0 0 0 0 -204.93530636042851 -253.71219605170154 0 -253.71219605170154 40.090213071984181 0 0 0 0 -211.810981137216 -354.08894166975642 0 -354.08894166975642 -558.05881074161516 0 0 0 0 -94.598911774897715 131.70405966407634 0 131.70405966407634 -290.51862086814981 0 0 0 0 -384.46782112540677 -542.45214191466948 0 -542.45214191466948 -238.532556522292 0 0 0 0 -417.83127529517515 -760.33784989425294 0 -760.33784989425294 -384.30083072229172 0 0 0 0 -436.52134732107515 -752.87789733782847 0 -752.87789733782847 -89.957806733056259 0 0 0 0 -294.73459670431475 -551.00984467095168 0 -551.00984467095168 -55.60728847781138 0 0 0 0 -30.192732790470473 -649.66115636122231 0 -649.66115636122231 -173.27857222017337 0 0 0 0 694.52052229463879 -550.59197121572834 0 -550.59197121572834 -103.83836590532155 0 0 0 0 32.438555933880707 -376.94633510713993 0 -376.94633510713993 61.72892303539993 0 0 0 0 902.86321976319596 -129.80958057037424 0 -129.80958057037424 -80.968995433700002 0 0 0 0 239.328013185499 -312.33968589861979 0 -312.33968589861979 -68.311746656050673 0 0 0 0 284.92284784436924 -358.69919676497375 0 -358.69919676497375 -83.317032322087471 0 0 0 0 -5.4944433958265364 -16.972366402968049 0 -16.972366402968049 23.787819894709116 0 0 0 0 50.343460512056481 -131.3943651146983 0 -131.3943651146983 -46.788334915418091 0 0 0 0 284.88253625607467 61.00508004731455 0 61.00508004731455 110.89734930700797 0 0 0 0 -0.4981702356364508 -1.6696747214506047 0 -1.6696747214506047 -0.12107346238934724 0 0 0 0 -461.52056712270132 -627.80860575430052 0 -627.80860575430052 -812.23303849890362 0 0 0 0 -599.82138875624514 -291.5988093741289 0 -291.5988093741289 115.64516833295056 0 0 0 0 -1.5411945075535982 -5.9208447096294208 0 -5.9208447096294208 11.364598089795635 0 0 0 0 815.14072850529919 140.10735413345537 0 140.10735413345537 -35.043047077560914 0 0 0 0 -518.83342635328881 -433.3633104725559 0 -433.3633104725559 367.79147015284616 0 0 0 0 -666.94863500928477 -368.73223173466158 0 -368.73223173466158 340.38533448301314 0 0 0 0 99.850958534647361 -528.91507683218515 0 -528.91507683218515 229.13459647755371 0 0 0 0 -51.311374732802506 229.96823111448975 0 229.96823111448975 49.275875693769194 0 0 0 0 52.870589625277375 -96.797850449852092 0 -96.797850449852092 87.875430168917106 0 0 0 0 -353.89752255097847 -28.47874582849181 0 -28.47874582849181 519.78644251529477 0 0 0 0 169.60306464266614 -245.02410974465602 0 -245.02410974465602 117.23547806658098 0 0 0 0 645.39851874225133 -441.85304311058462 0 -441.85304311058462 -382.94934476583876 0 0 0 0 10.974717071186888 -11.80602472137673 0 -11.80602472137673 -16.716530635087878 0 0 0 0 -115.65093502946547 -405.05744125808997 0 -405.05744125808997 -690.2091180560019 0 0 0 0 -28.123540042038258 1.9856346325278196 0 1.9856346325278196 27.708807077891649 0 0 0 0 541.99820782654569 -250.93130380416551 0 -250.93130380416551 -299.52596656979586 0 0 0 0 -392.98079813246295 477.21536181340343 0 477.21536181340343 740.03653296557604 0 0 0 0 17.07870128316722 -13.22220291373327 0 -13.22220291373327 10.543091094111986 0 0 0 0 -673.65731464518467 -1135.1979169161496 0 -1135.1979169161496 460.88021342232969 0 0 0 0 -237.48539902694756 315.02884957794595 0 315.02884957794595 831.87334333189938 0 0 0 0 -409.71769081029925 60.722562759365246 0 60.722562759365246 642.67612634311081 0 0 0 0 -3.056248216467452 4.7445289778905533 0 4.7445289778905533 -3.6706633805104332 0 0 0 0 40.257681195875762 -84.728009846848721 0 -84.728009846848721 134.89857603939208 0 0 0 0 -69.642897637662827 82.741620192457049 0 82.741620192457049 -19.752121882513165 0 0 0 0 -539.38992371052154 -276.32721813657236 0 -276.32721813657236 288.251139480446 0 0 0 0 -235.75712703578756 -192.74896521957271 0 -192.74896521957271 325.12050396738778 0 0 0 0 -114.5137783004011 142.76637532161089 0 142.76637532161089 -151.66245556439389 0 0 0 0 -586.49151877290569 -312.54750721327582 0 -312.54750721327582 314.18406629129458 0 0 0 0 -74.665223371877801 -225.04617719412272 0 -225.04617719412272 -275.81695248604956 0 0 0 0 -597.3110484003264 -250.70898736372874 0 -250.70898736372874 115.55253541620914 0 0 0 0 -815.98578797318623 -117.98036850624703 0 -117.98036850624703 49.539519304336864 0 0 0 0 -424.06632083292425 25.398084917427695 0 25.398084917427695 -317.60549028325477 0 0 0 0 -385.70473175763618 -237.20015873896045 0 -237.20015873896045 -708.43972795183072 0 0 0 0 -1608.1013038308738 -505.84475698543247 0 -505.84475698543247 -272.50005338058691 0 0 0 0 -12.617222468709429 7.1932009711975979 0 7.1932009711975979 0.32726988238698596 0 0 0 0 -701.81019369988644 -604.21396231655308 0 -604.21396231655308 -102.68478269118987 0 0 0 0 -693.14934352810087 -586.92308569153829 0 -586.92308569153829 -287.8594839393777 0 0 0 0 -725.24035213631578 -391.76625394158327 0 -391.76625394158327 312.54186799479248 0 0 0 0 -517.03207546669 -143.05886342248414 0 -143.05886342248414 66.469945351578644 0 0 0 0 -616.88445853249868 -436.43522140593268 0 -436.43522140593268 137.82228546973784 0 0 0 0 0.32020455372185097 2.7617780934609755 0 2.7617780934609755 -0.34507584340940411 0 0 0 0 30.402906061545991 -60.300372401788991 0 -60.300372401788991 116.25970100415486 0 0 0 0 -488.83739729636 -303.25945257781859 0 -303.25945257781859 225.9215406319563 0 0 0 0 -221.35865318466676 -270.05810473635211 0 -270.05810473635211 -123.05305865684568 0 0 0 0 82.114088829133834 -31.902601361252891 0 -31.902601361252891 5.2485276432271348 0 0 0 0 -127.10925273390603 -376.38666997841938 0 -376.38666997841938 136.10646970055677 0 0 0 0 -342.87263861268002 -357.32138282879168 0 -357.32138282879168 123.70726948360971 0 0 0 0 -331.42087547824485 -523.1345162129619 0 -523.1345162129619 -180.52015117477822 0 0 0 0 0.16179927962366492 -316.08820388182721 0 -316.08820388182721 162.38281628316327 0 0 0 0 0.71285757806606398 3.9097118873862087 0 3.9097118873862087 -0.33039688728187855 0 0 0 0 4.0015632159775123 -563.34710838389583 0 -563.34710838389583 447.86783266138809 0 0 0 0 -126.97177362184448 -34.186104647695174 0 -34.186104647695174 810.21442228119122 0 0 0 0 4.5071799779919957 -0.97171093122744878 0 -0.97171093122744878 0.53782955673847255 0 0 0 0 635.58849348386866 87.893370110985416 0 87.893370110985416 -602.90476729883812 0 0 0 0 179.58002052232041 696.35485418909957 0 696.35485418909957 1117.9122277771276 0 0 0 0 5.1182928728012484 -130.2377369519254 0 -130.2377369519254 -530.73049528150295 0 0 0 0 -0.19577120411850046 -255.47157201769733 0 -255.47157201769733 -661.82436277646048 0 0 0 0 980.66583655020804 -484.43596098978378 0 -484.43596098978378 568.63698011965607 0 0 0 0 435.90897712859442 -1284.3449011962948 0 -1284.3449011962948 903.26281022644253 0 0 0 0 67.808121620480961 -1201.6771287018873 0 -1201.6771287018873 576.61855642932642 0 0 0 0 695.84830886297277 -1070.2558540328209 0 -1070.2558540328209 513.86884892250964 0 0 0 0 7.3450037754361119 -7.9699458027649825 0 -7.9699458027649825 8.3189650230321206 0 0 0 0 -751.30829996886314 -755.72779901490139 0 -755.72779901490139 428.70204965729135 0 0 0 0 -259.95007095398614 -139.05092458694344 0 -139.05092458694344 -409.5212825727067 0 0 0 0 675.95174573533586 -1131.5559827263642 0 -1131.5559827263642 457.47818516415828 0 0 0 0 -866.78162396009429 217.29900919598731 0 217.29900919598731 132.00071410085297 0 0 0 0 -1451.3467246290238 -1081.3711802937833 0 -1081.3711802937833 76.185770500136641 0 0 0 0 -408.01367415646382 -257.0633468829601 0 -257.0633468829601 563.96479024429573 0 0 0 0 -242.77628787785216 204.68132702222647 0 204.68132702222647 1001.2959470524984 0 0 0 0 -762.73785642276198 -134.92183327740349 0 -134.92183327740349 777.93694880818657 0 0 0 0 -297.46049173289612 -51.800282613381341 0 -51.800282613381341 371.01361565435946 0 0 0 0 -316.42580260371687 -170.12704350876538 0 -170.12704350876538 483.69222006668861 0 0 0 0 -60.596937817696016 -220.00560407292141 0 -220.00560407292141 -189.30253632024687 0 0 0 0 1.954648540005735 -12.990521699245477 0 -12.990521699245477 11.94525685454812 0 0 0 0 -196.59332807554165 100.24057824591364 0 100.24057824591364 780.89674806295079 0 0 0 0 -121.35326192584762 -118.25578388601934 0 -118.25578388601934 476.70381194758374 0 0 0 0 484.88861950873979 -752.75078085343193 0 -752.75078085343193 1053.6409789382597 0 0 0 0 299.47252578343614 -924.41858178164694 0 -924.41858178164694 1037.0391806864864 0 0 0 0 377.851091305929 -1383.5811484267106 0 -1383.5811484267106 1792.2141358186491 0 0 0 0 -204.5221640111904 285.5950325054323 0 285.5950325054323 -385.31382057148585 0 0 0 0 20.345240335307608 -435.86009001054663 0 -435.86009001054663 2098.0500201817849 0 0 0 0 0.63710022744004391 -7.5885837232961535 0 -7.5885837232961535 7.3451904429913384 0 0 0 0 1367.4919344521477 -2122.5077229385352 0 -2122.5077229385352 -116.81801304596775 0 0 0 0 1005.7907714889425 -1834.2340949507438 0 -1834.2340949507438 66.412340389142628 0 0 0 0 959.52320810852689 -493.83248459267634 0 -493.83248459267634 830.32876499176928 0 0 0 0 -39.489285654155537 -896.84738949096936 0 -896.84738949096936 1570.6648757644143 0 0 0 0 -108.96053668600507 -1291.6070151997465 0 -1291.6070151997465 312.95351577582187 0 0 0 0 -424.93673540459713 -258.96421601961629 0 -258.96421601961629 887.66508553551466 0 0 0 0 -1083.0211605718941 -1417.2799905685351 0 -1417.2799905685351 -200.05210406446713 0 0 0 0 -637.03423211484915 -910.16254975378251 0 -910.16254975378251 62.687423144721834 0 0 0 0 -1074.0653792504745 -1293.1013584919856 0 -1293.1013584919856 -1168.2362259942165 0 0 0 0 -3407.724605479103 -1343.4923557240108 0 -1343.4923557240108 -266.31932256107393 0 0 0 0 -1481.8852766643104 -359.92977077311662 0 -359.92977077311662 -689.83338209750946 0 0 0 0 -2200.831925099701 -555.33383288938421 0 -555.33383288938421 563.79278141992108 0 0 0 0 -1481.1474002155592 -524.07745144305227 0 -524.07745144305227 440.39723542387947 0 0 0 0 -733.11396136743133 -739.35730812022666 0 -739.35730812022666 471.26651532559481 0 0 0 0 -1317.8114141519472 -328.15510130161783 0 -328.15510130161783 887.80155634223775 0 0 0 0 -1635.2736574890296 -791.82405660459153 0 -791.82405660459153 659.62676705457852 0 0 0 0 -1028.2936440341873 -530.782585892317 0 -530.782585892317 720.22250193294894 0 0 0 0 -1609.8002100524609 -484.53210305395623 0 -484.53210305395623 827.56815605401789 0 0 0 0 -1036.0485983582621 -508.50888207856042 0 -508.50888207856042 829.48675620074937 0 0 0 0 -98.949281100271037 -408.61402509215986 0 -408.61402509215986 680.74522135037114 0 0 0 0 1399.8769783894822 -1123.4068005263834 0 -1123.4068005263834 759.81900923736612 0 0 0 0 189.94419163453858 66.593780183884519 0 66.593780183884519 1008.2830082653818 0 0 0 0 1.321249239059398 -744.32836396174389 0 -744.32836396174389 1271.8472181443503 0 0 0 0 -119.2051546551229 -524.402819510462 0 -524.402819510462 578.04365770601362 0 0 0 0 379.80848865506869 -283.45164524480469 0 -283.45164524480469 -50.006199874565937 0 0 0 0 -129.21569864574121 -450.71815286333003 0 -450.71815286333003 277.02667514699624 0 0 0 0 -1623.7201054280085 -1132.9398477244504 0 -1132.9398477244504 -73.759080150870432 0 0 0 0 76.811210338095719 -142.27752236011924 0 -142.27752236011924 205.92178590263558 0 0 0 0 -310.44294479411474 -771.32817146896923 0 -771.32817146896923 -877.49192236310773 0 0 0 0 -1.6793980269462736 -36.527894083249407 0 -36.527894083249407 39.917658623782188 0 0 0 0 -1930.0824495258275 -537.63984732078097 0 -537.63984732078097 923.89518475571458 0 0 0 0 -1860.6973344227008 -680.80381316241619 0 -680.80381316241619 847.63341144104197 0 0 0 0 -1498.421454895637 -190.45806989631819 0 -190.45806989631819 830.30579204572859 0 0 0 0 -1014.7231462375785 -513.64970420576719 0 -513.64970420576719 122.7809389441245 0 0 0 0 93.504551782419526 -137.65625742336974 0 -137.65625742336974 178.60720553488892 0 0 0 0 -141.14288069645409 -524.53689807312912 0 -524.53689807312912 421.40278695482993 0 0 0 0 155.09389878839647 -367.06125553154016 0 -367.06125553154016 16.927773132600123 0 0 0 0 -296.04952010198031 -11.11262405931484 0 -11.11262405931484 368.85094188874064 0 0 0 0 -3096.3147015106806 603.79631363758381 0 603.79631363758381 976.33077600543038 0 0 0 0 -149.38973248797993 67.907340735739126 0 67.907340735739126 581.3616784713231 0 0 0 0 -249.87839471842744 -158.31097236771529 0 -158.31097236771529 632.16021243509022 0 0 0 0 -9.1223506098807547 -13.712548932395634 0 -13.712548932395634 1.0552886314730046 0 0 0 0 68.879836823907681 -14.55310969877246 0 -14.55310969877246 193.06855330438702 0 0 0 0 -56.277071315271314 -247.66007127646299 0 -247.66007127646299 100.80967178638093 0 0 0 0 -29.996962186800829 -20.529542538096763 0 -20.529542538096763 69.83832758809281 0 0 0 0 -1475.5812968893515 -1616.6606739245162 0 -1616.6606739245162 -110.72548555460526 0 0 0 0 -415.5289649021579 -1024.0447203225049 0 -1024.0447203225049 -930.57565514979797 0 0 0 0 -29.31231241535292 -59.693370239302112 0 -59.693370239302112 -56.447175417776975 0 0 0 0 83.485478836591938 -320.17940419664683 0 -320.17940419664683 157.17339242788876 0 0 0 0 -1092.7459263250057 -2652.2616245875215 0 -2652.2616245875215 -2083.0468767653947 0 0 0 0 -46.070648831548169 -705.85394218035435 0 -705.85394218035435 539.89496673943358 0 0 0 0 -186.1679364713309 -253.10919699471287 0 -253.10919699471287 505.70365099917399 0 0 0 0 -55.621097241219104 -326.3817119897567 0 -326.3817119897567 122.27780029480346 0 0 0 0 372.25929645781343 -552.734194795348 0 -552.734194795348 560.78125690453453 0 0 0 0 -800.26751618219714 -824.80677132204801 0 -824.80677132204801 -23.634826455680013 0 0 0 0 -1588.8609707355063 -742.18854590195042 0 -742.18854590195042 871.31012457246834 0 0 0 0 -923.28622399133747 -876.64251040518138 0 -876.64251040518138 880.81938706881419 0 0 0 0 -97.374083254399011 -394.84207986448746 0 -394.84207986448746 -30.002123250434352 0 0 0 0 -228.60966598600498 -397.51000987325097 0 -397.51000987325097 93.203580533234344 0 0 0 0 -147.80403406152618 -234.36988785819267 0 -234.36988785819267 -327.98432083469379 0 0 0 0 -433.85971888236236 -318.288518384903 0 -318.288518384903 -28.896444978163345 0 0 0 0 25.198690589169701 -20.755116163309879 0 -20.755116163309879 19.063695410459729 0 0 0 0 -446.87857050866114 -671.84483301072282 0 -671.84483301072282 -589.48554094822612 0 0 0 0 16.853808133622806 -66.007341225391428 0 -66.007341225391428 -273.2326765194739 0 0 0 0 -145.66548826734652 -295.14919253157132 0 -295.14919253157132 -359.99139975160506 0 0 0 0 -1956.3480823229256 -2084.5790593754227 0 -2084.5790593754227 -3999.6540463760248 0 0 0 0 -22.800955008477615 -51.788960780517044 0 -51.788960780517044 -70.930762836984172 0 0 0 0 -150.59319713794685 -510.84189533469544 0 -510.84189533469544 -14.826467280912766 0 0 0 0 -164.50068730953353 -426.71497113478472 0 -426.71497113478472 -522.9351639706947 0 0 0 0 -164.44346228078939 -26.879559795284877 0 -26.879559795284877 80.123619478312321 0 0 0 0 -161.54917210992426 -209.26164415684252 0 -209.26164415684252 276.11846479904125 0 0 0 0 -5425.8766351318627 1875.0213770019982 0 1875.0213770019982 1384.4914793978824 0 0 0 0 564.75172846105124 -513.05540821129398 0 -513.05540821129398 -694.281252366236 0 0 0 0 -17.160165630244308 -20.333570443063593 0 -20.333570443063593 -27.068968993269038 0 0 0 0 -19.524430595443022 -19.456032405957842 0 -19.456032405957842 -25.916968834191337 0 0 0 0 -4996.6087045112799 1900.4511823411449 0 1900.4511823411449 1257.4357205995584 0 0 0 0 387.09651194607432 -351.89514498643075 0 -351.89514498643075 -1196.0762708474504 0 0 0 0 -327.5201219202354 -715.06784872076378 0 -715.06784872076378 -500.89029947837844 0 0 0 0 -1498.1040891315497 -1891.895893032699 0 -1891.895893032699 -1565.1269845686675 0 0 0 0 -3494.8689054834831 -973.48110631123927 0 -973.48110631123927 621.16302974401333 0 0 0 0 -3059.2308655727502 401.30045915307619 0 401.30045915307619 1057.5656211831447 0 0 0 0 -1713.0122576321592 -300.75277156527955 0 -300.75277156527955 475.64939718752066 0 0 0 0 -805.96959725269699 -448.7255558237448 0 -448.7255558237448 69.805452388348385 0 0 0 0 -1519.8189599618781 -405.08004634764438 0 -405.08004634764438 73.62056017859868 0 0 0 0 -631.02754873179947 -827.40976625861003 0 -827.40976625861003 -117.81004561568511 0 0 0 0 -589.89436282485258 -700.08599483466787 0 -700.08599483466787 -112.7062358081821 0 0 0 0 -1155.8359986456344 -1158.9398354104014 0 -1158.9398354104014 -445.32330970489056 0 0 0 0 13.323922359854123 -47.434494442894191 0 -47.434494442894191 14.818246838427541 0 0 0 0 62.41971699881833 -41.934891819313634 0 -41.934891819313634 -104.00352937784191 0 0 0 0 -1534.5951198124694 1090.0728818617285 0 1090.0728818617285 961.2514871034291 0 0 0 0 -157.72237784483877 -34.6680155149661 0 -34.6680155149661 -337.72213621229457 0 0 0 0 -47.703639749442999 -79.36800197505255 0 -79.36800197505255 -44.901189274612619 0 0 0 0 -26.392570226866155 -16.950427483965342 0 -16.950427483965342 -13.954200224783136 0 0 0 0 -92.571076736025134 -84.833730261501842 0 -84.833730261501842 -4.2758961576764705 0 0 0 0 116.73198214430886 -168.53338809170236 0 -168.53338809170236 -149.51047955908416 0 0 0 0 -112.18031682257424 -194.19288933541247 0 -194.19288933541247 -195.11170060739096 0 0 0 0 182.45895612017193 61.310427256106777 0 61.310427256106777 303.29292982777406 0 0 0 0 2184.7209327376331 150.46225438971305 0 150.46225438971305 -515.81841809284742 0 0 0 0 3.4003167602230349 -7.5580969616578102 0 -7.5580969616578102 6.405032534220652 0 0 0 0 -746.5843839825593 -366.65914349477407 0 -366.65914349477407 -29.143217007927888 0 0 0 0 357.97403849523107 -481.02309788055209 0 -481.02309788055209 -166.25103474815114 0 0 0 0 15.387659816515225 -83.797541770047246 0 -83.797541770047246 -15.827936742389284 0 0 0 0 673.71919631373021 -33.441949988533452 0 -33.441949988533452 -18.452672845290408 0 0 0 0 894.61057109836838 -284.25377509302416 0 -284.25377509302416 -267.03749710748525 0 0 0 0 698.07340295553877 30.116843977508324 0 30.116843977508324 -402.8615734406485 0 0 0 0 1872.7194718729625 419.94535140929838 0 419.94535140929838 -116.51813635417057 0 0 0 0 642.67217661642644 -157.49518957046166 0 -157.49518957046166 -330.24013920417201 0 0 0 0 9.4112987347898382 -19.899419402851294 0 -19.899419402851294 26.026218450492536 0 0 0 0 -518.34228191315924 -77.853098896193842 0 -77.853098896193842 -116.15832743249484 0 0 0 0 -1353.2482905526267 -1029.2199581783207 0 -1029.2199581783207 38.997653442998853 0 0 0 0 -155.63277430376183 -821.10620684020796 0 -821.10620684020796 -511.3147800160441 0 0 0 0 12.875079156226192 -26.650988237668315 0 -26.650988237668315 31.28388294973621 0 0 0 0 -2444.4680982678256 -153.58014697999897 0 -153.58014697999897 165.71638781219008 0 0 0 0 -977.57558547169174 -1172.6144193849677 0 -1172.6144193849677 697.71113473903097 0 0 0 0 1226.8949522622206 -891.64408730087234 0 -891.64408730087234 -643.64966221381474 0 0 0 0 -657.05002831724414 -154.13441079821132 0 -154.13441079821132 139.80971459876309 0 0 0 0 -1431.9868879495825 -1001.7537370978753 0 -1001.7537370978753 -375.69309570112091 0 0 0 0 13.543822407671854 -25.615174356813668 0 -25.615174356813668 25.457041665246606 0 0 0 0 -357.30315852805506 -1090.2918597707176 0 -1090.2918597707176 162.30860048578688 0 0 0 0 -2300.6023744020713 -1362.3033100069024 0 -1362.3033100069024 133.95253636557027 0 0 0 0 -1444.3988109630445 -1181.6988011284448 0 -1181.6988011284448 -2311.6161865193935 0 0 0 0 -1983.7768197805926 -162.65058861637954 0 -162.65058861637954 1484.1912750871979 0 0 0 0 -1378.0031966574752 -372.46887600320042 0 -372.46887600320042 -782.70378566065665 0 0 0 0 -1528.5888120346062 165.55589746584883 0 165.55589746584883 1776.1455381269152 0 0 0 0 -1809.4674513627579 -903.80237650318759 0 -903.80237650318759 1370.9398290557801 0 0 0 0 -602.27625575283309 -468.21205806777834 0 -468.21205806777834 470.74305881985492 0 0 0 0 76.000826085844892 -572.44193264035857 0 -572.44193264035857 1160.3649666108759 0 0 0 0 -577.18431105313357 -488.20094947374309 0 -488.20094947374309 -641.26848835616693 0 0 0 0 -907.32358143720194 -352.52116300663329 0 -352.52116300663329 -165.63333531026365 0 0 0 0 -81.170480353668552 8.9097266691661048 0 8.9097266691661048 4.720040381875144 0 0 0 0 -913.90627648719237 -644.61547253962635 0 -644.61547253962635 -395.25101788550455 0 0 0 0 -1641.4167110484268 -441.01299735282373 0 -441.01299735282373 -240.25416912256378 0 0 0 0 -251.47567717007769 45.189422458499394 0 45.189422458499394 -296.71391943243361 0 0 0 0 -1308.6977025389788 -909.51414259662124 0 -909.51414259662124 -615.62186047116256 0 0 0 0 -1146.3504792787026 -1247.7657976857454 0 -1247.7657976857454 -1181.5295894659721 0 0 0 0 -964.15393576657516 -890.15762174271731 0 -890.15762174271731 -889.86903663247358 0 0 0 0 -861.67815210491244 -582.21099902396236 0 -582.21099902396236 -602.99338289025036 0 0 0 0 -1118.1240281960636 -886.42123258495121 0 -886.42123258495121 -722.84576593339989 0 0 0 0 -293.4654334843799 241.3738662475298 0 241.3738662475298 25.186014538292511 0 0 0 0 -23.252322154333541 -23.140334446645284 0 -23.140334446645284 -12.432557965324776 0 0 0 0 401.29769112274516 -177.52423210049528 0 -177.52423210049528 2645.478707840397 0 0 0 0 -314.63559817304485 -10.468882577551994 0 -10.468882577551994 -187.42750273593992 0 0 0 0 -145.80597495082969 -81.036266946789851 0 -81.036266946789851 27.679657348853503 0 0 0 0 -608.87242080652504 280.27377706270272 0 280.27377706270272 181.41261969566403 0 0 0 0 -102.45696796567245 16.109834357412268 0 16.109834357412268 6.9368214293733388 0 0 0 0 776.44406109224656 -320.57345494749461 0 -320.57345494749461 -454.82564512023237 0 0 0 0 -281.16702681309835 -168.35419996719247 0 -168.35419996719247 62.919804375298554 0 0 0 0 -62.152155839226111 -73.652941747224361 0 -73.652941747224361 -27.768405490177457 0 0 0 0 -159.05219291901631 -181.66098026809641 0 -181.66098026809641 8.690194022594369 0 0 0 0 -15.298742547849244 -23.542236219371262 0 -23.542236219371262 38.808731418142344 0 0 0 0 -1336.9915981268568 -315.50720483642726 0 -315.50720483642726 1499.0849872086255 0 0 0 0 -171.69906236855604 58.705379849590827 0 58.705379849590827 -41.498127757935436 0 0 0 0 -235.1116122183812 -205.52232601218566 0 -205.52232601218566 46.036277224127844 0 0 0 0 -153.51784195202345 9.4503423382011533 0 9.4503423382011533 -36.547916740746587 0 0 0 0 7.2642584393182545 -11.974545535308181 0 -11.974545535308181 9.7589327827022316 0 0 0 0 1824.7177268934829 -337.86545097746603 0 -337.86545097746603 -848.27824544120085 0 0 0 0 773.79841373173258 -348.29676155942434 0 -348.29676155942434 -293.01174471803279 0 0 0 0 -504.62098387228252 -236.10126007887084 0 -236.10126007887084 45.175195142539451 0 0 0 0 8.566878827958746 -17.63651565351438 0 -17.63651565351438 25.430239622731392 0 0 0 0 -53.195172612087333 -74.301367865690537 0 -74.301367865690537 -40.096035524591002 0 0 0 0 80.496150877283071 -251.02254657564117 0 -251.02254657564117 -124.70441254253819 0 0 0 0 -221.0616897633372 -75.740268693602047 0 -75.740268693602047 -15.646381557373388 0 0 0 0 -953.70482948883728 70.839967414558487 0 70.839967414558487 -33.674755825566535 0 0 0 0 -153.16367626993451 -137.51608964418847 0 -137.51608964418847 -7.2040421876963592 0 0 0 0 -299.40153480986191 29.41575232109426 0 29.41575232109426 -51.033760266378522 0 0 0 0 -982.57986008630542 -547.41878046288912 0 -547.41878046288912 108.60119367038715 0 0 0 0 -449.14840371327591 -534.83526051676017 0 -534.83526051676017 108.51253190029058 0 0 0 0 -639.1101678906125 -343.14286798370995 0 -343.14286798370995 121.35525006964599 0 0 0 0 -641.59382561978418 -676.82058497533762 0 -676.82058497533762 154.22161529509322 0 0 0 0 -432.35422916375683 -645.14831401148331 0 -645.14831401148331 323.2071410892022 0 0 0 0 -464.83508433094539 -568.77329648851992 0 -568.77329648851992 193.82175055092375 0 0 0 0 -42.571895002940437 -342.42742688012731 0 -342.42742688012731 120.88239386372902 0 0 0 0 -168.23670982001931 -290.15750470075 0 -290.15750470075 290.00017344105936 0 0 0 0 -241.39845544140553 -378.89856417125702 0 -378.89856417125702 1104.3007465934788 0 0 0 0 -13.919475050526671 180.50313728856418 0 180.50313728856418 780.37215502619802 0 0 0 0 -162.96546996639518 -56.510275487635226 0 -56.510275487635226 585.96578778987168 0 0 0 0 -281.87012978384155 1.8662836217044969 0 1.8662836217044969 81.544440017089073 0 0 0 0 -46.093237597873667 -457.67824311772711 0 -457.67824311772711 409.95072019700456 0 0 0 0 -14.926961468270747 -1.8841775061155204 0 -1.8841775061155204 125.65757614703034 0 0 0 0 188.77495551091852 -334.00307347015769 0 -334.00307347015769 432.19365458024731 0 0 0 0 143.98564764639013 -664.53356653033188 0 -664.53356653033188 463.34325519712002 0 0 0 0 -62.123346363587189 -657.55234684961761 0 -657.55234684961761 1780.4084217600321 0 0 0 0 263.13202100631315 1012.2774775240032 0 1012.2774775240032 2994.8519321995263 0 0 0 0 -6.6298238283454793 -6.6106895727102426 0 -6.6106895727102426 7.5909115943392678 0 0 0 0 -17.483927194814896 -321.99553285519505 0 -321.99553285519505 -262.91567204481544 0 0 0 0 -95.781367732401122 -604.97545309572342 0 -604.97545309572342 4814.334426999485 0 0 0 0 -8.1365992448790507 -18.60600048515343 0 -18.60600048515343 1.4147649811443941 0 0 0 0 -5.855856134716305 -887.01639803397666 0 -887.01639803397666 -650.1955782119112 0 0 0 0 -254.56381008267635 63.886075701244408 0 63.886075701244408 4598.9641820956604 0 0 0 0 96.351264740747865 -1246.6246115884132 0 -1246.6246115884132 -0.6909638306387933 0 0 0 0 -328.6276326209063 -603.02959891626722 0 -603.02959891626722 236.61275948640832 0 0 0 0 -105.14322741352953 -535.41405813637903 0 -535.41405813637903 24.736290238477523 0 0 0 0 -334.76917143256196 -478.43255893479068 0 -478.43255893479068 -212.02403006567329 0 0 0 0 -480.95896988631284 -308.15967943976648 0 -308.15967943976648 72.65514774478288 0 0 0 0 -214.55070402560523 -274.34634011812159 0 -274.34634011812159 -520.40431465212168 0 0 0 0 -270.29281750238056 -111.044445468041 0 -111.044445468041 -177.96997417333478 0 0 0 0 -514.78575470711803 -247.48480396083323 0 -247.48480396083323 -36.04085453972948 0 0 0 0 -269.05132923552628 46.231185748956563 0 46.231185748956563 -9.83314226809307 0 0 0 0 -632.83392997973715 -249.38084268452076 0 -249.38084268452076 50.959185056541173 0 0 0 0 -593.58577605577011 -482.87054101008471 0 -482.87054101008471 -169.38721152050493 0 0 0 0 -479.18404020134403 -91.105976898472818 0 -91.105976898472818 115.09905200170033 0 0 0 0 -849.02414693999162 -279.57040321440945 0 -279.57040321440945 19.412226732478302 0 0 0 0 -500.98439257232531 -597.2841910950192 0 -597.2841910950192 159.3009600158548 0 0 0 0 -186.30433597898809 -51.337254132078669 0 -51.337254132078669 608.25170423238887 0 0 0 0 -261.22997676991508 -33.796888723827578 0 -33.796888723827578 196.26308930929736 0 0 0 0 -14.209289144456193 -13.404453288331666 0 -13.404453288331666 11.301602447121809 0 0 0 0 -204.37672755286621 -77.839541771718359 0 -77.839541771718359 53.412236968113575 0 0 0 0 -99.434912800177699 -176.82804585483973 0 -176.82804585483973 87.41482158081817 0 0 0 0 22.807845895120408 33.22872102002475 0 33.22872102002475 396.52802415473707 0 0 0 0 74.499272673623636 -775.04453407740493 0 -775.04453407740493 811.04970757571937 0 0 0 0 -62.191969130493817 -375.49959271223815 0 -375.49959271223815 -283.48842079600581 0 0 0 0 -658.20603416723316 -205.17567379327738 0 -205.17567379327738 235.19235505570396 0 0 0 0 -509.50827603125072 -1094.272553590501 0 -1094.272553590501 409.74450089326274 0 0 0 0 -478.90734211917152 -286.11370094072663 0 -286.11370094072663 -654.54557644750093 0 0 0 0 -469.24823672334605 -882.25984535155112 0 -882.25984535155112 -1759.5419865064432 0 0 0 0 -586.86554394355335 -1874.6399639707888 0 -1874.6399639707888 -1744.1887846407626 0 0 0 0 -1386.498789191086 -924.73221572827242 0 -924.73221572827242 -557.08869715790934 0 0 0 0 -3857.6310288146924 -1143.5177983046487 0 -1143.5177983046487 -1611.2628887689862 0 0 0 0 -2555.1128906006488 -2319.0591320280091 0 -2319.0591320280091 -1330.0883713030271 0 0 0 0 297.43950052311993 -1831.7203752588102 0 -1831.7203752588102 -1517.9702085207991 0 0 0 0 -2347.9631669443479 -3424.6364762246048 0 -3424.6364762246048 -2409.0627637145881 0 0 0 0 -1625.9502739436866 -2695.9714294295027 0 -2695.9714294295027 -1710.6987293045931 0 0 0 0 -1551.5425427461887 -2367.4952142483489 0 -2367.4952142483489 -2699.0326402093742 0 0 0 0 -4614.7853123552668 -1663.3915278885133 0 -1663.3915278885133 -1055.0922695227055 0 0 0 0 3352.5292948143506 -1191.4877586516741 0 -1191.4877586516741 -1393.7085362948128 0 0 0 0 -3.7069668673690614 -8.0985868168036177 0 -8.0985868168036177 -8.6107450417661937 0 0 0 0 912.61098064870748 -3061.093719829867 0 -3061.093719829867 -2308.1383237069676 0 0 0 0 -1231.135910228787 -2058.3743885191852 0 -2058.3743885191852 -2775.3839934989373 0 0 0 0 -1216.3502169435087 -2258.7929797493325 0 -2258.7929797493325 -2689.168644073492 0 0 0 0 -3160.0115657831484 -2457.4095395114855 0 -2457.4095395114855 -1803.8082842281437 0 0 0 0 -1806.8143456997641 -1644.6815680764266 0 -1644.6815680764266 -1385.6994931576919 0 0 0 0 -872.45615447609453 -1471.9260653191996 0 -1471.9260653191996 -2391.078106420664 0 0 0 0 -1283.2233770868916 -1783.2836784464807 0 -1783.2836784464807 -2022.6479011395786 0 0 0 0 -1123.3388852039061 -1158.6168171069658 0 -1158.6168171069658 -1272.317240467768 0 0 0 0 -1085.247012249165 -882.486984067913 0 -882.486984067913 -902.05227069879038 0 0 0 0 -1634.434012495316 -1347.2174079491906 0 -1347.2174079491906 -872.64598845437285 0 0 0 0 -2716.1440168207046 -150.24201178932344 0 -150.24201178932344 195.43085431255713 0 0 0 0 -550.20769806962926 263.88930788914513 0 263.88930788914513 -182.74033352711558 0 0 0 0 -96.215437201331952 -786.29382117264686 0 -786.29382117264686 1089.4197455799404 0 0 0 0 543.38628097734181 -1089.307473492503 0 -1089.307473492503 489.15561279161193 0 0 0 0 2094.7832299928414 -871.61885573036852 0 -871.61885573036852 -1014.5266860985794 0 0 0 0 -3955.7173262248543 -1048.0745914557683 0 -1048.0745914557683 -437.96266310171632 0 0 0 0 -3.8175275972913028 -8.2934936640834849 0 -8.2934936640834849 -12.222539932955897 0 0 0 0 -1334.7336604924349 -2082.747490561138 0 -2082.747490561138 5454.1924006616755 0 0 0 0 -855.27765708747029 -1653.5094270060217 0 -1653.5094270060217 3158.9863369884552 0 0 0 0 -316.40283173254284 -144.07985615443977 0 -144.07985615443977 490.87768252554815 0 0 0 0 6.0330185589954226 -9.9419672074519667 0 -9.9419672074519667 23.543258316724746 0 0 0 0 -45.402219221403357 1306.3267703894307 0 1306.3267703894307 4525.640309235062 0 0 0 0 -16.759421769631444 -103.92447443116544 0 -103.92447443116544 -84.552668851218186 0 0 0 0 -0.049206410170882009 -222.14219068455714 0 -222.14219068455714 -200.47565516927716 0 0 0 0 -183.80418603654834 -179.4091769594379 0 -179.4091769594379 -117.72225107589475 0 0 0 0 -95.550916226580739 -285.06430782155439 0 -285.06430782155439 -183.19164098567853 0 0 0 0 -66.410320015100297 -152.56209534927257 0 -152.56209534927257 -87.606804421018751 0 0 0 0 15.419573133414872 -30.876248191867319 0 -30.876248191867319 58.138436760050666 0 0 0 0 -217.72965978364664 -311.67307228289246 0 -311.67307228289246 -141.43675560943666 0 0 0 0 -306.91983192700718 -222.57306367724414 0 -222.57306367724414 509.33552454680466 0 0 0 0 -2.6221351231303629 1.5154359592190758 0 1.5154359592190758 0.42883952671829206 0 0 0 0 -459.7054054516484 -544.00071415678576 0 -544.00071415678576 -158.29274139142217 0 0 0 0 13.168052800945588 36.135430448295665 0 36.135430448295665 454.57854749006947 0 0 0 0 23.993750736969787 -46.86341688216072 0 -46.86341688216072 85.200469376355898 0 0 0 0 -107.97059227444697 -94.280289294230897 0 -94.280289294230897 -311.65180094949756 0 0 0 0 27.060042449418688 -8.824230146944501 0 -8.824230146944501 -34.471936049572832 0 0 0 0 -67.127668189656106 54.094763176790366 0 54.094763176790366 -9.4567338313281653 0 0 0 0 205.67707506318402 -472.59474072808734 0 -472.59474072808734 574.1879051861315 0 0 0 0 133.18896074495206 -196.50971903647451 0 -196.50971903647451 131.2333690700907 0 0 0 0 -470.54826922842767 -465.28215660055321 0 -465.28215660055321 2080.3443659942895 0 0 0 0 -783.21376129399869 -1633.8225596643097 0 -1633.8225596643097 1862.3861743752095 0 0 0 0 -6.1887228110753938 -15.981216327953035 0 -15.981216327953035 18.36450714811204 0 0 0 0 360.72172602418868 -670.7351114703597 0 -670.7351114703597 761.11648324111593 0 0 0 0 -911.73207460275444 -435.77322862925394 0 -435.77322862925394 78.940193742804695 0 0 0 0 -1260.7834579691698 -166.96822141446137 0 -166.96822141446137 98.665962485152704 0 0 0 0 -416.72505619581716 -246.23741310827245 0 -246.23741310827245 13.213471173214202 0 0 0 0 -6.8418794681029595 -17.201336819477262 0 -17.201336819477262 23.238604087214696 0 0 0 0 -164.23227577318903 -34.309181400847592 0 -34.309181400847592 382.84122572932392 0 0 0 0 43.33992071008106 -151.50563333917125 0 -151.50563333917125 32.504801727471204 0 0 0 0 -282.80810949047736 -426.96454017800716 0 -426.96454017800716 -15.922441377770156 0 0 0 0 -555.56678668217501 -192.19797344316976 0 -192.19797344316976 77.666856966156956 0 0 0 0 -594.22351835981044 -565.22931379946317 0 -565.22931379946317 124.11561031863675 0 0 0 0 -574.02010786757455 -603.56462463013486 0 -603.56462463013486 55.386609637222136 0 0 0 0 -191.13670658711635 -563.65924561805878 0 -563.65924561805878 -2.6564907797073829 0 0 0 0 -524.80056138141663 -696.93813160196805 0 -696.93813160196805 39.665514250969863 0 0 0 0 -537.62864570875536 -757.30392974569622 0 -757.30392974569622 40.236396455442843 0 0 0 0 -520.08874512461625 -722.16045724768992 0 -722.16045724768992 96.539695385072264 0 0 0 0 -492.03648551194055 -698.31073337368434 0 -698.31073337368434 76.129390985097416 0 0 0 0 -750.86718499565904 -722.74193525911505 0 -722.74193525911505 190.3611447115145 0 0 0 0 -865.94254494053894 -417.89272421075293 0 -417.89272421075293 44.864189946190891 0 0 0 0 -281.80032952546753 -425.74516872857748 0 -425.74516872857748 -136.58197752924752 0 0 0 0 -14.607158260320602 -13.579302715035283 0 -13.579302715035283 10.771837352908285 0 0 0 0 -429.88807866197021 -297.76901148201432 0 -297.76901148201432 63.785049210222496 0 0 0 0 -505.69367627593238 -848.36128447002375 0 -848.36128447002375 -1069.9235179415191 0 0 0 0 -86.281616378953913 -32.383642464315926 0 -32.383642464315926 1824.0067149670431 0 0 0 0 242.63585751783103 -170.69174908999776 0 -170.69174908999776 492.6349325514384 0 0 0 0 431.11186948516115 -725.23760877728819 0 -725.23760877728819 634.5528110819323 0 0 0 0 587.87212260206798 -1390.158989184446 0 -1390.158989184446 1609.9923957776773 0 0 0 0 349.80529395258054 -1304.7208611698552 0 -1304.7208611698552 1859.0764261369841 0 0 0 0 461.62970464787213 -1292.4417306762916 0 -1292.4417306762916 1535.2496881840998 0 0 0 0 184.46959051897284 -1950.8812532366937 0 -1950.8812532366937 2624.0057030984917 0 0 0 0 469.12290834597661 -1239.4834559819492 0 -1239.4834559819492 1860.4793031442168 0 0 0 0 233.22606819035718 -1552.1047613863338 0 -1552.1047613863338 2523.6380024079554 0 0 0 0 217.01860383196617 -1064.0723480480774 0 -1064.0723480480774 1433.7501636743546 0 0 0 0 304.08797782217152 -1444.8456021959864 0 -1444.8456021959864 1746.3662211186202 0 0 0 0 432.64950687263627 -900.10015699977521 0 -900.10015699977521 865.19831804735077 0 0 0 0 433.56735616820515 -1308.4272791619478 0 -1308.4272791619478 1443.3268268955799 0 0 0 0 493.79592618947208 -1267.3801302237425 0 -1267.3801302237425 1112.5210849120485 0 0 0 0 484.94387168559479 -1600.0284176077294 0 -1600.0284176077294 1344.971100950097 0 0 0 0 225.50921914820719 -1467.519933270446 0 -1467.519933270446 1990.5283125646383 0 0 0 0 251.76502226601588 -2035.7505259854588 0 -2035.7505259854588 2027.0174133260034 0 0 0 0 848.8075698610628 -1873.7070960022866 0 -1873.7070960022866 1543.6628734469487 0 0 0 0 432.23384053273185 -2079.5900341146516 0 -2079.5900341146516 1548.6510912712474 0 0 0 0 1441.2688988483133 -1953.2704074864414 0 -1953.2704074864414 1563.5960817579617 0 0 0 0 39.233530508325202 -3453.2141095235966 0 -3453.2141095235966 714.55798128806782 0 0 0 0 -200.30235907115275 -655.71300043512565 0 -655.71300043512565 3646.0360207919439 0 0 0 0 -8.0506067859705581 -8.369185401872528 0 -8.369185401872528 6.9067446773183931 0 0 0 0 -355.2721310891211 -2251.5275207116792 0 -2251.5275207116792 -960.13349562950316 0 0 0 0 -2042.9856964081118 -1454.738533730917 0 -1454.738533730917 -1246.2138365643841 0 0 0 0 -1992.0899055168557 -167.69763956055976 0 -167.69763956055976 13.571963476739256 0 0 0 0 -3285.0652925215254 -803.08730454526176 0 -803.08730454526176 -162.1345992876013 0 0 0 0 -2.2892761287869945 -7.5898624379204591 0 -7.5898624379204591 7.171966918481445 0 0 0 0 2995.599793409252 -2197.7399472676116 0 -2197.7399472676116 621.57542287858087 0 0 0 0 1618.5753650195838 -938.77214504221047 0 -938.77214504221047 424.9261364144586 0 0 0 0 313.60588843091682 -1548.1446815912605 0 -1548.1446815912605 1284.5137972602024 0 0 0 0 436.19275839608599 -2036.0898067172275 0 -2036.0898067172275 1716.3837759098387 0 0 0 0 -1280.5908064806717 -2817.7738464795548 0 -2817.7738464795548 738.08495478810073 0 0 0 0 -832.92355131165823 -2736.0611151717785 0 -2736.0611151717785 1437.6208394601344 0 0 0 0 1298.2362822085183 -2542.8551890234671 0 -2542.8551890234671 666.74152659198444 0 0 0 0 1235.2334248861653 -1371.6680930564444 0 -1371.6680930564444 1618.2103499388468 0 0 0 0 1182.8349512227287 -1581.4407192508334 0 -1581.4407192508334 1285.784298818985 0 0 0 0 838.52646171147353 -1659.6806491256793 0 -1659.6806491256793 1744.0449136372354 0 0 0 0 1783.7797397301038 -1729.4368825397469 0 -1729.4368825397469 895.16401997079083 0 0 0 0 534.68517399621487 -688.60822363565603 0 -688.60822363565603 313.64340629075014 0 0 0 0 815.94263838246115 -1105.5061597827607 0 -1105.5061597827607 646.85513921419624 0 0 0 0 -25.171930977305664 -35.660559346037161 0 -35.660559346037161 -17.132449383933022 0 0 0 0 -158.67814838104823 235.0564184817049 0 235.0564184817049 244.32140657080708 0 0 0 0 594.29303167934995 -681.85895252337104 0 -681.85895252337104 249.84913717656309 0 0 0 0 7.1756041610732382 -13.456919916107267 0 -13.456919916107267 0.1755139483067012 0 0 0 0 1435.6106968931126 -244.62336731134747 0 -244.62336731134747 -202.47317220504192 0 0 0 0 -218.12598654674366 -542.85713500218117 0 -542.85713500218117 -1280.4771100927901 0 0 0 0 -929.42073177045677 -1203.1879134388655 0 -1203.1879134388655 -2753.6526803568213 0 0 0 0 -16.776693668219991 -4.5259536851373241 0 -4.5259536851373241 1.249182739651701 0 0 0 0 -966.38908777065808 -2131.2096862499857 0 -2131.2096862499857 -2645.2051441144577 0 0 0 0 -2647.7661237568827 -3046.9300847387349 0 -3046.9300847387349 -3136.7274697001449 0 0 0 0 -3.4429486625364234 -6.7567546761003143 0 -6.7567546761003143 1.1237348336367745 0 0 0 0 -32.645357099972898 -48.526543932484856 0 -48.526543932484856 24.615154223183708 0 0 0 0 -42.047582734114258 -35.913948314071604 0 -35.913948314071604 225.74480536642295 0 0 0 0 -0.98057190018880647 -1770.2843905917853 0 -1770.2843905917853 -2921.7733978486285 0 0 0 0 -0.36809076640383864 -0.51280045019478848 0 -0.51280045019478848 -4.4571332231617617 0 0 0 0 -1155.1372230409834 -1822.1918230519332 0 -1822.1918230519332 -1870.3633271982326 0 0 0 0 -308.39482548568049 -1382.8463211765338 0 -1382.8463211765338 -1879.092423157867 0 0 0 0 -1.064478943546419 -2503.6682008512798 0 -2503.6682008512798 17.457716219250869 0 0 0 0 -1875.0986730321019 -1977.7851119657207 0 -1977.7851119657207 1059.4194113278718 0 0 0 0 -660.69908910426602 -2153.4606948745204 0 -2153.4606948745204 -571.41936012904625 0 0 0 0 -1885.2104386840656 -1264.609497005531 0 -1264.609497005531 -212.59186792447872 0 0 0 0 -766.33048840981792 -2211.3598492636011 0 -2211.3598492636011 1029.5880285062135 0 0 0 0 -736.2507514070021 -2766.4925542530582 0 -2766.4925542530582 2125.0464364034706 0 0 0 0 10.95665233964462 -2972.7752936609959 0 -2972.7752936609959 3125.7071496483695 0 0 0 0 -659.10346003502491 -1625.1778085422302 0 -1625.1778085422302 1322.684855793028 0 0 0 0 2.0698904232704081 -2127.5606724945101 0 -2127.5606724945101 1398.0057315928025 0 0 0 0 -147.52559270037455 -753.94311640167689 0 -753.94311640167689 316.41099274462613 0 0 0 0 348.41305754022324 -1828.6591499410479 0 -1828.6591499410479 -1340.5416973030988 0 0 0 0 -334.14758104541397 -864.99352789905879 0 -864.99352789905879 1097.2151215474696 0 0 0 0 207.80369655516552 -894.1012235147673 0 -894.1012235147673 1081.1181201213112 0 0 0 0 -772.46721115041146 -299.32026175843112 0 -299.32026175843112 4757.1024622891564 0 0 0 0 12.016866157386403 -3.5500208483494475 0 -3.5500208483494475 6.04141636294111 0 0 0 0 0.10816718530259095 -182.93722147247354 0 -182.93722147247354 -239.76168354580386 0 0 0 0 -0.93443746585398912 -72.201108462037155 0 -72.201108462037155 -95.803441272120835 0 0 0 0 -0.074016039682576459 -183.39996755105386 0 -183.39996755105386 35.889463856314251 0 0 0 0 -46.488320020038373 -67.888165786096806 0 -67.888165786096806 5.33460660030687 0 0 0 0 -21.387971387564903 -89.964417020668407 0 -89.964417020668407 11.561672236271988 0 0 0 0 27.875685448219883 -118.01409224100917 0 -118.01409224100917 -75.703593624024506 0 0 0 0 36.705590111122433 -26.712072684186083 0 -26.712072684186083 -3.9265018611568614 0 0 0 0 -20.645600731019329 -50.920785271368572 0 -50.920785271368572 -36.266192740402161 0 0 0 0 395.4418276931392 -145.5469969306032 0 -145.5469969306032 -201.14665672046976 0 0 0 0 -121.29555857587548 61.325662642146199 0 61.325662642146199 -3.3048141552571906 0 0 0 0 278.05575372537714 -534.03710365854204 0 -534.03710365854204 732.0538472689741 0 0 0 0 11.521941421664508 -46.195981738408335 0 -46.195981738408335 4.7904980476604919 0 0 0 0 228.92405842113658 -258.78370053373328 0 -258.78370053373328 -26.427007392834639 0 0 0 0 -654.21509336843155 -657.12920840012521 0 -657.12920840012521 -521.53307033971942 0 0 0 0 -3.0808471791471561 -27.448276003383199 0 -27.448276003383199 -13.338351137311278 0 0 0 0 674.03178052990552 -934.59540445753373 0 -934.59540445753373 563.56781097860949 0 0 0 0 -146.64083957881667 -708.87347368598785 0 -708.87347368598785 1799.8423709946314 0 0 0 0 174.64596357863047 -856.37101006728881 0 -856.37101006728881 580.45297510756154 0 0 0 0 311.17551125117461 -995.63780431162377 0 -995.63780431162377 -1331.6707752543589 0 0 0 0 1922.4285312462744 -2153.4477051070262 0 -2153.4477051070262 -2441.2746637879973 0 0 0 0 -2.3687425048265993 -5.6163008834751906 0 -5.6163008834751906 -11.33032361993952 0 0 0 0 -3426.084774851246 -1976.8269509988786 0 -1976.8269509988786 -726.20897467989653 0 0 0 0 -793.75747885761666 -1333.719989865152 0 -1333.719989865152 -1428.1209623028772 0 0 0 0 -617.06802523741499 -777.60327783698631 0 -777.60327783698631 -295.47259604818919 0 0 0 0 65.708531942738773 -639.34162695779105 0 -639.34162695779105 1174.6109714516278 0 0 0 0 215.46469297412841 -182.98208954614347 0 -182.98208954614347 100.26259109600869 0 0 0 0 -567.38185281903134 -1830.9072355423214 0 -1830.9072355423214 -2204.178887219899 0 0 0 0 285.01615355993272 -766.78940063398295 0 -766.78940063398295 1070.2722123504063 0 0 0 0 14.718214193981396 -34.392052549147792 0 -34.392052549147792 10.051584773661791 0 0 0 0 38.645281622681068 -665.15702486339433 0 -665.15702486339433 1573.4685677639445 0 0 0 0 -152.660110023382 -1228.0972374464372 0 -1228.0972374464372 4575.5191466635188 0 0 0 0 686.2174692259432 -2264.088731470325 0 -2264.088731470325 1710.6174799526198 0 0 0 0 7.0377335343549703 -15.550807750334798 0 -15.550807750334798 3.4815885539554188 0 0 0 0 666.08193547792325 -2052.2353778667875 0 -2052.2353778667875 -4943.7214695350121 0 0 0 0 -701.49856066961365 -1479.4452246258224 0 -1479.4452246258224 -1283.490269999329 0 0 0 0 -477.17643067057361 -1814.4586380685105 0 -1814.4586380685105 -896.65703843562733 0 0 0 0 5.3976545784098562 -1242.7542658894563 0 -1242.7542658894563 -1255.088668098218 0 0 0 0 -782.00343960394093 -889.99407430199744 0 -889.99407430199744 3214.8954743964641 0 0 0 0 -1.3323746280204318 -14.899495322753197 0 -14.899495322753197 3.0813508520363406 0 0 0 0 -5.1321923799002889 -37.829990494521468 0 -37.829990494521468 14.927969724981637 0 0 0 0 -863.27344369609636 -2083.2351691202448 0 -2083.2351691202448 -3484.1437288305842 0 0 0 0 -212.04779625404626 -1726.235488499472 0 -1726.235488499472 -4445.2824357025193 0 0 0 0 -1504.9564604604529 -1463.6367785756315 0 -1463.6367785756315 -1647.1635075772283 0 0 0 0 -507.45528549798473 -1478.1374951594344 0 -1478.1374951594344 -1655.8346673275519 0 0 0 0 -687.54504494830326 -1055.3149444888945 0 -1055.3149444888945 -531.13250526582442 0 0 0 0 -1230.5293719751498 -1557.2169889656784 0 -1557.2169889656784 -634.38067132641436 0 0 0 0 -868.24753302965837 -1687.0909234412466 0 -1687.0909234412466 -1574.6985505009484 0 0 0 0 -793.74071152690158 -1663.3984702488233 0 -1663.3984702488233 -935.32550577542042 0 0 0 0 -780.32012669413962 -1609.2594975125235 0 -1609.2594975125235 -755.39368998740883 0 0 0 0 -854.14418135868618 -1390.101970940701 0 -1390.101970940701 -845.86805051609326 0 0 0 0 -841.73593063692897 -1471.639582134806 0 -1471.639582134806 -542.53180656374525 0 0 0 0 -507.60292741755256 -1285.9617550377304 0 -1285.9617550377304 -1780.6755841545264 0 0 0 0 -1.8604828603826604 -46.118506843863699 0 -46.118506843863699 19.117689439329485 0 0 0 0 -771.69843168358784 -1078.1857782005977 0 -1078.1857782005977 -1574.1856601189247 0 0 0 0 -359.00931243014929 -781.48836544473306 0 -781.48836544473306 195.91729390096043 0 0 0 0 -463.93853695789221 -1633.3479085878498 0 -1633.3479085878498 -2327.3227737666093 0 0 0 0 -1575.967319555959 -1309.9045748441567 0 -1309.9045748441567 -1611.858056514684 0 0 0 0 -806.23860127935768 -2144.6491873006908 0 -2144.6491873006908 -2302.5532214178647 0 0 0 0 -547.83007086011639 -2337.9490218489618 0 -2337.9490218489618 -2436.5221123467045 0 0 0 0 519.40154871404957 -2012.2251359818752 0 -2012.2251359818752 -4844.9523362565124 0 0 0 0 -297.52698552998118 -927.23031475788366 0 -927.23031475788366 205.85088120777596 0 0 0 0 7.2851066577560459 -40.633060199674588 0 -40.633060199674588 14.873627135059794 0 0 0 0 -289.12342049315339 -826.78900394538732 0 -826.78900394538732 -1287.8663657173431 0 0 0 0 -576.80410617461894 -1668.0842341396699 0 -1668.0842341396699 -752.03267621049827 0 0 0 0 -470.84216495307192 -1337.7619819657834 0 -1337.7619819657834 191.31324291701048 0 0 0 0 168.0839960451849 -1214.5564036309565 0 -1214.5564036309565 -325.10691200963493 0 0 0 0 128.42359451392258 -1191.54817958273 0 -1191.54817958273 398.3332189808882 0 0 0 0 358.95021651679417 -1685.3754258206482 0 -1685.3754258206482 142.87894109423723 0 0 0 0 986.6704928651161 -1566.7522463379305 0 -1566.7522463379305 -3286.5131925085352 0 0 0 0 0.42719920822128188 -2991.5674803879533 0 -2991.5674803879533 334.38469957665438 0 0 0 0 -829.62931776269397 -1326.4712569971648 0 -1326.4712569971648 4271.7738931674085 0 0 0 0 6.0748863004531586 -16.461249008111807 0 -16.461249008111807 4.6715419382040322 0 0 0 0 1.1785336814355105 -2274.2621323275062 0 -2274.2621323275062 -5585.0426559107455 0 0 0 0 -733.5489695785036 -928.65951496349612 0 -928.65951496349612 -1859.3588323803597 0 0 0 0 371.71069302561227 -604.30009699848233 0 -604.30009699848233 -4044.6712461333236 0 0 0 0 -1.3856416498696182 -2049.5283046062373 0 -2049.5283046062373 -1698.4612019038905 0 0 0 0 -48.590606918015055 -42.169677016691196 0 -42.169677016691196 -37.976246320086176 0 0 0 0 -600.48711603271659 -587.23267901498184 0 -587.23267901498184 -80.209859126538959 0 0 0 0 -1751.8348647216189 -652.49068556621387 0 -652.49068556621387 101.56019353594093 0 0 0 0 -813.24442677493789 -189.9284625054247 0 -189.9284625054247 107.53217153134028 0 0 0 0 -686.03190429304959 -612.63862461110693 0 -612.63862461110693 -194.45166997124034 0 0 0 0 -677.90662426390918 -590.8946607458538 0 -590.8946607458538 -172.90462949401262 0 0 0 0 -696.39911367573222 -554.20760187227461 0 -554.20760187227461 -205.07408962557383 0 0 0 0 -394.4594012764137 -297.45712988339437 0 -297.45712988339437 -145.16086448384885 0 0 0 0 -276.80555142082267 -912.60101027665041 0 -912.60101027665041 339.14176087707165 0 0 0 0 -5.4722922067740001 -591.98863597091258 0 -591.98863597091258 -404.17166965926754 0 0 0 0 -22.921402308808183 -81.059256586571905 0 -81.059256586571905 -18.058062765371972 0 0 0 0 88.420835630953661 -92.31371515812134 0 -92.31371515812134 -119.93080765832201 0 0 0 0 -304.5024902743171 -557.42977857443475 0 -557.42977857443475 -138.96817114864825 0 0 0 0 45.03865574753479 -72.422521909815117 0 -72.422521909815117 14.512000004525675 0 0 0 0 -973.39616830198793 -27.885082776268973 0 -27.885082776268973 155.61189301957165 0 0 0 0 -770.75584948135656 -384.46899590004978 0 -384.46899590004978 495.00844940030038 0 0 0 0 -11.94143771903272 -37.40444740035187 0 -37.40444740035187 -10.628114749340142 0 0 0 0 1160.0398377002275 -969.0987613267971 0 -969.0987613267971 689.67968208515958 0 0 0 0 8.8517116476286901 -1531.3515373545438 0 -1531.3515373545438 1029.2259996573048 0 0 0 0 -360.71310675271889 -182.37124501065091 0 -182.37124501065091 -33.633774214496952 0 0 0 0 2503.8000820166126 -1255.041290628129 0 -1255.041290628129 182.50279999157647 0 0 0 0 -11.729028736597144 -22.745154708953237 0 -22.745154708953237 -14.527038255185346 0 0 0 0 -2032.2489111469768 127.38529531028325 0 127.38529531028325 384.04447568676733 0 0 0 0 952.36881623050431 -1070.5170080672106 0 -1070.5170080672106 853.6955413920623 0 0 0 0 -716.548848761915 -269.30334854872854 0 -269.30334854872854 -640.12229618218771 0 0 0 0 1059.2468762098288 -2625.8378526802871 0 -2625.8378526802871 -3265.3824409147055 0 0 0 0 -783.2691840378684 -76.117441241727647 0 -76.117441241727647 293.50160795818374 0 0 0 0 -19.263879273851501 -18.838754019075026 0 -18.838754019075026 -16.476260840099968 0 0 0 0 -5115.2438546807243 -752.34011056565214 0 -752.34011056565214 251.58138961567965 0 0 0 0 -2177.5799777474022 -3519.0455232716195 0 -3519.0455232716195 -3786.5736300411554 0 0 0 0 -925.6192049265228 -2478.651594999581 0 -2478.651594999581 -1119.4535798117577 0 0 0 0 -823.44297786107927 -2439.2479910130714 0 -2439.2479910130714 -1021.3792987248089 0 0 0 0 -1472.5625042401953 -2057.214285363194 0 -2057.214285363194 -1103.3457010680468 0 0 0 0 -710.13164270887501 -2227.4154288115715 0 -2227.4154288115715 -1286.2665310806879 0 0 0 0 373.82502614345867 -1345.125045247084 0 -1345.125045247084 -672.70277523924597 0 0 0 0 -606.28266124607762 -2001.4461746970974 0 -2001.4461746970974 -44.263153017946024 0 0 0 0 -541.61588386011135 -2324.9498798939003 0 -2324.9498798939003 -1265.5602622584593 0 0 0 0 -204.94803704168589 -2609.1101272681371 0 -2609.1101272681371 -970.8511407866863 0 0 0 0 207.02461968425632 -2089.4272675246848 0 -2089.4272675246848 -1478.9553652873801 0 0 0 0 -801.98674394270347 -2012.3216351675637 0 -2012.3216351675637 -1557.1113818895428 0 0 0 0 -192.12492378956813 -2732.9568768994523 0 -2732.9568768994523 -2668.7066059616391 0 0 0 0 -206.05327130480146 -2594.1669098971379 0 -2594.1669098971379 -1457.2128071753991 0 0 0 0 -1561.5678449777479 -2154.0968186014161 0 -2154.0968186014161 -975.03412008178384 0 0 0 0 -946.54947373839605 -2705.6142480033432 0 -2705.6142480033432 -1266.396557455635 0 0 0 0 -99.36693195081898 -2710.0353425458798 0 -2710.0353425458798 -1655.2025839167254 0 0 0 0 2016.2072440653283 -1863.894050295723 0 -1863.894050295723 -1332.1995276028738 0 0 0 0 -81.362608971031477 -1206.7176165480648 0 -1206.7176165480648 -442.44275788147934 0 0 0 0 -138.64806332913577 -1174.970849910269 0 -1174.970849910269 -453.25638730898845 0 0 0 0 -695.50499000234413 -616.97622732108357 0 -616.97622732108357 -125.87093014307175 0 0 0 0 -617.56982932670508 -961.27319351360347 0 -961.27319351360347 32.025052271867025 0 0 0 0 287.32784796698252 -555.68060066243379 0 -555.68060066243379 94.971750816162967 0 0 0 0 734.46747380185116 -1181.1406310757702 0 -1181.1406310757702 -324.73289770194606 0 0 0 0 834.80669417841455 -290.40755105851667 0 -290.40755105851667 664.61762195411575 0 0 0 0 108.22950327329454 -889.55833295137563 0 -889.55833295137563 -87.865280309688387 0 0 0 0 -806.62675454386044 -587.1280045495314 0 -587.1280045495314 -331.69645471230979 0 0 0 0 110.51141750287934 -869.48725261920515 0 -869.48725261920515 -518.74268218600628 0 0 0 0 -1919.2981313972923 -3046.2055430208338 0 -3046.2055430208338 -987.58460381401346 0 0 0 0 -1231.1912719128013 -4613.2271684015959 0 -4613.2271684015959 -6218.6078349283907 0 0 0 0 -3086.1510757278011 -3441.6277050664075 0 -3441.6277050664075 -416.18562009464222 0 0 0 0 3657.9742486759496 -456.1508078716497 0 -456.1508078716497 -1207.6686267142286 0 0 0 0 1.8839642252915425 -14.575092820053442 0 -14.575092820053442 -19.668443522646868 0 0 0 0 3.793412411154911 -21.158824576300134 0 -21.158824576300134 -33.412592079856495 0 0 0 0 374.42487791038002 -1106.5794705554426 0 -1106.5794705554426 -205.58756778675161 0 0 0 0 1792.7781710077979 -1095.6012198272256 0 -1095.6012198272256 -1265.1037117931169 0 0 0 0 -1986.5417887268704 -821.57327230976625 0 -821.57327230976625 -538.12966786948414 0 0 0 0 -957.5842715839317 -870.11416135561308 0 -870.11416135561308 200.6448842552154 0 0 0 0 1.0847878592435372 -9.290521234227981 0 -9.290521234227981 -14.015736157662289 0 0 0 0 -2699.9204309372581 -1979.2877725665467 0 -1979.2877725665467 56.099574263272643 0 0 0 0 2770.9147589440836 -411.15346617357682 0 -411.15346617357682 -794.56966138084545 0 0 0 0 532.96781389851822 -777.07427336414366 0 -777.07427336414366 -655.360943831849 0 0 0 0 404.15105259983102 -1310.2802742659132 0 -1310.2802742659132 -366.08547919634293 0 0 0 0 -11.818496313032142 -5.0679193110912308 0 -5.0679193110912308 19.012236801975142 0 0 0 0 525.47390392732632 -1133.7285567849804 0 -1133.7285567849804 -406.85083835940895 0 0 0 0 466.39782743842807 -1287.2658967069219 0 -1287.2658967069219 -514.90599324103823 0 0 0 0 91.227998375165043 -609.42254802279876 0 -609.42254802279876 -532.98940597875117 0 0 0 0 107.10620932842085 -874.6948984044792 0 -874.6948984044792 502.92006217072412 0 0 0 0 1011.3767591627839 -825.08766214367915 0 -825.08766214367915 -603.34817660515728 0 0 0 0 513.59165243447933 -652.26285201273731 0 -652.26285201273731 747.96107528278662 0 0 0 0 -1718.6243685282825 -907.33237110107257 0 -907.33237110107257 -276.48479748214868 0 0 0 0 47.474267145688543 -80.006657908570816 0 -80.006657908570816 103.72663391895591 0 0 0 0 -1133.0979370915156 -861.12347759722979 0 -861.12347759722979 -456.44064944165439 0 0 0 0 -1561.0620167738743 -1272.5161886122878 0 -1272.5161886122878 -555.04009171077996 0 0 0 0 -1483.3299775656997 -1036.4095611481716 0 -1036.4095611481716 -462.51267471550091 0 0 0 0 -1435.3876214986085 -1103.4465630503473 0 -1103.4465630503473 -369.04722558218782 0 0 0 0 -1298.2583055818031 -1118.7468329269896 0 -1118.7468329269896 -158.53437842599669 0 0 0 0 22.841680926184836 -15.297990575434198 0 -15.297990575434198 -15.35075820551161 0 0 0 0 380.74930086312816 -381.67532491729617 0 -381.67532491729617 -279.27368786283841 0 0 0 0 -848.51837659104785 -967.77291939117094 0 -967.77291939117094 -366.35824844060568 0 0 0 0 109.08831009393828 -126.31403882910226 0 -126.31403882910226 142.37537214136506 0 0 0 0 -592.64419797222945 -540.44910073896972 0 -540.44910073896972 -207.28722092172188 0 0 0 0 -323.70343386848253 -666.26076569956945 0 -666.26076569956945 -379.14953497196984 0 0 0 0 -617.23661173137953 -608.89549593558513 0 -608.89549593558513 -261.76676755904191 0 0 0 0 -615.37761283674263 -921.16719401705996 0 -921.16719401705996 -610.50116773774062 0 0 0 0 34.861835367009917 -495.33906307529833 0 -495.33906307529833 -619.20306750287273 0 0 0 0 690.82250570777978 -277.09798419042272 0 -277.09798419042272 -913.60542663336309 0 0 0 0 107.19403872075748 -64.806566722996479 0 -64.806566722996479 -138.33448124235369 0 0 0 0 161.19475972477679 -176.94669568744115 0 -176.94669568744115 138.75746653826957 0 0 0 0 -307.56485825135314 -599.6541081030573 0 -599.6541081030573 -403.69274518190934 0 0 0 0 120.0618399768282 -709.77525199632873 0 -709.77525199632873 -808.40936818403134 0 0 0 0 -805.9580811887954 -1276.6352486868725 0 -1276.6352486868725 -698.83976606725628 0 0 0 0 847.97430423153855 -1100.5340983191436 0 -1100.5340983191436 -1427.5159612341122 0 0 0 0 324.45969703215815 -854.29295269436625 0 -854.29295269436625 -772.01483077998728 0 0 0 0 402.74045156786451 -708.24119889852955 0 -708.24119889852955 -1540.91245013148 0 0 0 0 486.7942310374965 325.33329438154215 0 325.33329438154215 -2675.0604346383989 0 0 0 0 960.77142812300735 -1125.0336900613629 0 -1125.0336900613629 -2120.9018641982002 0 0 0 0 713.21386487134441 -1233.3203500943737 0 -1233.3203500943737 -794.83259188626471 0 0 0 0 -2096.6796002785413 -2157.5006118736464 0 -2157.5006118736464 -558.82616780082753 0 0 0 0 449.94316915047239 -1906.5938437265304 0 -1906.5938437265304 -546.39551046168344 0 0 0 0 -4056.1875414343122 -820.09968096364992 0 -820.09968096364992 144.21537193881522 0 0 0 0 -0.55955117722489689 -6.2742847421357908 0 -6.2742847421357908 8.3493667700010619 0 0 0 0 2706.0930864469556 -552.76679745524598 0 -552.76679745524598 -508.9080653388919 0 0 0 0 5709.0104396431634 -3395.9044056576759 0 -3395.9044056576759 -989.66507598753742 0 0 0 0 -1455.769474607645 -5.8425028177498461 0 -5.8425028177498461 49.625021034465135 0 0 0 0 63.018606504825655 39.363790776760325 0 39.363790776760325 -143.86414292719246 0 0 0 0 39.341455800244802 -47.51071290475619 0 -47.51071290475619 -84.151928368836764 0 0 0 0 64.879065199658598 -97.721170148113117 0 -97.721170148113117 13.071491635721102 0 0 0 0 202.83994975791575 127.66126917458132 0 127.66126917458132 -1550.9649829414921 0 0 0 0 1357.8843833807041 -776.04434938806662 0 -776.04434938806662 430.41881242062664 0 0 0 0 1339.6978640285824 -1647.5951346724964 0 -1647.5951346724964 -4791.9005362197859 0 0 0 0 -725.74888408360857 429.71280232279969 0 429.71280232279969 -1625.2213068670726 0 0 0 0 1565.1417931189862 -1909.0919571414097 0 -1909.0919571414097 -1674.310902145291 0 0 0 0 -69.871749121928588 -537.15048828836279 0 -537.15048828836279 -175.48662859333126 0 0 0 0 -47.464027426682151 -261.12528687190752 0 -261.12528687190752 54.75597147156077 0 0 0 0 -43.63886277457641 -260.74358458269126 0 -260.74358458269126 -11.019869102734901 0 0 0 0 154.85776329402773 -146.95784389253544 0 -146.95784389253544 81.051667312596678 0 0 0 0 119.35240226994938 4.9628351290739374 0 4.9628351290739374 -533.0125418763273 0 0 0 0 230.92134900538076 -632.74138063232385 0 -632.74138063232385 -1570.4179476322242 0 0 0 0 137.76716760608514 -137.71355362504693 0 -137.71355362504693 104.80248450022185 0 0 0 0 269.53298649521457 -753.24164217068483 0 -753.24164217068483 -1307.9232533019458 0 0 0 0 -228.18873385558254 -735.33068579129758 0 -735.33068579129758 -1193.056196087593 0 0 0 0 119.10947841144662 -894.56213307033977 0 -894.56213307033977 -1120.0519784657954 0 0 0 0 562.34669486695202 -861.43171322236594 0 -861.43171322236594 -1418.6549618270947 0 0 0 0 155.66231412837078 -947.90422118093193 0 -947.90422118093193 -1074.0685296748416 0 0 0 0 265.43072471070627 -1172.6525333878199 0 -1172.6525333878199 -904.28907827871808 0 0 0 0 130.86770616445574 -1142.4785537306907 0 -1142.4785537306907 -88.100251218769699 0 0 0 0 70.07785831165836 28.88196834949575 0 28.88196834949575 -144.04029278435553 0 0 0 0 270.60083308964386 -113.01548461541097 0 -113.01548461541097 -163.06251594482455 0 0 0 0 -1.5407089220621799 -31.063514554301577 0 -31.063514554301577 -90.235913548074521 0 0 0 0 -17.113318570783292 49.666858909143514 0 49.666858909143514 -86.850230715219396 0 0 0 0 4.7367406408266106 -23.913606802569802 0 -23.913606802569802 16.649954035997951 0 0 0 0 -12.044525759951341 7.8179028534478334 0 7.8179028534478334 -112.3536534335306 0 0 0 0 891.13645454437938 -1941.7650003099625 0 -1941.7650003099625 -4169.3655041828461 0 0 0 0 -317.41801035805838 -538.87974591617967 0 -538.87974591617967 -1920.5340197693295 0 0 0 0 -240.13362884342496 -1720.0824359393082 0 -1720.0824359393082 -1043.490679563376 0 0 0 0 558.7179134463222 -795.57638955092625 0 -795.57638955092625 -2234.3852560450341 0 0 0 0 696.58834955122438 -615.0476343584487 0 -615.0476343584487 -513.72849781820514 0 0 0 0 103.49516749737813 -167.01456919384236 0 -167.01456919384236 -106.06496586488356 0 0 0 0 272.4265500336769 -74.679232649199548 0 -74.679232649199548 -416.41469632858934 0 0 0 0 110.75022032111883 -31.176577864331193 0 -31.176577864331193 -223.08081492206838 0 0 0 0 77.026215534911358 5.7821650884141462 0 5.7821650884141462 -172.40659683886332 0 0 0 0 162.5615299269266 98.19487536217639 0 98.19487536217639 -37.87594319855998 0 0 0 0 929.19778667981518 -883.2338250917137 0 -883.2338250917137 -216.29899770567135 0 0 0 0 739.3442931794998 -376.9477039453177 0 -376.9477039453177 9.2489574732753681 0 0 0 0 4.9468177950739118 -29.347946464005133 0 -29.347946464005133 -90.923059886327565 0 0 0 0 1272.5836429699557 -940.98905467145232 0 -940.98905467145232 501.42021825487609 0 0 0 0 2109.2393451963435 -208.40872582136944 0 -208.40872582136944 -202.55288042566099 0 0 0 0 -8.7599673759964389 -10.865011629809146 0 -10.865011629809146 -7.7842231822249062 0 0 0 0 1277.5311216038535 -653.56855626433389 0 -653.56855626433389 715.55636096011585 0 0 0 0 1486.5299747277459 -576.40361687126278 0 -576.40361687126278 538.14504877637228 0 0 0 0 1558.0204664819321 -864.42129521744209 0 -864.42129521744209 307.31046710253577 0 0 0 0 2.7652483836778288 -6.5804595345813937 0 -6.5804595345813937 1.2802153386548198 0 0 0 0 221.80765051831986 -991.44631779227348 0 -991.44631779227348 1678.514841252625 0 0 0 0 1300.7235909245087 -1107.337062552554 0 -1107.337062552554 608.61956318576995 0 0 0 0 1185.394459441799 -625.5116276967201 0 -625.5116276967201 -72.595902383509383 0 0 0 0 674.26646065653767 -898.71831751734862 0 -898.71831751734862 558.71007606481726 0 0 0 0 795.2912474262921 -903.05459332399732 0 -903.05459332399732 -160.53266964526119 0 0 0 0 -203.53998468592908 -1050.9470587791366 0 -1050.9470587791366 -100.37661132241919 0 0 0 0 31.619012041502174 -529.10990095114994 0 -529.10990095114994 -384.98238708306599 0 0 0 0 -172.29038219028735 -440.25461818863187 0 -440.25461818863187 -137.93914999915614 0 0 0 0 10.033506464067614 -459.43585794533647 0 -459.43585794533647 947.94619112188593 0 0 0 0 -542.86692950150609 -70.521094717039887 0 -70.521094717039887 -13.94444749737886 0 0 0 0 329.19022357404901 -500.13693420666095 0 -500.13693420666095 -527.52215913941473 0 0 0 0 3.1598296842952323 -12.685789229140866 0 -12.685789229140866 2.0301180528379028 0 0 0 0 -26.677343101458973 -653.99419004450829 0 -653.99419004450829 752.55979103431673 0 0 0 0 197.94887412070238 -178.07874107299358 0 -178.07874107299358 465.27371098757794 0 0 0 0 357.1324256859516 -476.99082445390013 0 -476.99082445390013 119.31024330243963 0 0 0 0 75.423144113563467 -248.5080308067736 0 -248.5080308067736 453.8035140214979 0 0 0 0 877.87331841373816 -274.86596900959557 0 -274.86596900959557 -257.39577968310186 0 0 0 0 1009.6694553250272 -373.60538734080183 0 -373.60538734080183 261.24604381061363 0 0 0 0 866.61218597226252 -557.84232912744847 0 -557.84232912744847 543.96725760764093 0 0 0 0 1516.8794472731897 -865.88701390297683 0 -865.88701390297683 95.450319902345655 0 0 0 0 1608.4010873716325 -692.83762413674776 0 -692.83762413674776 330.84404383134097 0 0 0 0 900.39493167123874 -838.73464521679125 0 -838.73464521679125 442.14412146056566 0 0 0 0 871.20963046044926 -986.25130776922015 0 -986.25130776922015 -114.39418675287743 0 0 0 0 895.46740835302626 -447.1230129580872 0 -447.1230129580872 -1468.5365918450834 0 0 0 0 -1061.4177338577138 -367.12940367222473 0 -367.12940367222473 534.93061278530513 0 0 0 0 285.16718330743606 -1505.9579820484505 0 -1505.9579820484505 145.81365652990644 0 0 0 0 -132.06665810284903 -225.07599043408845 0 -225.07599043408845 208.70534983349353 0 0 0 0 957.29036978226213 -2990.6962860591157 0 -2990.6962860591157 1818.3987144839612 0 0 0 0 -573.31799749848142 -1238.6766622839023 0 -1238.6766622839023 1578.0115377510447 0 0 0 0 294.77392129023792 -723.84814468172408 0 -723.84814468172408 -196.19102705585101 0 0 0 0 -55.353283665663753 -57.533385462542959 0 -57.533385462542959 -39.641628408445229 0 0 0 0 -868.26720124330313 -0.2576337424616213 0 -0.2576337424616213 -9.7995072914636694 0 0 0 0 -1024.5370231262059 -141.9883284588941 0 -141.9883284588941 -122.77506839626585 0 0 0 0 -1068.1607927414807 -276.01792452592417 0 -276.01792452592417 -512.70212166698184 0 0 0 0 -496.01194310115534 200.48256158814183 0 200.48256158814183 -582.64661477980553 0 0 0 0 -185.86414553935174 -642.94231065124768 0 -642.94231065124768 -2498.4471647045066 0 0 0 0 -1944.0853780966136 -2303.0940928907985 0 -2303.0940928907985 6478.1999636901601 0 0 0 0 -317.43850179544825 487.25226790302258 0 487.25226790302258 -160.84830883289032 0 0 0 0 281.47711844952573 107.6016800290854 0 107.6016800290854 -1470.4749580451316 0 0 0 0 4042.1126563250582 606.98312804839588 0 606.98312804839588 -1716.1243518774572 0 0 0 0 -28.471141594710161 -20.795076920257834 0 -20.795076920257834 -6.693018035244819 0 0 0 0 -3348.93611955081 -2863.758217735478 0 -2863.758217735478 6619.2284657871787 0 0 0 0 250.51226431809482 -563.70257385982404 0 -563.70257385982404 -343.9811157872391 0 0 0 0 -30.872778431494709 -25.351843204011971 0 -25.351843204011971 -13.219461442160437 0 0 0 0 215.01372371043544 -253.96138762533519 0 -253.96138762533519 234.2085382653313 0 0 0 0 281.70289725690964 -371.28945533985461 0 -371.28945533985461 252.38644825667143 0 0 0 0 116.23575277795317 -220.89017875633726 0 -220.89017875633726 245.46971843473875 0 0 0 0 115.43862636043428 -340.28550781408967 0 -340.28550781408967 264.39390760376409 0 0 0 0 -318.47802218061406 -986.00251646041579 0 -986.00251646041579 -1771.7399586000283 0 0 0 0 -613.11100825172616 -618.93043819612649 0 -618.93043819612649 1561.9126141097131 0 0 0 0 -1398.3566543581728 -1991.9024051948331 0 -1991.9024051948331 403.36351010109502 0 0 0 0 -0.069895157055839263 -8.1351628803893163 0 -8.1351628803893163 1.3202755855458363 0 0 0 0 -584.82746285952453 -779.93700797157362 0 -779.93700797157362 -596.38051833511417 0 0 0 0 -906.24344685394317 -1143.7361785913672 0 -1143.7361785913672 -984.00901870259258 0 0 0 0 -565.20347893764119 -763.53950963123134 0 -763.53950963123134 -949.01592796384648 0 0 0 0 -107.39301515179977 -493.44975008185429 0 -493.44975008185429 -1090.1574648580645 0 0 0 0 -374.85657409568375 -1002.3947023941182 0 -1002.3947023941182 -700.5725781633646 0 0 0 0 -580.40050147434522 -898.21452639297058 0 -898.21452639297058 -802.69535890120369 0 0 0 0 -709.58785435961909 -705.71084322527895 0 -705.71084322527895 -874.49682675521035 0 0 0 0 -673.56472022857633 -723.21319274463167 0 -723.21319274463167 -833.34356512533304 0 0 0 0 -727.96494161314331 -807.34301088662323 0 -807.34301088662323 -915.47616496276169 0 0 0 0 -360.41289354921901 -738.53261189298064 0 -738.53261189298064 -906.22242108739738 0 0 0 0 -1034.7860970879701 -929.39780034178693 0 -929.39780034178693 -200.69565185286046 0 0 0 0 -1881.2036878694962 -1895.1276371533677 0 -1895.1276371533677 -667.19936969380069 0 0 0 0 -2.4960876154583929 0.96670804446395664 0 0.96670804446395664 2.8390142142192474 0 0 0 0 -24.510436294192914 -1807.2460111432119 0 -1807.2460111432119 -960.58995048578799 0 0 0 0 -738.52410913255881 -828.16623556125705 0 -828.16623556125705 -215.56886421740637 0 0 0 0 -1035.2598896138225 -680.81345084892018 0 -680.81345084892018 -800.14895607075596 0 0 0 0 -290.79079502784589 -390.08176379292854 0 -390.08176379292854 477.65904711392068 0 0 0 0 456.32122287387756 -136.73690226839608 0 -136.73690226839608 -404.45539573256974 0 0 0 0 28.549635605215528 -27.207540391912204 0 -27.207540391912204 -28.714932543058779 0 0 0 0 49.830865827183175 -103.11183573192415 0 -103.11183573192415 88.225292626838325 0 0 0 0 44.999153589727939 -99.577172415253244 0 -99.577172415253244 -91.868640923440807 0 0 0 0 -678.85758127174631 -862.55142861024069 0 -862.55142861024069 -758.66778690788487 0 0 0 0 -637.44737083572545 -774.27925878653332 0 -774.27925878653332 -572.30523042778077 0 0 0 0 29.765904710314885 -29.703140021040795 0 -29.703140021040795 -30.454818035815229 0 0 0 0 93.429233423642728 -121.02230292667463 0 -121.02230292667463 91.325918692241387 0 0 0 0 446.1730425949645 -158.11627831053556 0 -158.11627831053556 -526.47056645759039 0 0 0 0 -62.420613763097208 -50.587851897205951 0 -50.587851897205951 -84.33623880469122 0 0 0 0 -202.34309608313197 -1054.9136892714159 0 -1054.9136892714159 -697.89890737708993 0 0 0 0 -242.09823846121435 -862.27849514451918 0 -862.27849514451918 -686.11142919246049 0 0 0 0 -518.49399828971946 -839.54071553347603 0 -839.54071553347603 -761.5911461531723 0 0 0 0 -464.87279018371191 -915.13272484101435 0 -915.13272484101435 -721.39191664725513 0 0 0 0 -309.65423887845827 -836.45931504511464 0 -836.45931504511464 -684.74340330900304 0 0 0 0 -445.20744062743324 -719.53580505934224 0 -719.53580505934224 -557.95308956104418 0 0 0 0 -144.2203241577663 -1015.2990764184797 0 -1015.2990764184797 -1107.2252101339509 0 0 0 0 -305.83951314358274 -867.59007837456284 0 -867.59007837456284 -995.85479764001502 0 0 0 0 388.91957869991893 -767.68253958001969 0 -767.68253958001969 -567.42284393379305 0 0 0 0 121.94045661522455 -129.71628922232981 0 -129.71628922232981 98.071515219115142 0 0 0 0 -1383.6061016350577 -10.206384758897912 0 -10.206384758897912 1176.629627712744 0 0 0 0 -244.68544073765224 -77.839111668499754 0 -77.839111668499754 182.57227123735356 0 0 0 0 1105.864176639112 257.98631427465057 0 257.98631427465057 -191.3502407375845 0 0 0 0 -0.45806328643723759 -0.14863224358066418 0 -0.14863224358066418 5.3635126363292542 0 0 0 0 -39.726078346771828 -114.65192336336168 0 -114.65192336336168 -190.2507197093787 0 0 0 0 417.01695113839742 -569.51755589083336 0 -569.51755589083336 259.00126349993479 0 0 0 0 14.885534325801075 2.9597422492148562 0 2.9597422492148562 0.010404593716347499 0 0 0 0 91.855896140556069 -161.73683615128243 0 -161.73683615128243 -329.00761455037991 0 0 0 0 58.909684786114667 -88.141629452930829 0 -88.141629452930829 335.7237920679172 0 0 0 0 497.7618571237399 -748.46052371618771 0 -748.46052371618771 -1091.4072922423802 0 0 0 0 109.29285304485893 -236.76297274796798 0 -236.76297274796798 105.88618933110411 0 0 0 0 39.901317979281885 -427.70018149550197 0 -427.70018149550197 101.77046220106422 0 0 0 0 20.690225762096816 42.551275565087963 0 42.551275565087963 9.7330719496226266 0 0 0 0 -123.10498912809999 -106.45437594290297 0 -106.45437594290297 76.632795117662681 0 0 0 0 -98.696293216533377 -53.881294214072113 0 -53.881294214072113 111.86017199288881 0 0 0 0 33.100351117934082 -17.787561776197684 0 -17.787561776197684 -6.2711256385535057 0 0 0 0 33.487796412737225 -60.650778100538446 0 -60.650778100538446 1.1332593069521408 0 0 0 0 -9.2702406588274187 -19.935248286493731 0 -19.935248286493731 10.069157531140895 0 0 0 0 -130.65482415442239 -56.319594661324118 0 -56.319594661324118 125.37666899973294 0 0 0 0 -80.342247950971796 -158.46144912582986 0 -158.46144912582986 -25.792259353729605 0 0 0 0 -71.23011031456781 -178.72568820347988 0 -178.72568820347988 72.646218874670012 0 0 0 0 -56.158273526900146 -114.26845521366694 0 -114.26845521366694 22.106737824193992 0 0 0 0 -126.1626039854018 -61.573900096009311 0 -61.573900096009311 115.33123267047267 0 0 0 0 -62.443643823695538 -211.05335796364989 0 -211.05335796364989 21.925746057204378 0 0 0 0 -62.612242905712264 -207.2682220093011 0 -207.2682220093011 76.143020077372057 0 0 0 0 -214.57330722431288 -420.27282978482981 0 -420.27282978482981 13.041273727281236 0 0 0 0 234.17958815837119 -136.11496634481591 0 -136.11496634481591 54.785987768067571 0 0 0 0 -294.02067396182611 -130.93883906651536 0 -130.93883906651536 431.33722681374638 0 0 0 0 39.821031128805771 -146.18822291618426 0 -146.18822291618426 -171.788751993289 0 0 0 0 110.32299647074088 -113.50699309961402 0 -113.50699309961402 63.890138921973588 0 0 0 0 5.5494905358849707 -70.120981760720269 0 -70.120981760720269 -28.516408666893774 0 0 0 0 -5.2344401241462606 -21.058305219742582 0 -21.058305219742582 -2.7962311496319634 0 0 0 0 18.320357672164391 -202.68038540103953 0 -202.68038540103953 278.40064222280137 0 0 0 0 158.16803168847218 -16.150354131200913 0 -16.150354131200913 -145.86307369573444 0 0 0 0 -30.337138561400934 -140.02767073821792 0 -140.02767073821792 207.15865964720592 0 0 0 0 -74.159264501624421 -331.12693797925334 0 -331.12693797925334 553.06254715036675 0 0 0 0 12.268647222590516 -360.07100655057013 0 -360.07100655057013 109.47379609959467 0 0 0 0 245.57442584392265 -130.46018064286645 0 -130.46018064286645 63.004834111613469 0 0 0 0 229.68004010357254 -282.99139893450484 0 -282.99139893450484 139.92382336754429 0 0 0 0 100.39394234954671 -148.42619905171046 0 -148.42619905171046 61.264035570214958 0 0 0 0 103.50819694778329 -145.02883249269632 0 -145.02883249269632 43.81476781381275 0 0 0 0 110.68049164284821 -139.38000945335418 0 -139.38000945335418 52.867134401786572 0 0 0 0 118.68758443728075 -173.13292038820447 0 -173.13292038820447 71.104927672624399 0 0 0 0 91.975923039946792 -184.53246430992363 0 -184.53246430992363 39.375737798955925 0 0 0 0 151.40768622632459 -170.90983767994612 0 -170.90983767994612 29.201628977587461 0 0 0 0 126.24581528394629 -209.51245699192373 0 -209.51245699192373 62.902195283534411 0 0 0 0 94.211390746306279 -145.72535477750125 0 -145.72535477750125 30.297242156449101 0 0 0 0 60.53666439333756 -147.38279172121361 0 -147.38279172121361 50.597830882838252 0 0 0 0 84.723341230452206 -175.62151960697045 0 -175.62151960697045 34.553411116049297 0 0 0 0 80.22172926532221 -202.64125946927845 0 -202.64125946927845 72.924737495874865 0 0 0 0 120.1007232573902 -213.41622722552438 0 -213.41622722552438 70.886117316750415 0 0 0 0 120.81877095330856 -193.78145570745784 0 -193.78145570745784 75.06542170481157 0 0 0 0 118.84921115129691 -198.00344474628366 0 -198.00344474628366 50.662965049625655 0 0 0 0 73.082870435064251 -183.46873005543011 0 -183.46873005543011 66.694356116441668 0 0 0 0 -20.032767170250196 -76.828809514002103 0 -76.828809514002103 27.189509080882267 0 0 0 0 3.5874161515093874 -116.15236474099675 0 -116.15236474099675 9.3297772624021036 0 0 0 0 -26.333021526574157 -105.70344417712477 0 -105.70344417712477 57.82295646529019 0 0 0 0 -13.678948524102452 -153.876917997379 0 -153.876917997379 -8.7431663516194931 0 0 0 0 17.010720174839747 -90.05521516877134 0 -90.05521516877134 106.96863566360224 0 0 0 0 66.504862516812864 -534.88637785620085 0 -534.88637785620085 -178.32803230037098 0 0 0 0 -44.487981565456721 -144.60578199166525 0 -144.60578199166525 46.899156068678053 0 0 0 0 24.731238472755649 -166.00092868078286 0 -166.00092868078286 -135.23110384837446 0 0 0 0 -70.241970203576784 -57.001315641769452 0 -57.001315641769452 98.012324528145712 0 0 0 0 57.461981927262968 -78.984924123548353 0 -78.984924123548353 -78.969894108558719 0 0 0 0 -32.552173995205862 -63.500377480749336 0 -63.500377480749336 -9.8073774043025317 0 0 0 0 332.2712730793728 179.64323894657105 0 179.64323894657105 -61.807381842125324 0 0 0 0 2.3167867789626762 -11.412776227431408 0 -11.412776227431408 -25.792131538646316 0 0 0 0 -469.46425954311417 -252.33275640458942 0 -252.33275640458942 -95.063953927990951 0 0 0 0 -887.95140041756531 -288.58647849949875 0 -288.58647849949875 -129.95957931302837 0 0 0 0 477.69934387035755 148.70200840314283 0 148.70200840314283 -357.26309438450562 0 0 0 0 1796.6161668293207 -590.35201125285312 0 -590.35201125285312 -544.45362812839812 0 0 0 0 530.99101244811754 -952.83651598732104 0 -952.83651598732104 1218.0699262941343 0 0 0 0 418.49760157316268 -638.58789679987694 0 -638.58789679987694 341.68489082151791 0 0 0 0 623.45271152950409 -314.34127776819423 0 -314.34127776819423 -19.71267547786556 0 0 0 0 164.38895925804536 67.897019436950359 0 67.897019436950359 71.96641820088189 0 0 0 0 110.3885031970276 -198.72404743180232 0 -198.72404743180232 -38.93812920574419 0 0 0 0 37.729835509540862 -265.5679722649802 0 -265.5679722649802 -92.497323634110217 0 0 0 0 193.15712302186148 -345.36898150526031 0 -345.36898150526031 -109.30519703831533 0 0 0 0 -28.874899813294178 -382.35743811826069 0 -382.35743811826069 112.46233962020779 0 0 0 0 130.45805024771471 -366.47805467597209 0 -366.47805467597209 107.20450249172427 0 0 0 0 21.123418432000108 -436.98800050946375 0 -436.98800050946375 387.88272441487061 0 0 0 0 141.94139254299625 -407.58716123682552 0 -407.58716123682552 176.15176514791528 0 0 0 0 146.59557442277583 -425.31632662406992 0 -425.31632662406992 207.20059732427035 0 0 0 0 -48.596467970732192 -338.90443901115214 0 -338.90443901115214 278.43705951293668 0 0 0 0 20.165430790559185 -272.95325135707208 0 -272.95325135707208 124.91905665886225 0 0 0 0 -49.54923281671654 -315.22834193582457 0 -315.22834193582457 118.79083559149149 0 0 0 0 187.49883559981845 -423.75034177140788 0 -423.75034177140788 13.359132936995593 0 0 0 0 61.25378270607689 -369.76829050900596 0 -369.76829050900596 143.56425998399936 0 0 0 0 -54.683604450474377 -443.46245829813779 0 -443.46245829813779 107.33866911030782 0 0 0 0 8.6005877918250917 -381.80477412310938 0 -381.80477412310938 -21.585595166456187 0 0 0 0 96.929016599169699 -509.20285107973905 0 -509.20285107973905 -67.247144160828611 0 0 0 0 749.46230231197842 -240.56915821372968 0 -240.56915821372968 -454.22333014852484 0 0 0 0 142.93129845314479 -111.27324462839567 0 -111.27324462839567 76.828165022250005 0 0 0 0 28.94049518429037 -6.4689560840188989 0 -6.4689560840188989 -13.592186804345417 0 0 0 0 51.754487993370276 -341.67307103402754 0 -341.67307103402754 13.198770761696323 0 0 0 0 -198.78709889397214 -547.97166634510722 0 -547.97166634510722 -48.611237298088781 0 0 0 0 -227.69344890484354 -340.30503171202508 0 -340.30503171202508 -28.605592827272631 0 0 0 0 65.289910959851113 -171.4995116300887 0 -171.4995116300887 -42.710903482813819 0 0 0 0 41.70465759660874 -186.52725135651724 0 -186.52725135651724 161.8102273480329 0 0 0 0 57.324327665060991 -175.68498344491462 0 -175.68498344491462 -25.05757107426507 0 0 0 0 58.973807788792328 -62.402388696674052 0 -62.402388696674052 7.8622828025791023 0 0 0 0 21.82836520562342 -40.772004877610257 0 -40.772004877610257 14.075052067537023 0 0 0 0 39.358828191456269 -138.14272465717841 0 -138.14272465717841 4.5727807651445573 0 0 0 0 51.102206624926296 -78.38448324395118 0 -78.38448324395118 26.340134567729905 0 0 0 0 62.788958511009696 -134.37440082482181 0 -134.37440082482181 58.639860591150068 0 0 0 0 30.535433495086181 -142.74021212154821 0 -142.74021212154821 44.556723685526777 0 0 0 0 38.624973926489474 -140.38229774326237 0 -140.38229774326237 64.016898929461377 0 0 0 0 52.92278615818941 -148.84061448526938 0 -148.84061448526938 48.164451796715184 0 0 0 0 42.590713170146046 -149.64843154126345 0 -149.64843154126345 30.461553816057858 0 0 0 0 59.432768281287281 -131.1898008067476 0 -131.1898008067476 48.415847282779048 0 0 0 0 15.415584570866486 -250.07803469784267 0 -250.07803469784267 -274.78429670412879 0 0 0 0 21.91617273718542 -58.361085664652052 0 -58.361085664652052 53.925360853960996 0 0 0 0 -8.7752222542349045 -159.81346182532252 0 -159.81346182532252 -469.05432492756518 0 0 0 0 -14.402845031989273 -81.732435010842892 0 -81.732435010842892 9.3724642177767237 0 0 0 0 -2.3303931148002164 -90.145561060359697 0 -90.145561060359697 46.996618838395918 0 0 0 0 -21.748360099678393 -248.87558252721828 0 -248.87558252721828 -272.94216667395085 0 0 0 0 7.67328866738535 -325.52802018825241 0 -325.52802018825241 -110.58672737213601 0 0 0 0 -108.36103440425359 -176.25694263884361 0 -176.25694263884361 -51.725368151135626 0 0 0 0 89.546468922027998 -230.97730535176925 0 -230.97730535176925 -187.72829057356284 0 0 0 0 4.1489091330877272 -313.36068443910335 0 -313.36068443910335 -233.42657535043327 0 0 0 0 82.063277209090302 -288.43836233069851 0 -288.43836233069851 -548.54345748336345 0 0 0 0 -7.2370708530198726 -58.872326935126168 0 -58.872326935126168 67.509480632112457 0 0 0 0 -202.48705135053024 -60.899921634412749 0 -60.899921634412749 99.438844089188933 0 0 0 0 3.6296654605087468 -13.65746695139989 0 -13.65746695139989 19.515088292161536 0 0 0 0 79.080743253423861 -114.6129608243773 0 -114.6129608243773 -634.8160007248589 0 0 0 0 -161.46012195478397 -299.21195820342473 0 -299.21195820342473 4.5753514548578096 0 0 0 0 553.51954466172901 143.50379813617292 0 143.50379813617292 -426.67399826808833 0 0 0 0 2.6097257506408802 -10.151433855776133 0 -10.151433855776133 -53.536675531887212 0 0 0 0 -99.81418156883592 -152.66360477288617 0 -152.66360477288617 -73.010545234708843 0 0 0 0 199.99623081366735 -359.98908989754273 0 -359.98908989754273 -479.96264615156542 0 0 0 0 838.52088817503682 -1352.6693385074541 0 -1352.6693385074541 -843.71776200346721 0 0 0 0 211.88778335996903 -1131.9890933944116 0 -1131.9890933944116 400.61381256023014 0 0 0 0 170.01222218197654 -1329.0498166489124 0 -1329.0498166489124 2098.1323054958048 0 0 0 0 -153.23818809643126 -73.005289810991599 0 -73.005289810991599 -36.719660512673727 0 0 0 0 -132.94981039849517 -344.95457506503953 0 -344.95457506503953 445.89906946144038 0 0 0 0 -94.347669225506252 19.733778536101454 0 19.733778536101454 577.30104581137857 0 0 0 0 83.065356011153199 -255.12773116990138 0 -255.12773116990138 747.21242205993622 0 0 0 0 -35.876283206860535 -127.99254356043093 0 -127.99254356043093 746.6055063844924 0 0 0 0 -29.664783764950698 -176.44602556451355 0 -176.44602556451355 720.52352328103734 0 0 0 0 43.072128257976146 -363.98453784867161 0 -363.98453784867161 1501.0173370704797 0 0 0 0 -30.216864214336965 -127.70024235896926 0 -127.70024235896926 978.602838281804 0 0 0 0 197.4917376980884 -206.79951047510986 0 -206.79951047510986 713.01081488749696 0 0 0 0 -16.580604770947915 -44.415504885434629 0 -44.415504885434629 66.279441796434867 0 0 0 0 6.8112678620811771 -12.777714115870282 0 -12.777714115870282 -78.435678058539111 0 0 0 0 182.68269128645443 -192.02652592258528 0 -192.02652592258528 -90.448145588590705 0 0 0 0 -74.556499106314732 131.93355988928488 0 131.93355988928488 651.22206230337542 0 0 0 0 98.496027763583697 67.369748105220424 0 67.369748105220424 297.72888726330257 0 0 0 0 -110.63494064056431 -90.424095268814199 0 -90.424095268814199 124.77707880144953 0 0 0 0 -126.06959888421989 -199.1903403559254 0 -199.1903403559254 77.338102357349271 0 0 0 0 4.2297117354070224 -37.112703441657317 0 -37.112703441657317 19.509839512759701 0 0 0 0 -172.73702494978352 -182.41033017962036 0 -182.41033017962036 109.32006039685439 0 0 0 0 -347.20172115546256 -295.28515869225293 0 -295.28515869225293 222.48068218565822 0 0 0 0 -336.09389617251145 -99.927970433991504 0 -99.927970433991504 257.87889559564064 0 0 0 0 96.359565977046032 -132.903058085677 0 -132.903058085677 124.01027588669251 0 0 0 0 -255.16467614538851 -193.83090069629725 0 -193.83090069629725 356.71670569727939 0 0 0 0 52.39544516854312 -145.41552011899876 0 -145.41552011899876 50.238434759280153 0 0 0 0 77.27465665705455 -117.17335511765586 0 -117.17335511765586 58.333210588481961 0 0 0 0 181.07155411648273 -176.98805771861225 0 -176.98805771861225 -100.66766792379713 0 0 0 0 55.094638782924903 -141.06697285030532 0 -141.06697285030532 57.098968342790613 0 0 0 0 7.0189644802740077 -149.79342627032747 0 -149.79342627032747 -48.228456024542538 0 0 0 0 14.467404864648415 -120.40075380868439 0 -120.40075380868439 14.475054308541075 0 0 0 0 33.342312811282468 -64.177851365513277 0 -64.177851365513277 39.660973829887936 0 0 0 0 44.877278425060496 -71.530531246904587 0 -71.530531246904587 25.83694984951471 0 0 0 0 22.066659160976997 -109.27027998451274 0 -109.27027998451274 72.025213327898314 0 0 0 0 21.053905253204903 -101.03691524083069 0 -101.03691524083069 65.298554927720033 0 0 0 0 28.961683883457226 -94.80097385441195 0 -94.80097385441195 44.075138103469726 0 0 0 0 20.20403213297341 -96.746385625305166 0 -96.746385625305166 70.128610215298949 0 0 0 0 41.213002264899842 -111.18508139039477 0 -111.18508139039477 52.937401485050941 0 0 0 0 23.97860193849283 -98.580876989576609 0 -98.580876989576609 105.25776457484244 0 0 0 0 5.8610910975187096 -88.406237618174472 0 -88.406237618174472 52.680406015460662 0 0 0 0 1.7930439167716514 -84.25149450894699 0 -84.25149450894699 15.689934165702322 0 0 0 0 50.305934396805242 -121.55586593031853 0 -121.55586593031853 8.0314739395298602 0 0 0 0 2.3454998363158666 -104.43841523158699 0 -104.43841523158699 127.54930234776111 0 0 0 0 30.139806441644268 -85.434700431235427 0 -85.434700431235427 10.366937591317125 0 0 0 0 12.889390549584135 -76.53176321415495 0 -76.53176321415495 22.071591304754108 0 0 0 0 54.963199363046442 -104.3495727401787 0 -104.3495727401787 -26.913382154074498 0 0 0 0 -77.132614043854119 -79.710119264032983 0 -79.710119264032983 37.434910663963819 0 0 0 0 29.832347936711813 -127.78986835555224 0 -127.78986835555224 34.899718915810809 0 0 0 0 17.98669657958817 -66.946878348378959 0 -66.946878348378959 40.429937029752182 0 0 0 0 37.327816645745031 -86.858165790974354 0 -86.858165790974354 48.742180690143613 0 0 0 0 -5.9046394824254094 -211.18779923368129 0 -211.18779923368129 -197.87497143707878 0 0 0 0 -67.086929390390651 -104.87161192432995 0 -104.87161192432995 -277.5939391876891 0 0 0 0 -316.22300682721107 -647.93256768644642 0 -647.93256768644642 -868.75954651358916 0 0 0 0 14.825897669026745 -133.96245031366561 0 -133.96245031366561 -1098.3337824261907 0 0 0 0 -3.4135410126535746 9.6850809328360725 0 9.6850809328360725 -1.5769170726807147 0 0 0 0 386.9862977863686 329.20107769166862 0 329.20107769166862 -514.40863869222812 0 0 0 0 14.879056298162475 -20.596580311597805 0 -20.596580311597805 -20.596336162935245 0 0 0 0 284.17698710345576 -171.45415339226565 0 -171.45415339226565 -167.8060789021838 0 0 0 0 178.4571372510909 -127.63930566183262 0 -127.63930566183262 -87.303168133446889 0 0 0 0 196.04612447756153 -86.815757889617089 0 -86.815757889617089 -417.97433342631848 0 0 0 0 7.2343103052880906 -345.40431289630942 0 -345.40431289630942 -254.32114276985521 0 0 0 0 65.381114578315405 -36.246657565172285 0 -36.246657565172285 -71.563909891997781 0 0 0 0 512.92298629385186 -211.90423067100346 0 -211.90423067100346 -670.23635778252356 0 0 0 0 446.973935807815 -83.043790563562652 0 -83.043790563562652 -730.67048643904491 0 0 0 0 509.44260945885253 -63.209709223498066 0 -63.209709223498066 -1186.5149248441594 0 0 0 0 502.19366571307546 -186.00161477377696 0 -186.00161477377696 -728.48782649113127 0 0 0 0 723.99023925929214 -174.08474725847918 0 -174.08474725847918 -960.17580292110142 0 0 0 0 519.94880419305446 -294.43024528797469 0 -294.43024528797469 -856.40801614236261 0 0 0 0 410.44136896691998 -396.30128936996152 0 -396.30128936996152 -557.08625319394923 0 0 0 0 472.48877245098265 -263.16032488632482 0 -263.16032488632482 -448.15706350340406 0 0 0 0 229.17010390618248 -225.44670649676939 0 -225.44670649676939 68.603053356182045 0 0 0 0 -44.318443008970405 -69.385151978918202 0 -69.385151978918202 -40.567939283602769 0 0 0 0 -203.09890274660575 -413.39508696195116 0 -413.39508696195116 -695.0971808101458 0 0 0 0 96.100173083046684 -436.30024276639597 0 -436.30024276639597 287.66777816361719 0 0 0 0 -535.58495595707791 -435.19381629340933 0 -435.19381629340933 13.090985366517998 0 0 0 0 -508.93696353483028 -288.66266153518791 0 -288.66266153518791 472.39304806108703 0 0 0 0 -616.32620346228941 -716.61324214067281 0 -716.61324214067281 366.06070382379039 0 0 0 0 -666.2116745919775 -876.23931736379745 0 -876.23931736379745 -29.561042781950164 0 0 0 0 -247.40446149105264 -1369.3116479743258 0 -1369.3116479743258 539.01075626666716 0 0 0 0 830.81401112458843 -1508.8813208862412 0 -1508.8813208862412 -402.72876956737309 0 0 0 0 470.36747587820719 -841.37960422878677 0 -841.37960422878677 -1636.2490852791307 0 0 0 0 -155.65410119106673 -267.61722771940913 0 -267.61722771940913 725.84313690746785 0 0 0 0 1658.8394693403534 645.46684004988128 0 645.46684004988128 -856.29902424753527 0 0 0 0 -6.1387115349070314 -3.3011846107305871 0 -3.3011846107305871 0.6676982341531712 0 0 0 0 -155.50058367222664 -127.86446744276327 0 -127.86446744276327 528.92729121122102 0 0 0 0 2.1602577159501379 -227.87812336407296 0 -227.87812336407296 165.81758501648437 0 0 0 0 -227.63830618941574 -525.18174877708225 0 -525.18174877708225 244.92072489348357 0 0 0 0 100.84643141498913 -140.11122761248618 0 -140.11122761248618 53.570886958189995 0 0 0 0 5.4326010031818441 -347.84675346991116 0 -347.84675346991116 210.02980511705391 0 0 0 0 -112.82831648242427 205.89273090874485 0 205.89273090874485 104.30376240800615 0 0 0 0 100.72621235546831 -163.41808490642325 0 -163.41808490642325 79.753114539988701 0 0 0 0 441.19229713219102 -175.46470671501447 0 -175.46470671501447 -389.87274554327087 0 0 0 0 -16.889647757041757 -26.547872485106126 0 -26.547872485106126 33.282548714691934 0 0 0 0 110.14316209810022 -182.29343330236912 0 -182.29343330236912 39.613400943116631 0 0 0 0 16.044819924481658 5.1180398002351524 0 5.1180398002351524 -39.38901221070978 0 0 0 0 177.35949841052934 -249.67168529416813 0 -249.67168529416813 304.73987662072614 0 0 0 0 144.73418889322784 -247.84840341378003 0 -247.84840341378003 308.80377743764257 0 0 0 0 79.271805170901814 -120.34546486722346 0 -120.34546486722346 -0.037994722330531139 0 0 0 0 107.24406698669554 -183.89551691993711 0 -183.89551691993711 39.321163853982625 0 0 0 0 -40.570737070912912 -22.182230285264751 0 -22.182230285264751 45.93319829677678 0 0 0 0 39.273582207490108 -143.37112682818679 0 -143.37112682818679 40.482856576285485 0 0 0 0 64.271508091274882 -172.28718030620166 0 -172.28718030620166 40.607013600784256 0 0 0 0 0.21795134455260268 -122.23282641836204 0 -122.23282641836204 112.95337893435499 0 0 0 0 166.25623583330889 -166.5832585303142 0 -166.5832585303142 -353.54235739163414 0 0 0 0 3.9950989495550857 -79.072643394499096 0 -79.072643394499096 8.2928095648373628 0 0 0 0 -189.63529474608367 -37.489678646670654 0 -37.489678646670654 46.223251319555857 0 0 0 0 -216.70284885000729 -249.29512160078593 0 -249.29512160078593 893.75166298795375 0 0 0 0 -4.3177958493030815 -24.810348082094563 0 -24.810348082094563 -9.3407722862318181 0 0 0 0 -142.35865695972461 -402.8015916938748 0 -402.8015916938748 351.28881457161333 0 0 0 0 26.423591372127703 -14.077753527704772 0 -14.077753527704772 -369.51072089525405 0 0 0 0 -258.90908273814421 -341.80746297241785 0 -341.80746297241785 -709.47736445456394 0 0 0 0 -182.90159868448245 -452.0018693691236 0 -452.0018693691236 -564.13230431270495 0 0 0 0 -20.758000768968486 -230.60988490225645 0 -230.60988490225645 -744.17254355110344 0 0 0 0 -129.9833929666338 -320.07015231082551 0 -320.07015231082551 -283.48964514867112 0 0 0 0 -184.62458348671498 -298.56207207278931 0 -298.56207207278931 -710.74246331860923 0 0 0 0 -201.05823576702824 -266.34458662500765 0 -266.34458662500765 -772.33257175613835 0 0 0 0 -516.02438197278389 -412.35234702022717 0 -412.35234702022717 -671.31833367968648 0 0 0 0 -583.32117810891214 -316.40580864910953 0 -316.40580864910953 -629.86621492936683 0 0 0 0 -827.885502571502 -397.5792293723498 0 -397.5792293723498 -545.5928563674679 0 0 0 0 -1059.5521184453464 -259.96903064977596 0 -259.96903064977596 -581.01816957279516 0 0 0 0 -737.56252749095438 -611.51757828391419 0 -611.51757828391419 -560.62784116226248 0 0 0 0 -930.22484733685269 -168.50500460049079 0 -168.50500460049079 -765.26068429581937 0 0 0 0 -48.65640097861089 -62.392816041638525 0 -62.392816041638525 -51.363826360912327 0 0 0 0 -426.3201112092429 -1507.4408779036148 0 -1507.4408779036148 608.66502924603992 0 0 0 0 -951.231817842694 -329.22333225075272 0 -329.22333225075272 -697.47769251844875 0 0 0 0 -911.143136977822 -242.34437349350628 0 -242.34437349350628 -535.05237143574413 0 0 0 0 -863.2493380150845 -81.37370936665684 0 -81.37370936665684 -387.19781229874206 0 0 0 0 -945.67930263797462 -242.73045545539571 0 -242.73045545539571 -532.04029500867182 0 0 0 0 -895.42572631494113 -316.40963657534485 0 -316.40963657534485 -581.63303755893139 0 0 0 0 -758.86439044334111 -234.22713566457242 0 -234.22713566457242 -631.13744907762884 0 0 0 0 -788.79223286228807 -416.89783699372492 0 -416.89783699372492 -928.51911299963831 0 0 0 0 -774.39896552020946 -194.85323271128073 0 -194.85323271128073 -585.82359083102347 0 0 0 0 -749.94821858445084 -289.56667499215928 0 -289.56667499215928 -618.12056211689196 0 0 0 0 -454.13528427600977 -211.14422582028419 0 -211.14422582028419 -661.4286031030133 0 0 0 0 -450.41331222518784 -218.95601495457959 0 -218.95601495457959 -772.60438034147592 0 0 0 0 34.643244418723043 -214.52718087109679 0 -214.52718087109679 -856.56836670570192 0 0 0 0 -105.09253984079623 -257.82388679951146 0 -257.82388679951146 -858.57128501305124 0 0 0 0 -121.18564799305022 -226.50313577281122 0 -226.50313577281122 -898.84487493525739 0 0 0 0 -2.8618424795646149 -3.2339830040139077 0 -3.2339830040139077 2.3647249773898693 0 0 0 0 -434.06945015073143 -194.45112884546324 0 -194.45112884546324 -428.53291720370544 0 0 0 0 -484.76817458185178 -48.79696252091162 0 -48.79696252091162 -835.22401521186111 0 0 0 0 -6.6197227556112921 -194.42705286780983 0 -194.42705286780983 -865.69760366047558 0 0 0 0 -351.61013564270252 -389.37955566347227 0 -389.37955566347227 -590.42702903244572 0 0 0 0 -959.50071830299566 -469.13884658778261 0 -469.13884658778261 -882.08318580476589 0 0 0 0 -1531.2761891047412 -423.36283952066879 0 -423.36283952066879 -813.56438154524949 0 0 0 0 -957.57069686364412 -466.29110934363052 0 -466.29110934363052 -1343.595516902722 0 0 0 0 -1129.6339929674687 -678.43887116418227 0 -678.43887116418227 -921.80523325804825 0 0 0 0 -881.37216561567038 -365.04239774925009 0 -365.04239774925009 -895.35873985147919 0 0 0 0 -863.63908172174706 -418.62288498528869 0 -418.62288498528869 -746.00291633086817 0 0 0 0 565.86038932877636 -129.93703387373171 0 -129.93703387373171 -717.70450372686537 0 0 0 0 629.08715703885537 -72.734206074081158 0 -72.734206074081158 -899.15172728897596 0 0 0 0 466.8576165003069 -186.93041674206324 0 -186.93041674206324 -749.9299199507368 0 0 0 0 469.50948470306457 -206.73699983921642 0 -206.73699983921642 -907.29611358030525 0 0 0 0 72.062728874880122 -382.54416947135178 0 -382.54416947135178 -973.3880252851668 0 0 0 0 -2.3742877028053044 -175.76662375978776 0 -175.76662375978776 -644.01069111407742 0 0 0 0 344.44608084933861 -158.81544022507296 0 -158.81544022507296 -645.91116206487277 0 0 0 0 12.981193863131921 -200.59479605683009 0 -200.59479605683009 -794.89408960040601 0 0 0 0 -292.98935297047137 -86.892103552749177 0 -86.892103552749177 -809.30172023955674 0 0 0 0 -140.63637326672324 -212.00508548945072 0 -212.00508548945072 -581.3239806109741 0 0 0 0 0.20280174757624536 -4.822780653726511 0 -4.822780653726511 2.803190956505702 0 0 0 0 24.093586781642443 -284.15048776013282 0 -284.15048776013282 -703.24637248937506 0 0 0 0 -141.63369738911206 -255.75683355409637 0 -255.75683355409637 -609.74128611354899 0 0 0 0 132.18468327667142 -182.42143968725577 0 -182.42143968725577 -609.98821569828215 0 0 0 0 340.68148843858944 -1230.1471723058385 0 -1230.1471723058385 263.37585422535631 0 0 0 0 -124.96701288615486 -119.93816609777332 0 -119.93816609777332 -360.81446048773068 0 0 0 0 330.26257198491749 -142.49227485418578 0 -142.49227485418578 -345.35303439616109 0 0 0 0 443.58539879029922 -140.19652692482487 0 -140.19652692482487 -493.61593270137018 0 0 0 0 -0.67356186451608835 -4.6081319436087256 0 -4.6081319436087256 3.5401256229863662 0 0 0 0 458.09121246347058 -610.30534759001603 0 -610.30534759001603 329.62522935314337 0 0 0 0 256.19780562024243 -441.78854833232617 0 -441.78854833232617 431.27276896906551 0 0 0 0 755.32559244228833 -567.19643061036186 0 -567.19643061036186 -260.20065651930054 0 0 0 0 220.47398262489151 -493.6227282353575 0 -493.6227282353575 -2223.800519423603 0 0 0 0 -212.96319923947522 101.92445137886421 0 101.92445137886421 -1194.9327366990619 0 0 0 0 80.281198659977235 -324.74400587874698 0 -324.74400587874698 366.89274230050069 0 0 0 0 226.57889752188566 -290.57283927673052 0 -290.57283927673052 324.61681100123678 0 0 0 0 14.004580812047465 -18.078034868011031 0 -18.078034868011031 -2.2184726782376671 0 0 0 0 -87.103811345796203 -502.82513819402811 0 -502.82513819402811 -2204.6679497703954 0 0 0 0 28.693538987502052 -563.33008471179619 0 -563.33008471179619 1473.5063192781599 0 0 0 0 5.7128963538440871 -8.4661338794353753 0 -8.4661338794353753 1.3284789812488533 0 0 0 0 -231.02067659792556 -427.00988287052496 0 -427.00988287052496 -898.46735749601066 0 0 0 0 219.47512421416468 -424.84718052739117 0 -424.84718052739117 -2044.9061943917459 0 0 0 0 413.19015846505135 -991.3750892315802 0 -991.3750892315802 -491.31440941802066 0 0 0 0 -17.891791611513327 -627.45242789563781 0 -627.45242789563781 14.723727564465662 0 0 0 0 -1019.4883281996445 -895.07795850373077 0 -895.07795850373077 -264.73699943834072 0 0 0 0 328.13103410393887 -996.58920577571098 0 -996.58920577571098 -474.22377173872519 0 0 0 0 1.9670724345092054 -4.5706353472486683 0 -4.5706353472486683 5.5015789971119204 0 0 0 0 1143.4304734059951 -396.87272036513605 0 -396.87272036513605 -467.58529277519847 0 0 0 0 -569.7770943481446 -155.74405742816907 0 -155.74405742816907 -39.297949409126886 0 0 0 0 -54.946465691758931 27.39594415242027 0 27.39594415242027 -540.91893251836882 0 0 0 0 -88.570586726207694 -581.41209970812997 0 -581.41209970812997 -187.27948208604357 0 0 0 0 342.37482275258662 -218.99155264203364 0 -218.99155264203364 -1.851961356076572 0 0 0 0 125.70728125276946 -628.11530604969812 0 -628.11530604969812 -726.31078454728777 0 0 0 0 -1327.8603469899208 -1496.5555221217396 0 -1496.5555221217396 -2188.2763685854588 0 0 0 0 -1249.1000474166067 -1116.9487232117335 0 -1116.9487232117335 -407.89454769726217 0 0 0 0 -1794.7308927981212 -76.946649855697615 0 -76.946649855697615 -1326.3401658554831 0 0 0 0 -521.79127710912144 -989.33509045339088 0 -989.33509045339088 -1279.5747611557463 0 0 0 0 -377.61647557414472 -245.67495888415579 0 -245.67495888415579 -1154.868737474666 0 0 0 0 -2.046478655496685 -469.44126301455549 0 -469.44126301455549 -828.90738845548185 0 0 0 0 -386.78737767921848 -630.74672008168272 0 -630.74672008168272 -344.32010802799414 0 0 0 0 -768.18173965420829 -735.65900284400414 0 -735.65900284400414 -108.27023819687747 0 0 0 0 -30.733875927240661 -573.31501046988433 0 -573.31501046988433 -54.86890858501647 0 0 0 0 -576.59796864058444 -1060.2056978942383 0 -1060.2056978942383 -451.70777730827194 0 0 0 0 184.28530829130978 -1009.0058061216532 0 -1009.0058061216532 -204.2888130593783 0 0 0 0 -818.66453885755618 -695.76225410135157 0 -695.76225410135157 -108.07903139146219 0 0 0 0 -1175.747407243849 -977.52588206550899 0 -977.52588206550899 -18.935349478710123 0 0 0 0 -1700.0154476463977 -536.15499601052579 0 -536.15499601052579 159.25501959357666 0 0 0 0 -2538.2904233905865 -1685.46414526425 0 -1685.46414526425 832.34791211712445 0 0 0 0 -1748.6481288629238 -583.29441240502729 0 -583.29441240502729 644.97731950256275 0 0 0 0 -1712.7909693663096 -597.09133607993499 0 -597.09133607993499 606.06979051106464 0 0 0 0 -1676.9840608318482 -387.41147762069886 0 -387.41147762069886 1154.6823248670116 0 0 0 0 -206.63738479405583 -762.31897545263928 0 -762.31897545263928 430.46745330036742 0 0 0 0 -338.15687920611526 -755.7184390667644 0 -755.7184390667644 862.73289589767228 0 0 0 0 1001.3273056351718 -1120.4803303668086 0 -1120.4803303668086 667.81613773798017 0 0 0 0 72.92460282605316 -85.923607867169267 0 -85.923607867169267 1068.1797000712031 0 0 0 0 -2146.475102412558 -637.68215323537152 0 -637.68215323537152 1782.4865958813953 0 0 0 0 -20.957237578475457 -20.999350208548137 0 -20.999350208548137 -16.959645756757368 0 0 0 0 987.32265601266408 -524.45752104688654 0 -524.45752104688654 -3074.4929883381592 0 0 0 0 -280.59660318829992 -1882.7532459493486 0 -1882.7532459493486 -3037.6780962328749 0 0 0 0 750.24187564396561 -729.26031118852006 0 -729.26031118852006 -2080.191363227299 0 0 0 0 -1959.4365283588486 -2010.9353124490008 0 -2010.9353124490008 -1887.7669821018353 0 0 0 0 -2643.4713073079256 -902.63584674277081 0 -902.63584674277081 -952.89755550136033 0 0 0 0 335.4382675258239 -834.19817745759792 0 -834.19817745759792 -1781.3599607057295 0 0 0 0 135.92570530393277 -690.94431827825247 0 -690.94431827825247 -1682.6043100924435 0 0 0 0 241.80919925685157 -487.07612516475638 0 -487.07612516475638 -1295.7733176257098 0 0 0 0 -310.04561613190162 -480.36256069674346 0 -480.36256069674346 -1295.6006097024663 0 0 0 0 351.16510782978912 856.06855169147093 0 856.06855169147093 976.99019950273214 0 0 0 0 309.6918261909741 -962.8011469155681 0 -962.8011469155681 -1351.55283650622 0 0 0 0 -208.33060121387825 -833.88647045664402 0 -833.88647045664402 -1060.0558223810876 0 0 0 0 423.60904041401227 -961.11426243740425 0 -961.11426243740425 -1130.1167513560031 0 0 0 0 -8.044757085597638 -10.526981138573834 0 -10.526981138573834 -6.1602770801982913 0 0 0 0 2126.2374223014558 -134.03716121204343 0 -134.03716121204343 1249.1557174946356 0 0 0 0 386.3922810237309 -1637.9770751023316 0 -1637.9770751023316 1454.2949043171539 0 0 0 0 -46.505385307168069 -42.10529611011215 0 -42.10529611011215 -27.17667759470018 0 0 0 0 -1069.177329874452 -2710.3848353649119 0 -2710.3848353649119 718.2556516029756 0 0 0 0 418.71021112424205 -1214.6044315088875 0 -1214.6044315088875 275.31230199930451 0 0 0 0 526.17376016361959 -751.19857078544737 0 -751.19857078544737 1241.7979983043551 0 0 0 0 782.72497447239584 -618.69734576767223 0 -618.69734576767223 134.9507560094462 0 0 0 0 430.66957278932387 -726.54969213711956 0 -726.54969213711956 1793.429447946055 0 0 0 0 -37.54108396898846 -32.037840246152399 0 -32.037840246152399 -19.687117537264555 0 0 0 0 -35.48362666666543 -23.078923361685504 0 -23.078923361685504 -8.0371562805227654 0 0 0 0 779.12594423303381 -580.66209762457947 0 -580.66209762457947 453.47709362908063 0 0 0 0 -486.20505031899665 -1186.5166149359247 0 -1186.5166149359247 2384.9573192570024 0 0 0 0 707.16386520152446 -1927.9084325682597 0 -1927.9084325682597 1504.7882627705767 0 0 0 0 1841.9001331687177 -1069.2071121604749 0 -1069.2071121604749 -642.52523341756023 0 0 0 0 1029.0908570292304 173.31758356297178 0 173.31758356297178 -649.25555079081823 0 0 0 0 183.6059202858014 -754.13475567658315 0 -754.13475567658315 -138.43879802012452 0 0 0 0 386.10894248764089 -387.29692292037726 0 -387.29692292037726 567.85902292496758 0 0 0 0 736.42459114761004 -414.14633246105768 0 -414.14633246105768 -880.17697215590306 0 0 0 0 -193.08247363845294 564.7334485561023 0 564.7334485561023 1801.4076133141643 0 0 0 0 -88.308484842069447 718.53308833453775 0 718.53308833453775 826.85394747297687 0 0 0 0 -2041.9829987368139 -1766.2114491237371 0 -1766.2114491237371 3098.2308616897462 0 0 0 0 -49.990662836190097 -23.484686694862116 0 -23.484686694862116 -4.8940278886144313 0 0 0 0 -2409.7624540802208 -253.99436622059693 0 -253.99436622059693 -85.015373487982288 0 0 0 0 -650.70023739658791 751.2425822203877 0 751.2425822203877 -470.05275493568479 0 0 0 0 -609.79578337359999 1356.5780697789287 0 1356.5780697789287 2382.3121204359049 0 0 0 0 -33.613027945582189 3.5121522227026674 0 3.5121522227026674 2.2929290130601814 0 0 0 0 -1792.5485058020713 -1731.7309453057096 0 -1731.7309453057096 -1547.796835904308 0 0 0 0 -418.7563509889842 1514.8082860043414 0 1514.8082860043414 1727.1575069138344 0 0 0 0 -722.77473491644378 -942.50319165941892 0 -942.50319165941892 -982.07033864218101 0 0 0 0 -674.3254231455212 -630.14633250278348 0 -630.14633250278348 -967.27798277047259 0 0 0 0 -1091.7549868616479 -959.46097705157445 0 -959.46097705157445 -1296.9942777260549 0 0 0 0 -1101.6707946933602 -1051.2290245590066 0 -1051.2290245590066 -1182.2155922419915 0 0 0 0 -1130.5268510754977 -1155.5988800186169 0 -1155.5988800186169 -869.58331905733576 0 0 0 0 480.28689955033769 -460.2192615791464 0 -460.2192615791464 -1199.8590063132579 0 0 0 0 500.44152946666873 -1026.9470105748042 0 -1026.9470105748042 -1237.466362359819 0 0 0 0 -353.2409269889904 -471.20991128937749 0 -471.20991128937749 -1003.0798226651004 0 0 0 0 279.17007831380761 -42.014640763398347 0 -42.014640763398347 -795.74451430823683 0 0 0 0 595.35694478116056 -822.63053887625938 0 -822.63053887625938 -879.99222309044126 0 0 0 0 -79.322204394269647 -890.24502215094981 0 -890.24502215094981 -1519.7398030521435 0 0 0 0 314.98698211602459 -745.41350803849127 0 -745.41350803849127 -1738.347832765463 0 0 0 0 285.42755541979568 -912.28832356189378 0 -912.28832356189378 -1676.3671734119453 0 0 0 0 348.02611430379875 -763.41863635236041 0 -763.41863635236041 -1574.0772013590249 0 0 0 0 -122.55916405933385 -1032.3048672453551 0 -1032.3048672453551 -1925.4744905058396 0 0 0 0 79.037742127591628 -364.14948445621121 0 -364.14948445621121 -1683.7473528138798 0 0 0 0 487.57781245332444 -687.57771303792833 0 -687.57771303792833 -2503.7496840854692 0 0 0 0 453.71126863367681 -615.43639405921022 0 -615.43639405921022 -1852.6868777452764 0 0 0 0 556.1991855334054 -652.08289609692656 0 -652.08289609692656 -1847.5636272132469 0 0 0 0 -1127.6648551331746 -1403.9892389133238 0 -1403.9892389133238 -1460.6864882996852 0 0 0 0 -874.96321713928182 -1063.8159310081496 0 -1063.8159310081496 -2061.3174731482577 0 0 0 0 -859.25137952923251 -1477.1658976845429 0 -1477.1658976845429 -2152.7304032849934 0 0 0 0 -133.74313762389465 -916.32340644183228 0 -916.32340644183228 -1722.3435533883166 0 0 0 0 88.834912322279706 -269.98555814694919 0 -269.98555814694919 -3259.3915155181494 0 0 0 0 -960.62720255227759 -1711.8452218572784 0 -1711.8452218572784 -2687.5698698072556 0 0 0 0 -524.06222205577069 -1318.9321086530617 0 -1318.9321086530617 1049.5858035492056 0 0 0 0 -7.2346949880409284 -14.566002306158616 0 -14.566002306158616 -13.362020573383759 0 0 0 0 133.43018782932631 -811.33517207638215 0 -811.33517207638215 -5515.4991482373152 0 0 0 0 613.71615234843193 -503.17376737878476 0 -503.17376737878476 430.18525413759926 0 0 0 0 420.55718122071994 -367.13238209055635 0 -367.13238209055635 482.5033871614869 0 0 0 0 523.5463739420793 -108.27364262734227 0 -108.27364262734227 -1374.0155777769687 0 0 0 0 434.94879609979398 -508.47793426795033 0 -508.47793426795033 -1668.7404764103703 0 0 0 0 202.82951563209281 -600.79551434396853 0 -600.79551434396853 994.7644107857559 0 0 0 0 -26.4467888289185 -34.575789078791964 0 -34.575789078791964 -25.423771958720465 0 0 0 0 370.61549634971016 -399.00356509143603 0 -399.00356509143603 -217.27060316447387 0 0 0 0 1537.211400551023 -1981.823769982766 0 -1981.823769982766 522.42545835560304 0 0 0 0 -43.122473459431262 -44.09341235650038 0 -44.09341235650038 -26.629097974106145 0 0 0 0 2835.3378572944712 -194.20452863241007 0 -194.20452863241007 -1798.1610497711226 0 0 0 0 -864.7927461596264 408.08938442212821 0 408.08938442212821 -901.47047748381738 0 0 0 0 857.11098311685782 -9.8801558939339884 0 -9.8801558939339884 -1387.4208966980223 0 0 0 0 -33.561236871173605 -229.68831525881251 0 -229.68831525881251 -1425.4994904380364 0 0 0 0 -507.63304312211403 -324.19835384794715 0 -324.19835384794715 -944.9514681883029 0 0 0 0 -144.38872857691968 -485.32854132007196 0 -485.32854132007196 -1397.0425579194562 0 0 0 0 -1201.9763917939999 -524.07983019476524 0 -524.07983019476524 -915.40048403090805 0 0 0 0 -810.74676423649362 -179.06949656111101 0 -179.06949656111101 -654.19705045189767 0 0 0 0 -3423.5979925120773 -1075.9765067901608 0 -1075.9765067901608 -469.03613881207639 0 0 0 0 -248.24164466200455 3720.0776761746747 0 3720.0776761746747 -1878.1410188146983 0 0 0 0 -1472.0954224025481 -1679.0108997504067 0 -1679.0108997504067 -2091.3681957911467 0 0 0 0 -408.07770343509765 -534.73772350503714 0 -534.73772350503714 -1250.936496200462 0 0 0 0 -533.30197927619156 -745.444545226841 0 -745.444545226841 -1600.6808147395022 0 0 0 0 -519.40066281415056 -822.73476422637032 0 -822.73476422637032 -1341.9289271060261 0 0 0 0 -956.40230463443368 -930.59955963063112 0 -930.59955963063112 -1206.6510708993883 0 0 0 0 -675.5437811724114 -78.83579507563627 0 -78.83579507563627 -887.4129348074639 0 0 0 0 -649.39812407462159 -281.37950441006251 0 -281.37950441006251 -797.11369557213766 0 0 0 0 -888.57122372424783 -506.31253136109081 0 -506.31253136109081 -822.83814719199654 0 0 0 0 -909.75414549504058 -786.99544011817852 0 -786.99544011817852 -1068.9705406897046 0 0 0 0 -731.23090190264338 -757.18038810334838 0 -757.18038810334838 -1076.4030101898315 0 0 0 0 -724.1030889369431 -707.6558960231996 0 -707.6558960231996 -1041.7021669096575 0 0 0 0 -757.39912653644569 -701.5926021778796 0 -701.5926021778796 -1146.8324639145794 0 0 0 0 -1078.221579222125 -1100.5465400467692 0 -1100.5465400467692 -1277.9412040629686 0 0 0 0 -656.86997444983717 -843.45773190711225 0 -843.45773190711225 -1123.5913537759625 0 0 0 0 -570.81509106013618 -706.13153672249791 0 -706.13153672249791 -1171.8541109105718 0 0 0 0 -1164.0572471379492 -674.04789822200109 0 -674.04789822200109 -914.36395841522608 0 0 0 0 -1291.7403124802877 -831.40434557678964 0 -831.40434557678964 -1095.6585367594525 0 0 0 0 -310.38862470872118 -1274.1889319548245 0 -1274.1889319548245 -2006.5948931393891 0 0 0 0 -497.32366851272673 -1132.7320101851437 0 -1132.7320101851437 -1380.8198255342795 0 0 0 0 134.61680484743556 -745.79489318636843 0 -745.79489318636843 -1817.6597085904505 0 0 0 0 138.72366979619255 -778.69589449735213 0 -778.69589449735213 -1636.0789702692928 0 0 0 0 365.19056472196826 -808.01701242936542 0 -808.01701242936542 -1990.587447150072 0 0 0 0 441.3896657203004 -685.88015329618793 0 -685.88015329618793 -1997.1865037215869 0 0 0 0 355.08991891231562 -607.6866269646307 0 -607.6866269646307 -1772.6731091870897 0 0 0 0 572.39014045624299 -349.69655596407756 0 -349.69655596407756 -1646.8840629084589 0 0 0 0 114.06837465534045 -586.24880826046865 0 -586.24880826046865 -1768.5385464397186 0 0 0 0 37.646048655748018 -485.11578511204425 0 -485.11578511204425 -1413.891143030447 0 0 0 0 -306.61294466135587 -838.85809666664863 0 -838.85809666664863 -1628.8836894876586 0 0 0 0 
</DataArray>
<DataArray type="Float64" Name="cross_section_updated" format="ascii">
1 1 1 1 1 0.012300096509972464 1 1 1 1 1 1 1 1 1 1 1 1 1 1 1 1 1 0.010240325920362621 1 0.0091868732431711966 1 1 1 1 0.0045416290537121859 0.0089265670055399537 1 1 0.012655156831767822 1 1 0.0076155404088456419 0.009449613553643918 1 1 1 1 1 1 1 0.0074937935132535424 0.0078821830750558028 1 1 1 1 0.014086784591050262 1 1 0.010162279842596857 1 1 1 1 1 0.013893210724376137 1 1 1 1 1 1 1 1 0.0059900466014379747 1 0.0063224463334821401 1 0.019762072890144533 1 1 1 1 1 0.0019764106879963106 1 1 1 1 0.015726492248296711 0.017609573155558285 1 1 1 1 1 1 0.0015180443143906902 1 1 1 1 0.014617821291214327 1 1 0.0084341254216647454 1 1 1 0.015391769554684191 0.0089117629183372155 1 1 1 1 1 1 1 0.013399203981018673 1 0.011089055961681485 1 1 0.010012820688000143 1 1 0.0048888237057197886 1 1 1 0.010469804711322004 1 1 0.011465847835660806 1 1 1 1 1 0.01401062224214728 1 1 1 0.0099431119379275595 1 1 1 1 0.0082270513235093157 0.018660095685490312 1 0.0097723321779867103 1 1 1 0.011124439936696469 1 1 1 1 1 1 1 1 1 0.012294050323062099 1 1 1 1 1 1 1 1 1 1 1 0.012627084731150904 1 1 1 1 0.015902949905939115 1 1 1 1 -7.4273830141802222e-10 1 1 1 7.423670983497388e-09 0.010486262789159158 1 1 1 0.010022682255725517 1 1 1 1 1 1 1 0.0031705579232562189 1 1 0.010034162410603932 0.0099598160202806346 1 1 1 1 1 1 1 1 1 1 1 1 1 1 1 1 1 1 1 0.0090882139943799095 1 1 0.0030961614253597232 1 1 1 1 0.0090378392001841529 1 1 1 1 1 1 1 1 1 1 1 1 1 0.0090713141648298898 0.0092889833193613089 1 1 1 1 0.0081113060962168804 1 1 1 1 1 1 1 0.0077716101640777427 0.0061349636261690613 1 1 1 1 1 1 1 1 1 1 1 1 1 1 1 1 0.0092873796403889763 1 0.0098061297019368318 1 1 1 0.0075113828489371051 1 1 0.0094350220527623374 1 1 1 0.0078491675853684523 1 0.0079198058403118152 1 1 1 1 1 0.0090399919313869995 1 1 1 1 1 1 1 1 1 1 1 1 1 1 0.0115445181968067 1 1 1 1 1 1 1 0.015880673282256501 1 1 0.014302601657379567 1 1 0.024935854773666031 1 0.010036754229148752 1 1 0.000396941134468351 1 1 1 0.0017345541848107701 1 1 1 1 1 1 1 0.010080375411353124 1 0.018377306645770287 0.0024123955996475308 1 1 1 6.3896089530501854e-09 1 1 1 1 0.018164399711360829 1 1 -4.4340687233024312e-09 1 1 1 1 1 1 1 1 0.014856467789103062 1 1 1 1 1 1 1 1 1 1 1 1 1 1 1 1 1 1 1 1 1 1 1 1 1 -1.4585435206826425e-08 1 1 1 1 1 1 1 0.0057416889886593523 1 1 1 1 0.010008206277020919 1 1 1 1 1 1 1 1 1 1 1 1 1 9.6437377528069135e-09 1 1 1 1 2.33058967610833e-09 -1.01375623173805e-10 1 0.0058170835222621092 0.0030795205360016412 1 1 1 1 1 0.011489938382576163 1 0.0097387161395825067 1.3470667345472087e-08 1 1 1 1 1 0.019578047238838214 1 1 0.016056054211741048 1 1 1 1 0.010005330931305548 0.01796264484693029 1 0.018257567159403999 1 1 1 1 1 1 1 1 1 1 1 1 1 1 1 1 1 0.0093224999664270111 -8.0545257269415416e-10 1 1 1 1 1 1 0.015830837809576802 1 1 1 1 0.0099931868665710695 1 0.0098894395854910045 1 -6.8398985225703868e-09 1 1 1 1 0.025350963937814268 1 1 0.0059967159551028333 0.011135776876463978 1 1 0.0088837948865771801 0.0096942885600473649 1 0.017319860706682764 0.016997783806266993 1 0.009953726032177812 1 1 0.0056075066825983649 1 0.0051119185071317012 1 1 -1.8253401672108094e-09 1 1 1 1 1 1 1 1 1 0.0086163503287257671 0.016473816039508996 1 0.0081462319620716692 1 1 1 0.021322197010558951 1 1 1 1 0.012298880259921451 1 0.0099624396339207388 1 0.014894759672189718 1 0.0052368949891420866 1 1 1 0.016640110419871259 1 1 -3.2366092445057504e-10 1 0.012628839206071343 1 1 1 1 1 1 1 1 1 1 1 1 1 1 1 0.010758723740411844 1 0.016869198082658667 1 1 1 1 0.0046987728690982486 1 0.019769804978505515 0.0091866965479938598 1 1 1 1 1 1 1 1 0.017662706551942259 0.010283509678773627 1 1 1 1 1 1 1 1 1 1 1 1 1 1 1 1 1 1 1 0.0098627820277894587 1 1 1 1 1 1 1 1 1 1 0.012210445453738531 1 1 1 0.012925621766974437 1 1 1 1 1 1 1 1 0.010561678792923059 0.016345010017226984 1 1 1 1 1 1 0.0092297262005055294 1 1 1 0.0097792642927120779 1 0.013109860169070731 0.0041633532256747513 0.01085067416120593 1 1 0.017563656909137238 1 1 1 1 0.006013610199118738 1 1 1 1 0.014473389994869064 1 0.011238662485076975 0.0013028762582331169 1 1 1 1 0.0090595916482013178 1 1 1 1 1 1 1 1 1 1 1 0.0096160526071796398 1 1 1 1 1 1 1 1 1 0.0095039554279878827 1 0.010590696461646849 1 1 1 1 1 0.0097059777606540096 1 1 1 1 1 1 1 0.013242294864673744 1 1 1 1 1 1 0.014607576368283052 1 1 1 1 1 0.010414977693813362 1 1 1 1 1 1 1 0.015690975829353776 1 0.011493221834654519 1 1 1 0.022112457572729328 1 1 1 1 0.011894732022491077 1 1 1 1 1 0.0083402852657147933 1 1 1 1 0.006657982635250019 1 0.0076179853390806532 1 0.010433796561044324 0.0096641759603924259 1 1 1 1 1 1 1 0.010990098548108264 1 1 1 0.011194656306610606 1 1 1 1 0.0093585756662250552 0.012940411883258779 1 0.0075109995505170737 1 1 1 1 1 1 1 0.0091412623946351482 1 0.014530244476143869 0.0051737358373691658 1 1 1 1 1 1 1 1 1 1 1 1 1 0.0095820917629117486 0.004599563482899513 1 1 1 1 1 1 1 1 1 1 1 1 0.004512252421275828 1 1 1 1 1 0.011953305584992042 1 1 1 0.0051100303732459704 1 1 0.016157425296015368 0.0035066667181423358 1 1 0.0043036829159841111 1 1 1 1 1 1 1 1 0.010725631899502109 1 1 1 1 1 1 0.010488032095411156 1 1 1 1 0.011045571292881359 1 1 1 0.023883458461129818 1 1 0.023800218653288539 1 1 1 1 1 1 1 0.01208184485829953 0.0078986646682167386 1 1 0.0099970922907352683 1 0.0076760701103915779 1 1 0.0098499448570995938 0.003814215772244757 1 0.0099987112499501513 1 1 1 0.012753892536053432 1 1 0.0047374872931068568 1 1 1 1 0.0056326787313205964 1 0.0060854354309175795 1 0.011420175538657434 1 1 0.010002864042285549 0.01151328561077917 1 0.0072710033663692455 1 1 1 1 0.0093909938825310971 1 0.011487568688952574 0.010006049721707351 1 1 1 0.0083378380097219595 0.0083184766343883387 0.0099936723392746382 0.012449698166368629 1 1 1 1 1 0.006285792411464184 1 1 1 1 1 1 1 1 1 1 1 1 1 0.0085618521934186578 1 0.01019503326792306 0.0097514844722291286 1 1 1 1 1 1 1 1 1 1 1 1 1 1 1 1 1 1 1 1 1 1 1 1 1 0.010498396727792125 1 0.014332938151991305 1 1 1 1 1 1 1 1 0.015592133190936129 1 1 1 1 1 1 1 1 1 1 1 1 4.2766591101806029e-09 1 1 1 1 1 1 -3.9400482182427865e-09 1 1 1 1 -5.547105622061288e-09 1 0.017739765242181023 0.01667314625705299 1 1 1 1 1 1 1 1 1 1 1 1 1 1 1 1 1 1 0.0080636193901884451 1 1 1 0.010574597310320205 1 1 1 1 1 1 0.01026675811401153 1 1 1 1 1 1 1 1 1 1 0.0084395475752788093 1 1 1 1 1 1 1 1 1 0.010040063714407198 1 1 1 1 1 1 0.023027147805833779 1 1 0.023541922024068167 1 1 1 1 1 0.010959079324257034 1 1 1 0.010040689446089997 1 1 0.010401540126786835 1 1 1 1 1 1 1 1 1 1 1 1 0.0055551910799020165 1 0.011699688440792362 1 1 0.0099988648659766893 1 1 1 1 0.010820039796125572 1 0.0061534174367524688 1 -5.5982692440115223e-09 1 1 1 1 1 1 1 1 1 1 -5.3090538770783624e-09 1 1 1 1 1 1 0.009997171055835221 0.010006020910641344 1 1 1 1 1 1 1 0.012498414114376931 0.015684874392671931 1 1 0.0035289916621527653 0.013592341664551311 1 1 1 1 1 0.009832599453579699 1 1 0.015469634084128306 1 1 0.013401778609678942 1 1 1 1 1 1 0.011744877911931684 1 0.010613041084553777 1 1 1 1 1 1 0.0099291859723537983 1 1 0.010204346050464143 1 1 1 1 1 1 1 1 1 0.010183757506952714 0.0085034485447149592 1 1 1 1 0.0096252911671279289 1 1 0.008849658369497115 1 1 1 1 1 1 1 1 1 0.010123233958391459 1 1 1 0.010162695863015636 1 1 1 1 1 0.021335476723696747 1 1 1 0.024190363378082863 0.012193445839538332 1 1 1 1 1 1 1 0.010553036045172584 1 1 1 1 1 0.019939619232924546 1 1 0.011929911779817601 0.00078293315525568286 -1.3710464222271845e-09 1 1 1 1 0.0083220404530435083 1 1 0.011819196772777978 0.0014230902230804379 1 1 1 1 1 1 0.0099878154407454373 0.014608438726156466 0.014535599589174074 1 1 1 1 1 1 0.018029297286475055 1 0.010569123303076435 1 1 1 1 1 1 1 1 1 0.016249306448287187 1 1 1 1 1 1 1 1 1 1 1 1 1 1 0.0092220302545354821 1 -5.9050225126311418e-09 0.01018914095757037 1 -4.4917714339676174e-09 1 1 0.011770276944918015 1 1 1 1 1 1 1 1 1 1 1 1 1 1 1 1 0.010806389550131495 1 1 1 1 1 1 1 1 1 1 1 1 1 1 0.0099191052770808905 1 1 1 1 0.0097724350569143234 1 1 1 0.010867750245562337 1 1 1 1 1 1 1 1 1 1 0.010144956007540638 1 1 1 1 1 0.0069216847168566964 1 0.018035750411343119 1 1 1 1 0.0099592317591548768 1 1 1 1 0.019912102413397303 1 1 1 1 1 1 1 1 0.0098137916585496528 1 1 1 1 1 1 1 1 1 1 1 0.0092905082640402648 1 1 1 1 1 0.0097452798131332438 1 0.0066662544208262106 1 1 1 1 1 1 1 1 1 0.0074194320263808594 1 1 1 1 1 1 1 1 1 1 1 1 1 1 1 1 0.005419098185232625 1 1 1 1 0.015423036338710436 0.016974934353225769 1 1 1 1 0.016084601755408445 1 1 1 0.0063485473077290952 0.0059509369569762938 1 1 1 1 1 1 1 1 0.0099899693872700854 1 1 1 1 1 1 1 1 1 1 1 1 0.010809406191799487 0.0031229374648346075 1 1 1 1 1 1 1 1 1 1 1 1 1 1 1 1 1 1 1 1 1 1 1 1 1 1 1 1 1 1 1 1 1 1 0.012791547935291451 1 1 1 1 1 1 1 1 1 1 0.012728260461645435 1 1 1 1 1 0.018450558499650868 1 1 1 1 1 1 1 1 1 1 1 1 1 1 1 1 0.0099106577231249451 1 1 1 1 1 1 1 1 1 1 1 1 0.0094735408078008218 1 1 1 1 1 1 1 0.0094719900876013424 1 1 1 1 1 1 1 1 1 1 1 1 1 1 1 1 1 0.0062188617342077146 1 1 1 1 1 1 1 1 1 1 1 1 1 1 1 1 1 1 1 1 1 1 0.0098753034669325154 1 0.0076193845608215766 1 1 1 1 0.0098777959996752956 1 1 1 1 1 0.0041310272774847737 1 1 1 1 1 1 1 1 1 1 1 1 1 1 1 0.009325273472092728 1 1 0.0014554781073805138 1 1 1 1 1 1 1 1 1 1 1 1 1 1 1 1 0.00031879251281004446 1 1 1 1 1 1 1 1 1 1 1 1 1 1 1 1 1 1 0.0020481127273082461 0.0098851937946767901 1 1 1 1 1 1 1 0.006832549422079115 0.0038162181942529294 1 1 1 0.0099997461112585895 1 0.010842130957215007 1 0.0091978474511569194 1 1 0.01052902147963268 0.0069488189471143616 0.0066735674479421747 1 0.0038125171620644119 1 0.0098779580890984778 0.0070075187292536409 1 1 1 0.01076899718671178 1 1 1 1 1 1 0.010208218740599663 1 1 1 1 1 1 1 1 1 1 0.010865222908679334 1 1 1 1 1 1 1 1 1 1 1 1 0.01035600446565383 1 1 1 1 1 1 1 1 0.005429999975183895 0.011734917402279769 1 0.010596098409633919 1 1 1 0.012274419523231581 0.0087501469107715002 1 1 1 1 1 1 1 1 1 1 0.0059965608555626049 1 1 1 1 1 0.0052392622767226662 1 1 0.010033831115586226 1 1 1 1 1 0.0058297588196116086 1 1 1 1 1 1 1 7.5491387934670945e-09 1 1 1 0.0075235793447376124 1 1 1 0.010725005730421257 1 1 0.012828687773386256 1 0.010102596502256539 1 1 1 1 1 1 1 0.0063685904266870281 1 1 0.010795041303664982 1 0.0074297902352583531 1 1 1 1 1 1 1 1 0.012208757636900462 1 1 1 0.0085285825449302292 1 1 1 1 1 0.010275934910687576 1 1 0.011496465994579964 1 1 1 1 0.0098609032468963981 1 0.015185640118445282 1 0.013779027352361108 1 1 1 1 1 1 1 1 1 1 1 1 1 -7.3220019283781745e-10 1 1 0.02222472771239227 1 1 0.00014359700752728313 1 1 0.0014095998143292049 0.01221402521194127 1 1 0.017542893540313555 1 1 1 1 1 0.01058748033761777 1 1 1 1 1 1 1 1 1 1 1 1 1 1 1 1 1 1 1 1 1 1 1 1 1 1 1 1 1 1 1 1 1 0.011909306228718006 1 1 1 1 1 1 0.0061514859290950179 0.0074572448049206735 1 1 1 1 1 0.0092029831305194525 1 1 1 1 1 1 1 1 1 1 1 1 1 1 1 1 1 1 1 1 1 1 1 1 1 1 0.011547195352295751 1 1 1 0.011789860100963723 1 0.0082836319822194773 1 1 1 1 1 1 1 1 1 1 1 1 1 1 1 1 1 1 1 1 1 1 1 1 1 1 1 1 1 1 1 1 1 0.0099528063565626247 1 1 1 1 1 1 1 1 1 1 1 1 1 1 1 1 1 1 0.0099720649049988477 0.0048245336749542615 -9.8814254556600645e-09 1 1 1 0.006128729958161945 1 0.010942644375472167 1 1 1 1 0.0091632082824465669 0.016593273857033995 1 1 1 1 1 1 0.012606007467747565 0.013462363262509516 1 1 1 1 1 1 1 1 1 1 1 1 1 1 0.012483415617995321 1 1 1 1 1 1 1 1 1 1 1 1 1 1 1 1 1 1 1 1 1 1 1 1 1 1 1 1 1 1 1 1 1 1 1 1 1 1 1 1 1 1 1 1 1 1 1 1 1 1 1 1 1 0.010183971171346395 1 1 1 1 1 1 1 1 1 0.010920254912186666 1 1 1 1 1 0.0063227464357632473 1 1 1 1 1 0.010111070449432805 1 1 1 1 1 1 0.0081206077429850834 1 1 1 1 1 1 1 1 1 0.0098880749620699985 1 1 0.010267156353683374 0.0090439791340700109 1 1 0.0072793593018651934 0.010332132132236336 1 0.0076989616952838815 1 1 1 0.0094432195244244545 0.0070271732396558553 1 0.0076640013252455841 1 1 1 0.013097975355977384 1 0.0099949473679727882 1 0.010000087518064187 1 1 0.016699467551377606 0.0092050137086998537 0.0099625140948549212 1 1 1 1 1 1 1 1 1 0.01622555802535814 1 1 1 0.0089840935662897949 1 1 0.007945397687820481 1 0.006865667649800674 1 1 0.014229899501935404 1 1 1 1 1 1 1 0.007963322081305459 1 1 0.007441376256827302 1 1 0.011795187921175652 1 1 1 1 1 0.0052825109298449621 1 1 0.012629095072235702 1 1 1 0.0096591546982235862 1 1 0.014456566157166444 1 1 1 1 1 0.0091437608791122699 1 1 1 1 0.0099937685892373014 1 1 1 1 1 1 1 1 0.010017526751809641 0.010049695985952515 0.014824018647158047 0.0086841121202525622 1 0.0080080627701419882 0.016914069380054235 1 0.014888698785264722 1 1 1 1 1 1 1 0.0076171727035313688 0.010288120526107846 1 1 1 0.012285226608169561 1 1 1 1 1 1 1 1 1 1 1 1 1 1 0.011226228424913111 0.0097234196086414329 1 1 1 1 1 1 1 0.0099485032192297568 1 0.003113297968264428 1 0.0099729119568546902 1 1 1 1 1 1 1 1 1 1 1 1 1 1 1 1 1 1 1 1 1 1 1 1 1 1 1 1 1 1 0.0096901742969080565 1 1 1 1 1 1 1 1 1 1 1 1 1 1 1 1 1 1 1 1 1 1 1 1 1 1 1 1 1 1 1 1 0.0091007502665527342 1 1 1 1 1 1 1 1 0.0077840398136738908 1 1 1 1 1 0.0068049118882488688 0.0099745603412529187 1 1 1 0.012366050382100745 0.0042754472238909925 1 1 0.0091325772599773151 1 1 0.002792778464244916 1 1 1 1 1 0.011042017344419496 1 1 1 0.012615347937963364 1 1 1 1 0.013987941851638017 1 0.018302075916982019 1 1 1 1 1 0.0063056789816126673 1 1 1 1 8.3534681645860975e-10 1 1 1 1 1 1 0.010992780086580077 1 1 1 8.5137247584029011e-05 1 1 1 1 1 1 1 1 -1.8906541957020018e-09 1 1 1 1 1 1 1 1 1 1 1 1 1 1 1 1 1 1 1 1 1 1 1 1 1 1 1 1 1 1 1 1 1 1 1 1 1 1 1 1 1 1 0.0095744669405854067 1 1 1 0.0087546565310716515 1 1 1 1 1 1 1 1 1 1 0.0089170613672016827 1 1 1 1 1 1 1 1 1 1 1 1 1 1 1 1 1 1 1 1 1 1 1 1 1 1 1 1 1 1 0.0070099224276245799 1 1 1 1 1 0.0019935147556894191 1 1 1 1 1 1 0.0073240414337804871 1 1 1 0.0030124972276747639 1 1 1 1 1 -2.2908017149880777e-09 1 1 1 1 1 1 0.0053893431376967511 1 1 0.0080319431782583921 1 0.016282328015245394 1 0.014283703097423214 1 1 -9.581082732745827e-10 1 1.166231412309815e-08 1 1 1 1 1 1 1 1 0.023819169120205149 1 0.021347046859322531 1 1 1 0.02129651368597402 1 1 1 0.010943745815498286 1 1 1 1 1 1 1 1 1 1 1 1 1 1 1 1 1 1 1 1 1 1 1 1 1 1 0.023127078837820524 1 1 1 0.0086650060692296371 1 1 1 1 1 1 1 0.0097157722275567158 1 1 1 1 1 0.022105523261192108 1 1 1 1 1 1 1 1 1 1 1 1 1 1 1 1 1 1 1 1 1 1 1 1 1 1 1 1 0.0090065433811205471 1 1 1 1 1 0.018501602250742686 0.0097626165429571966 0.008472387878002724 1 0.010276100570498046 1 1 1 1 1 1 1 0.010075808029343792 1 1 0.00031856447856785583 1 1 1 0.016394246146717601 1 0.020559559985207136 1 1 1 1 1 1 1 1 1 1 1 1 0.0018342268499959603 1 1 0.011066124390575319 1 1 0.0092579536763501089 1 1 1 1 1 1 1 0.009262147858419726 1 1 1 1 1 1 1 1 1 1 1 1 1 1 1 1 1 1 1 1 1 1 1 1 1 1 1 1 1 4.3143516328947307e-09 1 1 1 0.00086484420629420744 1 1 1 1 1 1 0.0099560671916292202 1 1 1 1 1 0.0084827814653438346 1 1 0.01014191718258396 1 1 1 1 1 1 1 1 1 1 1 0.024727824342249238 1 1 1 1 1 1 1 1 1 1 1 1 1 1 1 1 1 1 1 1 1 1 1 1 1 0.0038761144717681037 0.0080102699679269612 1 1 1 1 1 1 1 0.011209736873008122 1 1 1 1 1 1 1 1 1 1 0.0095559403218688967 1 1 1 1 0.01419657286664518 1 1 1 1 1 1 1 1 1 1 0.0073204994331512729 1 1 0.0024947437163545597 1 1 1 -5.2610081360815464e-09 1 1 1 1 1 1 1 -3.5192552760854312e-09 1 1 1 0.0061622604437103004 1 1 1 1 1 0.00074368408364539756 1 1 1 1 1 1 0.00768561231849859 1 1 1 -1.2240362196047627e-10 1 1 1 1 1 1 1 0.00019492333531243022 1 0.0058920131897367278 1 1 0.010925949064472775 1 0.0044423142104248661 1 0.015366067140160684 1 1 0.014849292188176624 1 1 1 1 0.010242856709553775 1 1 0.014059851500601094 1 1 1 1 0.0069615014233477841 1 1 1 1 1 0.01028351075703484 1 1 1 1 1 1 1 1 0.0095380694325496937 1 1 1 1 1 1 1 1 0.019642515366622426 1 0.0020675011303194768 1 1 1 1 1 1 0.0025492059750465285 1 1 0.015999764307859911 1 0.010881983487642896 1 0.0090382939694309637 1 0.0056686552702236888 1 1 1 1 1 1 0.016946819323351105 1 1 1 1 1 1 1.4020680678961117e-08 1 1 0.0099110234428163493 1 1 1 1 0.018209227210856192 1 1 1 1 0.0022063272049629504 1 1 1 1 1 0.0099447621553434215 1 0.0089648713111241205 0.01389163411515993 1 1 0.013564637163715421 0.0096756675027984598 1 1 1 1 1 1 1 1 1 1 1 1 1 1 1 1 1 1 1 1 1 1 1 1 1 1 1 1 1 1 1 1 1 1 1 1 1 1 1 1 1 1 1 1 1 1 1 1 1 0.010330046189979646 1 1 0.0097829221174192613 0.0092246490436544044 1 1 1 1 1 1 1 1 0.0099033572746641887 1 1 0.012534071161528104 1 1 1 1 1 0.010976228495249006 1 1 1 1 1 1 1 1 1 1 1 1 1 0.0050840194401407454 1 1 1 1 1 1 1 1 1 1 1 1 0.0045820066746358953 1 1 0.01372873669698628 1 0.0096564203059055151 1 1 1 1 1 1 1 1 0.010818239771248028 0.013752059312516419 1 0.0081933275082843576 1 1 0.01035269458852197 1 0.012261538620703108 0.011776885737966529 1 1 1 1 1 1 0.014489896194670171 1 1 1 1 1 0.01410825358174455 1 0.011248289096830739 1 1 1 0.0095544557267927509 1 1 0.022686205871040623 1 0.010312958249725966 1 1 1 1 0.024758163563086563 1 1 1 0.012111942950707395 1 1 1 1 1 1 1 1 1 1 0.010162037351021593 1 1 1 0.011340203791182321 1 1 1 1 1 1 1 0.013271409843947202 1 1 1 1 1 1 1 1 1 1 0.010156483625814762 0.010058505785914308 1 1 1 1 1 0.0083378777675249746 1 1 1 0.0093268282262594787 1 1 1 1 0.010132481065712892 1 1 1 1 0.01065610203348602 1 1 1 1 1 0.010418540481428616 1 0.0061220234064684811 1 0.0099532696779490587 1 0.0095964806414591819 1 1 1 0.0099862497928665736 1 1 1 0.0087450863653715655 1 1 1 1 1 1 1 1 1 1 1 0.01092472144384616 1 1 1 0.0040152652114186175 1 0.013397196197335162 1 0.014844674664522911 1 1 1 0.011475935126099519 1 1 1 1 1 0.0053036485473363683 1 1 1 1 1 1 1 1 1 1 1 1 1 1 1 1 0.0080152709588710378 1 1 1 1 1 1 1 1 1 1 1 1 1 1 1 1 1 1 1 1 1 1 1 1 1 1 1 1 1 1 -1.9983359359626585e-09 1 1 1 1 0.0010524089287274174 1 1 1 1 1 1 1 1 1 1 1 1 1 1 1 1 1 1 1 1 1 1 1 1 1 1 1 1 1 1 1 0.0002113297551249553 -1.5579887033267958e-10 1 1 1 1 1 1 1 1 1 1 1 1 1 1 1 1 1 0.010492993775947541 1 1 1 1 1 1 1 1 1 1 1 1 1 1 1 1 1 1.2804467798555041e-09 1 1 1 1 3.5278159143947718e-09 1 1 0.010233413304416517 1 0.006844708174987009 1 1 1 1 0.01092842491418141 1 1 0.0076971411431789871 1 0.010103531565107279 1 1 1 -8.6001201021757012e-09 0.013496679151328725 1 1 1 1 -8.0044103949183931e-09 0.015390165497735413 1 1 1 1 1 1 0.015377194849956505 1 1 1 1 0.018367228897900337 1 1 0.020043839022133081 1 1 0.01296466189977933 0.011242323423307395 1 1 1 1 0.010249267318841106 1 1 0.018367919619205537 1 1 1 1 1 1 1 1 1 1 1 1 1 1 1 1 0.0088010762629213424 1 1 1 1 0.020648472794360113 1 1 0.0086860735221872196 1 0.0076541930264842212 1 1 1 1 1 1 1 1 1 1 1 1 1 1 1 1 1 1 1 1 0.010289739384041867 1 0.010075375018954738 1 1 0.0083562167584794594 1 1 1 0.028739244409170757 0.010780435510615083 1 1 0.0038071332537308739 1 0.0062456452987954755 1 0.022549638583390007 0.017480310423368228 0.019084681507210807 1 1 1 0.00029465771143805108 1 1 1 1 0.0033327368991594476 1 1 1 1 1 1 0.023379352256226463 1 1 1 1 1 1 1 1 0.01519395404257743 1 1 1 1 1 1 1 1 1 1 1 1 1 1 1 1 1 1 1 1 1 1 1 1 1 1 1 0.010424944073415071 1 1 1 1 1 1 1 1 1 1 1 1 1 1 1 1 1 1 1 0.010131948259523703 1 1 1 1 1 1 1 0.011175078322481317 1 1 1 1 1 1 1 1 0.01007289492374866 1 0.011355775820207605 1 1 1 1 1 1 1 1 1 1 1 1 1 1 1 1 1 1 1 1 1 1 1 1 1 0.010700904160617336 1 1 1 1 1 1 1 1 1 1 1 1 1 1 1 1 1 0.012628286299726087 1 1 1 1 0.011005242216780599 0.0093297733523414576 1 1 1 1 0.0099999428834556675 1 1 1 1 1 1 1 1 1 1 1 1 1 1 1 1 1 1 1 1 1 1 1 1 1 1 1 1 1 1 1 1 1 1 1 1 1 1 1 1 1 1 1 0.012381607160616049 1 1 1 1 1 1 1 1 1 0.011275752880115083 1 1 1 1 1 0.024974593508164136 1 1 0.0098432288320624024 1 0.010361871765790525 1 1 1 1 1 1 1 0.02387408398615324 1 1 1 1 1 1 1 1 1 1 0.0091791492410514541 1 1 1 1 1 0.0070955792897031394 1 1 1 1 1 1 1 1 1 1 1 1 1 1 1 1 1 1 1 1 1 1 1 1 1 1 1 1 1 1 1 1 1 1 1 1 1 1 1 1 1 1 1 1 1 1 0.026284686720070893 1 1 1 0.030877792064437928 1 1 1 0.009643085739051897 1 1 1 1 0.0084437951544213061 1 1 1 1 1 1 1 0.016933219397422261 1 1 1 1 1 0.0062151963582555356 0.025908176332842772 1 1 1 0.019186239297243467 1 1 1 1 0.021419320346431597 1 1 1 1 -3.500150195720475e-09 0.00093478834006190982 1 1 1 0.010738668222144308 1 1 0.0096885564260893522 1 0.0098028087217773025 1 1 1 1 0.010024639714548221 1 1 0.014566017655534065 1 1 0.0042961008699991324 0.010055141028041515 1 1 0.00084063929474347855 1 1 0.02233569619214482 1 0.022449953994398572 1 0.0049791977929021757 0.0099944790974759168 1 1 0.0035741247743039488 1 1 1 1 1 0.0088681925788582083 1 0.0074895659846268212 1 1 1 1 1 1 1 1 1 1 1 1 1 1 1 1 1 1 1 1 1 1 1 1 1 1 1 0.010700532626959233 0.0024738834605769824 1 1 0.012921591593064706 1 1 1 0.010275990991471091 1 1 1 0.0078940671381142902 0.010810195297715756 1 1 1 0.010119989068440791 1 0.00081071986897280485 1 1 1 1 0.010986288792304849 1 1 1 0.011276155418301625 1 1 1 1 1 0.01298805724357633 -5.1846528459353891e-10 1 1 1 1 1 1 1 1 1 1 1 0.0097565937337210362 1 1 -3.7438448521887047e-09 0.009240269599290668 1 1 1 1 1 1 1 1 1 1 1 1 1 1 0.0072188020903669256 1 0.003070759448864438 1 1 1 1 1 1 1 0.001015959486081075 1 1 1 1 1 1 1 1 1 1 1 0.0088262255918449897 1 1 0.0068860224533526734 1 1 -5.9626811821367198e-10 1 1 1 1 1 1 1 1 1 -3.5840997739122749e-09 -2.3845581620385303e-09 1 1 1 1 1 1 1 1 1 1 1 0.010025414154764191 1 1 1 1 1 1 1 1 1 1 1 1 1 1 1 0.015599110560436585 1 1 1 1 1 1 1 1 1 1 0.012063936844509363 1 1 1 1 1 1 1 0.0094624129699454797 1 1 1 1 1 1 0.0090610917875657282 1 1 1 1 1 1 1 1 1 1 1 0.0074557185572718503 1 1 1 1 1 0.0053806106623658732 1 1 1 0.0033888912932987219 1 1 1 1 1 1 1 1 1 1 1 1 1 1 1 0.0080774741228758582 1 1 0.0044349415065594103 1 0.0011401229554937557 1 1 1 1 1 1 1 0.0097818804189132094 0.015389501470850317 1 1 1 0.011361997326276525 1 1 1 1 1 1 1 1 1 1 1 1 0.0089102839710239155 1 0.011349703792795415 1 4.2766019198170468e-09 1 1 1 1 1 1 0.0075458734568238373 1 1 1 0.00052811235120237693 1 1 1 1 1 1 0.0057800589845354855 1 1 1 1 1 1 1 1 1 1 1 1 1 1 1 1 1 1 1 1 1 1 1 1 1 1 1 1 0.0089184930672093279 1 1 1 1 1 1 1 1 0.0068103089523136734 1 0.018624189835933926 1 0.01330543332475171 1 1 1 1 1 1 1 1 1 1 1 1 1 1 1 1 1 1 1 1 1 1 1 1 1 1 1 1 1 1 1 0.007407356480271618 0.022041123566961918 1 1 3.3705803391403943e-09 0.0055369518656466568 1 0.0092920575110842854 1 1 1 1 1 1 0.011467165754587207 1 0.0057811630564115844 1 1 1 1 1 1 1 1 1 1 1 1 1 1 1 1 1 1 1 1 1 1 1 1 1 1 1 1 1 1 1 1 1 1 1 1 1 1 1 1 1 1 1 1 1 1 -7.9529018787161121e-10 1 1 1 1 1 1 1 1 1 1 1.7121366546746231e-09 1 1 1 1 1 1 1 1 1 1 1 1 1 1 1 1 1 1 1 1 1 1 1 1 1 1 1 1 1 1 1 1 1 1 1 1 1 1 1 1 1 1 1 1 1 1 1 1 1 1 1 1 1 1 1 1 1 1 1 1 1 1 1 1 1 1 1 1 1 1 1 1 1 1 1 1 1 0.0086195384146992883 1 1 1 1 1 1 0.0097781163991861389 1 1 1 1 0.010135417486092993 1 1 0.00977803334760486 1 1 1 1 1 1 1 1 1 1 1 1 1 1 1 1 1 1 1 1 1 1 1 1 1 1 1 1 1 1 1 1 1 1 1 1 1 1 1 0.001503150784268617 1 1 1 1 1 1 1 1 1 0.005737883292342684 1 1 1 1 1 1 1 1 1 1 1 1 1 1 1 1 1 1 0.0087506561500658234 1 1 1 1 1 1 1 1 0.0022782962260991767 1 1 1 1 1 1 1 1 1 1 1 1 1 1 1 1 1 1 1 1 1 1 1 1 1 1 1 1 1 1 0.0095940657523234905 0.014967092400655746 0.0031232219221618736 1 1 1 1 1 1 0.011103618334957203 1 1 1 1 1 1 1 1 1 1 1 1 1 1 1 1 1 1 1 1 1 1 0.0037131153909388606 1 1 1 0.010045980469746814 0.0026803191304990287 1 1 0.0098489093250945237 1 1 1 1 1 1 1 1 1 0.011037269679155262 0.0060980884160811571 1 1 0.0055559678768263496 1 0.0070125310731744134 1 0.0071817061086571835 1 1 0.0090394068915249579 1 1 1 1 1 1 1 1 1 1 1 1 1 1 1 1 1 1 1 0.0013189344153982201 1 1 1 1 1 1 1 1 1 1 1 1 1 1 1 3.3140969881578775e-09 1 0.0049852819686572111 1 1 0.011742289518910598 0.009093563030234883 1 1 1 1 1 1 1 1 1 1 3.7117248302687145e-09 1 0.0098253848240725857 1 1 2.2994722549685154e-09 0.014912289784819899 1 1 1 1 -2.9008314916811884e-09 1 0.0082583071882225689 1 1 1 1 1 0.011373623405149295 1 1 1 1 1 1 1 1 1 1 1 1 1 1 0.010219381812086432 1 1 1 1 1 1 1 1 1 1 1 0.0096694340193770323 1 1 1 0.020081184588912455 1 0.03811452912052378 1 1 1 1 0.037459422497038854 1 1 0.025877490730699278 -1.114414151237586e-10 1 0.0095255938065822443 1 1 0.00016447411003281745 1 1 1 -5.2522566851287422e-10 1 1 1 -5.3536107838536573e-10 1 0.023984478035532025 1 -9.1567451537821754e-10 1 1 1 1 1 1 1 1 0.042695513610840966 1 1 0.035693589840365761 1 1 1 1 1 0.0020239856055962284 1 1 1 1 1 1 1 1 0.028150199912320924 1 1 1 1 1 1 1 1 0.020665617913919292 1 1 1 1 0.021442876383894818 1 1 0.009704759240412246 1 1 1 1 0.0091486740226519661 1 1 1 1 1 1 1 1 0.010515953567458068 1 1 1 1 -2.4615122440341253e-09 1 1 1 0.0099498796665079825 0.0034753297746134282 1 0.013789518508876684 1 1 1 0.0042539551233376251 1 1 1 0.016519715382189062 1 1 0.010777313462731752 1 1 1 0.0078083092277108634 1 1 1 1 1 1 1 1 0.01025336782675736 0.015835903319200893 1 4.2113573045510222e-10 1 1 1 0.0096469351609890387 1 1 1 0.0073639284409137348 1 0.018406013843950998 1 1 1 0.015235791787463829 0.013385351949851479 1 1 0.0077370777367495903 1 0.012449963750545343 1 1 1 1 1 1 1 1 1 1 1 1 1 1 1 1 1 0.013539962317957843 1 0.013497155125070208 1 1 1 1 1 1 1 0.0081444323085319778 1 1 1 1 1 1 0.010121905017852465 1 1 1 1 1 0.0093960682295246775 1 1 1 1 1 1 1 1 1 1 1 1 1 1 1 1 1 1 0.0069370754162884629 1 1 1 0.015422084459617812 1 1 1 1 1 1 1 0.010012664124031137 1 1 1 1 0.0059561065998744861 0.015912676042190918 1 1 1 1 1 0.015483948355689767 1 1 1 1 1 1 1 1 1 1 1 1 1 1 0.013184823601321609 1 1 0.01535728524606246 1 1 1 1 1 1 0.010995031678237949 0.0095031408349713492 1 1 1 1 1 1 1 1 1 1 1 1 0.010978343431295348 1 1 1 1 1 1 1 1 1 1 1 0.011129414119143498 1 1 0.010349362733617244 1 1 1 1 1 1 1 1 0.012342785256994421 1 1 1 0.010963228594883022 0.011425195416666457 1 1 1 1 1 1 1 1 1 1 1 1 1 1 1 1 1 1 1 1 1 1 1 1 1 1 1 1 1 1 1 1 1 1 1 1 1 1 1 1 1 1 1 1 1 1 1 1 1 1 1 1 0.012760200316790822 1 1 1 0.011110455879751164 1 1 0.010002059663066642 1 1 1 1 1 1 1 0.010170921605055817 1 1 1 1 1 1 1 0.010306339091148781 1 1 1 1 1 1 1 0.024166641510280723 1 1 1 1 1 1 1 1 1 1 1 1 1 1 1 1 1 0.014868242118940179 1 1 1 1 1 1 1 1 1 0.0061881901462631835 1 1 1 1 1 1 1 1 1 1 1 1 1 1 1 1 1 1 1 1 1 1 1 1 1 1 1 1 1 1 1 1 1 1 1 1 1 1 1 1 1 1 1 1 1 1 1 1 -9.3321819412753304e-10 1 1 1 1 1 1 1 1 1 1 1 0.0065665768127874322 1 0.0092449872373746144 0.014814458584260885 1 1 0.0044943485547356311 1 1 1 0.011316546073107597 0.014654980586198808 0.010003119910605745 1 0.0038016772278005716 1 0.011459869386172024 1 0.026159969629728365 1 1 -1.9377894393268758e-09 1 1 1 0.012034152150951351 0.025455514359008634 1 1 1 1 1 1 1 1 1 1 1 1 1 1 1 1 1 1 1 1 1 1 1 1 1 1 1 1 1 0.0060916843238441078 1 1 1 0.01098897082726126 0.0062066262479820358 1 1 1 1 0.024964953465031574 1 0.0052596369726266882 1 1 0.0097068731918795188 1 1 1 0.032868926269376528 1 0.0090516838117464752 1 1 1 1 1 1 1 1 1 1 1 1 1 1 1 1 0.005675941802880417 1 1 1 1 0.0067250572879057197 0.011555748523320626 1 1 0.0090760196623639339 1 1 1 1 1 1 1 1 1 0.0069230078955097862 1 1 1 1 1 1 1 1 1 1 1 0.0088239547189204893 1 1 1 1 1 1 0.0061126319100990815 0.008357817236998237 1 1 1 1 0.010135707654709801 1 1 1 1 1 1 1 1 1 1 1 1 1 1 1 1 1 0.0065530770774579906 1 1 0.011662549795934245 1 1 1 1 1 1 1 1 1 1 1 1 1.0332095422282972e-10 1 1 1 1 1 1 1 1 0.011992290961142626 1 1 1 1 0.012211634063507823 1 1 1 0.019319302660578019 1 1 1 1 1 1 1 1 1 1 1 1 1 0.0096697781493528222 1 1 1 1 1 1 1 1 1 1 1 1 1 1 1 1 1 1 1 1 1 1 1 1 1 1 1 1 1 1 0.017899007293823224 0.0057180812467302264 1 1 1 1 1 1 1 1 1 1 1 1 0.0072872812134991173 1 1 1 1 1 1 -1.3434804727041616e-09 1 1 1 0.0090518852927044188 1 1 0.0064469853531568515 1 0.0041386286109183733 1 1 0.00070598387106417942 0.0057050267885449691 1 1 1 1 1 1 1 1 1 1 1 1 1 1 1 1 1 1 0.0088967501499285766 1 1 1 1 1 1 1 1 1 1 1 1 1 0.0070027792285488576 1 1 1 1 1 0.0083884822815951769 1 1 1 1 1 1 1 1 1 1 1 1 1 1 1 1 1 1 1 1 1 1 1 1 1 1 1 1 1 1 0.0088149712459080955 1 0.0020148263343323508 1 1 1 1 0.006897234432236693 1 1 1 1 1 0.0076574261732934822 1 1 1 1 1 1 1 1 1 1 1 1 1 1 1 1 1 0.011959702103826568 1 1 1 1 0.013182833536266099 1 1 1 1 1 1 1 1 1 1 1 1 1 1 1 1 1 1 1 0.010550975324665708 1 1 1 1 1 1 1 1 1 1 1 1 1 1 1 1 1 1 1 0.010147395613015255 1 1 1 1 1 1 1 1 1 0.0098455257910321399 1 1 1 1 1 1 1 1 1 1 1 1 1 1 1 1 1 1 1 1 1 1 1 1 1 1 1 1 1 1 1 1 1 1 1 1 1 1 1 1 1 1 1 1 1 1 1 1 1 1 1 1 1 1 1 1 1 1 0.010668139094991428 1 1 1 1 1 -3.351683781210868e-09 1 1 1 1 1 1 1 1 1 1 1 1 1 1 1 1 1 0.0027962968000441943 1 0.014338600522272992 0.0023138809388638243 1 1 1 1 0.0055422175940675091 0.0037434064483877275 1 1 1 1 1 1 1 1 1 1 1 1 1 1 1 1 1 0.010650017124888708 1 1 1 1 1 0.010661418924017306 1 1 1 1 0.011621503025570702 1 1 1 0.01181641539740317 1 1 0.011045838664746387 1 1 1 1 1 1 1 1 1 1 1 0.010856331295849782 1 1 1 1 1 1 1 1 1 1 1 1 1 1 1 1 1 1 1 1 1 1 1 1 1 1 1 1 1 1 1 1 1 1 1 1 1 1 1 1 1 1 1 1 1 1 0.010812152555092304 1 1 1 1 1 1 0.010315007046655326 1 1 1 1 1 1 1 1 1 0.038210510821317392 1 1 0.0024594544353299108 1 1 1 1 1 0.038217505654711673 1 1 0.02832584582430402 1 1 1 1 1 1 1 0.033778707922784847 1 1 1 1 1 1 1 1 1 1 1 0.0097536270128916382 1 1 1 1 1 1 1 1 1 1 1 0.009599152803923771 1 1 0.010286917488931633 1 1 1 1 1 0.010242484122493829 1 1 1 1 1 1 1 1 0.010102962246577463 1 1 1 1 1 1 1 1 1 1 1 1 1 1 1 1 1 1 1 1 1 1 1 1 1 1 1 1 1 1 1 1 1 1 1 1 1 0.0031935365211729488 1 0.010225423543630331 1 1 1 1 1 1 1 1 1 1 1 1 1 1 1 0.0072046320250434628 0.013286183414623946 1 1 1 1 1 1 1 0.021114799129140313 1 0.0036070826854515195 1 1 0.021842176392324247 1 0.0077667418120554096 1 1 1 1 1 1 1 1 1 1 1 1 1 1 1 1 1 0.010072843882060646 1 1 1 0.0084226920365952362 1 1 1 1 1 1 1 0.023226583211427898 1 1 1 1 1 1 1 1 1 1 0.015536189752472888 1 1 -4.2943983022403209e-09 1 1 0.0097855367800754357 1 1 1 1 1 1 1 1 1 1 1 0.0068722893664546689 1 1 1 1 1 0.0099877712200491207 1 1 1 1 1 1 1 1 1 0.012663241599634504 1 0.010058427732835844 1 1 1 1 1 1 1 1 1 1 0.0016901862596298486 1 1 1 1 1 0.011294228011955135 1 1 1 -4.5041343016416491e-09 1 1 1 0.0005288633317233199 0.012070846541344478 1 0.013505801106971603 1 1 0.0092667621148895193 1 0.012763578158079193 1 1 1 0.0098705283941802405 1 1 0.0064099458870077869 0.010869840157389045 1 1 1 0.0097266234865151097 1 1 1 0.010254826907203588 1 1 1 1 1 1 1 1 1 1 1 1 1 1 1 1 1 1 1 1 1 0.0092897609896663395 1 1 1 1 0.0076993163498512134 0.016599743777594635 0.024940087743547439 1 1 1 1 0.021601694038571879 0.012729004285317279 0.0076693702908778669 1 0.010651860220063003 1 1 0.010727958865250494 1 1 0.0098791340545423649 1 1 1 0.011835197272163683 1 1 1 1 1 1 1 1 1 1 1 1 1 1 1 1 0.013075119860130137 1 1 0.013015075135670941 1 1 1 1 1 1 0.011298933380865153 1 1 1 1 1 0.012471993639718302 1 0.0099250753437077916 1 1 1 1 0.0063823924035873916 1 1 1 0.01104833030985272 1 1 1 1 1 1 1 1 1 1 1 1 0.0061826445451718375 1 1 1 1 0.0080912853124028572 1 1 1 1 1 1 0.0070432066237178133 1 1 1 1 1 1 1 1 1 0.010721797797105694 1 1 0.012877923772589787 1 1 1 1 1 1 1 1 1 1 1 1 1 1 1 1 1 0.010518808756898736 1 1 1 1 0.0098815941188754169 1 1 1 1 1 0.010124717481898401 1 1 1 1 0.0095623176518952035 1 1 0.011758057518146126 1 0.013098937900294797 1 1 0.014089278548718089 1 1 1 1 1 0.012694433380174321 1 0.0099734225261049816 1 1 1 1 1 1 1 1 1 1 1 1 1 0.0098910370325861544 1 1 1 0.008831482127998995 1 0.010871016590165431 1 1 0.0096801382589851645 1 1 0.011232833030458474 1 1 1 0.013092863603223325 1 1 1 0.010752950751423681 1 1 1 1 1 1 0.011148303325170245 0.013224364953939831 1 1 1 1 0.0097727251949425928 1 1 1 0.0037843090194374096 1 1 1 1 0.012431927803079907 0.0061010514992599144 1 1 1 1 1 1 1 1 0.010060079539680144 1 1 0.012798532844503926 1 1 1 1 0.012570290680725193 1 1 1 1 1 1 0.013723074955970067 1 1 0.0067669048597943787 1 1 1 1 0.0086848363065425843 1 1 1 1 1 1 0.0095021745327727794 1 1 1 1 1 0.0083937000306293797 1 1 1 1 1 1 0.0090455164698789864 1 1 0.0091056597347681789 1 1 1 1 1 1 1 1 0.0083565916843861138 1 1 1 0.0018371950390612887 1 1 1 1 1 1 1 1 1 0.0071382648420379655 1 1 1 1 1 1 1 1 1 1 1 1 1 1 1 1 1 1 1 1 -1.6291807347634801e-09 1 4.7267878569567934e-09 1 -1.600927501677063e-09 1 1 1 1 1 1 1 1 -1.4130691790292804e-08 1 1 1 1 1 1 1 1 1 1 1 1 0.010678102328635607 1 1 1 1 1 1 1 0.0056615347774060625 1 1 1 1 1 1 1 1 0.0057662136873473241 1 1 1 1 1 0.011332817286518818 1 1 1 1 0.0094000909547362829 1 1 1 1 1 1 1 1 1 1 1 1 1 1 1 1 1 1 1 1 1 1 1 1 1 1 1 1 1 1 1 1 1 1 0.0093256218621358307 1 1 1 1 1 0.01292678359440772 1 1 1 1 1 1 1 1 0.015220563159209414 1 1 1 1 1 1 1 1 1 1 1 1 1 1 1 1 0.010050810710983217 1 0.010235220783866884 1 1 1 1 1 1 1 1 1 1 1 1 1 1 1 1 1 0.010725880065245372 1 4.0785162747081216e-10 1 1 5.835086631759967e-09 1 1 0.009560751359735907 1 1 1 0.009878828341549295 1 1 1 1 1 1 1 1 1 1 1 1 1 0.00030059376086825212 1 1 0.0016865013152630726 1 1 1 1.4909428674297898e-08 0.0012987637832064247 1 1 1 0.0094368130055555791 8.8483279800377623e-09 1 0.015282034633567598 1 0.010189279211825907 1 1 1 1 1 1 1 0.012172010646447767 1 1 1 1 1 1 1 1 1 0.011004569085467736 1 1 0.010404504898030534 1 1 1 1 1 1 1 1 0.0089857305397905915 1 1 1 1 0.0067108355649727058 1 1 1 0.01015324454531135 1 0.005654335887087622 0.0087206792615707115 1 1 1 1 1 1 1 1 1 1 1 1 1 1 1 1 1 1 1 1 1 1 1 1 0.010022054348317608 1 1 1 1 0.0092990258433103302 0.015565756976164434 1 1 1 1 1 1 0.013675702045927503 1 1 0.01101586435119988 1 0.011406151416256692 1 1 1 1 1 1 1 1 1 1 0.019855954093733232 1 1 1 1 1 1 1 1 1 1 0.017362882819402223 0.010625992431979231 1 1 0.0095514103149456006 1 1 1 1 1 1 1 1 1 1 1 0.016561095634164781 1 1 1 1 1 1 1 1 1 1 1 1 1 1 1 1 1 1 1 1 1 1 1 1 1 1 1 1 1 1 0.012155608986529093 1 0.015869129867056388 1 1 1 1 1 1 1 1 1 1 1 1 1 1 0.012579104925574805 1 1 1 1 1 1 1 1 1 1 1 1 1 1 1 1 1 1 1 1 1 1 1 1 1 1 0.012302089192125804 1 1 1 1 1 1 1 1 1 1 1 1 1 1 0.015664435260542404 1 1 1 1 1 1 1 1 1 1 1 1 1 1 1 0.012492966183936879 1 1 0.0081158766644118946 1 1 1 0.015855312252353527 1 1 1 1 1 0.0062939064103723838 1 1 1 1 1 1 1 1 1 1 1 1 1 1 1 1 0.0081780297459604773 1 1 1 1 1 1 1 1 1 1 1 1 1 1 1 1 1 0.011829163720719585 1 1 1 1 1 1 1 1 1 1 1 1 1 1 1 1 1 1 1 1 1 1 1 1 1 1 1 1 1 0.017140337604515887 1 1 1 1 0.012918694357728085 1 1 1 1 1 1 1 0.01858617037324941 1 1 1 1 1 1 1 1 1 0.018441176319165815 1 1 1 1 1 1 1 1 1 1 1 1 0.0098252605388116365 1 1 1 1 1 1 1 0.012894959388131552 1 1 1 0.016739376335600908 1 1 1 1 1 1 1 1 1 1 1 1 1 1 1 1 1 1 1 1 1 1 1 0.017815987901754093 1 1 1 1 1 1 1 1 1 1 1 1 1 0.011030122086479993 1 0.011027620454743939 1 1 1 1 1 1 1 1 1 1 1 1 1 1 1 0.0094430769580819071 0.010070516693970868 1 1 1 1 1 1 0.01062730762045444 0.0079519468863694792 1 1 1 1 1 1 1 1 1 1 1 1 1 1 1 1 1 1 1 1 0.0065010865566416734 1 1 1 2.8324453893446844e-11 1 1 1 1 1 0.013242219364524405 1 0.013451906328243023 1 1 1 1 1 1 1 1 1 1 1 0.03166099090534065 1 1 1 1 0.01000814656191492 1 1 1 1 1 1 1 1 1 1 1 1 1 1 0.01003433517769952 1 1 0.010070471417497423 1 1 1 1 0.027400716295595855 1 1 1 0.02953920054111777 1 1 1 1 1 1 1 1 1 1 0.0090145513258909488 1 1 1 1 1 1 1 1 1 1 1 0.025552404548823109 1 1 1 1 1 1 1 1 1 0.022992711605503785 1 1 1 1 0.010023624436654254 0.019222807302432761 1 0.010122387359365204 1 1 1 0.01067508883736103 1 1 1 1 1 1 0.014135639531509784 1 1 1 1 1 1 1 1 1 1 1 1 0.010096381733805233 1 1 1 1 1 1 0.010140036062598681 1 1 1 1 1 1 1 1 1 0.0079188070868255189 1 1 1 1 0.0044377443769451456 0.0097207902211239386 1 1 1 1 1 1 1 1 1 1 1 1 1 1 1 1 1 1 1 1 1 1 1 1 1 1 1 1 1 1 1 1 1 1 1 1 1 1 1 1 1 1 1 1 1 1 1 1 1 1 1 1 1 1 1 1 1 0.0093104233005213977 0.010057153067403705 1 1 1 1 1 1 1 1 0.0017990168563411305 1 0.010864115882329753 1 1 1 1 1 0.0066569620262879534 1 1 1 1 1 6.3230273794623315e-10 1 1 1 1 1 1 1 1 0.0058354726638385045 0.0039361140980312057 1 1 1 1 1 1 1.1773034491735501e-09 1 0.0043109735087114472 1 1 1 1 1 1 1 1 1 1 1 1 1 1 1 1 1 1 1 1 1 1 1 1 1 1 1 1 1 1 1 1 1 1 1 1 1 1 1 1 1 1 1 1 -1.0317355312108867e-09 1 1 1 1 1 1 1 1 1 1 1 1 1 0.0098598786810321221 1 1 1 0.011944036365753443 1 1 0.0027177032069551727 1 1 1 1 1 1 1 1 1 1 1 1 1 1 1 1 1 1 1 1 1 0.010123118701211306 1 1 1 1 0.0025246708204534132 1 1 -3.4836680831706879e-09 1 1 1 1 0.0059031057895945187 1 1 1 1 1 0.005270518672757513 1 1 1 1 1 1 1 0.0083063144836299195 1 1 1 1 1 1 1 1 1 0.008799726984380413 0.028432391126542098 1 1 1 0.0099920653657064457 1 1 0.0015225351458719762 1 0.01910916033214307 1 1 1 1 1 1 1 1 1 1 1 1 1 1 1 1 1 1 1 1 1 0.0098469388182064639 1 1 1 1 1 1 1 1 0.010469827135899459 1 0.0033507595505442647 0.0065933005032474401 1 9.7022320733053391e-12 0.016306921563288033 1 1 0.010777562550279774 8.3956556984343678e-12 1 1 1 0.0075863091136310623 0.010232246082114959 1 1 1 1 1 0.013253373835054996 1 1 1 0.0051837501423626711 -6.3162031160857168e-11 0.010852720274962334 1 1 0.023164540114786171 1 1 1 1 0.0057047800153999587 1 0.014210684371704649 1 1 1 1 1 1 1 1 0.013405940439122757 1 1 1 7.2056542071284591e-05 0.0041700110134055279 1 1 0.011759723893624051 0.0099937591430761946 1 1 1 0.015819860063905372 1 1 1 1 1 0.0046338849644662443 1 1 1 0.010254298936963599 1 1 1 1 1 1 1 1 1 1 1 1 1 0.0043099758150968448 1 0.018392414715111292 1 0.0024201941400096086 1 0.0085698375730699633 1 0.0098072388403783392 1 1 1 1 1 0.010820736689108252 0.016828613326183829 1 1 1 1 1 1 1 0.00506338368776027 0.020769803522954836 1 1 0.022515761370364359 1 0.025150617647941256 0.00020039738091624792 1 0.0085487533706358754 1 1 0.014504882507663013 1 1 1 1 1 0.009487787239278761 1 1 1 0.0089206902231336038 1 0.0093864268230270109 1 1 1 1 1 1 1 1 1 1 1 1 1 1 0.025627863269020723 0.031446227976736539 1 1 1 1 1 1 1 1 1 1 1 1 1 1 1 1 1 1 1 0.0095151857465969256 1 1 0.010442496038978774 1 1 1 1 0.019476100350110465 1 1 1 1 -1.2680139646614741e-09 1 1 0.01009711742284846 1 0.018033319291755313 1 1 1 1 1 1 1 1 1 1 1 1 1 1 1 1 1 1 0.010216028928906801 1 1 1 1 0.010250659419493019 1 0.0082961032747170052 1 1 1 1 1 1 1 1 1 1 1 1 1 1 1 1 1 1 1 1 1 1 1 1 1 1 1 1 1 1 1 1 1 1 1 -1.7290251105861465e-09 0.011354762095816049 1 0.0024715993367562528 1 1 1 0.021937041545994823 1 1 1 1 0.0094558737075305654 1 1 1 1 0.0017161425271508823 1 1 1 1 1 1 1 1 1 1 1 0.0095365302671820348 1 0.019162977303783225 1 1 -1.2301893462240976e-09 1 1 0.0081136961224042986 1 1 1 1 1 1 1 1 1 1 1 1 1 1 1 1 0.026007074429573257 1 1 1 1 1 1 1 1 0.012667507510278994 1 1 1 1 1 1 1 1 1 0.026771422049399474 1 1 1 1 1 1 1 1 1 1 0.010033526348300313 1 1 1 1 1 1 1 1 1 1 1 1 0.0080995067943134269 1 1 0.0086113470192891242 1 1 1 1 1 0.010070859677747394 1 0.010037283875642143 1 1 1 1 1 1 1 1 1 1 0.010020648582439159 1 1 0.0087601207614685511 1 1 1 0.010043594614305873 1 1 1 0.0095259333853616526 1 1 1 1 1 1 0.010887176665716043 1 1 1 1 1 1 1 1 0.010247341767035595 1 1 1 1 1 1 1 1 1 0.00068751401463478662 -2.4593455258403729e-09 1 1 1 1 1 1 1 1 1 1 1 1 1 1 1 1 1 1 1 1 1 1 1 1 1 1 1 1 1 1 1 1 1 0.0003808455825756521 1 1 1 1 1 1 1 1 1 1 1 1 1 1 1 1 -7.9738851632704666e-10 1 1 1 1 1 1 1 1 1 1 1 1 1 1 1 1 1 1 1 1 1 1 1 1 1 1 1 1 1 1 1 0.0037061064616801045 1 1 1 1 1 0.016116372217868775 -3.9346124622308132e-09 1 1 1 1 0.0048419284284821063 1 1 1 0.0091892325635241599 1 -4.168257912440243e-09 1 1 1 1 1 1 1 1 1 1 1 1 1 0.0085353663631193497 1 1 1 1 1 1 1 1 1 1 1 0.011714096352676 1 1 1 0.0068084422618336568 1 1 1 0.010688965999936099 1 1 1 1 1 1 1 1 1 1 1 1 1 1 1 0.0046359661087247289 1 1 1 1 1 1 0.0068859342039324922 1 1 1 1 1 1 1 1 1 1 1 1 1 1 1 1 1 1 1 0.0098369030299494745 1 1 1 1 1 1 1 1 1 1 1 0.0092041985103148358 1 1 0.017665526888709621 1 0.010615989548531872 1 0.0088443271032677701 0.00052329632978878951 1 1 1 1 1 3.3886930262717885e-09 1 1 1 1 1 1 1 1 1 1 1 1 1 1 1 1 1 1 1 1 0.0036087065656246718 1 1 1 1 1 1 1 1 1 1 1 1 1 1 1 0.0091994109326036452 1 1 1 1 1 1 1 1 1 1 1 1 1 1 1 1 1 0.0082341750363320448 1 1 1 1 1 0.0027496084776196111 1 1 1 1 1 1 1 1 0.0099139017017334657 1 1 1 1 0.012667274299629327 1 1 0.0086984400637930837 1 1 1 1 0.010179705811251077 1 1 1 1 1 1 0.0073808088536725797 1 0.014902005123061147 1 1 1 1 1 1 1 1 1 1 1 1 1 1 1 1 1 1 1 1 1 1 1 1 1 1 1 1 1 1 1 1 1 1 1 1 1 1 1 1 1 1 0.0057615386513809284 1 1 1 1 0.0055666511775236266 1 1 0.011208217227645742 1 1 1 1 1 1 1 1 1 1 1 1 1 1 1 -5.1911871537524412e-09 1 1 1 1 1 1 1 1 1 1 1 1 1 1 1 1 1 1 1 1 1 1 1 1 1 1 1 0.00290131176386502 1 0.0029171907425845399 1 1 1 1 1 1 1 1 1 1 1 1 0.010086305212779886 1 1 1 1 1 -3.9404810239437871e-09 1 1 1 0.0010916706504153807 1 1 1 1 1 1 1 0.0055666521783742512 1 1 1 1 -4.1903365291529049e-09 1 1 1 1 1 1 1 1 1 0.0066633139068528 1 1 1 1 1 1 1 1 1 1 1 1 1 1 1 1 1 1 1 1 1 1 0.012869694969562927 1 0.0085016416313026567 1 1 1 1 1 1 1 1 1 0.01084309548649001 1 1 1 1 1 1 1 1 1 1 1 1 1 1 1 1 1 1 1 1 1 1 1 1 1 1 1 1 1 1 1 1 1 1 1 1 1 1 1 1 1 1 1 1 1 1 0.012011219987132758 1 1 1 1 1 0.011159761298547415 1 1 1 1 1 1 1 1 1 1 1 1 1 1 1 1 1 1 1 1 1 1 1 0.013997641331644453 1 1 1 0.011570288088521861 1 1 1 1 1 1 0.0072557742147205482 1 1 1 1 0.0079104211346250185 1 1 1 1 1 1 1 1 1 1 1 1 0.010662479644537854 1 1 1 1 1 1 1 1 1 1 1 1 1 0.0078312756380240142 1 1 0.013057997419569383 1 1 1 1 1 1 0.012010995174403939 1 1 1 1 1 1 0.0038470108445624127 0.016270376809200279 1 1 0.0092152852872889515 1 1 1 1 1 1 0.0065265932836068453 1 1 1 1 1 1 1 1 1 1 1 1 1 1 1 1 1 1 1 1 1 1 1 0.014438348417526524 1 1 1 0.011420604661037361 1 1 1 1 1 1 1 0.010357254355420474 1 1 1 1 1 1 1 1 1 1 0.0097204010909687846 1 1 1 1 1 1 1 1 1 1 1 1 1 1 1 1 0.0098033271491820562 1 0.0031845808444545005 1 1 1 0.0096352637754822373 1 0.009017304841522529 1 1 1 1 0.0058589821049500092 1 1 0.0087502163119654933 0.003901872741445097 1 2.7169925892467361e-09 1 1 1 1 0.0053653908132526087 0.010028175108999652 1 1 1 0.0097988095086487832 1 1 1 1 1 1 1 1 1 1 1 1 1 0.0081236441569377382 1 1 1 1 -5.8121332052740726e-10 1 0.0058314786321813604 1 0.019653018714275335 1 0.0099766353824224524 1 1 1 1 1 0.010309956569561983 1 1 1 1 1 1 1 1 1 1 3.0473471142322683e-10 1 -1.2542220526046144e-09 1 1 1 1 1 1 1 1 1 1 1 1 1 1 1 1 1 1 1 1 1 1 1 1 1 1 0.0028360880528009863 0.0099939691169005154 1 1 1 1 8.9335746439322961e-10 1 0.021942686740281606 1 1 1 1 1 1 0.001067799528217268 1 1 1 1 1 1 1 1 1 1 1 0.009690962606949724 1 1 1 1 1 1 0.0088411522371062631 1 0.0098791148151005717 1 1 1 1 1 0.008011914429139691 1 1 1 0.0096920674742244986 1 1 1 1 0.0079970647366534586 1 1 1 1 0.0020019783666103824 1 1 1 1 1 1 1 1 1 1 1 1 1 1 1 1 1 1 1 1 1 1 0.0038069072419226607 1 1 1 1 1 1 1 1 1 1 1 1 1 1 0.009135197063871385 1 1 1 0.0098128209705666131 1 1 1 1 1 1 1 1 0.008006222959386404 1 1 1.3095859518336139e-09 1 1 1 1 1 1 1 1 1 1 1 1 1 1 0.0065542656976666711 0.0099876604852738513 1 0.011354703221422797 1.213509190703399e-09 1 1 1 1 1 0.014766990266750164 1 1.1451427167630257e-09 0.0098930017215693323 0.0065695612521505381 1 1 1 1 1 0.034726598409884873 1 1 1 1 0.036800068459124764 1 1 1 0.0067789688846242452 1 1 0.014359991151780948 0.0067433866692142141 1 0.011767891344246596 1 1 1 1 0.011299130142028989 1 1 0.0088849324956978906 1 1 1 1 1 1 1 1 1 1 1 1 1 1 1 1 1 1 1 1 0.038494882743816898 1 0.01101525735275391 0.016829711997992557 1 1 1 1 0.018160625687868619 1 1 1 1 1 1 0.010481526486463721 1 1 0.010947538737788566 1 1 1 1 1 1 1 0.012078553273456923 1 1 1 1 1 1 0.015963916476186314 1 1 0.0109991343558659 1 1 1 1 0.019046085299955585 1 1 1 1 0.0210107960691433 1 1 1 1 1 1 1 1 1 1 0.010400098000844038 1 1 0.0095813344428738404 1 1 1 1 1 1 1 0.0084627456921482214 1 1 1 1 1 1 1 0.008873225317500906 1 1 1 1 1 1 0.0097532597734384247 1 0.015403162016406707 1 0.010073531671666802 1 1 1 1 1 1 0.013111981311956421 0.0088047982970243452 1 0.0098311258741644314 0.0076784452095114974 1 1 0.0092420201400061353 1 1 0.0071428951505076374 1 0.010081537584802555 1 1 1 1 0.010039105318256414 1 1 0.0056797182801767848 1 1 1 1 1 1 1 0.0084371761062477738 1 1 1 0.0061627162934598852 1 1 1 1 1 1 1 1 1 1 1 1 1 1 0.0088176838662622214 1 1 0.0066439364790386521 1 1 1 0.010542350567754342 1 1 1 1 1 1 0.0058698485693630797 1 1 1 1 0.0086154205118971847 1 1 1 0.0068051350153577259 1 1 1 1 1 1 1 1 1 0.0033218023075769279 1 1 1 0.0013683151929810636 1 1 1 1 1 1 0.016398499728062677 1 1 0.019090692732181308 0.0084404459569043765 1 1 -1.1015493014271405e-09 1 1 1 1 1 1 1 0.0097603457579677165 1 1 1 0.0091874393214654692 1 1 1 0.021917041161434427 0.01000400434918413 1 0.011299693912550566 1 1 1 1 0.019501222948045016 1 1 0.018137140961061053 1 1 1 0.0097363028087869216 1 1 1 1 1 1 1 1 1 1 1 1 1 0.011757166305453842 1 1 0.0099333519768643307 1 1 0.011307094762633418 1 1 1 1 1 0.022895453603612691 1 1 1 0.010128425655165293 1 0.0079235271063256424 1 1 0.012594925374615346 1 1 1 0.0093388222407881083 0.028456977322641804 1 1 1 1 1 1 1 1 1 1 1 0.0090251975595150025 1 1 1 1 1 0.0099382623299393985 0.024659578412758683 1 1 1 1 1 1 1 0.0099382682076835371 1 1 0.010455576017465142 1 1 1 1 1 1 1 1 0.011576316448747438 1 1 1 1 1 1 1 1 1 1 1 0.011466460560937169 1 1 1 1 1 1 1 0.010824580560491764 1 1 1 1 1 1 1 1 1 1 1 1 1 1 1 1 1 1 1 1 1 1 1 1 1 1 1 0.039344768584463466 1 0.0093585443624766597 1 1 1 1 0.037855064594318914 1 1 1 1 1 1 0.010247897694071334 1 1 0.01027941620917578 1 1 -3.8736938483274752e-09 1 1 1 1 1 1 1 1 1 1 1 1 1 0.014202197765247913 1 1 1 1 -1.6449522403927386e-09 1 1 1 1 1 1 0.0060279302633886901 0.0059345284798106926 1 1 1 1 1 1 1 1 1 1 1 1 0.016089610098417001 1 1 1 -4.0274839799986362e-09 0.0097607245567684076 1 1 1 1 1 0.010921914303510754 1 1 1 1 1 1 1 1 0.013770523691945237 1 1 1 0.014749514277634285 1 1 1 1 1 0.014189507653562791 1 1 1 1 1 1 1 1 1 1 1 0.0023163840560678148 1 1 1 1 1 1 1 1 1 0.0070124709322151937 1 1 0.002665701042141054 1 -4.1560432317844231e-09 1 1 0.0016720922419157054 1 0.014554701657552092 1 1 1 1 0.011789912406836396 1 1 1 0.013161116857854762 0.00068790615387775023 1 1 1 1 1 1 1 1 1 1 1 1 1 1 1 1 1 1 1 1 1 1 1 0.0098670540222424788 1 1 0.010495215028288818 1 1 1 1 1 1 1 1 1 1 1 1 1 1 1 1 1 1 0.0096214934314920383 1 1 1 1 1 1 1 1 1 1 1 1 1 1 1 1 1 1 1 0.0087373311948016254 1 1 1 1 1 1 1 1 1 1 1 1 1 1 1 1 0.008321841107709893 1 1 1 0.012763564931640423 1 1 1 1 1 1 0.017400873165220355 1 1 0.009821566911024468 1 1 0.021027230998622415 1 1 1 1 1 1 1 0.011259108651116817 1 1 1 1 0.011692793931188878 1 1 1 1 1 1 1 1 1 1 1 1 1 1 0.0095907852608419081 1 1 1 1 1 1 1 1 1 1 1 1 1 1 1 1 1 1 1 1 1 1 1 1 0.0098363458515923485 1 1 1 1 0.010448812002391753 1 1 1 1 1 1 1 1 1 1 1 1 1 0.0057379072109389265 1 1 0.011738775862140484 1 1 1 0.0092683442453937517 1 1 0.0095882343570689085 1 1 1 0.009889098614467573 1 1 1 1 1 1 1 1 1 1 1 1 1 1 1 1 0.011298622526791369 1 1 1 1 1 1 0.014411063742156463 0.0031006595815758192 1 1 1 0.012595880766378673 1 1 0.0069269140841742727 1 1 1 1 1 0.0086039929669648307 1 1 1 1 1 1 1 0.012547504222769505 1 1 1 0.011186446153251352 1 1 1 1 1 0.010620770610378943 0.011457329829286156 1 1 1 1 1 1 1 1 1 1 1 1 0.012194208336635023 1 1 1 1 1 1 1 1 0.012756605530235443 1 1 1 1 1 1 1 1 1 0.011400730883173789 1 1 1 1 0.001602891515781784 1 1 1 1 1 1 1 1 1 2.2635032737028382e-10 1 1 0.020292523211779476 1 1 0.0068889963446823674 1 1 1 1 0.0073308419306589833 1 1 1 1 1 0.0063789795439673329 1 1 1 1 1 1 1 1 1 1 1 1 1 1 1 1 1 1 1 1 1 1 1 1 1 1 1 1 1 1 1 1 0.0081856499423824391 0.0068816272951435957 1 1 1 1 0.008695977352761149 1 1 1 1 0.010781272133581092 1 1 1 1 1 1 1 0.024435832051110669 1 1 1 1 1 0.0096795949640995187 1 1 0.035094447322260906 1 1 1 1 1 1 1.9883402806175621e-09 0.04272716721502523 1 1 1 1 1 1 1 1 1 1 1 1 0.010526258610933479 1 1 1 0.00060940982695204676 -2.7031212814984662e-10 0.0056045101624649131 1 1 1 1 1 1 1 1 0.035882246361160997 1 1 0.034272736137494514 1 1 1 1 1 1 1 2.9654804670903312e-09 1 1.4783004334550931e-09 0.0095248590416847911 0.0099780988663767094 2.4812174459140635e-09 1 1 1 1 1 1 1 1 0.003714754832457404 1 1 1 8.2641101389204809e-05 1 1 0.010254987601793504 1 1 1 0.010421039413289597 1 1 1 1 1 1 1 1 1 1 1 0.010596748744051254 1 1 1 1 1 1 1 1 1 1 1 1 1 1 1 1 1 1 0.00011155622142320666 1 1 1 1 1 1 1 1 1 0.005962792762005991 1 1 0.0052192719538298252 1 1 1 1 1 1 1 0.010175709330761673 1 1 1 1 1 1 1 1 1 1 1 1 0.010091268301691936 1 1 1 1 1 0.010573807606954207 0.024154926275021419 1 1 1 0.010666980435838238 0.029126054435620573 1 1 1 1 1 1 1 1 1 1 1 0.032230035717356151 1 1 1 0.01042466005847113 1 1 0.011304321910343227 1 1 1 1 1 1 1 1 0.013862675222559543 1 0.011540431505041722 1 1 1 0.0048507780748286745 1 1 1 1 1 1 1 0.030122518618117041 0.0033943012838258011 0.010342052361129072 1 1 1 1 1 1 1 1 1 1 1 1 1 1 1 1 1 1 1 1 1 1 0.0078206401874322713 1 1 1 0.020910339243479556 1 1 1 1 1 0.0051219527222388511 1 0.0076693134381359395 1 1 1 1 1 1 1 1 1 1 1 1 1 1 1 1 1 1 1 1 1 1 1 1 1 0.032552418858758647 0.010448538287824088 1 1 1 1 1 1 1 0.01532047725639547 1 0.014596123135247625 1 1 1 1 1 1 1 0.018635681829498686 1 1 0.0034638460858442089 1 1 1 1 1 1 0.017121714772873945 1 0.009584201185241838 1 1 1 0.0048970669588609492 1 1 1 1 1 1 1 1 1 1 1 1 1 1 0.015099261102334623 0.0024859217486138258 1 1 1 1 1 0.009972810115857331 1 1 1 0.03363511993716873 1 1 0.020713121418404222 1 1 1 1 0.019593080354595768 0.0082676454547197346 1 1 1 0.010850733871860637 1 1 0.018241910195227092 0.003613806716543766 1 1 0.011956881928768835 0.013275370796686411 1 1 1 1 0.017907650805209979 1 1 1 1 0.0094940298834966311 1 0.0087829299059324073 1 1 1 1 0.010059609415905044 1 1 1 1 1 1 1 1 0.03845220746336131 3.4002488290274524e-09 1 1 1 1 1 1 1 1 1 1 1 0.0093481501507684146 1 1 1 0.030455724430747705 1 1 1 1 0.0080038846118290017 1 0.010034958645292323 1 1 0.016418634287445985 1 0.0059494438331158684 1 1 1 1 0.012443139879095596 1 1 0.010198697463246101 1 1 1 1 1 1 1 1 1 1 1 1 1 1 2.0974719738831027e-09 1 1 1 1 1 1 1 1 1 1 1 1 1 1 1 0.010073052639902642 1 1 1 1 1 1 1 1 1 1 1 1 1 1 1 1 1 1 1 1 0.01045418377110004 1 1 1 1 1 1 1 0.010381131131197381 1 1 1 1 1 1 1 0.011785368856922591 1 1 0.010755642770035614 1 1 1 1 1 1 0.010851458688585348 1 1 1 1 1 1 1 1 1 1 1 1 1 1 1 1 1 1 1 1 1 1 1 1 1 1 1 1 1 0.006172320209369685 1 1 1 1 1 1 1 1 1 1 1 1 1 0.0084303138995603429 1 1 0.0021671793281899474 1 1 1 1 1 0.0039052802534452757 0.0051794506231501933 1 1 1 1 1 1 1 1 1 1 1 0.0040049109383104159 1 1 1 0.0068335608188360639 1 1 1 1 1 1 1 1 1 1 1 1 1 1 1 1 1 1 1 1 1 1 1 1 1 1 1 1 0.0080822204452616342 1 1 1 1 1 1 0.0047829687906358401 1 1 0.0026635411073801778 1 1 1 1 1 1 1 1 1 1 1 1 1 1 1 1 1 1 1 1 1 1 1 1 1 1 1 1 1 1 1 1 1 1 1 1 1 1 
</DataArray>
</CellData>
</Piece>
</UnstructuredGrid>
</VTKFile>
