<?xml version="1.0"?>
<VTKFile type="UnstructuredGrid" version="0.1" byte_order="LittleEndian">
<UnstructuredGrid>
<Piece NumberOfPoints="29291" NumberOfCells="10245">
<Points>
<DataArray type="Float64" NumberOfComponents="3" format="ascii">
-0.48827199530150028 -0.49999999999999989 0 -0.48973661415322989 -0.47713437377675338 0 -0.48827199530150028 -0.49999999999999989 0 -0.48973661415322989 -0.47713437377675338 0 -0.47998537215925352 -0.48463007819086251 0 -0.5 -0.5 0 -0.48827199530150028 -0.49999999999999989 0 -0.48973661415322989 -0.47713437377675338 0 -0.5 -0.5 0 -0.48973661415322989 -0.47713437377675338 0 -0.5 -0.46845208018324053 0 -0.48973661415322989 -0.47713437377675338 0 -0.47589185245049592 -0.47575352157111389 0 -0.48074524957805659 -0.46569659644067968 0 -0.48973661415322989 -0.47713437377675338 0 -0.47589185245049592 -0.47575352157111389 0 -0.47998537215925352 -0.48463007819086251 0 -0.47589185245049592 -0.47575352157111389 0 -0.47998537215925352 -0.48463007819086251 0 -0.46726475125714062 -0.48621785652091859 0 -0.47589185245049592 -0.47575352157111389 0 -0.47186517899159569 -0.46526037089104449 0 -0.48074524957805659 -0.46569659644067968 0 -0.47589185245049592 -0.47575352157111389 0 -0.46231961700660451 -0.47516629983044562 0 -0.47186517899159569 -0.46526037089104449 0 -0.48827199530150028 -0.49999999999999989 0 -0.47998537215925352 -0.48463007819086251 0 -0.46726475125714062 -0.48621785652091859 0 -0.48827199530150028 -0.49999999999999989 0 -0.46726475125714062 -0.48621785652091859 0 -0.43613627641351582 -0.49999999999999972 0 -0.46231961700660451 -0.47516629983044562 0 -0.44549335411621438 -0.47556419295779401 0 -0.46249615500103208 -0.46067606521144899 0 -0.46231961700660451 -0.47516629983044562 0 -0.45280349969836892 -0.48423708732728948 0 -0.44549335411621438 -0.47556419295779401 0 -0.47589185245049592 -0.47575352157111389 0 -0.46726475125714062 -0.48621785652091859 0 -0.46231961700660451 -0.47516629983044562 0 -0.46726475125714062 -0.48621785652091859 0 -0.46231961700660451 -0.47516629983044562 0 -0.45280349969836892 -0.48423708732728948 0 -0.44549335411621438 -0.47556419295779401 0 -0.43928766979589728 -0.45446538397982711 0 -0.43266293650858778 -0.47723269198991197 0 -0.44549335411621438 -0.47556419295779401 0 -0.43613627641351582 -0.49999999999999972 0 -0.43266293650858778 -0.47723269198991197 0 -0.45280349969836892 -0.48423708732728948 0 -0.44549335411621438 -0.47556419295779401 0 -0.43613627641351582 -0.49999999999999972 0 -0.44549335411621438 -0.47556419295779401 0 -0.43613627641351582 -0.49999999999999972 0 -0.46726475125714062 -0.48621785652091859 0 -0.45280349969836892 -0.48423708732728948 0 -0.43613627641351582 -0.49999999999999972 0 -0.43928766979589728 -0.45446538397982711 0 -0.45485043181891321 -0.45112838591558829 0 -0.44591240308320679 -0.43169807596974208 0 -0.43928766979589728 -0.45446538397982711 0 -0.44591240308320679 -0.43169807596974208 0 -0.43150946710850058 -0.43169895255797219 0 -0.43928766979589728 -0.45446538397982711 0 -0.44591240308320679 -0.43169807596974208 0 -0.44549335411621438 -0.47556419295779401 0 -0.43928766979589728 -0.45446538397982711 0 -0.45485043181891321 -0.45112838591558829 0 -0.44549335411621438 -0.47556419295779401 0 -0.45485043181891321 -0.45112838591558829 0 -0.44549335411621438 -0.47556419295779401 0 -0.46249615500103208 -0.46067606521144899 0 -0.45485043181891321 -0.45112838591558829 0 -0.46231961700660451 -0.47516629983044562 0 -0.46249615500103208 -0.46067606521144899 0 -0.47186517899159569 -0.46526037089104449 0 -0.46249615500103208 -0.46067606521144899 0 -0.46541697878286442 -0.44256241196002599 0 -0.47503136929000028 -0.45437472971379572 0 -0.46249615500103208 -0.46067606521144899 0 -0.46541697878286442 -0.44256241196002599 0 -0.45485043181891321 -0.45112838591558829 0 -0.46541697878286442 -0.44256241196002599 0 -0.45485043181891321 -0.45112838591558829 0 -0.44591240308320679 -0.43169807596974208 0 -0.4912012330049611 -0.4559599862506909 0 -0.47706546193331739 -0.43466989362358838 0 -0.47503136929000028 -0.45437472971379572 0 -0.4912012330049611 -0.4559599862506909 0 -0.47706546193331739 -0.43466989362358838 0 -0.46541697878286442 -0.44256241196002599 0 -0.47503136929000028 -0.45437472971379572 0 -0.47706546193331739 -0.43466989362358838 0 -0.47503136929000028 -0.45437472971379572 0 -0.48074524957805659 -0.46569659644067968 0 -0.4912012330049611 -0.4559599862506909 0 -0.47186517899159569 -0.46526037089104449 0 -0.47503136929000028 -0.45437472971379572 0 -0.48074524957805659 -0.46569659644067968 0 -0.46249615500103208 -0.46067606521144899 0 -0.47186517899159569 -0.46526037089104449 0 -0.47503136929000028 -0.45437472971379572 0 -0.4912012330049611 -0.4559599862506909 0 -0.5 -0.46845208018324053 0 -0.5 -0.43988023943640309 0 -0.48973661415322989 -0.47713437377675338 0 -0.4912012330049611 -0.4559599862506909 0 -0.48973661415322989 -0.47713437377675338 0 -0.4912012330049611 -0.4559599862506909 0 -0.5 -0.46845208018324053 0 -0.48973661415322989 -0.47713437377675338 0 -0.48074524957805659 -0.46569659644067968 0 -0.4912012330049611 -0.4559599862506909 0 -0.4912012330049611 -0.4559599862506909 0 -0.5 -0.46845208018324053 0 -0.4912012330049611 -0.4559599862506909 0 -0.49281364675446149 -0.43264888825137737 0 -0.4912012330049611 -0.4559599862506909 0 -0.49281364675446149 -0.43264888825137737 0 -0.47706546193331739 -0.43466989362358838 0 -0.4912012330049611 -0.4559599862506909 0 -0.5 -0.43988023943640309 0 -0.49281364675446149 -0.43264888825137737 0 -0.5 -0.43988023943640309 0 -0.49442606050396359 -0.40933779025206402 0 -0.49603847425346581 -0.38602669225275071 0 -0.5 -0.43988023943640309 0 -0.49603847425346581 -0.38602669225275071 0 -0.49999999999999739 -0.36369546746181552 0 -0.5 -0.43988023943640309 0 -0.49281364675446149 -0.43264888825137737 0 -0.49442606050396359 -0.40933779025206402 0 -0.48567522798783153 -0.42373156932264439 0 -0.49281364675446149 -0.43264888825137737 0 -0.49442606050396359 -0.40933779025206402 0 -0.48567522798783153 -0.42373156932264439 0 -0.49281364675446149 -0.43264888825137737 0 -0.47706546193331739 -0.43466989362358838 0 -0.49281364675446149 -0.43264888825137737 0 -0.49442606050396359 -0.40933779025206402 0 -0.48567522798783153 -0.42373156932264439 0 -0.49442606050396359 -0.40933779025206402 0 -0.47839574275958341 -0.41826970516354772 0 -0.49442606050396359 -0.40933779025206402 0 -0.47839574275958341 -0.41826970516354772 0 -0.47537293762570049 -0.40619457181412483 0 -0.47839574275958341 -0.41826970516354772 0 -0.47537293762570049 -0.40619457181412483 0 -0.46292969086167213 -0.41337980099648708 0 -0.48567522798783153 -0.42373156932264439 0 -0.47839574275958341 -0.41826970516354772 0 -0.47706546193331739 -0.43466989362358838 0 -0.47706546193331739 -0.43466989362358838 0 -0.46292969086167213 -0.41337980099648708 0 -0.47839574275958341 -0.41826970516354772 0 -0.47706546193331739 -0.43466989362358838 0 -0.46292969086167213 -0.41337980099648708 0 -0.49603847425346581 -0.38602669225275071 0 -0.48289337864831472 -0.39668409578355568 0 -0.47815354196535631 -0.38517847557377399 0 -0.49603847425346581 -0.38602669225275071 0 -0.47815354196535631 -0.38517847557377399 0 -0.48074157637671122 -0.37087819406386219 0 -0.49442606050396359 -0.40933779025206402 0 -0.49603847425346581 -0.38602669225275071 0 -0.48289337864831472 -0.39668409578355568 0 -0.49442606050396359 -0.40933779025206402 0 -0.49603847425346581 -0.38602669225275071 0 -0.49442606050396359 -0.40933779025206402 0 -0.47537293762570049 -0.40619457181412483 0 -0.48289337864831472 -0.39668409578355568 0 -0.47537293762570049 -0.40619457181412483 0 -0.47240821973735492 -0.39489106073182512 0 -0.48289337864831472 -0.39668409578355568 0 -0.47537293762570049 -0.40619457181412483 0 -0.47240821973735492 -0.39489106073182512 0 -0.46610453097704863 -0.4009795265416421 0 -0.47240821973735492 -0.39489106073182512 0 -0.48289337864831472 -0.39668409578355568 0 -0.47815354196535631 -0.38517847557377399 0 -0.47240821973735492 -0.39489106073182512 0 -0.47815354196535631 -0.38517847557377399 0 -0.46712550721207952 -0.3864620356201387 0 -0.47815354196535631 -0.38517847557377399 0 -0.46929139830501132 -0.37619395019243351 0 -0.46712550721207952 -0.3864620356201387 0 -0.47815354196535631 -0.38517847557377399 0 -0.46929139830501132 -0.37619395019243351 0 -0.48074157637671122 -0.37087819406386219 0 -0.46017146004197418 -0.38058821547635802 0 -0.45234911498290759 -0.37850400504586112 0 -0.45938567431424498 -0.3721824343097051 0 -0.46017146004197418 -0.38058821547635802 0 -0.4554789171830893 -0.38420486643469609 0 -0.45234911498290759 -0.37850400504586112 0 -0.46929139830501132 -0.37619395019243351 0 -0.46017146004197418 -0.38058821547635802 0 -0.46712550721207952 -0.3864620356201387 0 -0.46929139830501132 -0.37619395019243351 0 -0.46017146004197418 -0.38058821547635802 0 -0.45938567431424498 -0.3721824343097051 0 -0.46017146004197418 -0.38058821547635802 0 -0.46712550721207952 -0.3864620356201387 0 -0.45927007340792869 -0.38867812285420972 0 -0.46712550721207952 -0.3864620356201387 0 -0.45927007340792869 -0.38867812285420972 0 -0.46479942199563012 -0.39384765905771563 0 -0.46017146004197418 -0.38058821547635802 0 -0.45927007340792869 -0.38867812285420972 0 -0.4554789171830893 -0.38420486643469609 0 -0.4554789171830893 -0.38420486643469609 0 -0.45456067628122943 -0.38913092440803099 0 -0.4500835907944406 -0.38506266843081999 0 -0.45927007340792869 -0.38867812285420972 0 -0.45456067628122943 -0.38913092440803099 0 -0.4562958422580447 -0.39167029526851699 0 -0.45927007340792869 -0.38867812285420972 0 -0.4554789171830893 -0.38420486643469609 0 -0.45456067628122943 -0.38913092440803099 0 -0.44879391979002642 -0.392089708369386 0 -0.46292969086167213 -0.41337980099648708 0 -0.45943957252300938 -0.39637691031558769 0 -0.46610453097704863 -0.4009795265416421 0 -0.46292969086167213 -0.41337980099648708 0 -0.45943957252300938 -0.39637691031558769 0 -0.45191304682001132 -0.39249522349623989 0 -0.46292969086167213 -0.41337980099648708 0 -0.44879391979002642 -0.392089708369386 0 -0.46292969086167213 -0.41337980099648708 0 -0.45253713637051629 -0.40893076795965722 0 -0.44879391979002642 -0.392089708369386 0 -0.45191304682001132 -0.39249522349623989 0 -0.46292969086167213 -0.41337980099648708 0 -0.4562958422580447 -0.39167029526851699 0 -0.45943957252300938 -0.39637691031558769 0 -0.45191304682001132 -0.39249522349623989 0 -0.45456067628122943 -0.38913092440803099 0 -0.4562958422580447 -0.39167029526851699 0 -0.45191304682001132 -0.39249522349623989 0 -0.45927007340792869 -0.38867812285420972 0 -0.4562958422580447 -0.39167029526851699 0 -0.45943957252300938 -0.39637691031558769 0 -0.45927007340792869 -0.38867812285420972 0 -0.45943957252300938 -0.39637691031558769 0 -0.46479942199563012 -0.39384765905771563 0 -0.47240821973735492 -0.39489106073182512 0 -0.46712550721207952 -0.3864620356201387 0 -0.46479942199563012 -0.39384765905771563 0 -0.47240821973735492 -0.39489106073182512 0 -0.46479942199563012 -0.39384765905771563 0 -0.46610453097704863 -0.4009795265416421 0 -0.45943957252300938 -0.39637691031558769 0 -0.46479942199563012 -0.39384765905771563 0 -0.46610453097704863 -0.4009795265416421 0 -0.44879391979002642 -0.392089708369386 0 -0.45253713637051629 -0.40893076795965722 0 -0.43487767659190862 -0.40401936104036013 0 -0.44879391979002642 -0.392089708369386 0 -0.45191304682001132 -0.39249522349623989 0 -0.44879391979002642 -0.392089708369386 0 -0.45191304682001132 -0.39249522349623989 0 -0.45133780842142701 -0.3896946311761193 0 -0.44879391979002642 -0.392089708369386 0 -0.4500835907944406 -0.38506266843081999 0 -0.43862482865108421 -0.37677389070480882 0 -0.44879391979002642 -0.392089708369386 0 -0.45133780842142701 -0.3896946311761193 0 -0.4500835907944406 -0.38506266843081999 0 -0.45456067628122943 -0.38913092440803099 0 -0.45133780842142701 -0.3896946311761193 0 -0.4500835907944406 -0.38506266843081999 0 -0.45456067628122943 -0.38913092440803099 0 -0.45191304682001132 -0.39249522349623989 0 -0.45133780842142701 -0.3896946311761193 0 -0.44879391979002642 -0.392089708369386 0 -0.43862482865108421 -0.37677389070480882 0 -0.4500835907944406 -0.38506266843081999 0 -0.43862482865108421 -0.37677389070480882 0 -0.45234911498290759 -0.37850400504586112 0 -0.43862482865108421 -0.37677389070480882 0 -0.45234911498290759 -0.37850400504586112 0 -0.44962730577443299 -0.37090306519802457 0 -0.4554789171830893 -0.38420486643469609 0 -0.4500835907944406 -0.38506266843081999 0 -0.45234911498290759 -0.37850400504586112 0 -0.46541697878286442 -0.44256241196002599 0 -0.46129839782319582 -0.42781001484326497 0 -0.44591240308320679 -0.43169807596974208 0 -0.46129839782319582 -0.42781001484326497 0 -0.45253713637051629 -0.40893076795965722 0 -0.44591240308320679 -0.43169807596974208 0 -0.47706546193331739 -0.43466989362358838 0 -0.46129839782319582 -0.42781001484326497 0 -0.46292969086167213 -0.41337980099648708 0 -0.46541697878286442 -0.44256241196002599 0 -0.47706546193331739 -0.43466989362358838 0 -0.46129839782319582 -0.42781001484326497 0 -0.46129839782319582 -0.42781001484326497 0 -0.46292969086167213 -0.41337980099648708 0 -0.45253713637051629 -0.40893076795965722 0 -0.47537293762570049 -0.40619457181412483 0 -0.46610453097704863 -0.4009795265416421 0 -0.46292969086167213 -0.41337980099648708 0 -0.45253713637051629 -0.40893076795965722 0 -0.44591240308320679 -0.43169807596974208 0 -0.45253713637051629 -0.40893076795965722 0 -0.43848891487768232 -0.41833196165999359 0 -0.43487767659190862 -0.40401936104036013 0 -0.45253713637051629 -0.40893076795965722 0 -0.43848891487768232 -0.41833196165999359 0 -0.44591240308320679 -0.43169807596974208 0 -0.43848891487768232 -0.41833196165999359 0 -0.44591240308320679 -0.43169807596974208 0 -0.43150946710850058 -0.43169895255797219 0 -0.43150946710850058 -0.43169895255797219 0 -0.42709565300941038 -0.4151430662254883 0 -0.41855381463446811 -0.42589742498019878 0 -0.43150946710850058 -0.43169895255797219 0 -0.41855381463446811 -0.42589742498019878 0 -0.41971834725033919 -0.44465780253258408 0 -0.43848891487768232 -0.41833196165999359 0 -0.43150946710850058 -0.43169895255797219 0 -0.42709565300941038 -0.4151430662254883 0 -0.42709565300941038 -0.4151430662254883 0 -0.41667962652001128 -0.40749950927679662 0 -0.43487767659190862 -0.40401936104036013 0 -0.43848891487768232 -0.41833196165999359 0 -0.42709565300941038 -0.4151430662254883 0 -0.43487767659190862 -0.40401936104036013 0 -0.42709565300941038 -0.4151430662254883 0 -0.41667962652001128 -0.40749950927679662 0 -0.41855381463446811 -0.42589742498019878 0 -0.41667962652001128 -0.40749950927679662 0 -0.39683128089044523 -0.40589891327684868 0 -0.40546507388840752 -0.41891070272267261 0 -0.41667962652001128 -0.40749950927679662 0 -0.41855381463446811 -0.42589742498019878 0 -0.40546507388840752 -0.41891070272267261 0 -0.41855381463446811 -0.42589742498019878 0 -0.40546507388840752 -0.41891070272267261 0 -0.40532106328753598 -0.43764480273581979 0 -0.41855381463446811 -0.42589742498019878 0 -0.40532106328753598 -0.43764480273581979 0 -0.41971834725033919 -0.44465780253258408 0 -0.44879391979002642 -0.392089708369386 0 -0.43862482865108421 -0.37677389070480882 0 -0.42447441951943787 -0.38892795024205129 0 -0.43862482865108421 -0.37677389070480882 0 -0.42447441951943787 -0.38892795024205129 0 -0.42820135255848307 -0.37281822657943331 0 -0.44879391979002642 -0.392089708369386 0 -0.42447441951943787 -0.38892795024205129 0 -0.42447441951943787 -0.38892795024205129 0 -0.41931018712138057 -0.37612434997693789 0 -0.42820135255848307 -0.37281822657943331 0 -0.41667962652001128 -0.40749950927679662 0 -0.42447441951943787 -0.38892795024205129 0 -0.43487767659190862 -0.40401936104036013 0 -0.44879391979002642 -0.392089708369386 0 -0.42447441951943787 -0.38892795024205129 0 -0.43487767659190862 -0.40401936104036013 0 -0.41667962652001128 -0.40749950927679662 0 -0.42447441951943787 -0.38892795024205129 0 -0.409535061544686 -0.39702314122760318 0 -0.41667962652001128 -0.40749950927679662 0 -0.409535061544686 -0.39702314122760318 0 -0.39683128089044523 -0.40589891327684868 0 -0.42447441951943787 -0.38892795024205129 0 -0.409535061544686 -0.39702314122760318 0 -0.40015491924884961 -0.38576619211471641 0 -0.42447441951943787 -0.38892795024205129 0 -0.41149154142176292 -0.37895015525392961 0 -0.40015491924884961 -0.38576619211471641 0 -0.42447441951943787 -0.38892795024205129 0 -0.40015491924884961 -0.38576619211471641 0 -0.41149154142176292 -0.37895015525392961 0 -0.41931018712138057 -0.37612434997693789 0 -0.41375387195581692 -0.37370609491998208 0 -0.42447441951943787 -0.38892795024205129 0 -0.41149154142176292 -0.37895015525392961 0 -0.41931018712138057 -0.37612434997693789 0 -0.40015491924884961 -0.38576619211471641 0 -0.37583541897826123 -0.38260443398738142 0 -0.40275984053109209 -0.37165708048225238 0 -0.41149154142176292 -0.37895015525392961 0 -0.40015491924884961 -0.38576619211471641 0 -0.40275984053109209 -0.37165708048225238 0 -0.40015491924884961 -0.38576619211471641 0 -0.39683128089044523 -0.40589891327684868 0 -0.38916570623785018 -0.39107628636407332 0 -0.409535061544686 -0.39702314122760318 0 -0.40015491924884961 -0.38576619211471641 0 -0.39683128089044523 -0.40589891327684868 0 -0.39683128089044523 -0.40589891327684868 0 -0.37930406543582929 -0.40961742982547678 0 -0.36831026135857098 -0.40077672209154158 0 -0.39683128089044523 -0.40589891327684868 0 -0.36831026135857098 -0.40077672209154158 0 -0.39683128089044523 -0.40589891327684868 0 -0.38249815054820629 -0.39561396152182671 0 -0.36831026135857098 -0.40077672209154158 0 -0.38249815054820629 -0.39561396152182671 0 -0.38009848032970273 -0.38977526351988317 0 -0.3744093142454516 -0.39265811364109998 0 -0.38249815054820629 -0.39561396152182671 0 -0.3744093142454516 -0.39265811364109998 0 -0.36831026135857098 -0.40077672209154158 0 -0.39683128089044523 -0.40589891327684868 0 -0.38249815054820629 -0.39561396152182671 0 -0.38916570623785018 -0.39107628636407332 0 -0.38249815054820629 -0.39561396152182671 0 -0.38916570623785018 -0.39107628636407332 0 -0.38009848032970273 -0.38977526351988317 0 -0.37583541897826123 -0.38260443398738142 0 -0.40275984053109209 -0.37165708048225238 0 -0.38529782787685379 -0.37512251053811541 0 -0.37583541897826123 -0.38260443398738142 0 -0.40275984053109209 -0.37165708048225238 0 -0.40015491924884961 -0.38576619211471641 0 -0.38916570623785018 -0.39107628636407332 0 -0.37583541897826123 -0.38260443398738142 0 -0.40015491924884961 -0.38576619211471641 0 -0.37583541897826123 -0.38260443398738142 0 -0.38916570623785018 -0.39107628636407332 0 -0.38009848032970273 -0.38977526351988317 0 -0.37583541897826123 -0.38260443398738142 0 -0.38009848032970273 -0.38977526351988317 0 -0.37583541897826123 -0.38260443398738142 0 -0.37490759201799329 -0.38818445396466522 0 -0.38009848032970273 -0.38977526351988317 0 -0.37490759201799329 -0.38818445396466522 0 -0.3744093142454516 -0.39265811364109998 0 -0.39289698581220428 -0.42682916471885118 0 -0.38543533768308419 -0.4452615437997493 0 -0.40532106328753598 -0.43764480273581979 0 -0.39289698581220428 -0.42682916471885118 0 -0.40546507388840752 -0.41891070272267261 0 -0.40532106328753598 -0.43764480273581979 0 -0.39683128089044523 -0.40589891327684868 0 -0.39289698581220428 -0.42682916471885118 0 -0.40546507388840752 -0.41891070272267261 0 -0.39683128089044523 -0.40589891327684868 0 -0.39289698581220428 -0.42682916471885118 0 -0.38428198392866447 -0.41865455339844698 0 -0.39683128089044523 -0.40589891327684868 0 -0.38428198392866447 -0.41865455339844698 0 -0.37930406543582929 -0.40961742982547678 0 -0.38428198392866447 -0.41865455339844698 0 -0.37930406543582929 -0.40961742982547678 0 -0.37345439217194421 -0.41610272168094459 0 -0.38428198392866447 -0.41865455339844698 0 -0.37982254315831238 -0.43204764104745452 0 -0.37345439217194421 -0.41610272168094459 0 -0.39289698581220428 -0.42682916471885118 0 -0.37982254315831238 -0.43204764104745452 0 -0.38543533768308419 -0.4452615437997493 0 -0.39289698581220428 -0.42682916471885118 0 -0.38428198392866447 -0.41865455339844698 0 -0.37982254315831238 -0.43204764104745452 0 -0.38543533768308419 -0.4452615437997493 0 -0.37705985753298332 -0.46235384023312748 0 -0.36618563377185692 -0.44314360481620602 0 -0.37982254315831238 -0.43204764104745452 0 -0.38543533768308419 -0.4452615437997493 0 -0.36618563377185692 -0.44314360481620602 0 -0.38543533768308419 -0.4452615437997493 0 -0.40532106328753598 -0.43764480273581979 0 -0.4016440035560388 -0.45585946420079199 0 -0.4016440035560388 -0.45585946420079199 0 -0.38860016257005009 -0.47747977613702491 0 -0.40797815117218389 -0.46960256779870863 0 -0.4016440035560388 -0.45585946420079199 0 -0.37705985753298332 -0.46235384023312748 0 -0.38860016257005009 -0.47747977613702491 0 -0.38543533768308419 -0.4452615437997493 0 -0.4016440035560388 -0.45585946420079199 0 -0.37705985753298332 -0.46235384023312748 0 -0.37705985753298332 -0.46235384023312748 0 -0.38860016257005009 -0.47747977613702491 0 -0.36994728981782271 -0.48145733840571031 0 -0.38860016257005009 -0.47747977613702491 0 -0.40002028485701702 -0.5 0 -0.37400236649275492 -0.5 0 -0.38860016257005009 -0.47747977613702491 0 -0.37400236649275492 -0.5 0 -0.36994728981782271 -0.48145733840571031 0 -0.38860016257005009 -0.47747977613702491 0 -0.40002028485701702 -0.5 0 -0.41302924403914798 -0.48386723685815369 0 -0.38860016257005009 -0.47747977613702491 0 -0.40797815117218389 -0.46960256779870863 0 -0.41302924403914798 -0.48386723685815369 0 -0.40797815117218389 -0.46960256779870863 0 -0.41302924403914798 -0.48386723685815369 0 -0.41859182365354958 -0.47302647723650909 0 -0.41302924403914798 -0.48386723685815369 0 -0.41859182365354958 -0.47302647723650909 0 -0.43266293650858778 -0.47723269198991197 0 -0.40002028485701702 -0.5 0 -0.41302924403914798 -0.48386723685815369 0 -0.42603820322127911 -0.49999999999999711 0 -0.42603820322127911 -0.49999999999999711 0 -0.43266293650858778 -0.47723269198991197 0 -0.42603820322127911 -0.49999999999999711 0 -0.43613627641351582 -0.49999999999999972 0 -0.43266293650858778 -0.47723269198991197 0 -0.41302924403914798 -0.48386723685815369 0 -0.42603820322127911 -0.49999999999999711 0 -0.43266293650858778 -0.47723269198991197 0 -0.41859182365354958 -0.47302647723650909 0 -0.43266293650858778 -0.47723269198991197 0 -0.42069696289427871 -0.46140341229926207 0 -0.43928766979589728 -0.45446538397982711 0 -0.43266293650858778 -0.47723269198991197 0 -0.43928766979589728 -0.45446538397982711 0 -0.43266293650858778 -0.47723269198991197 0 -0.42069696289427871 -0.46140341229926207 0 -0.43928766979589728 -0.45446538397982711 0 -0.41971834725033919 -0.44465780253258408 0 -0.42069696289427871 -0.46140341229926207 0 -0.43928766979589728 -0.45446538397982711 0 -0.43150946710850058 -0.43169895255797219 0 -0.41971834725033919 -0.44465780253258408 0 -0.40532106328753598 -0.43764480273581979 0 -0.4016440035560388 -0.45585946420079199 0 -0.41971834725033919 -0.44465780253258408 0 -0.4016440035560388 -0.45585946420079199 0 -0.40797815117218389 -0.46960256779870863 0 -0.42069696289427871 -0.46140341229926207 0 -0.4016440035560388 -0.45585946420079199 0 -0.41971834725033919 -0.44465780253258408 0 -0.42069696289427871 -0.46140341229926207 0 -0.40797815117218389 -0.46960256779870863 0 -0.41859182365354958 -0.47302647723650909 0 -0.42069696289427871 -0.46140341229926207 0 -0.44595313017567789 -0.26380075322127872 0 -0.42686892815175892 -0.26320261671309481 0 -0.44515169611381661 -0.24178921517315011 0 -0.44595313017567789 -0.26380075322127872 0 -0.45783752861143301 -0.25509380603075732 0 -0.44515169611381661 -0.24178921517315011 0 -0.44760862408716928 -0.28726311080056549 0 -0.42845144471825908 -0.26603283877891859 0 -0.44595313017567789 -0.26380075322127872 0 -0.44760862408716928 -0.28726311080056549 0 -0.42845144471825908 -0.26603283877891859 0 -0.44595313017567789 -0.26380075322127872 0 -0.46558029237349019 -0.2700242439181556 0 -0.44760862408716928 -0.28726311080056549 0 -0.44760862408716928 -0.28726311080056549 0 -0.43906019157882398 -0.28500585308481641 0 -0.42845144471825908 -0.26603283877891859 0 -0.44595313017567789 -0.26380075322127872 0 -0.46558029237349019 -0.2700242439181556 0 -0.45783752861143301 -0.25509380603075732 0 -0.46558029237349019 -0.2700242439181556 0 -0.45783752861143301 -0.25509380603075732 0 -0.47466499578274712 -0.24476101181044499 0 -0.46558029237349019 -0.2700242439181556 0 -0.48298354239071528 -0.2725835060964088 0 -0.47466499578274712 -0.24476101181044499 0 -0.5 -0.2650431368310423 0 -0.48298354239071528 -0.2725835060964088 0 -0.47466499578274712 -0.24476101181044499 0 -0.5 -0.2650431368310423 0 -0.48298354239071528 -0.2725835060964088 0 -0.5 -0.29420784559028251 0 -0.46558029237349019 -0.2700242439181556 0 -0.4746724237973392 -0.28888129233211851 0 -0.46558029237349019 -0.2700242439181556 0 -0.48298354239071528 -0.2725835060964088 0 -0.4746724237973392 -0.28888129233211851 0 -0.48298354239071528 -0.2725835060964088 0 -0.4746724237973392 -0.28888129233211851 0 -0.5 -0.29420784559028251 0 -0.4746724237973392 -0.28888129233211851 0 -0.5 -0.29420784559028251 0 -0.48376455522118822 -0.30773834074608131 0 -0.5 -0.29420784559028251 0 -0.48376455522118822 -0.30773834074608131 0 -0.500000000000002 -0.32337255434952272 0 -0.4746724237973392 -0.28888129233211851 0 -0.48376455522118822 -0.30773834074608131 0 -0.4746724237973392 -0.28888129233211851 0 -0.48376455522118822 -0.30773834074608131 0 -0.46676580345607932 -0.30849338282221261 0 -0.46676580345607932 -0.30849338282221261 0 -0.44760862408716928 -0.28726311080056549 0 -0.44966893843938899 -0.30397886739071422 0 -0.46676580345607932 -0.30849338282221261 0 -0.44966893843938899 -0.30397886739071422 0 -0.45363138017556248 -0.32397582654406581 0 -0.46676580345607932 -0.30849338282221261 0 -0.44760862408716928 -0.28726311080056549 0 -0.4746724237973392 -0.28888129233211851 0 -0.46676580345607932 -0.30849338282221261 0 -0.44760862408716928 -0.28726311080056549 0 -0.46558029237349019 -0.2700242439181556 0 -0.4746724237973392 -0.28888129233211851 0 -0.44760862408716928 -0.28726311080056549 0 -0.43906019157882398 -0.28500585308481641 0 -0.44966893843938899 -0.30397886739071422 0 -0.43906019157882398 -0.28500585308481641 0 -0.44966893843938899 -0.30397886739071422 0 -0.43382658326904888 -0.30054323717296022 0 -0.44760862408716928 -0.28726311080056549 0 -0.43906019157882398 -0.28500585308481641 0 -0.44966893843938899 -0.30397886739071422 0 -0.44966893843938899 -0.30397886739071422 0 -0.4361129769271691 -0.31560884283093882 0 -0.43382658326904888 -0.30054323717296022 0 -0.45363138017556248 -0.32397582654406581 0 -0.43012626208223892 -0.33454938850015281 0 -0.4361129769271691 -0.31560884283093882 0 -0.44966893843938899 -0.30397886739071422 0 -0.45363138017556248 -0.32397582654406581 0 -0.4361129769271691 -0.31560884283093882 0 -0.45356070695208878 -0.34432447998593152 0 -0.43012626208223892 -0.33454938850015281 0 -0.45363138017556248 -0.32397582654406581 0 -0.45356070695208878 -0.34432447998593152 0 -0.43012626208223892 -0.33454938850015281 0 -0.46974184488853821 -0.33702406741489699 0 -0.45356070695208878 -0.34432447998593152 0 -0.45363138017556248 -0.32397582654406581 0 -0.46901550283629229 -0.32480423290625882 0 -0.46974184488853821 -0.33702406741489699 0 -0.45363138017556248 -0.32397582654406581 0 -0.46974184488853821 -0.33702406741489699 0 -0.45356070695208878 -0.34432447998593152 0 -0.46676580345607932 -0.30849338282221261 0 -0.45363138017556248 -0.32397582654406581 0 -0.46901550283629229 -0.32480423290625882 0 -0.48376455522118822 -0.30773834074608131 0 -0.46676580345607932 -0.30849338282221261 0 -0.4859229828249873 -0.32972365484386151 0 -0.46676580345607932 -0.30849338282221261 0 -0.4859229828249873 -0.32972365484386151 0 -0.46676580345607932 -0.30849338282221261 0 -0.46901550283629229 -0.32480423290625882 0 -0.4859229828249873 -0.32972365484386151 0 -0.48376455522118822 -0.30773834074608131 0 -0.49285668664503701 -0.32659538916004432 0 -0.48376455522118822 -0.30773834074608131 0 -0.49285668664503701 -0.32659538916004432 0 -0.500000000000002 -0.32337255434952272 0 -0.48376455522118822 -0.30773834074608131 0 -0.49285668664503701 -0.32659538916004432 0 -0.4859229828249873 -0.32972365484386151 0 -0.49285668664503701 -0.32659538916004432 0 -0.500000000000002 -0.32337255434952272 0 -0.49999999999999989 -0.32875385211927322 0 -0.49285668664503701 -0.32659538916004432 0 -0.500000000000002 -0.32337255434952272 0 -0.5 -0.34141059579215649 0 -0.49923437535218529 -0.33982269298062201 0 -0.49999999999999989 -0.32875385211927322 0 -0.49923437535218529 -0.33982269298062201 0 -0.4859229828249873 -0.32972365484386151 0 -0.4989354546151642 -0.34414427024132799 0 -0.4859229828249873 -0.32972365484386151 0 -0.4989354546151642 -0.34414427024132799 0 -0.49923437535218529 -0.33982269298062201 0 -0.4989354546151642 -0.34414427024132799 0 -0.5 -0.34141059579215649 0 -0.49923437535218529 -0.33982269298062201 0 -0.4989354546151642 -0.34414427024132799 0 -0.5 -0.34141059579215649 0 -0.49923437535218529 -0.33982269298062201 0 -0.49923437535218529 -0.33982269298062201 0 -0.49999999999999989 -0.32875385211927322 0 -0.49285668664503701 -0.32659538916004432 0 -0.49923437535218529 -0.33982269298062201 0 -0.49999999999999989 -0.32875385211927322 0 -0.49285668664503701 -0.32659538916004432 0 -0.49923437535218529 -0.33982269298062201 0 -0.4859229828249873 -0.32972365484386151 0 -0.49285668664503701 -0.32659538916004432 0 -0.49923437535218529 -0.33982269298062201 0 -0.49285668664503701 -0.32659538916004432 0 -0.4859229828249873 -0.32972365484386151 0 -0.4859229828249873 -0.32972365484386151 0 -0.48513435877878303 -0.34351649432663961 0 -0.4989354546151642 -0.34414427024132799 0 -0.46901550283629229 -0.32480423290625882 0 -0.4859229828249873 -0.32972365484386151 0 -0.46974184488853821 -0.33702406741489699 0 -0.4859229828249873 -0.32972365484386151 0 -0.48513435877878303 -0.34351649432663961 0 -0.46974184488853821 -0.33702406741489699 0 -0.4859229828249873 -0.32972365484386151 0 -0.46974184488853821 -0.33702406741489699 0 -0.48513435877878303 -0.34351649432663961 0 -0.46974184488853821 -0.33702406741489699 0 -0.47560579747752951 -0.35352003711968277 0 -0.4989354546151642 -0.34414427024132799 0 -0.49765088800296903 -0.36271559425343708 0 -0.48513435877878303 -0.34351649432663961 0 -0.4989354546151642 -0.34414427024132799 0 -0.49765088800296903 -0.36271559425343708 0 -0.47560579747752951 -0.35352003711968277 0 -0.49765088800296903 -0.36271559425343708 0 -0.4989354546151642 -0.34414427024132799 0 -0.49999999999999739 -0.36369546746181552 0 -0.49765088800296903 -0.36271559425343708 0 -0.48513435877878303 -0.34351649432663961 0 -0.47560579747752951 -0.35352003711968277 0 -0.49765088800296903 -0.36271559425343708 0 -0.49603847425346581 -0.38602669225275071 0 -0.49999999999999739 -0.36369546746181552 0 -0.49765088800296903 -0.36271559425343708 0 -0.47560579747752951 -0.35352003711968277 0 -0.49765088800296903 -0.36271559425343708 0 -0.48074157637671122 -0.37087819406386219 0 -0.49603847425346581 -0.38602669225275071 0 -0.49765088800296903 -0.36271559425343708 0 -0.48074157637671122 -0.37087819406386219 0 -0.49603847425346581 -0.38602669225275071 0 -0.49765088800296903 -0.36271559425343708 0 -0.49999999999999739 -0.36369546746181552 0 -0.49765088800296903 -0.36271559425343708 0 -0.47560579747752951 -0.35352003711968277 0 -0.48074157637671122 -0.37087819406386219 0 -0.46687623438509779 -0.36523430870514312 0 -0.46929139830501132 -0.37619395019243351 0 -0.48074157637671122 -0.37087819406386219 0 -0.46687623438509779 -0.36523430870514312 0 -0.46929139830501132 -0.37619395019243351 0 -0.45938567431424498 -0.3721824343097051 0 -0.46687623438509779 -0.36523430870514312 0 -0.45234911498290759 -0.37850400504586112 0 -0.45938567431424498 -0.3721824343097051 0 -0.44962730577443299 -0.37090306519802457 0 -0.45938567431424498 -0.3721824343097051 0 -0.45501787867742838 -0.36223374192838498 0 -0.44962730577443299 -0.37090306519802457 0 -0.45938567431424498 -0.3721824343097051 0 -0.45501787867742838 -0.36223374192838498 0 -0.46687623438509779 -0.36523430870514312 0 -0.45501787867742838 -0.36223374192838498 0 -0.46687623438509779 -0.36523430870514312 0 -0.46112233380969819 -0.35528261998992172 0 -0.47560579747752951 -0.35352003711968277 0 -0.46112233380969819 -0.35528261998992172 0 -0.45356070695208878 -0.34432447998593152 0 -0.46974184488853821 -0.33702406741489699 0 -0.47560579747752951 -0.35352003711968277 0 -0.45356070695208878 -0.34432447998593152 0 -0.47560579747752951 -0.35352003711968277 0 -0.46687623438509779 -0.36523430870514312 0 -0.46112233380969819 -0.35528261998992172 0 -0.47560579747752951 -0.35352003711968277 0 -0.45356070695208878 -0.34432447998593152 0 -0.46112233380969819 -0.35528261998992172 0 -0.45356070695208878 -0.34432447998593152 0 -0.45455105155634667 -0.35110053221046589 0 -0.45501787867742838 -0.36223374192838498 0 -0.46112233380969819 -0.35528261998992172 0 -0.45455105155634667 -0.35110053221046589 0 -0.45455105155634667 -0.35110053221046589 0 -0.44555602341633221 -0.36010643753335753 0 -0.42845573751214061 -0.36145807304023259 0 -0.45501787867742838 -0.36223374192838498 0 -0.45455105155634667 -0.35110053221046589 0 -0.44555602341633221 -0.36010643753335753 0 -0.45455105155634667 -0.35110053221046589 0 -0.42845573751214061 -0.36145807304023259 0 -0.43080641392701052 -0.35459049016999289 0 -0.45356070695208878 -0.34432447998593152 0 -0.43080641392701052 -0.35459049016999289 0 -0.43012626208223892 -0.33454938850015281 0 -0.45356070695208878 -0.34432447998593152 0 -0.45455105155634667 -0.35110053221046589 0 -0.43080641392701052 -0.35459049016999289 0 -0.45356070695208878 -0.34432447998593152 0 -0.43080641392701052 -0.35459049016999289 0 -0.45455105155634667 -0.35110053221046589 0 -0.42845573751214061 -0.36145807304023259 0 -0.44419942591941308 -0.36563340295434671 0 -0.44555602341633221 -0.36010643753335753 0 -0.42845573751214061 -0.36145807304023259 0 -0.43862482865108421 -0.37677389070480882 0 -0.44419942591941308 -0.36563340295434671 0 -0.44962730577443299 -0.37090306519802457 0 -0.45501787867742838 -0.36223374192838498 0 -0.44419942591941308 -0.36563340295434671 0 -0.44555602341633221 -0.36010643753335753 0 -0.45501787867742838 -0.36223374192838498 0 -0.44419942591941308 -0.36563340295434671 0 -0.44962730577443299 -0.37090306519802457 0 -0.43862482865108421 -0.37677389070480882 0 -0.44419942591941308 -0.36563340295434671 0 -0.42845573751214061 -0.36145807304023259 0 -0.42845573751214061 -0.36145807304023259 0 -0.43080641392701052 -0.35459049016999289 0 -0.40805212090193221 -0.36485650035405409 0 -0.42845573751214061 -0.36145807304023259 0 -0.42820135255848307 -0.37281822657943331 0 -0.42145391874903232 -0.36809279396680861 0 -0.41931018712138057 -0.37612434997693789 0 -0.42820135255848307 -0.37281822657943331 0 -0.42145391874903232 -0.36809279396680861 0 -0.43862482865108421 -0.37677389070480882 0 -0.42845573751214061 -0.36145807304023259 0 -0.43862482865108421 -0.37677389070480882 0 -0.42845573751214061 -0.36145807304023259 0 -0.42820135255848307 -0.37281822657943331 0 -0.43080641392701052 -0.35459049016999289 0 -0.41445536733790822 -0.34511331720994992 0 -0.43012626208223892 -0.33454938850015281 0 -0.43080641392701052 -0.35459049016999289 0 -0.41445536733790822 -0.34511331720994992 0 -0.40805212090193221 -0.36485650035405409 0 -0.42845573751214061 -0.36145807304023259 0 -0.42145391874903232 -0.36809279396680861 0 -0.40275984053109209 -0.37165708048225238 0 -0.43080641392701052 -0.35459049016999289 0 -0.40805212090193221 -0.36485650035405409 0 -0.42845573751214061 -0.36145807304023259 0 -0.40805212090193221 -0.36485650035405409 0 -0.40275984053109209 -0.37165708048225238 0 -0.42145391874903232 -0.36809279396680861 0 -0.41375387195581692 -0.37370609491998208 0 -0.40275984053109209 -0.37165708048225238 0 -0.42845573751214061 -0.36145807304023259 0 -0.40275984053109209 -0.37165708048225238 0 -0.41931018712138057 -0.37612434997693789 0 -0.42145391874903232 -0.36809279396680861 0 -0.41375387195581692 -0.37370609491998208 0 -0.41149154142176292 -0.37895015525392961 0 -0.41375387195581692 -0.37370609491998208 0 -0.40275984053109209 -0.37165708048225238 0 -0.38529782787685379 -0.37512251053811541 0 -0.40805212090193221 -0.36485650035405409 0 -0.40275984053109209 -0.37165708048225238 0 -0.38529782787685379 -0.37512251053811541 0 -0.40805212090193221 -0.36485650035405409 0 -0.38529782787685379 -0.37512251053811541 0 -0.40805212090193221 -0.36485650035405409 0 -0.38877661842505978 -0.35654341434893388 0 -0.38529782787685379 -0.37512251053811541 0 -0.38877661842505978 -0.35654341434893388 0 -0.36972147746553219 -0.35625538617263919 0 -0.38877661842505978 -0.35654341434893388 0 -0.38218286632374598 -0.33164860206412672 0 -0.36972147746553219 -0.35625538617263919 0 -0.41445536733790822 -0.34511331720994992 0 -0.40805212090193221 -0.36485650035405409 0 -0.39601411801637931 -0.34097884561919112 0 -0.40805212090193221 -0.36485650035405409 0 -0.38877661842505978 -0.35654341434893388 0 -0.39601411801637931 -0.34097884561919112 0 -0.41445536733790822 -0.34511331720994992 0 -0.39601411801637931 -0.34097884561919112 0 -0.40669181721238878 -0.32477429701437421 0 -0.39601411801637931 -0.34097884561919112 0 -0.38218286632374598 -0.33164860206412672 0 -0.38325737234253943 -0.31499920552859439 0 -0.38877661842505978 -0.35654341434893388 0 -0.39601411801637931 -0.34097884561919112 0 -0.38218286632374598 -0.33164860206412672 0 -0.39601411801637931 -0.34097884561919112 0 -0.38325737234253943 -0.31499920552859439 0 -0.38218286632374598 -0.33164860206412672 0 -0.38325737234253943 -0.31499920552859439 0 -0.36578820015179658 -0.33474244906941469 0 -0.38325737234253943 -0.31499920552859439 0 -0.40669181721238878 -0.32477429701437421 0 -0.38325737234253943 -0.31499920552859439 0 -0.40669181721238878 -0.32477429701437421 0 -0.39807376343871809 -0.31245691828831851 0 -0.39601411801637931 -0.34097884561919112 0 -0.38325737234253943 -0.31499920552859439 0 -0.40669181721238878 -0.32477429701437421 0 -0.40669181721238878 -0.32477429701437421 0 -0.41982114240552187 -0.30866554751101138 0 -0.39807376343871809 -0.31245691828831851 0 -0.40669181721238878 -0.32477429701437421 0 -0.43012626208223892 -0.33454938850015281 0 -0.42318804965682971 -0.32089951896411928 0 -0.40669181721238878 -0.32477429701437421 0 -0.42318804965682971 -0.32089951896411928 0 -0.41982114240552187 -0.30866554751101138 0 -0.40669181721238878 -0.32477429701437421 0 -0.43012626208223892 -0.33454938850015281 0 -0.41445536733790822 -0.34511331720994992 0 -0.40669181721238878 -0.32477429701437421 0 -0.43012626208223892 -0.33454938850015281 0 -0.4361129769271691 -0.31560884283093882 0 -0.42318804965682971 -0.32089951896411928 0 -0.41982114240552187 -0.30866554751101138 0 -0.43012626208223892 -0.33454938850015281 0 -0.4361129769271691 -0.31560884283093882 0 -0.42318804965682971 -0.32089951896411928 0 -0.43382658326904888 -0.30054323717296022 0 -0.42443126673122228 -0.29026570541143792 0 -0.41982114240552187 -0.30866554751101138 0 -0.4361129769271691 -0.31560884283093882 0 -0.43382658326904888 -0.30054323717296022 0 -0.41982114240552187 -0.30866554751101138 0 -0.43906019157882398 -0.28500585308481641 0 -0.43382658326904888 -0.30054323717296022 0 -0.42443126673122228 -0.29026570541143792 0 -0.43906019157882398 -0.28500585308481641 0 -0.42443126673122228 -0.29026570541143792 0 -0.42605002844866041 -0.2804051889644355 0 -0.42443126673122228 -0.29026570541143792 0 -0.41157214627506128 -0.29752232494517211 0 -0.41225721076633598 -0.28031635858256931 0 -0.41157214627506128 -0.29752232494517211 0 -0.39764549338091459 -0.29743010045204499 0 -0.41225721076633598 -0.28031635858256931 0 -0.42443126673122228 -0.29026570541143792 0 -0.41225721076633598 -0.28031635858256931 0 -0.42605002844866041 -0.2804051889644355 0 -0.41157214627506128 -0.29752232494517211 0 -0.41982114240552187 -0.30866554751101138 0 -0.39807376343871809 -0.31245691828831851 0 -0.42443126673122228 -0.29026570541143792 0 -0.41157214627506128 -0.29752232494517211 0 -0.41982114240552187 -0.30866554751101138 0 -0.38325737234253943 -0.31499920552859439 0 -0.39764549338091459 -0.29743010045204499 0 -0.39807376343871809 -0.31245691828831851 0 -0.41157214627506128 -0.29752232494517211 0 -0.39764549338091459 -0.29743010045204499 0 -0.39807376343871809 -0.31245691828831851 0 -0.38325737234253943 -0.31499920552859439 0 -0.39764549338091459 -0.29743010045204499 0 -0.37488707221238349 -0.29795274317905329 0 -0.38325737234253943 -0.31499920552859439 0 -0.39764549338091459 -0.29743010045204499 0 -0.38325737234253943 -0.31499920552859439 0 -0.37488707221238349 -0.29795274317905329 0 -0.36869337048675649 -0.30892419708141527 0 -0.38325737234253943 -0.31499920552859439 0 -0.37488707221238349 -0.29795274317905329 0 -0.38325737234253943 -0.31499920552859439 0 -0.36869337048675649 -0.30892419708141527 0 -0.39764549338091459 -0.29743010045204499 0 -0.39555103474683018 -0.29277833718980839 0 -0.37488707221238349 -0.29795274317905329 0 -0.39555103474683018 -0.29277833718980839 0 -0.37488707221238349 -0.29795274317905329 0 -0.38196309039515142 -0.28236286908932112 0 -0.39555103474683018 -0.29277833718980839 0 -0.37488707221238349 -0.29795274317905329 0 -0.38196309039515142 -0.28236286908932112 0 -0.39555103474683018 -0.29277833718980839 0 -0.39725144180630562 -0.2775941039841639 0 -0.39764549338091459 -0.29743010045204499 0 -0.41225721076633598 -0.28031635858256931 0 -0.39764549338091459 -0.29743010045204499 0 -0.39555103474683018 -0.29277833718980839 0 -0.41225721076633598 -0.28031635858256931 0 -0.39555103474683018 -0.29277833718980839 0 -0.39725144180630562 -0.2775941039841639 0 -0.41225721076633598 -0.28031635858256931 0 -0.39725144180630562 -0.2775941039841639 0 -0.40587804628304419 -0.26245074519858591 0 -0.41225721076633598 -0.28031635858256931 0 -0.39725144180630562 -0.2775941039841639 0 -0.38622503322442309 -0.26585474944075072 0 -0.40587804628304419 -0.26245074519858591 0 -0.38196309039515142 -0.28236286908932112 0 -0.39725144180630562 -0.2775941039841639 0 -0.38622503322442309 -0.26585474944075072 0 -0.38196309039515142 -0.28236286908932112 0 -0.38622503322442309 -0.26585474944075072 0 -0.36424466861694871 -0.27627904816487142 0 -0.38622503322442309 -0.26585474944075072 0 -0.37296094896050469 -0.25131874535835808 0 -0.39305878154435231 -0.2433936727470595 0 -0.40587804628304419 -0.26245074519858591 0 -0.41633050832669871 -0.24435537747453029 0 -0.39305878154435231 -0.2433936727470595 0 -0.38622503322442309 -0.26585474944075072 0 -0.40587804628304419 -0.26245074519858591 0 -0.39305878154435231 -0.2433936727470595 0 -0.42686892815175892 -0.26320261671309481 0 -0.41633050832669871 -0.24435537747453029 0 -0.40587804628304419 -0.26245074519858591 0 -0.42686892815175892 -0.26320261671309481 0 -0.41633050832669871 -0.24435537747453029 0 -0.40587804628304419 -0.26245074519858591 0 -0.41225721076633598 -0.28031635858256931 0 -0.42686892815175892 -0.26320261671309481 0 -0.41225721076633598 -0.28031635858256931 0 -0.42686892815175892 -0.26320261671309481 0 -0.43906019157882398 -0.28500585308481641 0 -0.42845144471825908 -0.26603283877891859 0 -0.41225721076633598 -0.28031635858256931 0 -0.42845144471825908 -0.26603283877891859 0 -0.42686892815175892 -0.26320261671309481 0 -0.41225721076633598 -0.28031635858256931 0 -0.42845144471825908 -0.26603283877891859 0 -0.42605002844866041 -0.2804051889644355 0 -0.43906019157882398 -0.28500585308481641 0 -0.42845144471825908 -0.26603283877891859 0 -0.42605002844866041 -0.2804051889644355 0 -0.44595313017567789 -0.26380075322127872 0 -0.42845144471825908 -0.26603283877891859 0 -0.42686892815175892 -0.26320261671309481 0 -0.42686892815175892 -0.26320261671309481 0 -0.44515169611381661 -0.24178921517315011 0 -0.42845144471825908 -0.26603283877891859 0 -0.42686892815175892 -0.26320261671309481 0 -0.3204267963439279 -0.25655738410344142 0 -0.34197435386089542 -0.2737646994550183 0 -0.35360226502151387 -0.25460535315068938 0 -0.3204267963439279 -0.25655738410344142 0 -0.30616162266381541 -0.28284064532118969 0 -0.3204267963439279 -0.25655738410344142 0 -0.32434872675277993 -0.27626521861553782 0 -0.30616162266381541 -0.28284064532118969 0 -0.32434872675277993 -0.27626521861553782 0 -0.34197435386089542 -0.2737646994550183 0 -0.33037127799590649 -0.29293909642701588 0 -0.3204267963439279 -0.25655738410344142 0 -0.32434872675277993 -0.27626521861553782 0 -0.34197435386089542 -0.2737646994550183 0 -0.35360226502151387 -0.25460535315068938 0 -0.36424466861694871 -0.27627904816487142 0 -0.38622503322442309 -0.26585474944075072 0 -0.37296094896050469 -0.25131874535835808 0 -0.36424466861694871 -0.27627904816487142 0 -0.35360226502151387 -0.25460535315068938 0 -0.37296094896050469 -0.25131874535835808 0 -0.36424466861694871 -0.27627904816487142 0 -0.34197435386089542 -0.2737646994550183 0 -0.35360226502151387 -0.25460535315068938 0 -0.36424466861694871 -0.27627904816487142 0 -0.34197435386089542 -0.2737646994550183 0 -0.36424466861694871 -0.27627904816487142 0 -0.35458093332799689 -0.3030375475328439 0 -0.36424466861694871 -0.27627904816487142 0 -0.37488707221238349 -0.29795274317905329 0 -0.36424466861694871 -0.27627904816487142 0 -0.37488707221238349 -0.29795274317905329 0 -0.35458093332799689 -0.3030375475328439 0 -0.38196309039515142 -0.28236286908932112 0 -0.36424466861694871 -0.27627904816487142 0 -0.37488707221238349 -0.29795274317905329 0 -0.37488707221238349 -0.29795274317905329 0 -0.36869337048675649 -0.30892419708141527 0 -0.35458093332799689 -0.3030375475328439 0 -0.37488707221238349 -0.29795274317905329 0 -0.35458093332799689 -0.3030375475328439 0 -0.36869337048675649 -0.30892419708141527 0 -0.35458093332799689 -0.3030375475328439 0 -0.35886509419714241 -0.31712309116148529 0 -0.36869337048675649 -0.30892419708141527 0 -0.35458093332799689 -0.3030375475328439 0 -0.35458093332799689 -0.3030375475328439 0 -0.33614564770549882 -0.30765387667008048 0 -0.35458093332799689 -0.3030375475328439 0 -0.33614564770549882 -0.30765387667008048 0 -0.34639787282201889 -0.32178817096226919 0 -0.35458093332799689 -0.3030375475328439 0 -0.33614564770549882 -0.30765387667008048 0 -0.33037127799590649 -0.29293909642701588 0 -0.35458093332799689 -0.3030375475328439 0 -0.33037127799590649 -0.29293909642701588 0 -0.34197435386089542 -0.2737646994550183 0 -0.35458093332799689 -0.3030375475328439 0 -0.33037127799590649 -0.29293909642701588 0 -0.33037127799590649 -0.29293909642701588 0 -0.31241735561098632 -0.29766761039886358 0 -0.30616162266381541 -0.28284064532118969 0 -0.33037127799590649 -0.29293909642701588 0 -0.30616162266381541 -0.28284064532118969 0 -0.32434872675277993 -0.27626521861553782 0 -0.33037127799590649 -0.29293909642701588 0 -0.30616162266381541 -0.28284064532118969 0 -0.33614564770549882 -0.30765387667008048 0 -0.33037127799590649 -0.29293909642701588 0 -0.31771036208300008 -0.31227020580731463 0 -0.33614564770549882 -0.30765387667008048 0 -0.31771036208300008 -0.31227020580731463 0 -0.33037127799590649 -0.29293909642701588 0 -0.31771036208300008 -0.31227020580731463 0 -0.31241735561098632 -0.29766761039886358 0 -0.33614564770549882 -0.30765387667008048 0 -0.31771036208300008 -0.31227020580731463 0 -0.32945704595157821 -0.32006175312163643 0 -0.31771036208300008 -0.31227020580731463 0 -0.32945704595157821 -0.32006175312163643 0 -0.31082663595911503 -0.33240078527314221 0 -0.33245121680185402 -0.3340921600319014 0 -0.32252131820658519 -0.34498208228240468 0 -0.31082663595911503 -0.33240078527314221 0 -0.32252131820658519 -0.34498208228240468 0 -0.31123517938595252 -0.35242665102898679 0 -0.31082663595911503 -0.33240078527314221 0 -0.33245121680185402 -0.3340921600319014 0 -0.32945704595157821 -0.32006175312163643 0 -0.31082663595911503 -0.33240078527314221 0 -0.33245121680185402 -0.3340921600319014 0 -0.34639787282201889 -0.32178817096226919 0 -0.34580890464371772 -0.33868788764918162 0 -0.33245121680185402 -0.3340921600319014 0 -0.33593564807294429 -0.34663399897162711 0 -0.32252131820658519 -0.34498208228240468 0 -0.33245121680185402 -0.3340921600319014 0 -0.34580890464371772 -0.33868788764918162 0 -0.33593564807294429 -0.34663399897162711 0 -0.33245121680185402 -0.3340921600319014 0 -0.32945704595157821 -0.32006175312163643 0 -0.34639787282201889 -0.32178817096226919 0 -0.33614564770549882 -0.30765387667008048 0 -0.32945704595157821 -0.32006175312163643 0 -0.34639787282201889 -0.32178817096226919 0 -0.35458093332799689 -0.3030375475328439 0 -0.34639787282201889 -0.32178817096226919 0 -0.35886509419714241 -0.31712309116148529 0 -0.34639787282201889 -0.32178817096226919 0 -0.35886509419714241 -0.31712309116148529 0 -0.36578820015179658 -0.33474244906941469 0 -0.38325737234253943 -0.31499920552859439 0 -0.36869337048675649 -0.30892419708141527 0 -0.36578820015179658 -0.33474244906941469 0 -0.38325737234253943 -0.31499920552859439 0 -0.36578820015179658 -0.33474244906941469 0 -0.36869337048675649 -0.30892419708141527 0 -0.35886509419714241 -0.31712309116148529 0 -0.36578820015179658 -0.33474244906941469 0 -0.38218286632374598 -0.33164860206412672 0 -0.36578820015179658 -0.33474244906941469 0 -0.36972147746553219 -0.35625538617263919 0 -0.34639787282201889 -0.32178817096226919 0 -0.36578820015179658 -0.33474244906941469 0 -0.34580890464371772 -0.33868788764918162 0 -0.36578820015179658 -0.33474244906941469 0 -0.34580890464371772 -0.33868788764918162 0 -0.34877059265808008 -0.35467405150884429 0 -0.36578820015179658 -0.33474244906941469 0 -0.34877059265808008 -0.35467405150884429 0 -0.36578820015179658 -0.33474244906941469 0 -0.34877059265808008 -0.35467405150884429 0 -0.36972147746553219 -0.35625538617263919 0 -0.36972147746553219 -0.35625538617263919 0 -0.36564458720461052 -0.37127411702710578 0 -0.35140562079391269 -0.36880738783291978 0 -0.38529782787685379 -0.37512251053811541 0 -0.36972147746553219 -0.35625538617263919 0 -0.36564458720461052 -0.37127411702710578 0 -0.36564458720461052 -0.37127411702710578 0 -0.35140562079391269 -0.36880738783291978 0 -0.34976865238176458 -0.3819383339311061 0 -0.34877059265808008 -0.35467405150884429 0 -0.36972147746553219 -0.35625538617263919 0 -0.35140562079391269 -0.36880738783291978 0 -0.34877059265808008 -0.35467405150884429 0 -0.35140562079391269 -0.36880738783291978 0 -0.33917687258947798 -0.36835691237577578 0 -0.35140562079391269 -0.36880738783291978 0 -0.33660234981190529 -0.38061550073876971 0 -0.34877059265808008 -0.35467405150884429 0 -0.33917687258947798 -0.36835691237577578 0 -0.33115531904612189 -0.35943222170651012 0 -0.35140562079391269 -0.36880738783291978 0 -0.33917687258947798 -0.36835691237577578 0 -0.33660234981190529 -0.38061550073876971 0 -0.33917687258947798 -0.36835691237577578 0 -0.32631931093636779 -0.37356823547123968 0 -0.33660234981190529 -0.38061550073876971 0 -0.33917687258947798 -0.36835691237577578 0 -0.33115531904612189 -0.35943222170651012 0 -0.32631931093636779 -0.37356823547123968 0 -0.34580890464371772 -0.33868788764918162 0 -0.34877059265808008 -0.35467405150884429 0 -0.33593564807294429 -0.34663399897162711 0 -0.34877059265808008 -0.35467405150884429 0 -0.33115531904612189 -0.35943222170651012 0 -0.33593564807294429 -0.34663399897162711 0 -0.33115531904612189 -0.35943222170651012 0 -0.33593564807294429 -0.34663399897162711 0 -0.32252131820658519 -0.34498208228240468 0 -0.32252131820658519 -0.34498208228240468 0 -0.31803490286454689 -0.36285896333447121 0 -0.31123517938595252 -0.35242665102898679 0 -0.33115531904612189 -0.35943222170651012 0 -0.32252131820658519 -0.34498208228240468 0 -0.31803490286454689 -0.36285896333447121 0 -0.31803490286454689 -0.36285896333447121 0 -0.32631931093636779 -0.37356823547123968 0 -0.31218479266313781 -0.37616661017248387 0 -0.33115531904612189 -0.35943222170651012 0 -0.31803490286454689 -0.36285896333447121 0 -0.32631931093636779 -0.37356823547123968 0 -0.30442782358907511 -0.36405936070187739 0 -0.31218479266313781 -0.37616661017248387 0 -0.2968095825510022 -0.37573890339989868 0 -0.31803490286454689 -0.36285896333447121 0 -0.30442782358907511 -0.36405936070187739 0 -0.31218479266313781 -0.37616661017248387 0 -0.31803490286454689 -0.36285896333447121 0 -0.30442782358907511 -0.36405936070187739 0 -0.31123517938595252 -0.35242665102898679 0 -0.31123517938595252 -0.35242665102898679 0 -0.29660668642369831 -0.35158002391049209 0 -0.31082663595911503 -0.33240078527314221 0 -0.30442782358907511 -0.36405936070187739 0 -0.31123517938595252 -0.35242665102898679 0 -0.29660668642369831 -0.35158002391049209 0 -0.29660668642369831 -0.35158002391049209 0 -0.28158641304959159 -0.34814832691095149 0 -0.29141075718257659 -0.33533624216920699 0 -0.29660668642369831 -0.35158002391049209 0 -0.28158641304959159 -0.34814832691095149 0 -0.2876129965724441 -0.36523454018182011 0 -0.30442782358907511 -0.36405936070187739 0 -0.2876129965724441 -0.36523454018182011 0 -0.2968095825510022 -0.37573890339989868 0 -0.30442782358907511 -0.36405936070187739 0 -0.29660668642369831 -0.35158002391049209 0 -0.2876129965724441 -0.36523454018182011 0 -0.2876129965724441 -0.36523454018182011 0 -0.26743370886982959 -0.37385045006866152 0 -0.27814772893425138 -0.38458411269647108 0 -0.2876129965724441 -0.36523454018182011 0 -0.26743370886982959 -0.37385045006866152 0 -0.26921434836044611 -0.35655903319975962 0 -0.26743370886982959 -0.37385045006866152 0 -0.25234099474177929 -0.3645829912548777 0 -0.2494264406445981 -0.38570149830623152 0 -0.26743370886982959 -0.37385045006866152 0 -0.25234099474177929 -0.3645829912548777 0 -0.26921434836044611 -0.35655903319975962 0 -0.25234099474177929 -0.3645829912548777 0 -0.25366849844647138 -0.34784678421434451 0 -0.26921434836044611 -0.35655903319975962 0 -0.25366849844647138 -0.34784678421434451 0 -0.26921434836044611 -0.35655903319975962 0 -0.2653576487433385 -0.34033888589362299 0 -0.28158641304959159 -0.34814832691095149 0 -0.2876129965724441 -0.36523454018182011 0 -0.26921434836044611 -0.35655903319975962 0 -0.28158641304959159 -0.34814832691095149 0 -0.26921434836044611 -0.35655903319975962 0 -0.2653576487433385 -0.34033888589362299 0 -0.28158641304959159 -0.34814832691095149 0 -0.27764606591022128 -0.3336708243722894 0 -0.2653576487433385 -0.34033888589362299 0 -0.27764606591022128 -0.3336708243722894 0 -0.2653576487433385 -0.34033888589362299 0 -0.26623900781732629 -0.32496631785838381 0 -0.2653576487433385 -0.34033888589362299 0 -0.25257272060382863 -0.33347201750691319 0 -0.26623900781732629 -0.32496631785838381 0 -0.25366849844647138 -0.34784678421434451 0 -0.2653576487433385 -0.34033888589362299 0 -0.25257272060382863 -0.33347201750691319 0 -0.25257272060382863 -0.33347201750691319 0 -0.25147377537078452 -0.31548627993528078 0 -0.26623900781732629 -0.32496631785838381 0 -0.25147377537078452 -0.31548627993528078 0 -0.26623900781732629 -0.32496631785838381 0 -0.27017939076281861 -0.3067498526193172 0 -0.26623900781732629 -0.32496631785838381 0 -0.28363650275827351 -0.31956434902928182 0 -0.27017939076281861 -0.3067498526193172 0 -0.27764606591022128 -0.3336708243722894 0 -0.26623900781732629 -0.32496631785838381 0 -0.28363650275827351 -0.31956434902928182 0 -0.28363650275827351 -0.31956434902928182 0 -0.29980208353683768 -0.32043841526377598 0 -0.2954261597012231 -0.30262049403993407 0 -0.28363650275827351 -0.31956434902928182 0 -0.29141075718257659 -0.33533624216920699 0 -0.29980208353683768 -0.32043841526377598 0 -0.27764606591022128 -0.3336708243722894 0 -0.28363650275827351 -0.31956434902928182 0 -0.29141075718257659 -0.33533624216920699 0 -0.28158641304959159 -0.34814832691095149 0 -0.27764606591022128 -0.3336708243722894 0 -0.29141075718257659 -0.33533624216920699 0 -0.29141075718257659 -0.33533624216920699 0 -0.31082663595911503 -0.33240078527314221 0 -0.29980208353683768 -0.32043841526377598 0 -0.29660668642369831 -0.35158002391049209 0 -0.29141075718257659 -0.33533624216920699 0 -0.31082663595911503 -0.33240078527314221 0 -0.31771036208300008 -0.31227020580731463 0 -0.31082663595911503 -0.33240078527314221 0 -0.29980208353683768 -0.32043841526377598 0 -0.31771036208300008 -0.31227020580731463 0 -0.29980208353683768 -0.32043841526377598 0 -0.2954261597012231 -0.30262049403993407 0 -0.31771036208300008 -0.31227020580731463 0 -0.31241735561098632 -0.29766761039886358 0 -0.2954261597012231 -0.30262049403993407 0 -0.31241735561098632 -0.29766761039886358 0 -0.30616162266381541 -0.28284064532118969 0 -0.2954261597012231 -0.30262049403993407 0 -0.30616162266381541 -0.28284064532118969 0 -0.2954261597012231 -0.30262049403993407 0 -0.28909701670518861 -0.27572257252958943 0 -0.30616162266381541 -0.28284064532118969 0 -0.2954261597012231 -0.30262049403993407 0 -0.2954261597012231 -0.30262049403993407 0 -0.27568103490557649 -0.288739686241271 0 -0.28909701670518861 -0.27572257252958943 0 -0.28363650275827351 -0.31956434902928182 0 -0.2954261597012231 -0.30262049403993407 0 -0.27017939076281861 -0.3067498526193172 0 -0.2954261597012231 -0.30262049403993407 0 -0.27017939076281861 -0.3067498526193172 0 -0.27568103490557649 -0.288739686241271 0 -0.25147377537078452 -0.31548627993528078 0 -0.27017939076281861 -0.3067498526193172 0 -0.25167019661209061 -0.29000101227952502 0 -0.27017939076281861 -0.3067498526193172 0 -0.25167019661209061 -0.29000101227952502 0 -0.27568103490557649 -0.288739686241271 0 -0.25167019661209061 -0.29000101227952502 0 -0.27568103490557649 -0.288739686241271 0 -0.27203241074656048 -0.26860449973799239 0 -0.27203241074656048 -0.26860449973799239 0 -0.28909701670518861 -0.27572257252958943 0 -0.27568103490557649 -0.288739686241271 0 -0.27203241074656048 -0.26860449973799239 0 -0.28909701670518861 -0.27572257252958943 0 -0.25167019661209061 -0.29000101227952502 0 -0.27203241074656048 -0.26860449973799239 0 -0.25167019661209061 -0.29000101227952502 0 -0.27203241074656048 -0.26860449973799239 0 -0.25244940239910019 -0.26043593849293539 0 -0.27203241074656048 -0.26860449973799239 0 -0.25244940239910019 -0.26043593849293539 0 -0.26201260759904971 -0.24716288073615961 0 -0.27203241074656048 -0.26860449973799239 0 -0.25244940239910019 -0.26043593849293539 0 -0.27203241074656048 -0.26860449973799239 0 -0.2751333524927278 -0.25148720473187502 0 -0.26201260759904971 -0.24716288073615961 0 -0.27203241074656048 -0.26860449973799239 0 -0.2751333524927278 -0.25148720473187502 0 -0.29109069816673733 -0.24857814685159099 0 -0.27203241074656048 -0.26860449973799239 0 -0.28845749277698463 -0.26361864532678481 0 -0.29109069816673733 -0.24857814685159099 0 -0.27203241074656048 -0.26860449973799239 0 -0.29109069816673733 -0.24857814685159099 0 -0.28845749277698463 -0.26361864532678481 0 -0.3016098454894508 -0.26156936218797 0 -0.29109069816673733 -0.24857814685159099 0 -0.27203241074656048 -0.26860449973799239 0 -0.28845749277698463 -0.26361864532678481 0 -0.28909701670518861 -0.27572257252958943 0 -0.28845749277698463 -0.26361864532678481 0 -0.28909701670518861 -0.27572257252958943 0 -0.3016098454894508 -0.26156936218797 0 -0.3204267963439279 -0.25655738410344142 0 -0.30616162266381541 -0.28284064532118969 0 -0.3016098454894508 -0.26156936218797 0 -0.30616162266381541 -0.28284064532118969 0 -0.28909701670518861 -0.27572257252958943 0 -0.30616162266381541 -0.28284064532118969 0 -0.28909701670518861 -0.27572257252958943 0 -0.3016098454894508 -0.26156936218797 0 -0.3204267963439279 -0.25655738410344142 0 -0.3016098454894508 -0.26156936218797 0 -0.31049353829928178 -0.23997410907081471 0 -0.3016098454894508 -0.26156936218797 0 -0.31049353829928178 -0.23997410907081471 0 -0.29109069816673733 -0.24857814685159099 0 -0.33664758629543901 -0.45710450246727669 0 -0.33564673310064302 -0.47800329852552548 0 -0.35891687537176958 -0.47018448795146728 0 -0.33664758629543901 -0.45710450246727669 0 -0.32312407824149569 -0.4420881522305814 0 -0.3414393817155526 -0.43578459602485531 0 -0.33664758629543901 -0.45710450246727669 0 -0.32312407824149569 -0.4420881522305814 0 -0.31472967988232819 -0.45550979822112508 0 -0.32312407824149569 -0.4420881522305814 0 -0.31472967988232819 -0.45550979822112508 0 -0.30572097633434298 -0.44466950536259497 0 -0.32312407824149569 -0.4420881522305814 0 -0.31194034436711648 -0.43178727563646158 0 -0.30572097633434298 -0.44466950536259497 0 -0.33664758629543901 -0.45710450246727669 0 -0.31472967988232819 -0.45550979822112508 0 -0.31923699084658091 -0.47175942626738437 0 -0.31923699084658091 -0.47175942626738437 0 -0.32196652976423068 -0.5 0 -0.33564673310064302 -0.47800329852552548 0 -0.31923699084658091 -0.47175942626738437 0 -0.32196652976423068 -0.5 0 -0.30190008936497192 -0.47855697705932798 0 -0.32196652976423068 -0.5 0 -0.34323254066736358 -0.48908263151274428 0 -0.33564673310064302 -0.47800329852552548 0 -0.32196652976423068 -0.5 0 -0.34323254066736358 -0.48908263151274428 0 -0.34798444812849272 -0.5 0 -0.33664758629543901 -0.45710450246727669 0 -0.31923699084658091 -0.47175942626738437 0 -0.33564673310064302 -0.47800329852552548 0 -0.35891687537176958 -0.47018448795146728 0 -0.3516481169716823 -0.4972253710867286 0 -0.34323254066736358 -0.48908263151274428 0 -0.33564673310064302 -0.47800329852552548 0 -0.35891687537176958 -0.47018448795146728 0 -0.34323254066736358 -0.48908263151274428 0 -0.35891687537176958 -0.47018448795146728 0 -0.3516481169716823 -0.4972253710867286 0 -0.34798444812849272 -0.5 0 -0.3516481169716823 -0.4972253710867286 0 -0.37400236649275492 -0.5 0 -0.34323254066736358 -0.48908263151274428 0 -0.34798444812849272 -0.5 0 -0.3516481169716823 -0.4972253710867286 0 -0.3516481169716823 -0.4972253710867286 0 -0.37400236649275492 -0.5 0 -0.36994728981782271 -0.48145733840571031 0 -0.35891687537176958 -0.47018448795146728 0 -0.3516481169716823 -0.4972253710867286 0 -0.36994728981782271 -0.48145733840571031 0 -0.37705985753298332 -0.46235384023312748 0 -0.35891687537176958 -0.47018448795146728 0 -0.36994728981782271 -0.48145733840571031 0 -0.35891687537176958 -0.47018448795146728 0 -0.36618563377185692 -0.44314360481620602 0 -0.37705985753298332 -0.46235384023312748 0 -0.35891687537176958 -0.47018448795146728 0 -0.36618563377185692 -0.44314360481620602 0 -0.33664758629543901 -0.45710450246727669 0 -0.35891687537176958 -0.47018448795146728 0 -0.36618563377185692 -0.44314360481620602 0 -0.33664758629543901 -0.45710450246727669 0 -0.36618563377185692 -0.44314360481620602 0 -0.3414393817155526 -0.43578459602485531 0 -0.36618563377185692 -0.44314360481620602 0 -0.37345439217194421 -0.41610272168094459 0 -0.37982254315831238 -0.43204764104745452 0 -0.36618563377185692 -0.44314360481620602 0 -0.37345439217194421 -0.41610272168094459 0 -0.36618563377185692 -0.44314360481620602 0 -0.37345439217194421 -0.41610272168094459 0 -0.35665502033633351 -0.42584078649043627 0 -0.37930406543582929 -0.40961742982547678 0 -0.35179582509094331 -0.41053864804628931 0 -0.36831026135857098 -0.40077672209154158 0 -0.37930406543582929 -0.40961742982547678 0 -0.37345439217194421 -0.41610272168094459 0 -0.35179582509094331 -0.41053864804628931 0 -0.37345439217194421 -0.41610272168094459 0 -0.35179582509094331 -0.41053864804628931 0 -0.35665502033633351 -0.42584078649043627 0 -0.37930406543582929 -0.40961742982547678 0 -0.35179582509094331 -0.41053864804628931 0 -0.35179582509094331 -0.41053864804628931 0 -0.35665502033633351 -0.42584078649043627 0 -0.33987351651064118 -0.422003369068427 0 -0.35665502033633351 -0.42584078649043627 0 -0.3414393817155526 -0.43578459602485531 0 -0.33987351651064118 -0.422003369068427 0 -0.36618563377185692 -0.44314360481620602 0 -0.35665502033633351 -0.42584078649043627 0 -0.3414393817155526 -0.43578459602485531 0 -0.38529782787685379 -0.37512251053811541 0 -0.36564458720461052 -0.37127411702710578 0 -0.36254353485177548 -0.38538852072217672 0 -0.38529782787685379 -0.37512251053811541 0 -0.37583541897826123 -0.38260443398738142 0 -0.36254353485177548 -0.38538852072217672 0 -0.38529782787685379 -0.37512251053811541 0 -0.36254353485177548 -0.38538852072217672 0 -0.37583541897826123 -0.38260443398738142 0 -0.36998470181150711 -0.38850993334407069 0 -0.36254353485177548 -0.38538852072217672 0 -0.37583541897826123 -0.38260443398738142 0 -0.37490759201799329 -0.38818445396466522 0 -0.36998470181150711 -0.38850993334407069 0 -0.37490759201799329 -0.38818445396466522 0 -0.36998470181150711 -0.38850993334407069 0 -0.3744093142454516 -0.39265811364109998 0 -0.36998470181150711 -0.38850993334407069 0 -0.36254353485177548 -0.38538852072217672 0 -0.36831026135857098 -0.40077672209154158 0 -0.36998470181150711 -0.38850993334407069 0 -0.3744093142454516 -0.39265811364109998 0 -0.36831026135857098 -0.40077672209154158 0 -0.36254353485177548 -0.38538852072217672 0 -0.36831026135857098 -0.40077672209154158 0 -0.33978924182669651 -0.39565453090623642 0 -0.35179582509094331 -0.41053864804628931 0 -0.36831026135857098 -0.40077672209154158 0 -0.33978924182669651 -0.39565453090623642 0 -0.36831026135857098 -0.40077672209154158 0 -0.33978924182669651 -0.39565453090623642 0 -0.36254353485177548 -0.38538852072217672 0 -0.33978924182669651 -0.39565453090623642 0 -0.36254353485177548 -0.38538852072217672 0 -0.34976865238176458 -0.3819383339311061 0 -0.33978924182669651 -0.39565453090623642 0 -0.36564458720461052 -0.37127411702710578 0 -0.36254353485177548 -0.38538852072217672 0 -0.34976865238176458 -0.3819383339311061 0 -0.35140562079391269 -0.36880738783291978 0 -0.34976865238176458 -0.3819383339311061 0 -0.33660234981190529 -0.38061550073876971 0 -0.33660234981190529 -0.38061550073876971 0 -0.33978924182669651 -0.39565453090623642 0 -0.32179907882989711 -0.39242361364461842 0 -0.32631931093636779 -0.37356823547123968 0 -0.33660234981190529 -0.38061550073876971 0 -0.32179907882989711 -0.39242361364461842 0 -0.34976865238176458 -0.3819383339311061 0 -0.33660234981190529 -0.38061550073876971 0 -0.33978924182669651 -0.39565453090623642 0 -0.33660234981190529 -0.38061550073876971 0 -0.32179907882989711 -0.39242361364461842 0 -0.33978924182669651 -0.39565453090623642 0 -0.33124997387789168 -0.39950717583922901 0 -0.32179907882989711 -0.39242361364461842 0 -0.33978924182669651 -0.39565453090623642 0 -0.32179907882989711 -0.39242361364461842 0 -0.35179582509094331 -0.41053864804628931 0 -0.33978924182669651 -0.39565453090623642 0 -0.33124997387789168 -0.39950717583922901 0 -0.33978924182669651 -0.39565453090623642 0 -0.33124997387789168 -0.39950717583922901 0 -0.33124997387789168 -0.39950717583922901 0 -0.32173654749047259 -0.40163057828994397 0 -0.32428758474605712 -0.41145986626710163 0 -0.32173654749047259 -0.40163057828994397 0 -0.32428758474605712 -0.41145986626710163 0 -0.30928921161553419 -0.40240234906626637 0 -0.32173654749047259 -0.40163057828994397 0 -0.32179907882989711 -0.39242361364461842 0 -0.30928921161553419 -0.40240234906626637 0 -0.32179907882989711 -0.39242361364461842 0 -0.30928921161553419 -0.40240234906626637 0 -0.33124997387789168 -0.39950717583922901 0 -0.32173654749047259 -0.40163057828994397 0 -0.32179907882989711 -0.39242361364461842 0 -0.32631931093636779 -0.37356823547123968 0 -0.32179907882989711 -0.39242361364461842 0 -0.31218479266313781 -0.37616661017248387 0 -0.3414393817155526 -0.43578459602485531 0 -0.33987351651064118 -0.422003369068427 0 -0.32478966643407198 -0.42701707419651158 0 -0.32312407824149569 -0.4420881522305814 0 -0.3414393817155526 -0.43578459602485531 0 -0.32478966643407198 -0.42701707419651158 0 -0.35179582509094331 -0.41053864804628931 0 -0.32428758474605712 -0.41145986626710163 0 -0.35179582509094331 -0.41053864804628931 0 -0.33987351651064118 -0.422003369068427 0 -0.32428758474605712 -0.41145986626710163 0 -0.35179582509094331 -0.41053864804628931 0 -0.33124997387789168 -0.39950717583922901 0 -0.32428758474605712 -0.41145986626710163 0 -0.33987351651064118 -0.422003369068427 0 -0.32428758474605712 -0.41145986626710163 0 -0.32478966643407198 -0.42701707419651158 0 -0.32428758474605712 -0.41145986626710163 0 -0.32478966643407198 -0.42701707419651158 0 -0.31103588432091761 -0.42237666528543999 0 -0.32478966643407198 -0.42701707419651158 0 -0.31194034436711648 -0.43178727563646158 0 -0.31103588432091761 -0.42237666528543999 0 -0.32312407824149569 -0.4420881522305814 0 -0.32478966643407198 -0.42701707419651158 0 -0.31194034436711648 -0.43178727563646158 0 -0.31194034436711648 -0.43178727563646158 0 -0.2973824816561712 -0.42923802583921111 0 -0.30572097633434298 -0.44466950536259497 0 -0.31194034436711648 -0.43178727563646158 0 -0.2973824816561712 -0.42923802583921111 0 -0.31103588432091761 -0.42237666528543999 0 -0.32428758474605712 -0.41145986626710163 0 -0.31103588432091761 -0.42237666528543999 0 -0.29677934440117082 -0.41238108448791372 0 -0.32428758474605712 -0.41145986626710163 0 -0.29677934440117082 -0.41238108448791372 0 -0.2973824816561712 -0.42923802583921111 0 -0.31103588432091761 -0.42237666528543999 0 -0.29677934440117082 -0.41238108448791372 0 -0.32428758474605712 -0.41145986626710163 0 -0.29677934440117082 -0.41238108448791372 0 -0.30928921161553419 -0.40240234906626637 0 -0.29677934440117082 -0.41238108448791372 0 -0.30928921161553419 -0.40240234906626637 0 -0.2973824816561712 -0.42923802583921111 0 -0.29677934440117082 -0.41238108448791372 0 -0.28371025572752367 -0.42280589362790372 0 -0.29677934440117082 -0.41238108448791372 0 -0.28684160228382899 -0.39889946566581069 0 -0.27203347854441379 -0.41320979407570357 0 -0.29677934440117082 -0.41238108448791372 0 -0.28371025572752367 -0.42280589362790372 0 -0.29677934440117082 -0.41238108448791372 0 -0.28371025572752367 -0.42280589362790372 0 -0.27203347854441379 -0.41320979407570357 0 -0.29677934440117082 -0.41238108448791372 0 -0.27203347854441379 -0.41320979407570357 0 -0.2973824816561712 -0.42923802583921111 0 -0.28371025572752367 -0.42280589362790372 0 -0.28322367105094981 -0.43560033831326411 0 -0.2973824816561712 -0.42923802583921111 0 -0.28322367105094981 -0.43560033831326411 0 -0.29163798532461221 -0.4452509286971873 0 -0.32179907882989711 -0.39242361364461842 0 -0.29997340388207439 -0.38850386317054431 0 -0.32179907882989711 -0.39242361364461842 0 -0.31218479266313781 -0.37616661017248387 0 -0.29997340388207439 -0.38850386317054431 0 -0.31218479266313781 -0.37616661017248387 0 -0.29997340388207439 -0.38850386317054431 0 -0.2968095825510022 -0.37573890339989868 0 -0.29997340388207439 -0.38850386317054431 0 -0.30928921161553419 -0.40240234906626637 0 -0.28684160228382899 -0.39889946566581069 0 -0.29677934440117082 -0.41238108448791372 0 -0.30928921161553419 -0.40240234906626637 0 -0.28684160228382899 -0.39889946566581069 0 -0.32179907882989711 -0.39242361364461842 0 -0.29997340388207439 -0.38850386317054431 0 -0.30928921161553419 -0.40240234906626637 0 -0.29997340388207439 -0.38850386317054431 0 -0.28684160228382899 -0.39889946566581069 0 -0.27814772893425138 -0.38458411269647108 0 -0.2876129965724441 -0.36523454018182011 0 -0.2968095825510022 -0.37573890339989868 0 -0.27814772893425138 -0.38458411269647108 0 -0.29997340388207439 -0.38850386317054431 0 -0.2968095825510022 -0.37573890339989868 0 -0.27814772893425138 -0.38458411269647108 0 -0.29997340388207439 -0.38850386317054431 0 -0.27814772893425138 -0.38458411269647108 0 -0.26743370886982959 -0.37385045006866152 0 -0.27814772893425138 -0.38458411269647108 0 -0.26686176199409639 -0.3950473040793952 0 -0.28684160228382899 -0.39889946566581069 0 -0.27814772893425138 -0.38458411269647108 0 -0.26686176199409639 -0.3950473040793952 0 -0.28684160228382899 -0.39889946566581069 0 -0.26686176199409639 -0.3950473040793952 0 -0.27203347854441379 -0.41320979407570357 0 -0.26686176199409639 -0.3950473040793952 0 -0.24728761268765681 -0.41403850366349298 0 -0.2494264406445981 -0.38570149830623152 0 -0.26743370886982959 -0.37385045006866152 0 -0.26686176199409639 -0.3950473040793952 0 -0.2494264406445981 -0.38570149830623152 0 -0.28371025572752367 -0.42280589362790372 0 -0.27064116705387692 -0.43323070276789422 0 -0.26393843541588913 -0.42270570854355038 0 -0.28371025572752367 -0.42280589362790372 0 -0.28322367105094981 -0.43560033831326411 0 -0.27064116705387692 -0.43323070276789422 0 -0.28371025572752367 -0.42280589362790372 0 -0.27064116705387692 -0.43323070276789422 0 -0.28371025572752367 -0.42280589362790372 0 -0.27203347854441379 -0.41320979407570357 0 -0.26393843541588913 -0.42270570854355038 0 -0.27203347854441379 -0.41320979407570357 0 -0.26393843541588913 -0.42270570854355038 0 -0.24728761268765681 -0.41403850366349298 0 -0.26686176199409639 -0.3950473040793952 0 -0.27203347854441379 -0.41320979407570357 0 -0.24728761268765681 -0.41403850366349298 0 -0.27203347854441379 -0.41320979407570357 0 -0.24728761268765681 -0.41403850366349298 0 -0.25362671964213218 -0.43204106342196069 0 -0.26393843541588913 -0.42270570854355038 0 -0.24728761268765681 -0.41403850366349298 0 -0.27064116705387692 -0.43323070276789422 0 -0.25362671964213218 -0.43204106342196069 0 -0.26393843541588913 -0.42270570854355038 0 -0.27064116705387692 -0.43323070276789422 0 -0.25362671964213218 -0.43204106342196069 0 -0.26015061643894177 -0.44946119757614389 0 -0.25362671964213218 -0.43204106342196069 0 -0.26015061643894177 -0.44946119757614389 0 -0.24398413824983331 -0.44353265416309029 0 -0.26015061643894177 -0.44946119757614389 0 -0.25551020281771658 -0.4681677526964772 0 -0.28032900270946742 -0.46391715923511972 0 -0.26015061643894177 -0.44946119757614389 0 -0.25551020281771658 -0.4681677526964772 0 -0.2401513275021506 -0.46037045013929628 0 -0.26015061643894177 -0.44946119757614389 0 -0.28032900270946742 -0.46391715923511972 0 -0.27680103034041831 -0.44665366112079252 0 -0.27064116705387692 -0.43323070276789422 0 -0.26015061643894177 -0.44946119757614389 0 -0.27680103034041831 -0.44665366112079252 0 -0.28322367105094981 -0.43560033831326411 0 -0.27064116705387692 -0.43323070276789422 0 -0.27680103034041831 -0.44665366112079252 0 -0.28032900270946742 -0.46391715923511972 0 -0.27680103034041831 -0.44665366112079252 0 -0.29163798532461221 -0.4452509286971873 0 -0.28322367105094981 -0.43560033831326411 0 -0.27680103034041831 -0.44665366112079252 0 -0.29163798532461221 -0.4452509286971873 0 -0.28032900270946742 -0.46391715923511972 0 -0.29860756514600378 -0.46068108617481651 0 -0.30190008936497192 -0.47855697705932798 0 -0.28032900270946742 -0.46391715923511972 0 -0.29163798532461221 -0.4452509286971873 0 -0.29860756514600378 -0.46068108617481651 0 -0.31472967988232819 -0.45550979822112508 0 -0.29860756514600378 -0.46068108617481651 0 -0.30572097633434298 -0.44466950536259497 0 -0.31472967988232819 -0.45550979822112508 0 -0.31923699084658091 -0.47175942626738437 0 -0.29860756514600378 -0.46068108617481651 0 -0.2973824816561712 -0.42923802583921111 0 -0.29163798532461221 -0.4452509286971873 0 -0.30572097633434298 -0.44466950536259497 0 -0.29163798532461221 -0.4452509286971873 0 -0.29860756514600378 -0.46068108617481651 0 -0.30572097633434298 -0.44466950536259497 0 -0.32196652976423068 -0.5 0 -0.30190008936497192 -0.47855697705932798 0 -0.29594861139996842 -0.5 0 -0.31923699084658091 -0.47175942626738437 0 -0.29860756514600378 -0.46068108617481651 0 -0.30190008936497192 -0.47855697705932798 0 -0.28032900270946742 -0.46391715923511972 0 -0.30190008936497192 -0.47855697705932798 0 -0.28433560807434027 -0.48451973732181147 0 -0.28433560807434027 -0.48451973732181147 0 -0.29594861139996842 -0.5 0 -0.26993069303570599 -0.5 0 -0.30190008936497192 -0.47855697705932798 0 -0.28433560807434027 -0.48451973732181147 0 -0.29594861139996842 -0.5 0 -0.28433560807434027 -0.48451973732181147 0 -0.26993069303570599 -0.5 0 -0.26932636706708712 -0.48049603867484902 0 -0.25551020281771658 -0.4681677526964772 0 -0.28032900270946742 -0.46391715923511972 0 -0.26932636706708712 -0.48049603867484902 0 -0.28032900270946742 -0.46391715923511972 0 -0.28433560807434027 -0.48451973732181147 0 -0.26932636706708712 -0.48049603867484902 0 -0.25551020281771658 -0.4681677526964772 0 -0.26932636706708712 -0.48049603867484902 0 -0.25440469030095492 -0.48606128830095607 0 -0.26993069303570599 -0.5 0 -0.26932636706708712 -0.48049603867484902 0 -0.25440469030095492 -0.48606128830095607 0 -0.26993069303570599 -0.5 0 -0.25440469030095492 -0.48606128830095607 0 -0.24391277467144371 -0.50000000000000044 0 -0.24391277467144371 -0.50000000000000044 0 -0.23394530543286421 -0.48239366226332309 0 -0.22743255028417109 -0.49159714901049673 0 -0.24391277467144371 -0.50000000000000044 0 -0.23394530543286421 -0.48239366226332309 0 -0.25440469030095492 -0.48606128830095607 0 -0.24391277467144371 -0.50000000000000044 0 -0.23394530543286421 -0.48239366226332309 0 -0.25551020281771658 -0.4681677526964772 0 -0.25440469030095492 -0.48606128830095607 0 -0.23394530543286421 -0.48239366226332309 0 -0.25551020281771658 -0.4681677526964772 0 -0.23394530543286421 -0.48239366226332309 0 -0.2401513275021506 -0.46037045013929628 0 -0.23394530543286421 -0.48239366226332309 0 -0.2401513275021506 -0.46037045013929628 0 -0.2239778361942848 -0.46478732452664567 0 -0.23394530543286421 -0.48239366226332309 0 -0.2239778361942848 -0.46478732452664567 0 -0.23394530543286421 -0.48239366226332309 0 -0.2239778361942848 -0.46478732452664567 0 -0.21694555143378669 -0.48399493377866348 0 -0.23394530543286421 -0.48239366226332309 0 -0.22743255028417109 -0.49159714901049673 0 -0.21694555143378669 -0.48399493377866348 0 -0.24391277467144371 -0.50000000000000044 0 -0.22743255028417109 -0.49159714901049673 0 -0.2149265695985898 -0.5 0 -0.22743255028417109 -0.49159714901049673 0 -0.2149265695985898 -0.5 0 -0.21694555143378669 -0.48399493377866348 0 -0.24398413824983331 -0.44353265416309029 0 -0.22936745406304709 -0.44599940566483542 0 -0.23575834800659601 -0.42927761381759239 0 -0.26015061643894177 -0.44946119757614389 0 -0.24398413824983331 -0.44353265416309029 0 -0.2401513275021506 -0.46037045013929628 0 -0.24398413824983331 -0.44353265416309029 0 -0.2401513275021506 -0.46037045013929628 0 -0.22936745406304709 -0.44599940566483542 0 -0.2401513275021506 -0.46037045013929628 0 -0.2239778361942848 -0.46478732452664567 0 -0.22936745406304709 -0.44599940566483542 0 -0.2239778361942848 -0.46478732452664567 0 -0.21392651838780841 -0.44703287836145988 0 -0.22936745406304709 -0.44599940566483542 0 -0.21392651838780841 -0.44703287836145988 0 -0.21829160708543871 -0.4309652015312232 0 -0.2239778361942848 -0.46478732452664567 0 -0.22936745406304709 -0.44599940566483542 0 -0.21392651838780841 -0.44703287836145988 0 -0.21392651838780841 -0.44703287836145988 0 -0.21829160708543871 -0.4309652015312232 0 -0.21392651838780841 -0.44703287836145988 0 -0.2016810817665442 -0.43525449010426709 0 -0.21829160708543871 -0.4309652015312232 0 -0.21392651838780841 -0.44703287836145988 0 -0.2005815454080436 -0.4488542056680902 0 -0.2016810817665442 -0.43525449010426709 0 -0.21392651838780841 -0.44703287836145988 0 -0.2005815454080436 -0.4488542056680902 0 -0.20789899748810661 -0.47032863838635508 0 -0.2239778361942848 -0.46478732452664567 0 -0.21392651838780841 -0.44703287836145988 0 -0.20789899748810661 -0.47032863838635508 0 -0.21392651838780841 -0.44703287836145988 0 -0.20789899748810661 -0.47032863838635508 0 -0.19252124970047299 -0.45883377868675967 0 -0.2005815454080436 -0.4488542056680902 0 -0.20789899748810661 -0.47032863838635508 0 -0.19252124970047299 -0.45883377868675967 0 -0.2005815454080436 -0.4488542056680902 0 -0.1850251633990376 -0.43695061378878097 0 -0.2005815454080436 -0.4488542056680902 0 -0.1850251633990376 -0.43695061378878097 0 -0.2016810817665442 -0.43525449010426709 0 -0.2149265695985898 -0.5 0 -0.21694555143378669 -0.48399493377866348 0 -0.20178762802050509 -0.49347628998274201 0 -0.21694555143378669 -0.48399493377866348 0 -0.20789899748810661 -0.47032863838635508 0 -0.20178762802050509 -0.49347628998274201 0 -0.20789899748810661 -0.47032863838635508 0 -0.20178762802050509 -0.49347628998274201 0 -0.2239778361942848 -0.46478732452664567 0 -0.21694555143378669 -0.48399493377866348 0 -0.20789899748810661 -0.47032863838635508 0 -0.19252124970047299 -0.45883377868675967 0 -0.20789899748810661 -0.47032863838635508 0 -0.19647723826629121 -0.47766253003775749 0 -0.19252124970047299 -0.45883377868675967 0 -0.19647723826629121 -0.47766253003775749 0 -0.18574838463683671 -0.47579536997804422 0 -0.20789899748810661 -0.47032863838635508 0 -0.19647723826629121 -0.47766253003775749 0 -0.20178762802050509 -0.49347628998274201 0 -0.19647723826629121 -0.47766253003775749 0 -0.18963608231209439 -0.48689868688913007 0 -0.18574838463683671 -0.47579536997804422 0 -0.19647723826629121 -0.47766253003775749 0 -0.20178762802050509 -0.49347628998274201 0 -0.18963608231209439 -0.48689868688913007 0 -0.20178762802050509 -0.49347628998274201 0 -0.18963608231209439 -0.48689868688913007 0 -0.18594036452573581 -0.5 0 -0.2149265695985898 -0.5 0 -0.20178762802050509 -0.49347628998274201 0 -0.18594036452573581 -0.5 0 -0.18594036452573581 -0.5 0 -0.1758298715243829 -0.48606930131422882 0 -0.15695415945288191 -0.5 0 -0.18963608231209439 -0.48689868688913007 0 -0.18594036452573581 -0.5 0 -0.1758298715243829 -0.48606930131422882 0 -0.1758298715243829 -0.48606930131422882 0 -0.15695415945288191 -0.5 0 -0.16172603145128431 -0.47995756342664758 0 -0.16172603145128431 -0.47995756342664758 0 -0.1632982131543807 -0.46440314815754202 0 -0.1523585528768493 -0.46910265255367561 0 -0.1758298715243829 -0.48606930131422882 0 -0.16172603145128431 -0.47995756342664758 0 -0.1736064260721836 -0.47184807551731361 0 -0.16172603145128431 -0.47995756342664758 0 -0.1736064260721836 -0.47184807551731361 0 -0.1632982131543807 -0.46440314815754202 0 -0.1758298715243829 -0.48606930131422882 0 -0.1736064260721836 -0.47184807551731361 0 -0.18574838463683671 -0.47579536997804422 0 -0.18963608231209439 -0.48689868688913007 0 -0.1758298715243829 -0.48606930131422882 0 -0.18574838463683671 -0.47579536997804422 0 -0.1736064260721836 -0.47184807551731361 0 -0.18574838463683671 -0.47579536997804422 0 -0.18037776005700309 -0.46369528984271402 0 -0.19252124970047299 -0.45883377868675967 0 -0.18574838463683671 -0.47579536997804422 0 -0.18037776005700309 -0.46369528984271402 0 -0.19252124970047299 -0.45883377868675967 0 -0.18037776005700309 -0.46369528984271402 0 -0.1778755807329408 -0.45201000930822449 0 -0.18037776005700309 -0.46369528984271402 0 -0.17213715914258171 -0.45998921572322798 0 -0.1778755807329408 -0.45201000930822449 0 -0.1736064260721836 -0.47184807551731361 0 -0.18037776005700309 -0.46369528984271402 0 -0.17213715914258171 -0.45998921572322798 0 -0.19252124970047299 -0.45883377868675967 0 -0.1778755807329408 -0.45201000930822449 0 -0.1850251633990376 -0.43695061378878097 0 -0.1778755807329408 -0.45201000930822449 0 -0.16949990212501881 -0.44082425656667279 0 -0.1850251633990376 -0.43695061378878097 0 -0.16949990212501881 -0.44082425656667279 0 -0.16311371763029461 -0.44402297606120328 0 -0.1599739659533366 -0.43862113080353898 0 -0.16949990212501881 -0.44082425656667279 0 -0.16517111350689859 -0.45058833657971431 0 -0.16311371763029461 -0.44402297606120328 0 -0.16949990212501881 -0.44082425656667279 0 -0.1599739659533366 -0.43862113080353898 0 -0.1647377194052406 -0.43377381137767401 0 -0.1778755807329408 -0.45201000930822449 0 -0.16949990212501881 -0.44082425656667279 0 -0.16517111350689859 -0.45058833657971431 0 -0.16517111350689859 -0.45058833657971431 0 -0.15780988893592451 -0.44605818029488742 0 -0.15477562512256429 -0.45605691457887049 0 -0.16517111350689859 -0.45058833657971431 0 -0.15780988893592451 -0.44605818029488742 0 -0.16311371763029461 -0.44402297606120328 0 -0.15780988893592451 -0.44605818029488742 0 -0.16311371763029461 -0.44402297606120328 0 -0.1599739659533366 -0.43862113080353898 0 -0.15780988893592451 -0.44605818029488742 0 -0.1599739659533366 -0.43862113080353898 0 -0.1542314322419544 -0.44116527676583861 0 -0.1736064260721836 -0.47184807551731361 0 -0.17213715914258171 -0.45998921572322798 0 -0.1632982131543807 -0.46440314815754202 0 -0.17213715914258171 -0.45998921572322798 0 -0.16517111350689859 -0.45058833657971431 0 -0.1632982131543807 -0.46440314815754202 0 -0.17213715914258171 -0.45998921572322798 0 -0.1778755807329408 -0.45201000930822449 0 -0.16517111350689859 -0.45058833657971431 0 -0.16517111350689859 -0.45058833657971431 0 -0.1632982131543807 -0.46440314815754202 0 -0.15477562512256429 -0.45605691457887049 0 -0.1632982131543807 -0.46440314815754202 0 -0.15477562512256429 -0.45605691457887049 0 -0.1523585528768493 -0.46910265255367561 0 -0.15477562512256429 -0.45605691457887049 0 -0.14260971202994671 -0.45996291498239328 0 -0.1523585528768493 -0.46910265255367561 0 -0.15477562512256429 -0.45605691457887049 0 -0.14260971202994671 -0.45996291498239328 0 -0.14576671656806389 -0.45223109158222752 0 -0.14260971202994671 -0.45996291498239328 0 -0.14576671656806389 -0.45223109158222752 0 -0.13854311312440401 -0.44913886541262998 0 -0.14260971202994671 -0.45996291498239328 0 -0.1403222844445641 -0.47426483659786522 0 -0.1523585528768493 -0.46910265255367561 0 -0.15780988893592451 -0.44605818029488742 0 -0.1542314322419544 -0.44116527676583861 0 -0.1496135490486839 -0.44495860876112397 0 -0.1542314322419544 -0.44116527676583861 0 -0.14799710563284271 -0.43938620025518582 0 -0.1524102441137255 -0.43550872580402411 0 -0.1599739659533366 -0.43862113080353898 0 -0.1542314322419544 -0.44116527676583861 0 -0.1524102441137255 -0.43550872580402411 0 -0.1542314322419544 -0.44116527676583861 0 -0.1496135490486839 -0.44495860876112397 0 -0.14799710563284271 -0.43938620025518582 0 -0.15477562512256429 -0.45605691457887049 0 -0.1496135490486839 -0.44495860876112397 0 -0.14576671656806389 -0.45223109158222752 0 -0.15780988893592451 -0.44605818029488742 0 -0.15477562512256429 -0.45605691457887049 0 -0.1496135490486839 -0.44495860876112397 0 -0.14576671656806389 -0.45223109158222752 0 -0.1440064833925358 -0.44717919107449378 0 -0.13854311312440401 -0.44913886541262998 0 -0.1440064833925358 -0.44717919107449378 0 -0.14210255482899159 -0.44238819854199379 0 -0.13854311312440401 -0.44913886541262998 0 -0.1496135490486839 -0.44495860876112397 0 -0.14576671656806389 -0.45223109158222752 0 -0.1440064833925358 -0.44717919107449378 0 -0.1496135490486839 -0.44495860876112397 0 -0.1440064833925358 -0.44717919107449378 0 -0.14210255482899159 -0.44238819854199379 0 -0.1496135490486839 -0.44495860876112397 0 -0.14210255482899159 -0.44238819854199379 0 -0.14799710563284271 -0.43938620025518582 0 -0.14210255482899159 -0.44238819854199379 0 -0.14377775276494109 -0.4376737925579921 0 -0.13801462543334089 -0.43599077020522742 0 -0.14210255482899159 -0.44238819854199379 0 -0.14377775276494109 -0.4376737925579921 0 -0.14799710563284271 -0.43938620025518582 0 -0.13507801760544949 -0.44274290849272291 0 -0.1274090510109222 -0.43501470534713199 0 -0.13801462543334089 -0.43599077020522742 0 -0.14210255482899159 -0.44238819854199379 0 -0.13507801760544949 -0.44274290849272291 0 -0.13801462543334089 -0.43599077020522742 0 -0.14210255482899159 -0.44238819854199379 0 -0.13507801760544949 -0.44274290849272291 0 -0.13854311312440401 -0.44913886541262998 0 -0.13507801760544949 -0.44274290849272291 0 -0.13854311312440401 -0.44913886541262998 0 -0.12804398640508299 -0.44606764521613212 0 -0.12804398640508299 -0.44606764521613212 0 -0.13082640368139661 -0.4555171926380952 0 -0.11955743515716551 -0.45322699138103462 0 -0.13854311312440401 -0.44913886541262998 0 -0.12804398640508299 -0.44606764521613212 0 -0.13082640368139661 -0.4555171926380952 0 -0.13507801760544949 -0.44274290849272291 0 -0.12804398640508299 -0.44606764521613212 0 -0.1274090510109222 -0.43501470534713199 0 -0.14260971202994671 -0.45996291498239328 0 -0.1327525062727456 -0.46523754252343669 0 -0.1403222844445641 -0.47426483659786522 0 -0.14260971202994671 -0.45996291498239328 0 -0.13854311312440401 -0.44913886541262998 0 -0.13082640368139661 -0.4555171926380952 0 -0.14260971202994671 -0.45996291498239328 0 -0.13082640368139661 -0.4555171926380952 0 -0.1327525062727456 -0.46523754252343669 0 -0.13082640368139661 -0.4555171926380952 0 -0.1327525062727456 -0.46523754252343669 0 -0.1223047479992148 -0.46332734308218942 0 -0.1327525062727456 -0.46523754252343669 0 -0.12737411612710409 -0.47460823670743341 0 -0.1223047479992148 -0.46332734308218942 0 -0.1327525062727456 -0.46523754252343669 0 -0.12737411612710409 -0.47460823670743341 0 -0.1403222844445641 -0.47426483659786522 0 -0.1403222844445641 -0.47426483659786522 0 -0.1327359678226791 -0.48449880986857158 0 -0.14739137855452469 -0.48557905113659239 0 -0.12737411612710409 -0.47460823670743341 0 -0.1403222844445641 -0.47426483659786522 0 -0.1327359678226791 -0.48449880986857158 0 -0.12737411612710409 -0.47460823670743341 0 -0.1327359678226791 -0.48449880986857158 0 -0.118491584617789 -0.48706094497513452 0 -0.1327359678226791 -0.48449880986857158 0 -0.12796795438002789 -0.5 0 -0.118491584617789 -0.48706094497513452 0 -0.1327359678226791 -0.48449880986857158 0 -0.12796795438002789 -0.5 0 -0.14739137855452469 -0.48557905113659239 0 -0.15695415945288191 -0.5 0 -0.12796795438002789 -0.5 0 -0.14739137855452469 -0.48557905113659239 0 -0.15695415945288191 -0.5 0 -0.16172603145128431 -0.47995756342664758 0 -0.14739137855452469 -0.48557905113659239 0 -0.16172603145128431 -0.47995756342664758 0 -0.14739137855452469 -0.48557905113659239 0 -0.1523585528768493 -0.46910265255367561 0 -0.1403222844445641 -0.47426483659786522 0 -0.14739137855452469 -0.48557905113659239 0 -0.1523585528768493 -0.46910265255367561 0 -0.1472482493309209 -0.39179457439409809 0 -0.14236016248080161 -0.39865454248409649 0 -0.13373844474852281 -0.39400193586950638 0 -0.1472482493309209 -0.39179457439409809 0 -0.14236016248080161 -0.39865454248409649 0 -0.14966555620797969 -0.40346540751819632 0 -0.14236016248080161 -0.39865454248409649 0 -0.14966555620797969 -0.40346540751819632 0 -0.1413612924911628 -0.40730832288100011 0 -0.14966555620797969 -0.40346540751819632 0 -0.1413612924911628 -0.40730832288100011 0 -0.1566959239299669 -0.40733526653777768 0 -0.14966555620797969 -0.40346540751819632 0 -0.15604793317702359 -0.4031177466685858 0 -0.1566959239299669 -0.40733526653777768 0 -0.14966555620797969 -0.40346540751819632 0 -0.15604793317702359 -0.4031177466685858 0 -0.1567204371067896 -0.39771385142200277 0 -0.1472482493309209 -0.39179457439409809 0 -0.1567204371067896 -0.39771385142200277 0 -0.1577175704024105 -0.38844019113165079 0 -0.1472482493309209 -0.39179457439409809 0 -0.14966555620797969 -0.40346540751819632 0 -0.1567204371067896 -0.39771385142200277 0 -0.1472482493309209 -0.39179457439409809 0 -0.15162985357186659 -0.37990521226733182 0 -0.1577175704024105 -0.38844019113165079 0 -0.15162985357186659 -0.37990521226733182 0 -0.13832429216814701 -0.38087282595510669 0 -0.1439900106380019 -0.37080836766606229 0 -0.1472482493309209 -0.39179457439409809 0 -0.15162985357186659 -0.37990521226733182 0 -0.13832429216814701 -0.38087282595510669 0 -0.1472482493309209 -0.39179457439409809 0 -0.13832429216814701 -0.38087282595510669 0 -0.13373844474852281 -0.39400193586950638 0 -0.13832429216814701 -0.38087282595510669 0 -0.126168368271352 -0.38066559442732212 0 -0.13258555609951819 -0.36457720710337282 0 -0.126168368271352 -0.38066559442732212 0 -0.13373844474852281 -0.39400193586950638 0 -0.126168368271352 -0.38066559442732212 0 -0.13373844474852281 -0.39400193586950638 0 -0.12317939383513141 -0.38815918503413471 0 -0.13832429216814701 -0.38087282595510669 0 -0.126168368271352 -0.38066559442732212 0 -0.13373844474852281 -0.39400193586950638 0 -0.1413612924911628 -0.40730832288100011 0 -0.1172861271536071 -0.40293406143086768 0 -0.12317939383513141 -0.38815918503413471 0 -0.1413612924911628 -0.40730832288100011 0 -0.12317939383513141 -0.38815918503413471 0 -0.13373844474852281 -0.39400193586950638 0 -0.1413612924911628 -0.40730832288100011 0 -0.12317939383513141 -0.38815918503413471 0 -0.1413612924911628 -0.40730832288100011 0 -0.1172861271536071 -0.40293406143086768 0 -0.13373844474852281 -0.39400193586950638 0 -0.1413612924911628 -0.40730832288100011 0 -0.14236016248080161 -0.39865454248409649 0 -0.13373844474852281 -0.39400193586950638 0 -0.1413612924911628 -0.40730832288100011 0 -0.12902734681837591 -0.4179988991795644 0 -0.14701780152087721 -0.4173964202690687 0 -0.12902734681837591 -0.4179988991795644 0 -0.14222813320902231 -0.4239121197732405 0 -0.14701780152087721 -0.4173964202690687 0 -0.12902734681837591 -0.4179988991795644 0 -0.1413612924911628 -0.40730832288100011 0 -0.14701780152087721 -0.4173964202690687 0 -0.12902734681837591 -0.4179988991795644 0 -0.1413612924911628 -0.40730832288100011 0 -0.1172861271536071 -0.40293406143086768 0 -0.12902734681837591 -0.4179988991795644 0 -0.1274090510109222 -0.43501470534713199 0 -0.13469845812129999 -0.42921282470955657 0 -0.12902734681837591 -0.4179988991795644 0 -0.13469845812129999 -0.42921282470955657 0 -0.14222813320902231 -0.4239121197732405 0 -0.13469845812129999 -0.42921282470955657 0 -0.13959604128506889 -0.43101802720495691 0 -0.14222813320902231 -0.4239121197732405 0 -0.1274090510109222 -0.43501470534713199 0 -0.13469845812129999 -0.42921282470955657 0 -0.13801462543334089 -0.43599077020522742 0 -0.13959604128506889 -0.43101802720495691 0 -0.13801462543334089 -0.43599077020522742 0 -0.1436039927255979 -0.43351439140225823 0 -0.13469845812129999 -0.42921282470955657 0 -0.13959604128506889 -0.43101802720495691 0 -0.13801462543334089 -0.43599077020522742 0 -0.14377775276494109 -0.4376737925579921 0 -0.14799710563284271 -0.43938620025518582 0 -0.14795523868657939 -0.43531079512139381 0 -0.14377775276494109 -0.4376737925579921 0 -0.14795523868657939 -0.43531079512139381 0 -0.1436039927255979 -0.43351439140225823 0 -0.14377775276494109 -0.4376737925579921 0 -0.13801462543334089 -0.43599077020522742 0 -0.1436039927255979 -0.43351439140225823 0 -0.13959604128506889 -0.43101802720495691 0 -0.1436039927255979 -0.43351439140225823 0 -0.1449821792084221 -0.42969270567019402 0 -0.1449821792084221 -0.42969270567019402 0 -0.14857677022322341 -0.42831183440838722 0 -0.14903045051146899 -0.43132735129223049 0 -0.1436039927255979 -0.43351439140225823 0 -0.1449821792084221 -0.42969270567019402 0 -0.14903045051146899 -0.43132735129223049 0 -0.14795523868657939 -0.43531079512139381 0 -0.1436039927255979 -0.43351439140225823 0 -0.14903045051146899 -0.43132735129223049 0 -0.1449821792084221 -0.42969270567019402 0 -0.14669198542783091 -0.42616059956973479 0 -0.14222813320902231 -0.4239121197732405 0 -0.1449821792084221 -0.42969270567019402 0 -0.14669198542783091 -0.42616059956973479 0 -0.14857677022322341 -0.42831183440838722 0 -0.13959604128506889 -0.43101802720495691 0 -0.1449821792084221 -0.42969270567019402 0 -0.14222813320902231 -0.4239121197732405 0 -0.14669198542783091 -0.42616059956973479 0 -0.14222813320902231 -0.4239121197732405 0 -0.1484455420522294 -0.42180814243593417 0 -0.14669198542783091 -0.42616059956973479 0 -0.1495324975580429 -0.42405949483391381 0 -0.1484455420522294 -0.42180814243593417 0 -0.1495324975580429 -0.42405949483391381 0 -0.15419237092106869 -0.42270641107850399 0 -0.1484455420522294 -0.42180814243593417 0 -0.1495324975580429 -0.42405949483391381 0 -0.15419237092106869 -0.42270641107850399 0 -0.1507891768649304 -0.42649924457400568 0 -0.14669198542783091 -0.42616059956973479 0 -0.1495324975580429 -0.42405949483391381 0 -0.1507891768649304 -0.42649924457400568 0 -0.15419237092106869 -0.42270641107850399 0 -0.15476532388116829 -0.4280348518665068 0 -0.1507891768649304 -0.42649924457400568 0 -0.15476532388116829 -0.4280348518665068 0 -0.15123400510088431 -0.42929869394494391 0 -0.15316688797612221 -0.43146779173172611 0 -0.15476532388116829 -0.4280348518665068 0 -0.15123400510088431 -0.42929869394494391 0 -0.1507891768649304 -0.42649924457400568 0 -0.14669198542783091 -0.42616059956973479 0 -0.1507891768649304 -0.42649924457400568 0 -0.14857677022322341 -0.42831183440838722 0 -0.15123400510088431 -0.42929869394494391 0 -0.14857677022322341 -0.42831183440838722 0 -0.14903045051146899 -0.43132735129223049 0 -0.15123400510088431 -0.42929869394494391 0 -0.1507891768649304 -0.42649924457400568 0 -0.14857677022322341 -0.42831183440838722 0 -0.14903045051146899 -0.43132735129223049 0 -0.15316688797612221 -0.43146779173172611 0 -0.1524102441137255 -0.43550872580402411 0 -0.15123400510088431 -0.42929869394494391 0 -0.14903045051146899 -0.43132735129223049 0 -0.15316688797612221 -0.43146779173172611 0 -0.15316688797612221 -0.43146779173172611 0 -0.1524102441137255 -0.43550872580402411 0 -0.15791682571888241 -0.43287353691446939 0 -0.15476532388116829 -0.4280348518665068 0 -0.15316688797612221 -0.43146779173172611 0 -0.15791682571888241 -0.43287353691446939 0 -0.14799710563284271 -0.43938620025518582 0 -0.14795523868657939 -0.43531079512139381 0 -0.1524102441137255 -0.43550872580402411 0 -0.14795523868657939 -0.43531079512139381 0 -0.14903045051146899 -0.43132735129223049 0 -0.1524102441137255 -0.43550872580402411 0 -0.1413612924911628 -0.40730832288100011 0 -0.1566959239299669 -0.40733526653777768 0 -0.16744295643614759 -0.41451936937010192 0 -0.1413612924911628 -0.40730832288100011 0 -0.14701780152087721 -0.4173964202690687 0 -0.16744295643614759 -0.41451936937010192 0 -0.1413612924911628 -0.40730832288100011 0 -0.16744295643614759 -0.41451936937010192 0 -0.1413612924911628 -0.40730832288100011 0 -0.14701780152087721 -0.4173964202690687 0 -0.14222813320902231 -0.4239121197732405 0 -0.14701780152087721 -0.4173964202690687 0 -0.1484455420522294 -0.42180814243593417 0 -0.15419237092106869 -0.42270641107850399 0 -0.14701780152087721 -0.4173964202690687 0 -0.1484455420522294 -0.42180814243593417 0 -0.14701780152087721 -0.4173964202690687 0 -0.16744295643614759 -0.41451936937010192 0 -0.1721924499575514 -0.41655335126313991 0 -0.1566959239299669 -0.40733526653777768 0 -0.16744295643614759 -0.41451936937010192 0 -0.1658100231858117 -0.40767224391216472 0 -0.14701780152087721 -0.4173964202690687 0 -0.1721924499575514 -0.41655335126313991 0 -0.15419237092106869 -0.42270641107850399 0 -0.14701780152087721 -0.4173964202690687 0 -0.1721924499575514 -0.41655335126313991 0 -0.1566959239299669 -0.40733526653777768 0 -0.1658100231858117 -0.40767224391216472 0 -0.16110981546335831 -0.40395646119636641 0 -0.16744295643614759 -0.41451936937010192 0 -0.1658100231858117 -0.40767224391216472 0 -0.17707060251479581 -0.40752576005524738 0 -0.15419237092106869 -0.42270641107850399 0 -0.16257690093098401 -0.42750668649243101 0 -0.1721924499575514 -0.41655335126313991 0 -0.1599739659533366 -0.43862113080353898 0 -0.15791682571888241 -0.43287353691446939 0 -0.1647377194052406 -0.43377381137767401 0 -0.1599739659533366 -0.43862113080353898 0 -0.1524102441137255 -0.43550872580402411 0 -0.15791682571888241 -0.43287353691446939 0 -0.15791682571888241 -0.43287353691446939 0 -0.16257690093098401 -0.42750668649243101 0 -0.1647377194052406 -0.43377381137767401 0 -0.15419237092106869 -0.42270641107850399 0 -0.15476532388116829 -0.4280348518665068 0 -0.16257690093098401 -0.42750668649243101 0 -0.15476532388116829 -0.4280348518665068 0 -0.15791682571888241 -0.43287353691446939 0 -0.16257690093098401 -0.42750668649243101 0 -0.16257690093098401 -0.42750668649243101 0 -0.17150042507540339 -0.43125372204658707 0 -0.1721924499575514 -0.41655335126313991 0 -0.16949990212501881 -0.44082425656667279 0 -0.17150042507540339 -0.43125372204658707 0 -0.1647377194052406 -0.43377381137767401 0 -0.16257690093098401 -0.42750668649243101 0 -0.17150042507540339 -0.43125372204658707 0 -0.1647377194052406 -0.43377381137767401 0 -0.1850251633990376 -0.43695061378878097 0 -0.1721924499575514 -0.41655335126313991 0 -0.1973670983942257 -0.41571028225721118 0 -0.17150042507540339 -0.43125372204658707 0 -0.1850251633990376 -0.43695061378878097 0 -0.1721924499575514 -0.41655335126313991 0 -0.16949990212501881 -0.44082425656667279 0 -0.17150042507540339 -0.43125372204658707 0 -0.1850251633990376 -0.43695061378878097 0 -0.17707060251479581 -0.40752576005524738 0 -0.1721924499575514 -0.41655335126313991 0 -0.1973670983942257 -0.41571028225721118 0 -0.1721924499575514 -0.41655335126313991 0 -0.1973670983942257 -0.41571028225721118 0 -0.16744295643614759 -0.41451936937010192 0 -0.17707060251479581 -0.40752576005524738 0 -0.1721924499575514 -0.41655335126313991 0 -0.17707060251479581 -0.40752576005524738 0 -0.1776360015645761 -0.39728007319183561 0 -0.19003772482010961 -0.40069349342410138 0 -0.1776360015645761 -0.39728007319183561 0 -0.18787528154938729 -0.38689766810238257 0 -0.19003772482010961 -0.40069349342410138 0 -0.17707060251479581 -0.40752576005524738 0 -0.1776360015645761 -0.39728007319183561 0 -0.16926333716013159 -0.40238007170511758 0 -0.16926333716013159 -0.40238007170511758 0 -0.16521137829802901 -0.3945665608300486 0 -0.16110981546335831 -0.40395646119636641 0 -0.1658100231858117 -0.40767224391216472 0 -0.17707060251479581 -0.40752576005524738 0 -0.16926333716013159 -0.40238007170511758 0 -0.1658100231858117 -0.40767224391216472 0 -0.16926333716013159 -0.40238007170511758 0 -0.16110981546335831 -0.40395646119636641 0 -0.1776360015645761 -0.39728007319183561 0 -0.16926333716013159 -0.40238007170511758 0 -0.16521137829802901 -0.3945665608300486 0 -0.16521137829802901 -0.3945665608300486 0 -0.1567204371067896 -0.39771385142200277 0 -0.1577175704024105 -0.38844019113165079 0 -0.16521137829802901 -0.3945665608300486 0 -0.1567204371067896 -0.39771385142200277 0 -0.16110981546335831 -0.40395646119636641 0 -0.15604793317702359 -0.4031177466685858 0 -0.1567204371067896 -0.39771385142200277 0 -0.16110981546335831 -0.40395646119636641 0 -0.15604793317702359 -0.4031177466685858 0 -0.1566959239299669 -0.40733526653777768 0 -0.16110981546335831 -0.40395646119636641 0 -0.1776360015645761 -0.39728007319183561 0 -0.16521137829802901 -0.3945665608300486 0 -0.1670328091426882 -0.37864364275295442 0 -0.16521137829802901 -0.3945665608300486 0 -0.1577175704024105 -0.38844019113165079 0 -0.1670328091426882 -0.37864364275295442 0 -0.15162985357186659 -0.37990521226733182 0 -0.1577175704024105 -0.38844019113165079 0 -0.1670328091426882 -0.37864364275295442 0 -0.15162985357186659 -0.37990521226733182 0 -0.1670328091426882 -0.37864364275295442 0 -0.15428757007223101 -0.36736768727427238 0 -0.1776360015645761 -0.39728007319183561 0 -0.1670328091426882 -0.37864364275295442 0 -0.18787528154938729 -0.38689766810238257 0 -0.1670328091426882 -0.37864364275295442 0 -0.18787528154938729 -0.38689766810238257 0 -0.1810882788868656 -0.37247700758800489 0 -0.18787528154938729 -0.38689766810238257 0 -0.20586894059479099 -0.39458908684427552 0 -0.1962078789757685 -0.37420653987989849 0 -0.18787528154938729 -0.38689766810238257 0 -0.1962078789757685 -0.37420653987989849 0 -0.1810882788868656 -0.37247700758800489 0 -0.18787528154938729 -0.38689766810238257 0 -0.19003772482010961 -0.40069349342410138 0 -0.20586894059479099 -0.39458908684427552 0 -0.19003772482010961 -0.40069349342410138 0 -0.20586894059479099 -0.39458908684427552 0 -0.1973670983942257 -0.41571028225721118 0 -0.20586894059479099 -0.39458908684427552 0 -0.22819600886339531 -0.39345091887458039 0 -0.2151325866999419 -0.37349478434491767 0 -0.20586894059479099 -0.39458908684427552 0 -0.1962078789757685 -0.37420653987989849 0 -0.2151325866999419 -0.37349478434491767 0 -0.1850251633990376 -0.43695061378878097 0 -0.2016810817665442 -0.43525449010426709 0 -0.1973670983942257 -0.41571028225721118 0 -0.17707060251479581 -0.40752576005524738 0 -0.19003772482010961 -0.40069349342410138 0 -0.1973670983942257 -0.41571028225721118 0 -0.1973670983942257 -0.41571028225721118 0 -0.22254174683089981 -0.41486721325128179 0 -0.20586894059479099 -0.39458908684427552 0 -0.1973670983942257 -0.41571028225721118 0 -0.22254174683089981 -0.41486721325128179 0 -0.1973670983942257 -0.41571028225721118 0 -0.21829160708543871 -0.4309652015312232 0 -0.22254174683089981 -0.41486721325128179 0 -0.2016810817665442 -0.43525449010426709 0 -0.1973670983942257 -0.41571028225721118 0 -0.21829160708543871 -0.4309652015312232 0 -0.21829160708543871 -0.4309652015312232 0 -0.22254174683089981 -0.41486721325128179 0 -0.21829160708543871 -0.4309652015312232 0 -0.22254174683089981 -0.41486721325128179 0 -0.23575834800659601 -0.42927761381759239 0 -0.22936745406304709 -0.44599940566483542 0 -0.21829160708543871 -0.4309652015312232 0 -0.23575834800659601 -0.42927761381759239 0 -0.22254174683089981 -0.41486721325128179 0 -0.24728761268765681 -0.41403850366349298 0 -0.22819600886339531 -0.39345091887458039 0 -0.22254174683089981 -0.41486721325128179 0 -0.24728761268765681 -0.41403850366349298 0 -0.23575834800659601 -0.42927761381759239 0 -0.22254174683089981 -0.41486721325128179 0 -0.24728761268765681 -0.41403850366349298 0 -0.25362671964213218 -0.43204106342196069 0 -0.24398413824983331 -0.44353265416309029 0 -0.23575834800659601 -0.42927761381759239 0 -0.25362671964213218 -0.43204106342196069 0 -0.24728761268765681 -0.41403850366349298 0 -0.23575834800659601 -0.42927761381759239 0 -0.22819600886339531 -0.39345091887458039 0 -0.233850270895893 -0.3720346244978795 0 -0.22819600886339531 -0.39345091887458039 0 -0.233850270895893 -0.3720346244978795 0 -0.2151325866999419 -0.37349478434491767 0 -0.20586894059479099 -0.39458908684427552 0 -0.22254174683089981 -0.41486721325128179 0 -0.22819600886339531 -0.39345091887458039 0 -0.22254174683089981 -0.41486721325128179 0 -0.22819600886339531 -0.39345091887458039 0 -0.24728761268765681 -0.41403850366349298 0 -0.22819600886339531 -0.39345091887458039 0 -0.2494264406445981 -0.38570149830623152 0 -0.22819600886339531 -0.39345091887458039 0 -0.2494264406445981 -0.38570149830623152 0 -0.233850270895893 -0.3720346244978795 0 -0.25234099474177929 -0.3645829912548777 0 -0.233850270895893 -0.3720346244978795 0 -0.23950453292839061 -0.3506183301211786 0 -0.233850270895893 -0.3720346244978795 0 -0.23950453292839061 -0.3506183301211786 0 -0.25234099474177929 -0.3645829912548777 0 -0.2494264406445981 -0.38570149830623152 0 -0.233850270895893 -0.3720346244978795 0 -0.233850270895893 -0.3720346244978795 0 -0.2245976124389657 -0.35412985980595968 0 -0.2151325866999419 -0.37349478434491767 0 -0.2245976124389657 -0.35412985980595968 0 -0.23325676238755161 -0.34149790661680318 0 -0.2131478566562218 -0.34395881208605128 0 -0.233850270895893 -0.3720346244978795 0 -0.2245976124389657 -0.35412985980595968 0 -0.23950453292839061 -0.3506183301211786 0 -0.2245976124389657 -0.35412985980595968 0 -0.23950453292839061 -0.3506183301211786 0 -0.23325676238755161 -0.34149790661680318 0 -0.25234099474177929 -0.3645829912548777 0 -0.25366849844647138 -0.34784678421434451 0 -0.23950453292839061 -0.3506183301211786 0 -0.23950453292839061 -0.3506183301211786 0 -0.24356101792195331 -0.34038019872427411 0 -0.23325676238755161 -0.34149790661680318 0 -0.25366849844647138 -0.34784678421434451 0 -0.23950453292839061 -0.3506183301211786 0 -0.24356101792195331 -0.34038019872427411 0 -0.25366849844647138 -0.34784678421434451 0 -0.25257272060382863 -0.33347201750691319 0 -0.24356101792195331 -0.34038019872427411 0 -0.25257272060382863 -0.33347201750691319 0 -0.24356101792195331 -0.34038019872427411 0 -0.23880257524352419 -0.32846595516213112 0 -0.24356101792195331 -0.34038019872427411 0 -0.23880257524352419 -0.32846595516213112 0 -0.23325676238755161 -0.34149790661680318 0 -0.25147377537078452 -0.31548627993528078 0 -0.23880257524352419 -0.32846595516213112 0 -0.23130798247761319 -0.31139752482105071 0 -0.25257272060382863 -0.33347201750691319 0 -0.25147377537078452 -0.31548627993528078 0 -0.23880257524352419 -0.32846595516213112 0 -0.23880257524352419 -0.32846595516213112 0 -0.22118346532032171 -0.32743255478302352 0 -0.23130798247761319 -0.31139752482105071 0 -0.22118346532032171 -0.32743255478302352 0 -0.20747352036348049 -0.31437221743640409 0 -0.23130798247761319 -0.31139752482105071 0 -0.23880257524352419 -0.32846595516213112 0 -0.22118346532032171 -0.32743255478302352 0 -0.23325676238755161 -0.34149790661680318 0 -0.22118346532032171 -0.32743255478302352 0 -0.23325676238755161 -0.34149790661680318 0 -0.2131478566562218 -0.34395881208605128 0 -0.23325676238755161 -0.34149790661680318 0 -0.2131478566562218 -0.34395881208605128 0 -0.22118346532032171 -0.32743255478302352 0 -0.20291016704765921 -0.33009785204570707 0 -0.2131478566562218 -0.34395881208605128 0 -0.22118346532032171 -0.32743255478302352 0 -0.20747352036348049 -0.31437221743640409 0 -0.20291016704765921 -0.33009785204570707 0 -0.20747352036348049 -0.31437221743640409 0 -0.19485220272502221 -0.32029321125088511 0 -0.20291016704765921 -0.33009785204570707 0 -0.20747352036348049 -0.31437221743640409 0 -0.19485220272502221 -0.32029321125088511 0 -0.1921203585624485 -0.30897557781538321 0 -0.19485220272502221 -0.32029321125088511 0 -0.20291016704765921 -0.33009785204570707 0 -0.19033713182565101 -0.32924832025784961 0 -0.19485220272502221 -0.32029321125088511 0 -0.19033713182565101 -0.32924832025784961 0 -0.18434897438438549 -0.31874603953535779 0 -0.19485220272502221 -0.32029321125088511 0 -0.1921203585624485 -0.30897557781538321 0 -0.18434897438438549 -0.31874603953535779 0 -0.20291016704765921 -0.33009785204570707 0 -0.1930389509248919 -0.34641971755529938 0 -0.2131478566562218 -0.34395881208605128 0 -0.20291016704765921 -0.33009785204570707 0 -0.19033713182565101 -0.32924832025784961 0 -0.1930389509248919 -0.34641971755529938 0 -0.1930389509248919 -0.34641971755529938 0 -0.2131478566562218 -0.34395881208605128 0 -0.1930389509248919 -0.34641971755529938 0 -0.20441148054902469 -0.3585141279980274 0 -0.18434399759835871 -0.35887505431603789 0 -0.1962078789757685 -0.37420653987989849 0 -0.20441148054902469 -0.3585141279980274 0 -0.18434399759835871 -0.35887505431603789 0 -0.2245976124389657 -0.35412985980595968 0 -0.2151325866999419 -0.37349478434491767 0 -0.20441148054902469 -0.3585141279980274 0 -0.1962078789757685 -0.37420653987989849 0 -0.2151325866999419 -0.37349478434491767 0 -0.20441148054902469 -0.3585141279980274 0 -0.1930389509248919 -0.34641971755529938 0 -0.2131478566562218 -0.34395881208605128 0 -0.20441148054902469 -0.3585141279980274 0 -0.2245976124389657 -0.35412985980595968 0 -0.2131478566562218 -0.34395881208605128 0 -0.20441148054902469 -0.3585141279980274 0 -0.2328663940516385 -0.25226737724788167 0 -0.22214925794950779 -0.26427572959012452 0 -0.21328338570417679 -0.2440988160028281 0 -0.2328663940516385 -0.25226737724788167 0 -0.22214925794950779 -0.26427572959012452 0 -0.2358858568306971 -0.27104117470380829 0 -0.25244940239910019 -0.26043593849293539 0 -0.2328663940516385 -0.25226737724788167 0 -0.2358858568306971 -0.27104117470380829 0 -0.25244940239910019 -0.26043593849293539 0 -0.2328663940516385 -0.25226737724788167 0 -0.25167019661209061 -0.29000101227952502 0 -0.25244940239910019 -0.26043593849293539 0 -0.2358858568306971 -0.27104117470380829 0 -0.22214925794950779 -0.26427572959012452 0 -0.2358858568306971 -0.27104117470380829 0 -0.22049200700239249 -0.28466014829609848 0 -0.25167019661209061 -0.29000101227952502 0 -0.2358858568306971 -0.27104117470380829 0 -0.22049200700239249 -0.28466014829609848 0 -0.25167019661209061 -0.29000101227952502 0 -0.22049200700239249 -0.28466014829609848 0 -0.23130798247761319 -0.31139752482105071 0 -0.25167019661209061 -0.29000101227952502 0 -0.23130798247761319 -0.31139752482105071 0 -0.25147377537078452 -0.31548627993528078 0 -0.25167019661209061 -0.29000101227952502 0 -0.23130798247761319 -0.31139752482105071 0 -0.22049200700239249 -0.28466014829609848 0 -0.23130798247761319 -0.31139752482105071 0 -0.2087418472241096 -0.29802386132467162 0 -0.20747352036348049 -0.31437221743640409 0 -0.2087418472241096 -0.29802386132467162 0 -0.2000475509264952 -0.3034244389975187 0 -0.20747352036348049 -0.31437221743640409 0 -0.23130798247761319 -0.31139752482105071 0 -0.2087418472241096 -0.29802386132467162 0 -0.1921203585624485 -0.30897557781538321 0 -0.19226985681608899 -0.29649222952509302 0 -0.1801406828990299 -0.31248893877944978 0 -0.2087418472241096 -0.29802386132467162 0 -0.2000475509264952 -0.3034244389975187 0 -0.19226985681608899 -0.29649222952509302 0 -0.20747352036348049 -0.31437221743640409 0 -0.1921203585624485 -0.30897557781538321 0 -0.2000475509264952 -0.3034244389975187 0 -0.1921203585624485 -0.30897557781538321 0 -0.2000475509264952 -0.3034244389975187 0 -0.19226985681608899 -0.29649222952509302 0 -0.20119031118225469 -0.28370434867687211 0 -0.19226985681608899 -0.29649222952509302 0 -0.18478636074706131 -0.28904246313392251 0 -0.2087418472241096 -0.29802386132467162 0 -0.20119031118225469 -0.28370434867687211 0 -0.19226985681608899 -0.29649222952509302 0 -0.19226985681608899 -0.29649222952509302 0 -0.18478636074706131 -0.28904246313392251 0 -0.22049200700239249 -0.28466014829609848 0 -0.2087418472241096 -0.29802386132467162 0 -0.20119031118225469 -0.28370434867687211 0 -0.22049200700239249 -0.28466014829609848 0 -0.20119031118225469 -0.28370434867687211 0 -0.2081884586026852 -0.27078838270072569 0 -0.22214925794950779 -0.26427572959012452 0 -0.22049200700239249 -0.28466014829609848 0 -0.2081884586026852 -0.27078838270072569 0 -0.20119031118225469 -0.28370434867687211 0 -0.18998674056478279 -0.26279643774595629 0 -0.18478636074706131 -0.28904246313392251 0 -0.20119031118225469 -0.28370434867687211 0 -0.2081884586026852 -0.27078838270072569 0 -0.18998674056478279 -0.26279643774595629 0 -0.2081884586026852 -0.27078838270072569 0 -0.18998674056478279 -0.26279643774595629 0 -0.20712397631448839 -0.25850524919457729 0 -0.18998674056478279 -0.26279643774595629 0 -0.20139530574148681 -0.25048772882533799 0 -0.20712397631448839 -0.25850524919457729 0 -0.20139530574148681 -0.25048772882533799 0 -0.20712397631448839 -0.25850524919457729 0 -0.21328338570417679 -0.2440988160028281 0 -0.22214925794950779 -0.26427572959012452 0 -0.20712397631448839 -0.25850524919457729 0 -0.21328338570417679 -0.2440988160028281 0 -0.20712397631448839 -0.25850524919457729 0 -0.21328338570417679 -0.2440988160028281 0 -0.22214925794950779 -0.26427572959012452 0 -0.2081884586026852 -0.27078838270072569 0 -0.20712397631448839 -0.25850524919457729 0 -0.17637727673339379 -0.25132354081323011 0 -0.164743579589504 -0.2690900189720079 0 -0.16315446049666699 -0.2529892402972011 0 -0.17637727673339379 -0.25132354081323011 0 -0.164743579589504 -0.2690900189720079 0 -0.16315446049666699 -0.2529892402972011 0 -0.164743579589504 -0.2690900189720079 0 -0.15390017896574759 -0.25829549181682049 0 -0.16315446049666699 -0.2529892402972011 0 -0.15390017896574759 -0.25829549181682049 0 -0.1545873459861043 -0.2472905373035425 0 -0.164743579589504 -0.2690900189720079 0 -0.15390017896574759 -0.25829549181682049 0 -0.18998674056478279 -0.26279643774595629 0 -0.17637727673339379 -0.25132354081323011 0 -0.164743579589504 -0.2690900189720079 0 -0.18998674056478279 -0.26279643774595629 0 -0.17637727673339379 -0.25132354081323011 0 -0.1951871203824995 -0.2365504123579894 0 -0.164743579589504 -0.2690900189720079 0 -0.18478636074706131 -0.28904246313392251 0 -0.18998674056478279 -0.26279643774595629 0 -0.164743579589504 -0.2690900189720079 0 -0.18478636074706131 -0.28904246313392251 0 -0.18998674056478279 -0.26279643774595629 0 -0.18478636074706131 -0.28904246313392251 0 -0.164743579589504 -0.2690900189720079 0 -0.15794010318576529 -0.27947999332287538 0 -0.18478636074706131 -0.28904246313392251 0 -0.164743579589504 -0.2690900189720079 0 -0.15794010318576529 -0.27947999332287538 0 -0.14790581079269241 -0.26456049957198602 0 -0.164743579589504 -0.2690900189720079 0 -0.15794010318576529 -0.27947999332287538 0 -0.15794010318576529 -0.27947999332287538 0 -0.159412225561917 -0.29381109677244421 0 -0.1690403930423969 -0.29598446605116308 0 -0.15794010318576529 -0.27947999332287538 0 -0.1690403930423969 -0.29598446605116308 0 -0.15794010318576529 -0.27947999332287538 0 -0.1690403930423969 -0.29598446605116308 0 -0.18478636074706131 -0.28904246313392251 0 -0.15794010318576529 -0.27947999332287538 0 -0.159412225561917 -0.29381109677244421 0 -0.15393104318575179 -0.2856024560315506 0 -0.1690403930423969 -0.29598446605116308 0 -0.1801406828990299 -0.31248893877944978 0 -0.16681019930983021 -0.30919990479427412 0 -0.19226985681608899 -0.29649222952509302 0 -0.18478636074706131 -0.28904246313392251 0 -0.1801406828990299 -0.31248893877944978 0 -0.1690403930423969 -0.29598446605116308 0 -0.18478636074706131 -0.28904246313392251 0 -0.1801406828990299 -0.31248893877944978 0 -0.18478636074706131 -0.28904246313392251 0 -0.1801406828990299 -0.31248893877944978 0 -0.1690403930423969 -0.29598446605116308 0 -0.1801406828990299 -0.31248893877944978 0 -0.159412225561917 -0.29381109677244421 0 -0.1690403930423969 -0.29598446605116308 0 -0.1561818624219965 -0.30567494095277109 0 -0.1690403930423969 -0.29598446605116308 0 -0.16681019930983021 -0.30919990479427412 0 -0.1561818624219965 -0.30567494095277109 0 -0.16681019930983021 -0.30919990479427412 0 -0.1561818624219965 -0.30567494095277109 0 -0.15621705858594229 -0.31486752126510448 0 -0.1561818624219965 -0.30567494095277109 0 -0.14947081675509011 -0.30196501825019528 0 -0.14407568243272251 -0.3101758155072768 0 -0.1561818624219965 -0.30567494095277109 0 -0.14407568243272251 -0.3101758155072768 0 -0.15621705858594229 -0.31486752126510448 0 -0.159412225561917 -0.29381109677244421 0 -0.1561818624219965 -0.30567494095277109 0 -0.14947081675509011 -0.30196501825019528 0 -0.14947081675509011 -0.30196501825019528 0 -0.14222065893966351 -0.30111269410423841 0 -0.14407568243272251 -0.3101758155072768 0 -0.14947081675509011 -0.30196501825019528 0 -0.14222065893966351 -0.30111269410423841 0 -0.14956700028340969 -0.29451585365909161 0 -0.14407568243272251 -0.3101758155072768 0 -0.13303040085628931 -0.30129547133136902 0 -0.12968558679647779 -0.31450855965589758 0 -0.13303040085628931 -0.30129547133136902 0 -0.12968558679647779 -0.31450855965589758 0 -0.12233316326902841 -0.30103037414042599 0 -0.13303040085628931 -0.30129547133136902 0 -0.1246045066632743 -0.29422206461887102 0 -0.12233316326902841 -0.30103037414042599 0 -0.14222065893966351 -0.30111269410423841 0 -0.13303040085628931 -0.30129547133136902 0 -0.13910062717850261 -0.29497961296969571 0 -0.14222065893966351 -0.30111269410423841 0 -0.14407568243272251 -0.3101758155072768 0 -0.13303040085628931 -0.30129547133136902 0 -0.13303040085628931 -0.30129547133136902 0 -0.13910062717850261 -0.29497961296969571 0 -0.13178842165296401 -0.29339164160478959 0 -0.13910062717850261 -0.29497961296969571 0 -0.13178842165296401 -0.29339164160478959 0 -0.14100226975458999 -0.28810415781344478 0 -0.13303040085628931 -0.30129547133136902 0 -0.13178842165296401 -0.29339164160478959 0 -0.1246045066632743 -0.29422206461887102 0 -0.13178842165296401 -0.29339164160478959 0 -0.1224787533838451 -0.28711889910875588 0 -0.1246045066632743 -0.29422206461887102 0 -0.13178842165296401 -0.29339164160478959 0 -0.13205682892913609 -0.28087366121714652 0 -0.1224787533838451 -0.28711889910875588 0 -0.14100226975458999 -0.28810415781344478 0 -0.1454283644552116 -0.27992358900656228 0 -0.13205682892913609 -0.28087366121714652 0 -0.13178842165296401 -0.29339164160478959 0 -0.14100226975458999 -0.28810415781344478 0 -0.13205682892913609 -0.28087366121714652 0 -0.14100226975458999 -0.28810415781344478 0 -0.14785289345382471 -0.2876752807247861 0 -0.1454283644552116 -0.27992358900656228 0 -0.13910062717850261 -0.29497961296969571 0 -0.14100226975458999 -0.28810415781344478 0 -0.14956700028340969 -0.29451585365909161 0 -0.14100226975458999 -0.28810415781344478 0 -0.14785289345382471 -0.2876752807247861 0 -0.14956700028340969 -0.29451585365909161 0 -0.14222065893966351 -0.30111269410423841 0 -0.13910062717850261 -0.29497961296969571 0 -0.14956700028340969 -0.29451585365909161 0 -0.159412225561917 -0.29381109677244421 0 -0.14956700028340969 -0.29451585365909161 0 -0.15393104318575179 -0.2856024560315506 0 -0.14785289345382471 -0.2876752807247861 0 -0.14956700028340969 -0.29451585365909161 0 -0.15393104318575179 -0.2856024560315506 0 -0.159412225561917 -0.29381109677244421 0 -0.14947081675509011 -0.30196501825019528 0 -0.14956700028340969 -0.29451585365909161 0 -0.15794010318576529 -0.27947999332287538 0 -0.15393104318575179 -0.2856024560315506 0 -0.1454283644552116 -0.27992358900656228 0 -0.14785289345382471 -0.2876752807247861 0 -0.15393104318575179 -0.2856024560315506 0 -0.1454283644552116 -0.27992358900656228 0 -0.15794010318576529 -0.27947999332287538 0 -0.15393104318575179 -0.2856024560315506 0 -0.15794010318576529 -0.27947999332287538 0 -0.1454283644552116 -0.27992358900656228 0 -0.14790581079269241 -0.26456049957198602 0 -0.15794010318576529 -0.27947999332287538 0 -0.14790581079269241 -0.26456049957198602 0 -0.1454283644552116 -0.27992358900656228 0 -0.13765416393926169 -0.27148564128082658 0 -0.14790581079269241 -0.26456049957198602 0 -0.1454283644552116 -0.27992358900656228 0 -0.13205682892913609 -0.28087366121714652 0 -0.13765416393926169 -0.27148564128082658 0 -0.13205682892913609 -0.28087366121714652 0 -0.12685353509018421 -0.26831423021916689 0 -0.13765416393926169 -0.27148564128082658 0 -0.13205682892913609 -0.28087366121714652 0 -0.12685353509018421 -0.26831423021916689 0 -0.1185368999224941 -0.27502816842907257 0 -0.12685353509018421 -0.26831423021916689 0 -0.13765416393926169 -0.27148564128082658 0 -0.1350927692113687 -0.26203054803453618 0 -0.13765416393926169 -0.27148564128082658 0 -0.1350927692113687 -0.26203054803453618 0 -0.14790581079269241 -0.26456049957198602 0 -0.120388863706147 -0.25677221141539519 0 -0.13787151839962 -0.24964100582109611 0 -0.1350927692113687 -0.26203054803453618 0 -0.120388863706147 -0.25677221141539519 0 -0.13787151839962 -0.24964100582109611 0 -0.1350927692113687 -0.26203054803453618 0 -0.14790581079269241 -0.26456049957198602 0 -0.13787151839962 -0.24964100582109611 0 -0.12685353509018421 -0.26831423021916689 0 -0.1350927692113687 -0.26203054803453618 0 -0.120388863706147 -0.25677221141539519 0 -0.14790581079269241 -0.26456049957198602 0 -0.15390017896574759 -0.25829549181682049 0 -0.1430149355188356 -0.24754299693300361 0 -0.14790581079269241 -0.26456049957198602 0 -0.1430149355188356 -0.24754299693300361 0 -0.13787151839962 -0.24964100582109611 0 -0.164743579589504 -0.2690900189720079 0 -0.14790581079269241 -0.26456049957198602 0 -0.15390017896574759 -0.25829549181682049 0 -0.14790581079269241 -0.26456049957198602 0 -0.13787151839962 -0.24964100582109611 0 -0.15390017896574759 -0.25829549181682049 0 -0.1430149355188356 -0.24754299693300361 0 -0.15390017896574759 -0.25829549181682049 0 -0.1545873459861043 -0.2472905373035425 0 -0.1430149355188356 -0.24754299693300361 0 -0.16219909126575421 -0.35787543525532312 0 -0.17293004519356209 -0.34888062302454748 0 -0.15159732262909831 -0.35149129783372163 0 -0.17293004519356209 -0.34888062302454748 0 -0.15159732262909831 -0.35149129783372163 0 -0.17293004519356209 -0.34888062302454748 0 -0.15887479889042239 -0.34213258338296781 0 -0.15159732262909831 -0.35149129783372163 0 -0.16219909126575421 -0.35787543525532312 0 -0.16998142716812531 -0.36376213288875098 0 -0.17293004519356209 -0.34888062302454748 0 -0.16998142716812531 -0.36376213288875098 0 -0.17293004519356209 -0.34888062302454748 0 -0.1670328091426882 -0.37864364275295442 0 -0.16998142716812531 -0.36376213288875098 0 -0.15428757007223101 -0.36736768727427238 0 -0.16219909126575421 -0.35787543525532312 0 -0.16998142716812531 -0.36376213288875098 0 -0.15428757007223101 -0.36736768727427238 0 -0.1670328091426882 -0.37864364275295442 0 -0.16998142716812531 -0.36376213288875098 0 -0.16998142716812531 -0.36376213288875098 0 -0.1810882788868656 -0.37247700758800489 0 -0.18434399759835871 -0.35887505431603789 0 -0.1670328091426882 -0.37864364275295442 0 -0.16998142716812531 -0.36376213288875098 0 -0.1810882788868656 -0.37247700758800489 0 -0.1962078789757685 -0.37420653987989849 0 -0.1810882788868656 -0.37247700758800489 0 -0.18434399759835871 -0.35887505431603789 0 -0.1930389509248919 -0.34641971755529938 0 -0.18434399759835871 -0.35887505431603789 0 -0.17293004519356209 -0.34888062302454748 0 -0.1930389509248919 -0.34641971755529938 0 -0.17293004519356209 -0.34888062302454748 0 -0.16998142716812531 -0.36376213288875098 0 -0.18434399759835871 -0.35887505431603789 0 -0.17293004519356209 -0.34888062302454748 0 -0.19033713182565101 -0.32924832025784961 0 -0.1930389509248919 -0.34641971755529938 0 -0.1765353640462963 -0.33068478090199871 0 -0.17293004519356209 -0.34888062302454748 0 -0.1765353640462963 -0.33068478090199871 0 -0.1666300169255861 -0.33730172022372118 0 -0.1930389509248919 -0.34641971755529938 0 -0.17293004519356209 -0.34888062302454748 0 -0.1765353640462963 -0.33068478090199871 0 -0.17293004519356209 -0.34888062302454748 0 -0.1765353640462963 -0.33068478090199871 0 -0.1801406828990299 -0.31248893877944978 0 -0.1765353640462963 -0.33068478090199871 0 -0.16751701036426311 -0.3197764007566225 0 -0.1801406828990299 -0.31248893877944978 0 -0.1765353640462963 -0.33068478090199871 0 -0.18434897438438549 -0.31874603953535779 0 -0.1801406828990299 -0.31248893877944978 0 -0.1765353640462963 -0.33068478090199871 0 -0.1921203585624485 -0.30897557781538321 0 -0.1801406828990299 -0.31248893877944978 0 -0.18434897438438549 -0.31874603953535779 0 -0.1801406828990299 -0.31248893877944978 0 -0.18434897438438549 -0.31874603953535779 0 -0.19033713182565101 -0.32924832025784961 0 -0.1765353640462963 -0.33068478090199871 0 -0.18434897438438549 -0.31874603953535779 0 -0.1801406828990299 -0.31248893877944978 0 -0.16681019930983021 -0.30919990479427412 0 -0.16751701036426311 -0.3197764007566225 0 -0.1765353640462963 -0.33068478090199871 0 -0.16751701036426311 -0.3197764007566225 0 -0.16541051701769341 -0.32896499648985128 0 -0.16751701036426311 -0.3197764007566225 0 -0.15666337679074449 -0.32420559028975982 0 -0.16541051701769341 -0.32896499648985128 0 -0.16681019930983021 -0.30919990479427412 0 -0.16751701036426311 -0.3197764007566225 0 -0.15621705858594229 -0.31486752126510448 0 -0.16751701036426311 -0.3197764007566225 0 -0.15666337679074449 -0.32420559028975982 0 -0.15621705858594229 -0.31486752126510448 0 -0.17293004519356209 -0.34888062302454748 0 -0.1666300169255861 -0.33730172022372118 0 -0.15887479889042239 -0.34213258338296781 0 -0.1765353640462963 -0.33068478090199871 0 -0.1666300169255861 -0.33730172022372118 0 -0.16541051701769341 -0.32896499648985128 0 -0.15666337679074449 -0.32420559028975982 0 -0.16541051701769341 -0.32896499648985128 0 -0.15719050020752279 -0.33371433475781798 0 -0.1666300169255861 -0.33730172022372118 0 -0.16541051701769341 -0.32896499648985128 0 -0.15719050020752279 -0.33371433475781798 0 -0.1666300169255861 -0.33730172022372118 0 -0.15719050020752279 -0.33371433475781798 0 -0.15887479889042239 -0.34213258338296781 0 -0.15719050020752279 -0.33371433475781798 0 -0.15887479889042239 -0.34213258338296781 0 -0.1460261094963427 -0.33927494107503048 0 -0.15719050020752279 -0.33371433475781798 0 -0.1468950695016733 -0.32832518809261968 0 -0.1460261094963427 -0.33927494107503048 0 -0.15666337679074449 -0.32420559028975982 0 -0.15719050020752279 -0.33371433475781798 0 -0.1468950695016733 -0.32832518809261968 0 -0.1468950695016733 -0.32832518809261968 0 -0.1460261094963427 -0.33927494107503048 0 -0.13540545489295189 -0.33121144101319733 0 -0.15666337679074449 -0.32420559028975982 0 -0.15621705858594229 -0.31486752126510448 0 -0.14769260694832531 -0.31993311063550289 0 -0.14407568243272251 -0.3101758155072768 0 -0.15621705858594229 -0.31486752126510448 0 -0.14769260694832531 -0.31993311063550289 0 -0.15666337679074449 -0.32420559028975982 0 -0.1468950695016733 -0.32832518809261968 0 -0.14769260694832531 -0.31993311063550289 0 -0.1468950695016733 -0.32832518809261968 0 -0.14769260694832531 -0.31993311063550289 0 -0.13839236867415261 -0.32161171078440992 0 -0.14407568243272251 -0.3101758155072768 0 -0.14769260694832531 -0.31993311063550289 0 -0.13839236867415261 -0.32161171078440992 0 -0.14407568243272251 -0.3101758155072768 0 -0.13839236867415261 -0.32161171078440992 0 -0.12968558679647779 -0.31450855965589758 0 -0.1468950695016733 -0.32832518809261968 0 -0.13839236867415261 -0.32161171078440992 0 -0.13540545489295189 -0.33121144101319733 0 -0.13839236867415261 -0.32161171078440992 0 -0.12808272420974631 -0.32483255862911781 0 -0.13540545489295189 -0.33121144101319733 0 -0.13839236867415261 -0.32161171078440992 0 -0.12808272420974631 -0.32483255862911781 0 -0.12968558679647779 -0.31450855965589758 0 -0.12808272420974631 -0.32483255862911781 0 -0.13540545489295189 -0.33121144101319733 0 -0.1237633463997343 -0.34147941585873531 0 -0.1460261094963427 -0.33927494107503048 0 -0.1334168052387866 -0.34142499506929203 0 -0.13900274392768261 -0.3484888197794227 0 -0.1460261094963427 -0.33927494107503048 0 -0.1334168052387866 -0.34142499506929203 0 -0.13540545489295189 -0.33121144101319733 0 -0.1334168052387866 -0.34142499506929203 0 -0.13540545489295189 -0.33121144101319733 0 -0.1237633463997343 -0.34147941585873531 0 -0.1334168052387866 -0.34142499506929203 0 -0.12547808950737971 -0.35298744807426191 0 -0.1237633463997343 -0.34147941585873531 0 -0.13900274392768261 -0.3484888197794227 0 -0.13258555609951819 -0.36457720710337282 0 -0.1334168052387866 -0.34142499506929203 0 -0.12547808950737971 -0.35298744807426191 0 -0.13900274392768261 -0.3484888197794227 0 -0.12547808950737971 -0.35298744807426191 0 -0.13900274392768261 -0.3484888197794227 0 -0.13258555609951819 -0.36457720710337282 0 -0.13900274392768261 -0.3484888197794227 0 -0.1440628385093751 -0.36071403350749431 0 -0.13258555609951819 -0.36457720710337282 0 -0.16219909126575421 -0.35787543525532312 0 -0.15159732262909831 -0.35149129783372163 0 -0.15428757007223101 -0.36736768727427238 0 -0.1460261094963427 -0.33927494107503048 0 -0.13900274392768261 -0.3484888197794227 0 -0.15159732262909831 -0.35149129783372163 0 -0.13900274392768261 -0.3484888197794227 0 -0.15159732262909831 -0.35149129783372163 0 -0.1440628385093751 -0.36071403350749431 0 -0.15887479889042239 -0.34213258338296781 0 -0.1460261094963427 -0.33927494107503048 0 -0.15159732262909831 -0.35149129783372163 0 -0.15159732262909831 -0.35149129783372163 0 -0.15428757007223101 -0.36736768727427238 0 -0.1440628385093751 -0.36071403350749431 0 -0.15162985357186659 -0.37990521226733182 0 -0.15428757007223101 -0.36736768727427238 0 -0.1439900106380019 -0.37080836766606229 0 -0.15428757007223101 -0.36736768727427238 0 -0.1440628385093751 -0.36071403350749431 0 -0.1439900106380019 -0.37080836766606229 0 -0.13832429216814701 -0.38087282595510669 0 -0.1439900106380019 -0.37080836766606229 0 -0.13258555609951819 -0.36457720710337282 0 -0.126168368271352 -0.38066559442732212 0 -0.13258555609951819 -0.36457720710337282 0 -0.126168368271352 -0.38066559442732212 0 -0.13258555609951819 -0.36457720710337282 0 -0.1178441094004801 -0.36600059614232078 0 -0.1440628385093751 -0.36071403350749431 0 -0.1439900106380019 -0.37080836766606229 0 -0.13258555609951819 -0.36457720710337282 0 -0.12547808950737971 -0.35298744807426191 0 -0.13258555609951819 -0.36457720710337282 0 -0.1178441094004801 -0.36600059614232078 0 -0.126168368271352 -0.38066559442732212 0 -0.1178441094004801 -0.36600059614232078 0 -0.1178441094004801 -0.36600059614232078 0 -0.1050136369972699 -0.36902704771659361 0 -0.1095198505296112 -0.35133559785731783 0 -0.126168368271352 -0.38066559442732212 0 -0.1178441094004801 -0.36600059614232078 0 -0.1050136369972699 -0.36902704771659361 0 -0.1050136369972699 -0.36902704771659361 0 -0.1095198505296112 -0.35133559785731783 0 -0.1050136369972699 -0.36902704771659361 0 -0.084674669349739939 -0.34760608929450842 0 -0.1050136369972699 -0.36902704771659361 0 -0.1095198505296112 -0.35133559785731783 0 -0.084674669349739939 -0.34760608929450842 0 -0.12547808950737971 -0.35298744807426191 0 -0.1095198505296112 -0.35133559785731783 0 -0.1237633463997343 -0.34147941585873531 0 -0.12547808950737971 -0.35298744807426191 0 -0.1178441094004801 -0.36600059614232078 0 -0.1095198505296112 -0.35133559785731783 0 -0.1178441094004801 -0.36600059614232078 0 -0.1095198505296112 -0.35133559785731783 0 -0.12808272420974631 -0.32483255862911781 0 -0.1237633463997343 -0.34147941585873531 0 -0.1159265068993213 -0.32618298599887241 0 -0.1095198505296112 -0.35133559785731783 0 -0.1237633463997343 -0.34147941585873531 0 -0.1159265068993213 -0.32618298599887241 0 -0.1095198505296112 -0.35133559785731783 0 -0.1159265068993213 -0.32618298599887241 0 -0.1159265068993213 -0.32618298599887241 0 -0.12233316326902841 -0.30103037414042599 0 -0.12968558679647779 -0.31450855965589758 0 -0.1159265068993213 -0.32618298599887241 0 -0.12233316326902841 -0.30103037414042599 0 -0.1159265068993213 -0.32618298599887241 0 -0.1134354799599358 -0.3064307688684893 0 -0.1058624816958942 -0.30984422449238319 0 -0.12808272420974631 -0.32483255862911781 0 -0.12968558679647779 -0.31450855965589758 0 -0.1159265068993213 -0.32618298599887241 0 -0.10270064766070219 -0.31951390579569411 0 -0.096360416677253063 -0.32815238384751538 0 -0.097015967615415907 -0.31205887199511051 0 -0.1159265068993213 -0.32618298599887241 0 -0.10270064766070219 -0.31951390579569411 0 -0.1058624816958942 -0.30984422449238319 0 -0.1159265068993213 -0.32618298599887241 0 -0.10270064766070219 -0.31951390579569411 0 -0.096360416677253063 -0.32815238384751538 0 -0.10270064766070219 -0.31951390579569411 0 -0.1058624816958942 -0.30984422449238319 0 -0.097015967615415907 -0.31205887199511051 0 -0.1095198505296112 -0.35133559785731783 0 -0.096360416677253063 -0.32815238384751538 0 -0.1095198505296112 -0.35133559785731783 0 -0.1159265068993213 -0.32618298599887241 0 -0.096360416677253063 -0.32815238384751538 0 -0.1095198505296112 -0.35133559785731783 0 -0.096360416677253063 -0.32815238384751538 0 -0.084674669349739939 -0.34760608929450842 0 -0.096360416677253063 -0.32815238384751538 0 -0.080770564006679285 -0.32469183678628583 0 -0.084674669349739939 -0.34760608929450842 0 -0.096360416677253063 -0.32815238384751538 0 -0.080770564006679285 -0.32469183678628583 0 -0.083200982824896727 -0.30496916983771188 0 -0.096360416677253063 -0.32815238384751538 0 -0.097015967615415907 -0.31205887199511051 0 -0.083200982824896727 -0.30496916983771188 0 -0.096360416677253063 -0.32815238384751538 0 -0.083200982824896727 -0.30496916983771188 0 -0.080770564006679285 -0.32469183678628583 0 -0.064335701702210951 -0.32618513087242251 0 -0.064219522619856223 -0.30183469695439358 0 -0.080770564006679285 -0.32469183678628583 0 -0.064219522619856223 -0.30183469695439358 0 -0.080770564006679285 -0.32469183678628583 0 -0.064335701702210951 -0.32618513087242251 0 -0.084674669349739939 -0.34760608929450842 0 -0.064335701702210951 -0.32618513087242251 0 -0.084674669349739939 -0.34760608929450842 0 -0.064335701702210951 -0.32618513087242251 0 -0.084674669349739939 -0.34760608929450842 0 -0.054056694322044171 -0.35811705878731709 0 -0.076316706956076175 -0.36957095537380602 0 -0.084674669349739939 -0.34760608929450842 0 -0.054056694322044171 -0.35811705878731709 0 -0.1050136369972699 -0.36902704771659361 0 -0.076316706956076175 -0.36957095537380602 0 -0.088257975579922029 -0.38248603698086558 0 -0.1050136369972699 -0.36902704771659361 0 -0.076316706956076175 -0.36957095537380602 0 -0.084674669349739939 -0.34760608929450842 0 -0.099538649950749764 -0.26527705027321258 0 -0.120388863706147 -0.25677221141539519 0 -0.104328086066999 -0.2478987508450152 0 -0.099538649950749764 -0.26527705027321258 0 -0.087379472336805278 -0.24187516102157619 0 -0.104328086066999 -0.2478987508450152 0 -0.099538649950749764 -0.26527705027321258 0 -0.120388863706147 -0.25677221141539519 0 -0.099538649950749764 -0.26527705027321258 0 -0.120388863706147 -0.25677221141539519 0 -0.1157274406916054 -0.26298752379460433 0 -0.12685353509018421 -0.26831423021916689 0 -0.120388863706147 -0.25677221141539519 0 -0.1157274406916054 -0.26298752379460433 0 -0.120388863706147 -0.25677221141539519 0 -0.1157274406916054 -0.26298752379460433 0 -0.1157274406916054 -0.26298752379460433 0 -0.1103205043748029 -0.27096301543577511 0 -0.1185368999224941 -0.27502816842907257 0 -0.12685353509018421 -0.26831423021916689 0 -0.1157274406916054 -0.26298752379460433 0 -0.1185368999224941 -0.27502816842907257 0 -0.13205682892913609 -0.28087366121714652 0 -0.1185368999224941 -0.27502816842907257 0 -0.1224787533838451 -0.28711889910875588 0 -0.1185368999224941 -0.27502816842907257 0 -0.10747902693436261 -0.28055931924621103 0 -0.1224787533838451 -0.28711889910875588 0 -0.1103205043748029 -0.27096301543577511 0 -0.1185368999224941 -0.27502816842907257 0 -0.10747902693436261 -0.28055931924621103 0 -0.099538649950749764 -0.26527705027321258 0 -0.1157274406916054 -0.26298752379460433 0 -0.1103205043748029 -0.27096301543577511 0 -0.099538649950749764 -0.26527705027321258 0 -0.10747902693436261 -0.28055931924621103 0 -0.094221163002447025 -0.2821006669507431 0 -0.099538649950749764 -0.26527705027321258 0 -0.10747902693436261 -0.28055931924621103 0 -0.099538649950749764 -0.26527705027321258 0 -0.1103205043748029 -0.27096301543577511 0 -0.10747902693436261 -0.28055931924621103 0 -0.094221163002447025 -0.2821006669507431 0 -0.1053829763357931 -0.29069685479616902 0 -0.096955309218333285 -0.29781467600224781 0 -0.1053829763357931 -0.29069685479616902 0 -0.10763584401745969 -0.2992546714915556 0 -0.096955309218333285 -0.29781467600224781 0 -0.10747902693436261 -0.28055931924621103 0 -0.094221163002447025 -0.2821006669507431 0 -0.1053829763357931 -0.29069685479616902 0 -0.10747902693436261 -0.28055931924621103 0 -0.1053829763357931 -0.29069685479616902 0 -0.1154194039179757 -0.2958415882192092 0 -0.10747902693436261 -0.28055931924621103 0 -0.1154194039179757 -0.2958415882192092 0 -0.10747902693436261 -0.28055931924621103 0 -0.1224787533838451 -0.28711889910875588 0 -0.1154194039179757 -0.2958415882192092 0 -0.1224787533838451 -0.28711889910875588 0 -0.1246045066632743 -0.29422206461887102 0 -0.1154194039179757 -0.2958415882192092 0 -0.1053829763357931 -0.29069685479616902 0 -0.1154194039179757 -0.2958415882192092 0 -0.10763584401745969 -0.2992546714915556 0 -0.1154194039179757 -0.2958415882192092 0 -0.1134354799599358 -0.3064307688684893 0 -0.10763584401745969 -0.2992546714915556 0 -0.1154194039179757 -0.2958415882192092 0 -0.12233316326902841 -0.30103037414042599 0 -0.1134354799599358 -0.3064307688684893 0 -0.1159265068993213 -0.32618298599887241 0 -0.12233316326902841 -0.30103037414042599 0 -0.1134354799599358 -0.3064307688684893 0 -0.1246045066632743 -0.29422206461887102 0 -0.1154194039179757 -0.2958415882192092 0 -0.12233316326902841 -0.30103037414042599 0 -0.1134354799599358 -0.3064307688684893 0 -0.1058624816958942 -0.30984422449238319 0 -0.10763584401745969 -0.2992546714915556 0 -0.1058624816958942 -0.30984422449238319 0 -0.10763584401745969 -0.2992546714915556 0 -0.096955309218333285 -0.29781467600224781 0 -0.1058624816958942 -0.30984422449238319 0 -0.096955309218333285 -0.29781467600224781 0 -0.097015967615415907 -0.31205887199511051 0 -0.096955309218333285 -0.29781467600224781 0 -0.083200982824896727 -0.30496916983771188 0 -0.085382070991837755 -0.28888680608567829 0 -0.096955309218333285 -0.29781467600224781 0 -0.097015967615415907 -0.31205887199511051 0 -0.083200982824896727 -0.30496916983771188 0 -0.080770564006679285 -0.32469183678628583 0 -0.083200982824896727 -0.30496916983771188 0 -0.064219522619856223 -0.30183469695439358 0 -0.083200982824896727 -0.30496916983771188 0 -0.064219522619856223 -0.30183469695439358 0 -0.070041548972540391 -0.28178595582790839 0 -0.083200982824896727 -0.30496916983771188 0 -0.070041548972540391 -0.28178595582790839 0 -0.083200982824896727 -0.30496916983771188 0 -0.070041548972540391 -0.28178595582790839 0 -0.085382070991837755 -0.28888680608567829 0 -0.070041548972540391 -0.28178595582790839 0 -0.085382070991837755 -0.28888680608567829 0 -0.079830981917719132 -0.28025405641943352 0 -0.094221163002447025 -0.2821006669507431 0 -0.096955309218333285 -0.29781467600224781 0 -0.085382070991837755 -0.28888680608567829 0 -0.094221163002447025 -0.2821006669507431 0 -0.085382070991837755 -0.28888680608567829 0 -0.079830981917719132 -0.28025405641943352 0 -0.099538649950749764 -0.26527705027321258 0 -0.094221163002447025 -0.2821006669507431 0 -0.084979125668333724 -0.27121590583224919 0 -0.094221163002447025 -0.2821006669507431 0 -0.084979125668333724 -0.27121590583224919 0 -0.079830981917719132 -0.28025405641943352 0 -0.099538649950749764 -0.26527705027321258 0 -0.084979125668333724 -0.27121590583224919 0 -0.084979125668333724 -0.27121590583224919 0 -0.079830981917719132 -0.28025405641943352 0 -0.070419601385918545 -0.27715476139128792 0 -0.070041548972540391 -0.28178595582790839 0 -0.079830981917719132 -0.28025405641943352 0 -0.070419601385918545 -0.27715476139128792 0 -0.084979125668333724 -0.27121590583224919 0 -0.070419601385918545 -0.27715476139128792 0 -0.073051277314283458 -0.25743571846949831 0 -0.084979125668333724 -0.27121590583224919 0 -0.070419601385918545 -0.27715476139128792 0 -0.070041548972540391 -0.28178595582790839 0 -0.056882115120184068 -0.258602741818105 0 -0.070041548972540391 -0.28178595582790839 0 -0.070419601385918545 -0.27715476139128792 0 -0.056882115120184068 -0.258602741818105 0 -0.070419601385918545 -0.27715476139128792 0 -0.073051277314283458 -0.25743571846949831 0 -0.056882115120184068 -0.258602741818105 0 -0.073051277314283458 -0.25743571846949831 0 -0.056882115120184068 -0.258602741818105 0 -0.065732442467890423 -0.23904355289009571 0 -0.099538649950749764 -0.26527705027321258 0 -0.084979125668333724 -0.27121590583224919 0 -0.087379472336805278 -0.24187516102157619 0 -0.099538649950749764 -0.26527705027321258 0 -0.087379472336805278 -0.24187516102157619 0 -0.084979125668333724 -0.27121590583224919 0 -0.073051277314283458 -0.25743571846949831 0 -0.087379472336805278 -0.24187516102157619 0 -0.056882115120184068 -0.258602741818105 0 -0.047668481233033133 -0.27897755712250139 0 -0.03111743984621005 -0.25612041729060908 0 -0.056882115120184068 -0.258602741818105 0 -0.03111743984621005 -0.25612041729060908 0 -0.043722681267827752 -0.2354195278083015 0 -0.070041548972540391 -0.28178595582790839 0 -0.056882115120184068 -0.258602741818105 0 -0.047668481233033133 -0.27897755712250139 0 -0.047668481233033133 -0.27897755712250139 0 -0.032037489614230398 -0.27724632623476131 0 -0.03111743984621005 -0.25612041729060908 0 -0.047668481233033133 -0.27897755712250139 0 -0.03111743984621005 -0.25612041729060908 0 -0.043996734054681789 -0.30476417245033638 0 -0.02365776640715191 -0.28334321402825102 0 -0.032037489614230398 -0.27724632623476131 0 -0.043996734054681789 -0.30476417245033638 0 -0.02365776640715191 -0.28334321402825102 0 -0.047668481233033133 -0.27897755712250139 0 -0.032037489614230398 -0.27724632623476131 0 -0.043996734054681789 -0.30476417245033638 0 -0.064219522619856223 -0.30183469695439358 0 -0.047668481233033133 -0.27897755712250139 0 -0.043996734054681789 -0.30476417245033638 0 -0.064219522619856223 -0.30183469695439358 0 -0.047668481233033133 -0.27897755712250139 0 -0.064219522619856223 -0.30183469695439358 0 -0.070041548972540391 -0.28178595582790839 0 -0.047668481233033133 -0.27897755712250139 0 -0.064335701702210951 -0.32618513087242251 0 -0.064219522619856223 -0.30183469695439358 0 -0.043996734054681789 -0.30476417245033638 0 -0.043996734054681789 -0.30476417245033638 0 -0.02211923296340669 -0.30833166215363389 0 -0.035928911585227277 -0.32175330848517009 0 -0.043996734054681789 -0.30476417245033638 0 -0.02211923296340669 -0.30833166215363389 0 -0.02365776640715191 -0.28334321402825102 0 -0.02211923296340669 -0.30833166215363389 0 -0.0039300337893912567 -0.29769664423330311 0 -0.0053491287304535916 -0.31543705698788238 0 -0.0039300337893912567 -0.29769664423330311 0 -0.02365776640715191 -0.28334321402825102 0 -0.007981009471871324 -0.26683248623107969 0 -0.0039300337893912567 -0.29769664423330311 0 -0.02365776640715191 -0.28334321402825102 0 -0.02211923296340669 -0.30833166215363389 0 -0.0039300337893912567 -0.29769664423330311 0 -0.02365776640715191 -0.28334321402825102 0 -0.02365776640715191 -0.28334321402825102 0 -0.007981009471871324 -0.26683248623107969 0 -0.032037489614230398 -0.27724632623476131 0 -0.007981009471871324 -0.26683248623107969 0 -0.03111743984621005 -0.25612041729060908 0 -0.032037489614230398 -0.27724632623476131 0 -0.02365776640715191 -0.28334321402825102 0 -0.007981009471871324 -0.26683248623107969 0 -0.032037489614230398 -0.27724632623476131 0 -0.02365776640715191 -0.28334321402825102 0 -0.007981009471871324 -0.26683248623107969 0 -0.01445638115462268 -0.25038859752307729 0 0.0076957474634097864 -0.25032175843390908 0 -0.007981009471871324 -0.26683248623107969 0 0.0076957474634097864 -0.25032175843390908 0 -0.007981009471871324 -0.26683248623107969 0 -0.01445638115462268 -0.25038859752307729 0 -0.03111743984621005 -0.25612041729060908 0 -0.054056694322044171 -0.35811705878731709 0 -0.039117038328186138 -0.34028858162800651 0 -0.025834338370200261 -0.36060196247285847 0 -0.037332092200604697 -0.37499286815449662 0 -0.054056694322044171 -0.35811705878731709 0 -0.025834338370200261 -0.36060196247285847 0 -0.037332092200604697 -0.37499286815449662 0 -0.054056694322044171 -0.35811705878731709 0 -0.050786313347291057 -0.38757382371512211 0 -0.076316706956076175 -0.36957095537380602 0 -0.054056694322044171 -0.35811705878731709 0 -0.050786313347291057 -0.38757382371512211 0 -0.064335701702210951 -0.32618513087242251 0 -0.054056694322044171 -0.35811705878731709 0 -0.039117038328186138 -0.34028858162800651 0 -0.064335701702210951 -0.32618513087242251 0 -0.043996734054681789 -0.30476417245033638 0 -0.064335701702210951 -0.32618513087242251 0 -0.043996734054681789 -0.30476417245033638 0 -0.035928911585227277 -0.32175330848517009 0 -0.064335701702210951 -0.32618513087242251 0 -0.035928911585227277 -0.32175330848517009 0 -0.039117038328186138 -0.34028858162800651 0 -0.039117038328186138 -0.34028858162800651 0 -0.018319393637321331 -0.32761994592793309 0 -0.01277017349587671 -0.34586959148178342 0 -0.035928911585227277 -0.32175330848517009 0 -0.039117038328186138 -0.34028858162800651 0 -0.018319393637321331 -0.32761994592793309 0 -0.02211923296340669 -0.30833166215363389 0 -0.035928911585227277 -0.32175330848517009 0 -0.018319393637321331 -0.32761994592793309 0 -0.02211923296340669 -0.30833166215363389 0 -0.018319393637321331 -0.32761994592793309 0 -0.0053491287304535916 -0.31543705698788238 0 -0.018319393637321331 -0.32761994592793309 0 -0.0053491287304535916 -0.31543705698788238 0 0.0018253179094817561 -0.33148695818618618 0 -0.018319393637321331 -0.32761994592793309 0 -0.01277017349587671 -0.34586959148178342 0 0.0018253179094817561 -0.33148695818618618 0 -0.01277017349587671 -0.34586959148178342 0 0.0086771610778249852 -0.34799090542048389 0 0.0018253179094817561 -0.33148695818618618 0 -0.01277017349587671 -0.34586959148178342 0 -0.0038527496268592589 -0.3672291952552324 0 0.0086771610778249852 -0.34799090542048389 0 -0.01277017349587671 -0.34586959148178342 0 -0.025834338370200261 -0.36060196247285847 0 -0.0038527496268592589 -0.3672291952552324 0 -0.039117038328186138 -0.34028858162800651 0 -0.01277017349587671 -0.34586959148178342 0 -0.025834338370200261 -0.36060196247285847 0 -0.037332092200604697 -0.37499286815449662 0 -0.025834338370200261 -0.36060196247285847 0 -0.01926479122976564 -0.37858022722650209 0 -0.025834338370200261 -0.36060196247285847 0 -0.0038527496268592589 -0.3672291952552324 0 -0.01926479122976564 -0.37858022722650209 0 -0.0038527496268592589 -0.3672291952552324 0 -0.0040446306882286412 -0.39018727966337591 0 -0.01926479122976564 -0.37858022722650209 0 -0.0040446306882286412 -0.39018727966337591 0 -0.0069820897190364401 -0.4086769801487235 0 0.010306551863908201 -0.40149362704505198 0 -0.0040446306882286412 -0.39018727966337591 0 -0.028529296278592131 -0.40300076965004439 0 -0.0069820897190364401 -0.4086769801487235 0 -0.0040446306882286412 -0.39018727966337591 0 -0.028529296278592131 -0.40300076965004439 0 -0.0040446306882286412 -0.39018727966337591 0 -0.028529296278592131 -0.40300076965004439 0 -0.01926479122976564 -0.37858022722650209 0 -0.037332092200604697 -0.37499286815449662 0 -0.028529296278592131 -0.40300076965004439 0 -0.01926479122976564 -0.37858022722650209 0 -0.037332092200604697 -0.37499286815449662 0 -0.028529296278592131 -0.40300076965004439 0 -0.050786313347291057 -0.38757382371512211 0 -0.028529296278592131 -0.40300076965004439 0 -0.050786313347291057 -0.38757382371512211 0 -0.053013961868955677 -0.41581425963671309 0 -0.050786313347291057 -0.38757382371512211 0 -0.053013961868955677 -0.41581425963671309 0 -0.06523265082227328 -0.40656853244093749 0 -0.050786313347291057 -0.38757382371512211 0 -0.074162623904542577 -0.39297332284939451 0 -0.053013961868955677 -0.41581425963671309 0 -0.052013624860056687 -0.43929667391929778 0 -0.071414284470912873 -0.42644423009157001 0 -0.028529296278592131 -0.40300076965004439 0 -0.053013961868955677 -0.41581425963671309 0 -0.031884683115090538 -0.42667667883930283 0 -0.028529296278592131 -0.40300076965004439 0 -0.053013961868955677 -0.41581425963671309 0 -0.031884683115090538 -0.42667667883930283 0 -0.037892016349406608 -0.4448549012162637 0 -0.052013624860056687 -0.43929667391929778 0 -0.053013961868955677 -0.41581425963671309 0 -0.031884683115090538 -0.42667667883930283 0 -0.052013624860056687 -0.43929667391929778 0 -0.031884683115090538 -0.42667667883930283 0 -0.01925748506247708 -0.41690821346219409 0 -0.009633871137189191 -0.42927842521070569 0 -0.031884683115090538 -0.42667667883930283 0 -0.009633871137189191 -0.42927842521070569 0 -0.02301151517750501 -0.44211288244784208 0 -0.028529296278592131 -0.40300076965004439 0 -0.01925748506247708 -0.41690821346219409 0 -0.0069820897190364401 -0.4086769801487235 0 -0.028529296278592131 -0.40300076965004439 0 -0.031884683115090538 -0.42667667883930283 0 -0.01925748506247708 -0.41690821346219409 0 -0.01925748506247708 -0.41690821346219409 0 -0.0069820897190364401 -0.4086769801487235 0 -0.009633871137189191 -0.42927842521070569 0 -0.0069820897190364401 -0.4086769801487235 0 -0.009633871137189191 -0.42927842521070569 0 0.01273534387527378 -0.42484218371901528 0 -0.009633871137189191 -0.42927842521070569 0 -0.009398380369456661 -0.45385650424950202 0 0.0024577522408671922 -0.43896216099892871 0 -0.009633871137189191 -0.42927842521070569 0 -0.009398380369456661 -0.45385650424950202 0 -0.02301151517750501 -0.44211288244784208 0 -0.009398380369456661 -0.45385650424950202 0 -0.01269979997855125 -0.47887270166548351 0 0.0069670417537066919 -0.46493374492892559 0 -0.009398380369456661 -0.45385650424950202 0 -0.029508607725859452 -0.45797627690382808 0 -0.025976974476436099 -0.47177866068334112 0 -0.009398380369456661 -0.45385650424950202 0 -0.01269979997855125 -0.47887270166548351 0 -0.025976974476436099 -0.47177866068334112 0 -0.029508607725859452 -0.45797627690382808 0 -0.02301151517750501 -0.44211288244784208 0 -0.037892016349406608 -0.4448549012162637 0 -0.009398380369456661 -0.45385650424950202 0 -0.029508607725859452 -0.45797627690382808 0 -0.02301151517750501 -0.44211288244784208 0 -0.031884683115090538 -0.42667667883930283 0 -0.02301151517750501 -0.44211288244784208 0 -0.037892016349406608 -0.4448549012162637 0 -0.01269979997855125 -0.47887270166548351 0 -0.0276263821484658 -0.5 0 0.002177945731232533 -0.5 0 -0.01269979997855125 -0.47887270166548351 0 -0.025976974476436099 -0.47177866068334112 0 -0.030276450434867829 -0.48379763980664842 0 -0.01269979997855125 -0.47887270166548351 0 -0.030276450434867829 -0.48379763980664842 0 -0.0276263821484658 -0.5 0 -0.030276450434867829 -0.48379763980664842 0 -0.0276263821484658 -0.5 0 -0.045108099878259651 -0.48898094498124117 0 -0.0276263821484658 -0.5 0 -0.045108099878259651 -0.48898094498124117 0 -0.057430710028164127 -0.50000000000000078 0 -0.029508607725859452 -0.45797627690382808 0 -0.025976974476436099 -0.47177866068334112 0 -0.039362982505102229 -0.47897473716894928 0 -0.029508607725859452 -0.45797627690382808 0 -0.039362982505102229 -0.47897473716894928 0 -0.048870908055367063 -0.47807352351526622 0 -0.045108099878259651 -0.48898094498124117 0 -0.039362982505102229 -0.47897473716894928 0 -0.048870908055367063 -0.47807352351526622 0 -0.039362982505102229 -0.47897473716894928 0 -0.048870908055367063 -0.47807352351526622 0 -0.025976974476436099 -0.47177866068334112 0 -0.030276450434867829 -0.48379763980664842 0 -0.039362982505102229 -0.47897473716894928 0 -0.030276450434867829 -0.48379763980664842 0 -0.045108099878259651 -0.48898094498124117 0 -0.039362982505102229 -0.47897473716894928 0 -0.055418635850584243 -0.47745289374082622 0 -0.048870908055367063 -0.47807352351526622 0 -0.053716130355319441 -0.45837478383006208 0 -0.055418635850584243 -0.47745289374082622 0 -0.056148074680235111 -0.48562691385647772 0 -0.055418635850584243 -0.47745289374082622 0 -0.056148074680235111 -0.48562691385647772 0 -0.070848109927920205 -0.48532153188615751 0 -0.055418635850584243 -0.47745289374082622 0 -0.048870908055367063 -0.47807352351526622 0 -0.056148074680235111 -0.48562691385647772 0 -0.045108099878259651 -0.48898094498124117 0 -0.048870908055367063 -0.47807352351526622 0 -0.056148074680235111 -0.48562691385647772 0 -0.048870908055367063 -0.47807352351526622 0 -0.056148074680235111 -0.48562691385647772 0 -0.055418635850584243 -0.47745289374082622 0 -0.048870908055367063 -0.47807352351526622 0 -0.045108099878259651 -0.48898094498124117 0 -0.056148074680235111 -0.48562691385647772 0 -0.057430710028164127 -0.50000000000000078 0 -0.056148074680235111 -0.48562691385647772 0 -0.057430710028164127 -0.50000000000000078 0 -0.056148074680235111 -0.48562691385647772 0 -0.057430710028164127 -0.50000000000000078 0 -0.069995544234320084 -0.50000000000000122 0 -0.029508607725859452 -0.45797627690382808 0 -0.048870908055367063 -0.47807352351526622 0 -0.053716130355319441 -0.45837478383006208 0 -0.029508607725859452 -0.45797627690382808 0 -0.048870908055367063 -0.47807352351526622 0 -0.029508607725859452 -0.45797627690382808 0 -0.037892016349406608 -0.4448549012162637 0 -0.053716130355319441 -0.45837478383006208 0 -0.055418635850584243 -0.47745289374082622 0 -0.053716130355319441 -0.45837478383006208 0 -0.0660366940006306 -0.46544901646949488 0 -0.055418635850584243 -0.47745289374082622 0 -0.053716130355319441 -0.45837478383006208 0 -0.037892016349406608 -0.4448549012162637 0 -0.053716130355319441 -0.45837478383006208 0 -0.052013624860056687 -0.43929667391929778 0 -0.053716130355319441 -0.45837478383006208 0 -0.052013624860056687 -0.43929667391929778 0 -0.069098447270702176 -0.45128973437806552 0 -0.053716130355319441 -0.45837478383006208 0 -0.052013624860056687 -0.43929667391929778 0 -0.052013624860056687 -0.43929667391929778 0 -0.06990769056802687 -0.4393332654769565 0 -0.069098447270702176 -0.45128973437806552 0 -0.06990769056802687 -0.4393332654769565 0 -0.069098447270702176 -0.45128973437806552 0 -0.083469868242036754 -0.44196699545681439 0 -0.069098447270702176 -0.45128973437806552 0 -0.076277840770884633 -0.46174322238342169 0 -0.084763699625080263 -0.45340495612438142 0 -0.053716130355319441 -0.45837478383006208 0 -0.069098447270702176 -0.45128973437806552 0 -0.0660366940006306 -0.46544901646949488 0 -0.0660366940006306 -0.46544901646949488 0 -0.076277840770884633 -0.46174322238342169 0 -0.081317588283525838 -0.47499804810438639 0 -0.069098447270702176 -0.45128973437806552 0 -0.0660366940006306 -0.46544901646949488 0 -0.076277840770884633 -0.46174322238342169 0 -0.076277840770884633 -0.46174322238342169 0 -0.084763699625080263 -0.45340495612438142 0 -0.086886195250291259 -0.46426838790167307 0 -0.076277840770884633 -0.46174322238342169 0 -0.086886195250291259 -0.46426838790167307 0 -0.081317588283525838 -0.47499804810438639 0 -0.084763699625080263 -0.45340495612438142 0 -0.086886195250291259 -0.46426838790167307 0 -0.090639455107592248 -0.45825283094524838 0 -0.084763699625080263 -0.45340495612438142 0 -0.090639455107592248 -0.45825283094524838 0 -0.095525452013161233 -0.45748976082205828 0 -0.086886195250291259 -0.46426838790167307 0 -0.090639455107592248 -0.45825283094524838 0 -0.095525452013161233 -0.45748976082205828 0 -0.069098447270702176 -0.45128973437806552 0 -0.084763699625080263 -0.45340495612438142 0 -0.083469868242036754 -0.44196699545681439 0 -0.093643700462225476 -0.44409717683444189 0 -0.083469868242036754 -0.44196699545681439 0 -0.095525452013161233 -0.45748976082205828 0 -0.083469868242036754 -0.44196699545681439 0 -0.095525452013161233 -0.45748976082205828 0 -0.084763699625080263 -0.45340495612438142 0 -0.083469868242036754 -0.44196699545681439 0 -0.095525452013161233 -0.45748976082205828 0 -0.093643700462225476 -0.44409717683444189 0 -0.083469868242036754 -0.44196699545681439 0 -0.088907254810932576 -0.43226090266350897 0 -0.056148074680235111 -0.48562691385647772 0 -0.069995544234320084 -0.50000000000000122 0 -0.056148074680235111 -0.48562691385647772 0 -0.069995544234320084 -0.50000000000000122 0 -0.070848109927920205 -0.48532153188615751 0 -0.055418635850584243 -0.47745289374082622 0 -0.070848109927920205 -0.48532153188615751 0 -0.081317588283525838 -0.47499804810438639 0 -0.055418635850584243 -0.47745289374082622 0 -0.081317588283525838 -0.47499804810438639 0 -0.055418635850584243 -0.47745289374082622 0 -0.0660366940006306 -0.46544901646949488 0 -0.081317588283525838 -0.47499804810438639 0 -0.086886195250291259 -0.46426838790167307 0 -0.081317588283525838 -0.47499804810438639 0 -0.1072165407164675 -0.4725432024679459 0 -0.069995544234320084 -0.50000000000000122 0 -0.070848109927920205 -0.48532153188615751 0 -0.098981749307174016 -0.5 0 -0.070848109927920205 -0.48532153188615751 0 -0.081317588283525838 -0.47499804810438639 0 -0.098981749307174016 -0.5 0 -0.098981749307174016 -0.5 0 -0.10225189790698951 -0.48448749694405713 0 -0.118491584617789 -0.48706094497513452 0 -0.081317588283525838 -0.47499804810438639 0 -0.098981749307174016 -0.5 0 -0.10225189790698951 -0.48448749694405713 0 -0.081317588283525838 -0.47499804810438639 0 -0.10225189790698951 -0.48448749694405713 0 -0.1072165407164675 -0.4725432024679459 0 -0.10225189790698951 -0.48448749694405713 0 -0.1072165407164675 -0.4725432024679459 0 -0.118491584617789 -0.48706094497513452 0 -0.081317588283525838 -0.47499804810438639 0 -0.1072165407164675 -0.4725432024679459 0 -0.1072165407164675 -0.4725432024679459 0 -0.1151388309767921 -0.47179228407746249 0 -0.12737411612710409 -0.47460823670743341 0 -0.1151388309767921 -0.47179228407746249 0 -0.1223047479992148 -0.46332734308218942 0 -0.12737411612710409 -0.47460823670743341 0 -0.1151388309767921 -0.47179228407746249 0 -0.118491584617789 -0.48706094497513452 0 -0.1072165407164675 -0.4725432024679459 0 -0.118491584617789 -0.48706094497513452 0 -0.1072165407164675 -0.4725432024679459 0 -0.1151388309767921 -0.47179228407746249 0 -0.118491584617789 -0.48706094497513452 0 -0.12796795438002789 -0.5 0 -0.098981749307174016 -0.5 0 -0.118491584617789 -0.48706094497513452 0 -0.093643700462225476 -0.44409717683444189 0 -0.10328117206451989 -0.43804556945606082 0 -0.095525452013161233 -0.45748976082205828 0 -0.10328117206451989 -0.43804556945606082 0 -0.095525452013161233 -0.45748976082205828 0 -0.10917998432133839 -0.45032966613463099 0 -0.10328117206451989 -0.43804556945606082 0 -0.095525452013161233 -0.45748976082205828 0 -0.093643700462225476 -0.44409717683444189 0 -0.10328117206451989 -0.43804556945606082 0 -0.088907254810932576 -0.43226090266350897 0 -0.086886195250291259 -0.46426838790167307 0 -0.1072165407164675 -0.4725432024679459 0 -0.095525452013161233 -0.45748976082205828 0 -0.1072165407164675 -0.4725432024679459 0 -0.095525452013161233 -0.45748976082205828 0 -0.1072165407164675 -0.4725432024679459 0 -0.095525452013161233 -0.45748976082205828 0 -0.11051964853317819 -0.46099137926840827 0 -0.10917998432133839 -0.45032966613463099 0 -0.095525452013161233 -0.45748976082205828 0 -0.11051964853317819 -0.46099137926840827 0 -0.10917998432133839 -0.45032966613463099 0 -0.11051964853317819 -0.46099137926840827 0 -0.11955743515716551 -0.45322699138103462 0 -0.1151388309767921 -0.47179228407746249 0 -0.11051964853317819 -0.46099137926840827 0 -0.1223047479992148 -0.46332734308218942 0 -0.1072165407164675 -0.4725432024679459 0 -0.1151388309767921 -0.47179228407746249 0 -0.11051964853317819 -0.46099137926840827 0 -0.13082640368139661 -0.4555171926380952 0 -0.1223047479992148 -0.46332734308218942 0 -0.11955743515716551 -0.45322699138103462 0 -0.11051964853317819 -0.46099137926840827 0 -0.1223047479992148 -0.46332734308218942 0 -0.11955743515716551 -0.45322699138103462 0 -0.12804398640508299 -0.44606764521613212 0 -0.11955743515716551 -0.45322699138103462 0 -0.1170162138386666 -0.44189462974559279 0 -0.10917998432133839 -0.45032966613463099 0 -0.11955743515716551 -0.45322699138103462 0 -0.1170162138386666 -0.44189462974559279 0 -0.10917998432133839 -0.45032966613463099 0 -0.10328117206451989 -0.43804556945606082 0 -0.1170162138386666 -0.44189462974559279 0 -0.12804398640508299 -0.44606764521613212 0 -0.1274090510109222 -0.43501470534713199 0 -0.1170162138386666 -0.44189462974559279 0 -0.12902734681837591 -0.4179988991795644 0 -0.1171146551884157 -0.4301471200137813 0 -0.1110368921158746 -0.41860137809006182 0 -0.10328117206451989 -0.43804556945606082 0 -0.1171146551884157 -0.4301471200137813 0 -0.1110368921158746 -0.41860137809006182 0 -0.12902734681837591 -0.4179988991795644 0 -0.1274090510109222 -0.43501470534713199 0 -0.1171146551884157 -0.4301471200137813 0 -0.1274090510109222 -0.43501470534713199 0 -0.1170162138386666 -0.44189462974559279 0 -0.1171146551884157 -0.4301471200137813 0 -0.10328117206451989 -0.43804556945606082 0 -0.1170162138386666 -0.44189462974559279 0 -0.1171146551884157 -0.4301471200137813 0 -0.10328117206451989 -0.43804556945606082 0 -0.1110368921158746 -0.41860137809006182 0 -0.10328117206451989 -0.43804556945606082 0 -0.099063380922944339 -0.42722142584313583 0 -0.1110368921158746 -0.41860137809006182 0 -0.10328117206451989 -0.43804556945606082 0 -0.099063380922944339 -0.42722142584313583 0 -0.088907254810932576 -0.43226090266350897 0 -0.097538934461794041 -0.39837282198366702 0 -0.093223094636364995 -0.41531686232358839 0 -0.105213271382229 -0.409245333697143 0 -0.097538934461794041 -0.39837282198366702 0 -0.093223094636364995 -0.41531686232358839 0 -0.099063380922944339 -0.42722142584313583 0 -0.1021496520014242 -0.41889900118130569 0 -0.093223094636364995 -0.41531686232358839 0 -0.1021496520014242 -0.41889900118130569 0 -0.105213271382229 -0.409245333697143 0 -0.093223094636364995 -0.41531686232358839 0 -0.099063380922944339 -0.42722142584313583 0 -0.1021496520014242 -0.41889900118130569 0 -0.1110368921158746 -0.41860137809006182 0 -0.1021496520014242 -0.41889900118130569 0 -0.105213271382229 -0.409245333697143 0 -0.1110368921158746 -0.41860137809006182 0 -0.1021496520014242 -0.41889900118130569 0 -0.1110368921158746 -0.41860137809006182 0 -0.105213271382229 -0.409245333697143 0 -0.1110368921158746 -0.41860137809006182 0 -0.1172861271536071 -0.40293406143086768 0 -0.12902734681837591 -0.4179988991795644 0 -0.1110368921158746 -0.41860137809006182 0 -0.12902734681837591 -0.4179988991795644 0 -0.1110368921158746 -0.41860137809006182 0 -0.1172861271536071 -0.40293406143086768 0 -0.1110368921158746 -0.41860137809006182 0 -0.1172861271536071 -0.40293406143086768 0 -0.1172861271536071 -0.40293406143086768 0 -0.12317939383513141 -0.38815918503413471 0 -0.1172861271536071 -0.40293406143086768 0 -0.12317939383513141 -0.38815918503413471 0 -0.1104172630928054 -0.3901009707609418 0 -0.1050136369972699 -0.36902704771659361 0 -0.12317939383513141 -0.38815918503413471 0 -0.1050136369972699 -0.36902704771659361 0 -0.12317939383513141 -0.38815918503413471 0 -0.1104172630928054 -0.3901009707609418 0 -0.126168368271352 -0.38066559442732212 0 -0.1050136369972699 -0.36902704771659361 0 -0.12317939383513141 -0.38815918503413471 0 -0.126168368271352 -0.38066559442732212 0 -0.12317939383513141 -0.38815918503413471 0 -0.1050136369972699 -0.36902704771659361 0 -0.097538934461794041 -0.39837282198366702 0 -0.088257975579922029 -0.38248603698086558 0 -0.1050136369972699 -0.36902704771659361 0 -0.097538934461794041 -0.39837282198366702 0 -0.1050136369972699 -0.36902704771659361 0 -0.1104172630928054 -0.3901009707609418 0 -0.097538934461794041 -0.39837282198366702 0 -0.1172861271536071 -0.40293406143086768 0 -0.097538934461794041 -0.39837282198366702 0 -0.105213271382229 -0.409245333697143 0 -0.1172861271536071 -0.40293406143086768 0 -0.097538934461794041 -0.39837282198366702 0 -0.1172861271536071 -0.40293406143086768 0 -0.1104172630928054 -0.3901009707609418 0 -0.097538934461794041 -0.39837282198366702 0 -0.097538934461794041 -0.39837282198366702 0 -0.085427680880592285 -0.40417500826713471 0 -0.074162623904542577 -0.39297332284939451 0 -0.097538934461794041 -0.39837282198366702 0 -0.088257975579922029 -0.38248603698086558 0 -0.074162623904542577 -0.39297332284939451 0 -0.085427680880592285 -0.40417500826713471 0 -0.074162623904542577 -0.39297332284939451 0 -0.076786070519664171 -0.4100370259118879 0 -0.097538934461794041 -0.39837282198366702 0 -0.085427680880592285 -0.40417500826713471 0 -0.093223094636364995 -0.41531686232358839 0 -0.097538934461794041 -0.39837282198366702 0 -0.074162623904542577 -0.39297332284939451 0 -0.076316706956076175 -0.36957095537380602 0 -0.088257975579922029 -0.38248603698086558 0 -0.074162623904542577 -0.39297332284939451 0 -0.076316706956076175 -0.36957095537380602 0 -0.050786313347291057 -0.38757382371512211 0 -0.074162623904542577 -0.39297332284939451 0 -0.074162623904542577 -0.39297332284939451 0 -0.06523265082227328 -0.40656853244093749 0 -0.076786070519664171 -0.4100370259118879 0 -0.050786313347291057 -0.38757382371512211 0 -0.074162623904542577 -0.39297332284939451 0 -0.06523265082227328 -0.40656853244093749 0 -0.076786070519664171 -0.4100370259118879 0 -0.071414284470912873 -0.42644423009157001 0 -0.08258267610946865 -0.42101475524763882 0 -0.053013961868955677 -0.41581425963671309 0 -0.06523265082227328 -0.40656853244093749 0 -0.071414284470912873 -0.42644423009157001 0 -0.06523265082227328 -0.40656853244093749 0 -0.076786070519664171 -0.4100370259118879 0 -0.071414284470912873 -0.42644423009157001 0 -0.052013624860056687 -0.43929667391929778 0 -0.06990769056802687 -0.4393332654769565 0 -0.071414284470912873 -0.42644423009157001 0 -0.06990769056802687 -0.4393332654769565 0 -0.083469868242036754 -0.44196699545681439 0 -0.071414284470912873 -0.42644423009157001 0 -0.083469868242036754 -0.44196699545681439 0 -0.071414284470912873 -0.42644423009157001 0 -0.088907254810932576 -0.43226090266350897 0 -0.093223094636364995 -0.41531686232358839 0 -0.08258267610946865 -0.42101475524763882 0 -0.088907254810932576 -0.43226090266350897 0 -0.093223094636364995 -0.41531686232358839 0 -0.099063380922944339 -0.42722142584313583 0 -0.088907254810932576 -0.43226090266350897 0 -0.093223094636364995 -0.41531686232358839 0 -0.071414284470912873 -0.42644423009157001 0 -0.088907254810932576 -0.43226090266350897 0 -0.08258267610946865 -0.42101475524763882 0 -0.083469868242036754 -0.44196699545681439 0 -0.071414284470912873 -0.42644423009157001 0 -0.088907254810932576 -0.43226090266350897 0 -0.076786070519664171 -0.4100370259118879 0 -0.093223094636364995 -0.41531686232358839 0 -0.08258267610946865 -0.42101475524763882 0 -0.085427680880592285 -0.40417500826713471 0 -0.076786070519664171 -0.4100370259118879 0 -0.093223094636364995 -0.41531686232358839 0 -0.081225753173658002 -0.084006797003343084 0 -0.095632031824211094 -0.094438542115714397 0 -0.1016292760429377 -0.080496249443534951 0 -0.081225753173658002 -0.084006797003343084 0 -0.090252815792780938 -0.065505705594480906 0 -0.1016292760429377 -0.080496249443534951 0 -0.081225753173658002 -0.084006797003343084 0 -0.090252815792780938 -0.065505705594480906 0 -0.072111891192653516 -0.063506558866985904 0 -0.081225753173658002 -0.084006797003343084 0 -0.072111891192653516 -0.063506558866985904 0 -0.066702270639482225 -0.077555691398917312 0 -0.072111891192653516 -0.063506558866985904 0 -0.066702270639482225 -0.077555691398917312 0 -0.059366015161298823 -0.06263410352752799 0 -0.081225753173658002 -0.084006797003343084 0 -0.066702270639482225 -0.077555691398917312 0 -0.060583195732539882 -0.093439561556354522 0 -0.07245974137677666 -0.1058574187684419 0 -0.060583195732539882 -0.093439561556354522 0 -0.054938755171724953 -0.11026451938386329 0 -0.081225753173658002 -0.084006797003343084 0 -0.07245974137677666 -0.1058574187684419 0 -0.060583195732539882 -0.093439561556354522 0 -0.07245974137677666 -0.1058574187684419 0 -0.054938755171724953 -0.11026451938386329 0 -0.062658126441694939 -0.12541336612296419 0 -0.07245974137677666 -0.1058574187684419 0 -0.088717342743484362 -0.11142032376319549 0 -0.062658126441694939 -0.12541336612296419 0 -0.088717342743484362 -0.11142032376319549 0 -0.062658126441694939 -0.12541336612296419 0 -0.088717342743484362 -0.11142032376319549 0 -0.089033754231069406 -0.13391802693028609 0 -0.062658126441694939 -0.12541336612296419 0 -0.081225753173658002 -0.084006797003343084 0 -0.07245974137677666 -0.1058574187684419 0 -0.095632031824211094 -0.094438542115714397 0 -0.07245974137677666 -0.1058574187684419 0 -0.088717342743484362 -0.11142032376319549 0 -0.095632031824211094 -0.094438542115714397 0 -0.088717342743484362 -0.11142032376319549 0 -0.1147765590452736 -0.097427281403426852 0 -0.088717342743484362 -0.11142032376319549 0 -0.095632031824211094 -0.094438542115714397 0 -0.1147765590452736 -0.097427281403426852 0 -0.088717342743484362 -0.11142032376319549 0 -0.1110663418054073 -0.1246208076941883 0 -0.1147765590452736 -0.097427281403426852 0 -0.088717342743484362 -0.11142032376319549 0 -0.1110663418054073 -0.1246208076941883 0 -0.089033754231069406 -0.13391802693028609 0 -0.1110663418054073 -0.1246208076941883 0 -0.1147765590452736 -0.097427281403426852 0 -0.12682245530800421 -0.1162709151799925 0 -0.1110663418054073 -0.1246208076941883 0 -0.12986188190646511 -0.13074954693054719 0 -0.12682245530800421 -0.1162709151799925 0 -0.1147765590452736 -0.097427281403426852 0 -0.11596582733755539 -0.077164787090216236 0 -0.12863804936774489 -0.076802340418861664 0 -0.1147765590452736 -0.097427281403426852 0 -0.1016292760429377 -0.080496249443534951 0 -0.11596582733755539 -0.077164787090216236 0 -0.095632031824211094 -0.094438542115714397 0 -0.1147765590452736 -0.097427281403426852 0 -0.1016292760429377 -0.080496249443534951 0 -0.090252815792780938 -0.065505705594480906 0 -0.1016292760429377 -0.080496249443534951 0 -0.1101256135401574 -0.065056769903576894 0 -0.1016292760429377 -0.080496249443534951 0 -0.1101256135401574 -0.065056769903576894 0 -0.11596582733755539 -0.077164787090216236 0 -0.1101256135401574 -0.065056769903576894 0 -0.11596582733755539 -0.077164787090216236 0 -0.1238326932692472 -0.065594553641175501 0 -0.1101256135401574 -0.065056769903576894 0 -0.1238326932692472 -0.065594553641175501 0 -0.12623174269787471 -0.061121217968830147 0 -0.11596582733755539 -0.077164787090216236 0 -0.1238326932692472 -0.065594553641175501 0 -0.12863804936774489 -0.076802340418861664 0 -0.1101256135401574 -0.065056769903576894 0 -0.1027278544381629 -0.053504869353584672 0 -0.12623174269787471 -0.061121217968830147 0 -0.117779992582904 -0.051221143311289408 0 -0.1027278544381629 -0.053504869353584672 0 -0.12623174269787471 -0.061121217968830147 0 -0.117779992582904 -0.051221143311289408 0 -0.12623174269787471 -0.061121217968830147 0 -0.12727364551370651 -0.054041068104789577 0 -0.1027278544381629 -0.053504869353584672 0 -0.12623174269787471 -0.061121217968830147 0 -0.117779992582904 -0.051221143311289408 0 -0.1083675453440146 -0.040387491088950497 0 -0.1027278544381629 -0.053504869353584672 0 -0.117779992582904 -0.051221143311289408 0 -0.12727364551370651 -0.054041068104789577 0 -0.12821861588022959 -0.047235600070347973 0 -0.117779992582904 -0.051221143311289408 0 -0.1083675453440146 -0.040387491088950497 0 -0.12821861588022959 -0.047235600070347973 0 -0.1083675453440146 -0.040387491088950497 0 -0.1375111245095775 -0.034886461439568667 0 -0.1083675453440146 -0.040387491088950497 0 -0.1375111245095775 -0.034886461439568667 0 -0.12821861588022959 -0.047235600070347973 0 -0.1083675453440146 -0.040387491088950497 0 -0.07922396617845226 -0.045888520738335603 0 -0.1083675453440146 -0.040387491088950497 0 -0.1027278544381629 -0.053504869353584672 0 -0.07922396617845226 -0.045888520738335603 0 -0.090252815792780938 -0.065505705594480906 0 -0.1101256135401574 -0.065056769903576894 0 -0.1027278544381629 -0.053504869353584672 0 -0.1083675453440146 -0.040387491088950497 0 -0.1093222308133128 -0.0073945743824425439 0 -0.12901753950566691 -0.01634088936833427 0 -0.1083675453440146 -0.040387491088950497 0 -0.1093222308133128 -0.0073945743824425439 0 -0.082971233662191723 -0.024967444309590279 0 -0.1083675453440146 -0.040387491088950497 0 -0.12901753950566691 -0.01634088936833427 0 -0.1375111245095775 -0.034886461439568667 0 -0.1093222308133128 -0.0073945743824425439 0 -0.089687955323212706 -0.006495897421763857 0 -0.084686698285836762 0.01251199100243771 0 -0.1093222308133128 -0.0073945743824425439 0 -0.089687955323212706 -0.006495897421763857 0 -0.082971233662191723 -0.024967444309590279 0 -0.089687955323212706 -0.006495897421763857 0 -0.082971233662191723 -0.024967444309590279 0 -0.06799887551270356 -0.0098822878975503917 0 -0.089687955323212706 -0.006495897421763857 0 -0.06799887551270356 -0.0098822878975503917 0 -0.084686698285836762 0.01251199100243771 0 -0.082971233662191723 -0.024967444309590279 0 -0.06807603075435395 -0.027237072101608761 0 -0.06799887551270356 -0.0098822878975503917 0 -0.090252815792780938 -0.065505705594480906 0 -0.072111891192653516 -0.063506558866985904 0 -0.07922396617845226 -0.045888520738335603 0 -0.090252815792780938 -0.065505705594480906 0 -0.1027278544381629 -0.053504869353584672 0 -0.07922396617845226 -0.045888520738335603 0 -0.1027278544381629 -0.053504869353584672 0 -0.07922396617845226 -0.045888520738335603 0 -0.1083675453440146 -0.040387491088950497 0 -0.082971233662191723 -0.024967444309590279 0 -0.07922396617845226 -0.045888520738335603 0 -0.082971233662191723 -0.024967444309590279 0 -0.06807603075435395 -0.027237072101608761 0 -0.070022961102950143 -0.041821989401755903 0 -0.07922396617845226 -0.045888520738335603 0 -0.063896897833227717 -0.040921840567083707 0 -0.070022961102950143 -0.041821989401755903 0 -0.07922396617845226 -0.045888520738335603 0 -0.063896897833227717 -0.040921840567083707 0 -0.056684607307303243 -0.050142963225436092 0 -0.06807603075435395 -0.027237072101608761 0 -0.070022961102950143 -0.041821989401755903 0 -0.051311052739570893 -0.032276566797538819 0 -0.07922396617845226 -0.045888520738335603 0 -0.063896897833227717 -0.040921840567083707 0 -0.082971233662191723 -0.024967444309590279 0 -0.07922396617845226 -0.045888520738335603 0 -0.070022961102950143 -0.041821989401755903 0 -0.07922396617845226 -0.045888520738335603 0 -0.056684607307303243 -0.050142963225436092 0 -0.072111891192653516 -0.063506558866985904 0 -0.07922396617845226 -0.045888520738335603 0 -0.056684607307303243 -0.050142963225436092 0 -0.072111891192653516 -0.063506558866985904 0 -0.056684607307303243 -0.050142963225436092 0 -0.072111891192653516 -0.063506558866985904 0 -0.056684607307303243 -0.050142963225436092 0 -0.059366015161298823 -0.06263410352752799 0 -0.047521754164677042 -0.051872508060137587 0 -0.056684607307303243 -0.050142963225436092 0 -0.059366015161298823 -0.06263410352752799 0 -0.047521754164677042 -0.051872508060137587 0 -0.056684607307303243 -0.050142963225436092 0 -0.047521754164677042 -0.051872508060137587 0 -0.056684607307303243 -0.050142963225436092 0 -0.0449743541729202 -0.040780120372850961 0 -0.063896897833227717 -0.040921840567083707 0 -0.070022961102950143 -0.041821989401755903 0 -0.051311052739570893 -0.032276566797538819 0 -0.063896897833227717 -0.040921840567083707 0 -0.056684607307303243 -0.050142963225436092 0 -0.048569829488003383 -0.035955160395831368 0 -0.070022961102950143 -0.041821989401755903 0 -0.051311052739570893 -0.032276566797538819 0 -0.063896897833227717 -0.040921840567083707 0 -0.048569829488003383 -0.035955160395831368 0 -0.051311052739570893 -0.032276566797538819 0 -0.048569829488003383 -0.035955160395831368 0 -0.043488115657530482 -0.034308449704042572 0 -0.063896897833227717 -0.040921840567083707 0 -0.051311052739570893 -0.032276566797538819 0 -0.048569829488003383 -0.035955160395831368 0 -0.051311052739570893 -0.032276566797538819 0 -0.048569829488003383 -0.035955160395831368 0 -0.056684607307303243 -0.050142963225436092 0 -0.048569829488003383 -0.035955160395831368 0 -0.0449743541729202 -0.040780120372850961 0 -0.056684607307303243 -0.050142963225436092 0 -0.0449743541729202 -0.040780120372850961 0 -0.047521754164677042 -0.051872508060137587 0 -0.0449743541729202 -0.040780120372850961 0 -0.0449743541729202 -0.040780120372850961 0 -0.035366717342363338 -0.031676740425642863 0 -0.051311052739570893 -0.032276566797538819 0 -0.043488115657530482 -0.034308449704042572 0 -0.04192148201559695 -0.027486706838203191 0 -0.043488115657530482 -0.034308449704042572 0 -0.035366717342363338 -0.031676740425642863 0 -0.0449743541729202 -0.040780120372850961 0 -0.043488115657530482 -0.034308449704042572 0 -0.035366717342363338 -0.031676740425642863 0 -0.048569829488003383 -0.035955160395831368 0 -0.043488115657530482 -0.034308449704042572 0 -0.048569829488003383 -0.035955160395831368 0 -0.0449743541729202 -0.040780120372850961 0 -0.043488115657530482 -0.034308449704042572 0 -0.048569829488003383 -0.035955160395831368 0 -0.0449743541729202 -0.040780120372850961 0 -0.0449743541729202 -0.040780120372850961 0 -0.043488115657530482 -0.034308449704042572 0 -0.0449743541729202 -0.040780120372850961 0 -0.035366717342363338 -0.031676740425642863 0 -0.036273134256075153 -0.04124477743403393 0 -0.035366717342363338 -0.031676740425642863 0 -0.036273134256075153 -0.04124477743403393 0 -0.024996062097433439 -0.041203022836856958 0 -0.036273134256075153 -0.04124477743403393 0 -0.034938581017370803 -0.05424765931294924 0 -0.024996062097433439 -0.041203022836856958 0 -0.0449743541729202 -0.040780120372850961 0 -0.036273134256075153 -0.04124477743403393 0 -0.034938581017370803 -0.05424765931294924 0 -0.047521754164677042 -0.051872508060137587 0 -0.034938581017370803 -0.05424765931294924 0 -0.043325164594448892 -0.064159044228977585 0 -0.047521754164677042 -0.051872508060137587 0 -0.034938581017370803 -0.05424765931294924 0 -0.0449743541729202 -0.040780120372850961 0 -0.034938581017370803 -0.05424765931294924 0 -0.047521754164677042 -0.051872508060137587 0 -0.0449743541729202 -0.040780120372850961 0 -0.034938581017370803 -0.05424765931294924 0 -0.06799887551270356 -0.0098822878975503917 0 -0.048554677609470361 -0.012553741708034199 0 -0.058884230972225227 0.00062989583273729373 0 -0.06799887551270356 -0.0098822878975503917 0 -0.048554677609470361 -0.012553741708034199 0 -0.052446521969335337 -0.020549825810331501 0 -0.048554677609470361 -0.012553741708034199 0 -0.058884230972225227 0.00062989583273729373 0 -0.048088803599084781 0.0012871322310296421 0 -0.06807603075435395 -0.027237072101608761 0 -0.06799887551270356 -0.0098822878975503917 0 -0.051311052739570893 -0.032276566797538819 0 -0.06799887551270356 -0.0098822878975503917 0 -0.051311052739570893 -0.032276566797538819 0 -0.06799887551270356 -0.0098822878975503917 0 -0.051311052739570893 -0.032276566797538819 0 -0.052446521969335337 -0.020549825810331501 0 -0.048554677609470361 -0.012553741708034199 0 -0.052446521969335337 -0.020549825810331501 0 -0.04192148201559695 -0.027486706838203191 0 -0.051311052739570893 -0.032276566797538819 0 -0.052446521969335337 -0.020549825810331501 0 -0.04192148201559695 -0.027486706838203191 0 -0.04192148201559695 -0.027486706838203191 0 -0.036900906851176453 -0.0056251357002208924 0 -0.04192148201559695 -0.027486706838203191 0 -0.038802610474106367 -0.020609200632726352 0 -0.036900906851176453 -0.0056251357002208924 0 -0.051311052739570893 -0.032276566797538819 0 -0.04192148201559695 -0.027486706838203191 0 -0.043488115657530482 -0.034308449704042572 0 -0.035366717342363338 -0.031676740425642863 0 -0.04192148201559695 -0.027486706838203191 0 -0.043488115657530482 -0.034308449704042572 0 -0.04192148201559695 -0.027486706838203191 0 -0.04192148201559695 -0.027486706838203191 0 -0.02806607989024501 -0.020418712164998701 0 -0.035366717342363338 -0.031676740425642863 0 -0.04192148201559695 -0.027486706838203191 0 -0.02806607989024501 -0.020418712164998701 0 -0.04192148201559695 -0.027486706838203191 0 -0.038802610474106367 -0.020609200632726352 0 -0.02806607989024501 -0.020418712164998701 0 -0.048554677609470361 -0.012553741708034199 0 -0.04192148201559695 -0.027486706838203191 0 -0.036900906851176453 -0.0056251357002208924 0 -0.048554677609470361 -0.012553741708034199 0 -0.036900906851176453 -0.0056251357002208924 0 -0.048554677609470361 -0.012553741708034199 0 -0.036900906851176453 -0.0056251357002208924 0 -0.048088803599084781 0.0012871322310296421 0 -0.038802610474106367 -0.020609200632726352 0 -0.0139647653065136 -0.0075473042418993039 0 -0.038802610474106367 -0.020609200632726352 0 -0.036900906851176453 -0.0056251357002208924 0 -0.0139647653065136 -0.0075473042418993039 0 -0.036900906851176453 -0.0056251357002208924 0 -0.0139647653065136 -0.0075473042418993039 0 -0.01192571365644148 0.0092235581006408288 0 -0.02806607989024501 -0.020418712164998701 0 -0.01421067776489305 -0.013350717491794379 0 -0.0139647653065136 -0.0075473042418993039 0 -0.035366717342363338 -0.031676740425642863 0 -0.01421067776489305 -0.013350717491794379 0 -0.038802610474106367 -0.020609200632726352 0 -0.02806607989024501 -0.020418712164998701 0 -0.0139647653065136 -0.0075473042418993039 0 -0.035366717342363338 -0.031676740425642863 0 -0.02806607989024501 -0.020418712164998701 0 -0.01421067776489305 -0.013350717491794379 0 -0.035366717342363338 -0.031676740425642863 0 -0.020252559172930881 -0.026779053014419751 0 -0.01421067776489305 -0.013350717491794379 0 -0.02806607989024501 -0.020418712164998701 0 -0.01421067776489305 -0.013350717491794379 0 -0.035366717342363338 -0.031676740425642863 0 -0.020252559172930881 -0.026779053014419751 0 -0.0051384010034980984 -0.02188136560319769 0 -0.01421067776489305 -0.013350717491794379 0 0.001416984003155328 -0.019216769960212959 0 -0.020252559172930881 -0.026779053014419751 0 -0.0051384010034980984 -0.02188136560319769 0 -0.0092198582660788196 -0.035055903610271548 0 -0.020252559172930881 -0.026779053014419751 0 -0.0051384010034980984 -0.02188136560319769 0 -0.0051384010034980984 -0.02188136560319769 0 -0.0092198582660788196 -0.035055903610271548 0 0.0014308770969664081 -0.026292994201149229 0 -0.0051384010034980984 -0.02188136560319769 0 0.001416984003155328 -0.019216769960212959 0 0.0014308770969664081 -0.026292994201149229 0 -0.020252559172930881 -0.026779053014419751 0 -0.0051384010034980984 -0.02188136560319769 0 -0.01421067776489305 -0.013350717491794379 0 -0.01421067776489305 -0.013350717491794379 0 0.010417021748207351 -0.00078749865505162858 0 0.0037321413375690821 -0.01238002763455166 0 -0.01421067776489305 -0.013350717491794379 0 0.010417021748207351 -0.00078749865505162858 0 -0.0010690213167974039 -0.0019670037974292669 0 -0.0139647653065136 -0.0075473042418993039 0 0.010873079861079091 0.0055145921489277057 0 -0.0139647653065136 -0.0075473042418993039 0 0.010873079861079091 0.0055145921489277057 0 -0.01421067776489305 -0.013350717491794379 0 0.0037321413375690821 -0.01238002763455166 0 0.001416984003155328 -0.019216769960212959 0 -0.01421067776489305 -0.013350717491794379 0 -0.0010690213167974039 -0.0019670037974292669 0 0.010417021748207351 -0.00078749865505162858 0 -0.01421067776489305 -0.013350717491794379 0 -0.0010690213167974039 -0.0019670037974292669 0 -0.01421067776489305 -0.013350717491794379 0 -0.0010690213167974039 -0.0019670037974292669 0 -0.0139647653065136 -0.0075473042418993039 0 -0.034938581017370803 -0.05424765931294924 0 -0.013925522529787579 -0.05821400322382763 0 -0.034938581017370803 -0.05424765931294924 0 -0.024996062097433439 -0.041203022836856958 0 -0.013925522529787579 -0.05821400322382763 0 -0.034938581017370803 -0.05424765931294924 0 -0.013925522529787579 -0.05821400322382763 0 -0.025867182701907389 -0.066421052250477772 0 -0.034938581017370803 -0.05424765931294924 0 -0.025867182701907389 -0.066421052250477772 0 -0.024996062097433439 -0.041203022836856958 0 -0.0092198582660788196 -0.035055903610271548 0 -0.013925522529787579 -0.05821400322382763 0 -0.020252559172930881 -0.026779053014419751 0 -0.024996062097433439 -0.041203022836856958 0 -0.0092198582660788196 -0.035055903610271548 0 -0.035366717342363338 -0.031676740425642863 0 -0.020252559172930881 -0.026779053014419751 0 -0.024996062097433439 -0.041203022836856958 0 -0.0092198582660788196 -0.035055903610271548 0 0.0014308770969664081 -0.026292994201149229 0 0.0042592065273816164 -0.044236670667924971 0 -0.0092198582660788196 -0.035055903610271548 0 -0.013925522529787579 -0.05821400322382763 0 0.0042592065273816164 -0.044236670667924971 0 -0.013925522529787579 -0.05821400322382763 0 0.0070875359577966344 -0.062180347134700713 0 -0.013925522529787579 -0.05821400322382763 0 0.0042592065273816164 -0.044236670667924971 0 0.0070875359577966344 -0.062180347134700713 0 -0.0060173714802337049 -0.068191951659488145 0 -0.01679578438645072 -0.078594445188011425 0 0.008881715009281383 -0.073563097700138733 0 -0.013925522529787579 -0.05821400322382763 0 -0.0060173714802337049 -0.068191951659488145 0 0.0070875359577966344 -0.062180347134700713 0 -0.01679578438645072 -0.078594445188011425 0 0.008881715009281383 -0.073563097700138733 0 -0.0060173714802337049 -0.068191951659488145 0 -0.01679578438645072 -0.078594445188011425 0 -0.015651465274594462 -0.067855363080450953 0 -0.013925522529787579 -0.05821400322382763 0 -0.0060173714802337049 -0.068191951659488145 0 -0.015651465274594462 -0.067855363080450953 0 -0.01679578438645072 -0.078594445188011425 0 -0.019833481328412859 -0.095509774008096252 0 -9.9257394721649628e-06 -0.10112028365277261 0 -0.01679578438645072 -0.078594445188011425 0 -9.9257394721649628e-06 -0.10112028365277261 0 -0.01679578438645072 -0.078594445188011425 0 -9.9257394721649628e-06 -0.10112028365277261 0 0.008881715009281383 -0.073563097700138733 0 -0.029030352963196469 -0.080991733371145264 0 -0.034697982028337571 -0.1041354664872416 0 -0.019833481328412859 -0.095509774008096252 0 -0.01679578438645072 -0.078594445188011425 0 -0.029030352963196469 -0.080991733371145264 0 -0.019833481328412859 -0.095509774008096252 0 -0.01679578438645072 -0.078594445188011425 0 -0.029030352963196469 -0.080991733371145264 0 -0.013925522529787579 -0.05821400322382763 0 -0.015651465274594462 -0.067855363080450953 0 -0.025867182701907389 -0.066421052250477772 0 -0.01679578438645072 -0.078594445188011425 0 -0.025867182701907389 -0.066421052250477772 0 -0.01679578438645072 -0.078594445188011425 0 -0.015651465274594462 -0.067855363080450953 0 -0.025867182701907389 -0.066421052250477772 0 -0.01679578438645072 -0.078594445188011425 0 -0.029030352963196469 -0.080991733371145264 0 -0.025867182701907389 -0.066421052250477772 0 -0.029030352963196469 -0.080991733371145264 0 -0.025867182701907389 -0.066421052250477772 0 -0.035461290188651157 -0.071966942731242031 0 -0.043325164594448892 -0.064159044228977585 0 -0.035461290188651157 -0.071966942731242031 0 -0.05246183115018753 -0.073383558270291777 0 -0.034938581017370803 -0.05424765931294924 0 -0.025867182701907389 -0.066421052250477772 0 -0.035461290188651157 -0.071966942731242031 0 -0.035461290188651157 -0.071966942731242031 0 -0.04338660130706077 -0.086522683518078763 0 -0.05246183115018753 -0.073383558270291777 0 -0.034938581017370803 -0.05424765931294924 0 -0.043325164594448892 -0.064159044228977585 0 -0.035461290188651157 -0.071966942731242031 0 -0.029030352963196469 -0.080991733371145264 0 -0.04338660130706077 -0.086522683518078763 0 -0.034697982028337571 -0.1041354664872416 0 -0.029030352963196469 -0.080991733371145264 0 -0.035461290188651157 -0.071966942731242031 0 -0.04338660130706077 -0.086522683518078763 0 -0.04338660130706077 -0.086522683518078763 0 -0.060583195732539882 -0.093439561556354522 0 -0.05246183115018753 -0.073383558270291777 0 -0.066702270639482225 -0.077555691398917312 0 -0.060583195732539882 -0.093439561556354522 0 -0.05246183115018753 -0.073383558270291777 0 -0.066702270639482225 -0.077555691398917312 0 -0.059366015161298823 -0.06263410352752799 0 -0.05246183115018753 -0.073383558270291777 0 -0.047521754164677042 -0.051872508060137587 0 -0.05246183115018753 -0.073383558270291777 0 -0.047521754164677042 -0.051872508060137587 0 -0.043325164594448892 -0.064159044228977585 0 -0.05246183115018753 -0.073383558270291777 0 -0.047521754164677042 -0.051872508060137587 0 -0.059366015161298823 -0.06263410352752799 0 -0.05246183115018753 -0.073383558270291777 0 -0.054938755171724953 -0.11026451938386329 0 -0.044294730279275697 -0.1224767839843143 0 -0.062658126441694939 -0.12541336612296419 0 -0.060583195732539882 -0.093439561556354522 0 -0.034697982028337571 -0.1041354664872416 0 -0.060583195732539882 -0.093439561556354522 0 -0.054938755171724953 -0.11026451938386329 0 -0.034697982028337571 -0.1041354664872416 0 -0.04338660130706077 -0.086522683518078763 0 -0.060583195732539882 -0.093439561556354522 0 -0.034697982028337571 -0.1041354664872416 0 -0.034697982028337571 -0.1041354664872416 0 -0.044294730279275697 -0.1224767839843143 0 -0.027298474928649182 -0.1222539541941474 0 -0.044294730279275697 -0.1224767839843143 0 -0.027298474928649182 -0.1222539541941474 0 -0.033726321861933577 -0.12971271038418911 0 -0.054938755171724953 -0.11026451938386329 0 -0.034697982028337571 -0.1041354664872416 0 -0.044294730279275697 -0.1224767839843143 0 -0.027298474928649182 -0.1222539541941474 0 -0.0088127683241351288 -0.1148313714181288 0 -0.014488074790145401 -0.13076902335625379 0 -0.034697982028337571 -0.1041354664872416 0 -0.027298474928649182 -0.1222539541941474 0 -0.0088127683241351288 -0.1148313714181288 0 -0.034697982028337571 -0.1041354664872416 0 -0.0088127683241351288 -0.1148313714181288 0 -0.034697982028337571 -0.1041354664872416 0 -0.019833481328412859 -0.095509774008096252 0 -0.0088127683241351288 -0.1148313714181288 0 -0.019833481328412859 -0.095509774008096252 0 -9.9257394721649628e-06 -0.10112028365277261 0 -0.0088127683241351288 -0.1148313714181288 0 -0.0088127683241351288 -0.1148313714181288 0 -0.002907425846701919 -0.1320095854426846 0 0.0066140884893323548 -0.1307148826355457 0 -0.0088127683241351288 -0.1148313714181288 0 -0.002907425846701919 -0.1320095854426846 0 -0.014488074790145401 -0.13076902335625379 0 -0.002907425846701919 -0.1320095854426846 0 -0.0054537170625873922 -0.14476509036948029 0 0.003567896516931476 -0.1387464326858992 0 -0.002907425846701919 -0.1320095854426846 0 -0.014488074790145401 -0.13076902335625379 0 -0.0054537170625873922 -0.14476509036948029 0 -0.014488074790145401 -0.13076902335625379 0 -0.017905002320557469 -0.1411148005054807 0 -0.0054537170625873922 -0.14476509036948029 0 -0.027298474928649182 -0.1222539541941474 0 -0.014488074790145401 -0.13076902335625379 0 -0.026713172099903881 -0.13471369487556201 0 -0.014488074790145401 -0.13076902335625379 0 -0.026713172099903881 -0.13471369487556201 0 -0.017905002320557469 -0.1411148005054807 0 -0.026713172099903881 -0.13471369487556201 0 -0.027931832238556348 -0.1477000793095935 0 -0.036598910139905537 -0.13940640848273281 0 -0.027298474928649182 -0.1222539541941474 0 -0.026713172099903881 -0.13471369487556201 0 -0.033726321861933577 -0.12971271038418911 0 -0.027931832238556348 -0.1477000793095935 0 -0.017494241364392472 -0.1523436602536139 0 -0.029457876208252531 -0.159606685141789 0 -0.026713172099903881 -0.13471369487556201 0 -0.027931832238556348 -0.1477000793095935 0 -0.017905002320557469 -0.1411148005054807 0 -0.027931832238556348 -0.1477000793095935 0 -0.017905002320557469 -0.1411148005054807 0 -0.017494241364392472 -0.1523436602536139 0 -0.017494241364392472 -0.1523436602536139 0 -0.0054537170625873922 -0.14476509036948029 0 -0.0071857211005803374 -0.15652511532993241 0 -0.017905002320557469 -0.1411148005054807 0 -0.017494241364392472 -0.1523436602536139 0 -0.0054537170625873922 -0.14476509036948029 0 -0.0054537170625873922 -0.14476509036948029 0 -0.0071857211005803374 -0.15652511532993241 0 0.0043218265361713573 -0.15896927279267381 0 -0.0071857211005803374 -0.15652511532993241 0 -0.0014132101915579399 -0.1698976651757427 0 0.0043218265361713573 -0.15896927279267381 0 -0.0014132101915579399 -0.1698976651757427 0 -0.01539058991360529 -0.17568373022428521 0 -0.017031299255820729 -0.1643501908654077 0 -0.017494241364392472 -0.1523436602536139 0 -0.0071857211005803374 -0.15652511532993241 0 -0.017031299255820729 -0.1643501908654077 0 -0.0071857211005803374 -0.15652511532993241 0 -0.0014132101915579399 -0.1698976651757427 0 -0.017031299255820729 -0.1643501908654077 0 -0.0014132101915579399 -0.1698976651757427 0 -0.0076674425692238608 -0.1819829379196311 0 0.006868393305995495 -0.17616281559889649 0 -0.0014132101915579399 -0.1698976651757427 0 -0.0076674425692238608 -0.1819829379196311 0 -0.01539058991360529 -0.17568373022428521 0 -0.0076674425692238608 -0.1819829379196311 0 -0.01539058991360529 -0.17568373022428521 0 -0.02246058751139899 -0.18376816186634709 0 -0.02246058751139899 -0.18376816186634709 0 -0.030051961540221921 -0.17315900300594489 0 -0.03854522839030599 -0.19010875467139779 0 -0.01539058991360529 -0.17568373022428521 0 -0.02246058751139899 -0.18376816186634709 0 -0.030051961540221921 -0.17315900300594489 0 -0.017494241364392472 -0.1523436602536139 0 -0.017031299255820729 -0.1643501908654077 0 -0.029457876208252531 -0.159606685141789 0 -0.01539058991360529 -0.17568373022428521 0 -0.030051961540221921 -0.17315900300594489 0 -0.017031299255820729 -0.1643501908654077 0 -0.030051961540221921 -0.17315900300594489 0 -0.017031299255820729 -0.1643501908654077 0 -0.029457876208252531 -0.159606685141789 0 -0.038078741710765661 -0.16461649682685239 0 -0.046851751776272627 -0.17258147271513999 0 -0.044373996066445522 -0.15410502409631349 0 -0.030051961540221921 -0.17315900300594489 0 -0.038078741710765661 -0.16461649682685239 0 -0.046851751776272627 -0.17258147271513999 0 -0.029457876208252531 -0.159606685141789 0 -0.038078741710765661 -0.16461649682685239 0 -0.044373996066445522 -0.15410502409631349 0 -0.030051961540221921 -0.17315900300594489 0 -0.029457876208252531 -0.159606685141789 0 -0.038078741710765661 -0.16461649682685239 0 -0.030051961540221921 -0.17315900300594489 0 -0.046851751776272627 -0.17258147271513999 0 -0.03854522839030599 -0.19010875467139779 0 -0.046851751776272627 -0.17258147271513999 0 -0.06037138828061335 -0.17593163183430721 0 -0.055602064563934309 -0.18869046690157781 0 -0.046851751776272627 -0.17258147271513999 0 -0.03854522839030599 -0.19010875467139779 0 -0.055602064563934309 -0.18869046690157781 0 -0.046851751776272627 -0.17258147271513999 0 -0.060769725623205553 -0.1619466337708966 0 -0.044373996066445522 -0.15410502409631349 0 -0.046851751776272627 -0.17258147271513999 0 -0.06037138828061335 -0.17593163183430721 0 -0.060769725623205553 -0.1619466337708966 0 -0.060769725623205553 -0.1619466337708966 0 -0.056367226439172829 -0.15013772315776969 0 -0.044373996066445522 -0.15410502409631349 0 -0.049417017759433982 -0.1382598609755083 0 -0.070908166307606241 -0.1462393737883603 0 -0.056367226439172829 -0.15013772315776969 0 -0.049417017759433982 -0.1382598609755083 0 -0.044373996066445522 -0.15410502409631349 0 -0.056367226439172829 -0.15013772315776969 0 -0.049417017759433982 -0.1382598609755083 0 -0.070908166307606241 -0.1462393737883603 0 -0.049417017759433982 -0.1382598609755083 0 -0.036598910139905537 -0.13940640848273281 0 -0.062658126441694939 -0.12541336612296419 0 -0.049417017759433982 -0.1382598609755083 0 -0.062658126441694939 -0.12541336612296419 0 -0.070908166307606241 -0.1462393737883603 0 -0.036598910139905537 -0.13940640848273281 0 -0.062658126441694939 -0.12541336612296419 0 -0.044294730279275697 -0.1224767839843143 0 -0.036598910139905537 -0.13940640848273281 0 -0.062658126441694939 -0.12541336612296419 0 -0.044294730279275697 -0.1224767839843143 0 -0.033726321861933577 -0.12971271038418911 0 -0.036598910139905537 -0.13940640848273281 0 -0.026713172099903881 -0.13471369487556201 0 -0.033726321861933577 -0.12971271038418911 0 -0.036598910139905537 -0.13940640848273281 0 -0.027931832238556348 -0.1477000793095935 0 -0.036598910139905537 -0.13940640848273281 0 -0.044373996066445522 -0.15410502409631349 0 -0.049417017759433982 -0.1382598609755083 0 -0.036598910139905537 -0.13940640848273281 0 -0.044373996066445522 -0.15410502409631349 0 -0.027931832238556348 -0.1477000793095935 0 -0.029457876208252531 -0.159606685141789 0 -0.044373996066445522 -0.15410502409631349 0 -0.01445638115462268 -0.25038859752307729 0 -0.0097925411917082275 -0.2350620727506374 0 -0.025761323178947991 -0.23085273317288479 0 -0.01445638115462268 -0.25038859752307729 0 -0.03111743984621005 -0.25612041729060908 0 -0.025761323178947991 -0.23085273317288479 0 -0.01445638115462268 -0.25038859752307729 0 -0.0097925411917082275 -0.2350620727506374 0 0.0076957474634097864 -0.25032175843390908 0 -0.0097925411917082275 -0.2350620727506374 0 0.0076957474634097864 -0.25032175843390908 0 -0.0097925411917082275 -0.2350620727506374 0 -0.0065574519470419533 -0.214820418438218 0 0.0052482380929481766 -0.23255468427204029 0 -0.0097925411917082275 -0.2350620727506374 0 -0.025761323178947991 -0.23085273317288479 0 -0.0065574519470419533 -0.214820418438218 0 -0.025761323178947991 -0.23085273317288479 0 -0.030563247415471419 -0.21223631379849811 0 -0.0065574519470419533 -0.214820418438218 0 -0.030563247415471419 -0.21223631379849811 0 -0.0065574519470419533 -0.214820418438218 0 -0.020647715143637901 -0.19790638351047671 0 -0.0065574519470419533 -0.214820418438218 0 -0.0020010690508425301 -0.2007389962191608 0 -0.020647715143637901 -0.19790638351047671 0 -0.0076674425692238608 -0.1819829379196311 0 -0.020647715143637901 -0.19790638351047671 0 0.0066385746459730471 -0.18762293938074459 0 -0.0020010690508425301 -0.2007389962191608 0 -0.020647715143637901 -0.19790638351047671 0 0.0066385746459730471 -0.18762293938074459 0 -0.020647715143637901 -0.19790638351047671 0 0.0066385746459730471 -0.18762293938074459 0 -0.0076674425692238608 -0.1819829379196311 0 -0.02246058751139899 -0.18376816186634709 0 -0.020647715143637901 -0.19790638351047671 0 -0.02246058751139899 -0.18376816186634709 0 -0.020647715143637901 -0.19790638351047671 0 -0.03854522839030599 -0.19010875467139779 0 -0.020647715143637901 -0.19790638351047671 0 -0.03854522839030599 -0.19010875467139779 0 -0.047934004933248862 -0.20818982764020891 0 -0.020647715143637901 -0.19790638351047671 0 -0.047934004933248862 -0.20818982764020891 0 -0.055602064563934309 -0.18869046690157781 0 -0.047934004933248862 -0.20818982764020891 0 -0.066173874124916029 -0.2010622806915589 0 -0.03854522839030599 -0.19010875467139779 0 -0.055602064563934309 -0.18869046690157781 0 -0.047934004933248862 -0.20818982764020891 0 -0.047934004933248862 -0.20818982764020891 0 -0.058152355847957013 -0.22528154502713649 0 -0.075220294722860237 -0.21847327176994 0 -0.047934004933248862 -0.20818982764020891 0 -0.075220294722860237 -0.21847327176994 0 -0.030563247415471419 -0.21223631379849811 0 -0.047934004933248862 -0.20818982764020891 0 -0.043722681267827752 -0.2354195278083015 0 -0.030563247415471419 -0.21223631379849811 0 -0.020647715143637901 -0.19790638351047671 0 -0.047934004933248862 -0.20818982764020891 0 -0.030563247415471419 -0.21223631379849811 0 -0.043722681267827752 -0.2354195278083015 0 -0.025761323178947991 -0.23085273317288479 0 -0.030563247415471419 -0.21223631379849811 0 -0.043722681267827752 -0.2354195278083015 0 -0.047934004933248862 -0.20818982764020891 0 -0.058152355847957013 -0.22528154502713649 0 -0.043722681267827752 -0.2354195278083015 0 -0.058152355847957013 -0.22528154502713649 0 -0.043722681267827752 -0.2354195278083015 0 -0.065732442467890423 -0.23904355289009571 0 -0.056882115120184068 -0.258602741818105 0 -0.043722681267827752 -0.2354195278083015 0 -0.056882115120184068 -0.258602741818105 0 -0.043722681267827752 -0.2354195278083015 0 -0.065732442467890423 -0.23904355289009571 0 -0.03111743984621005 -0.25612041729060908 0 -0.025761323178947991 -0.23085273317288479 0 -0.043722681267827752 -0.2354195278083015 0 -0.073051277314283458 -0.25743571846949831 0 -0.087379472336805278 -0.24187516102157619 0 -0.065732442467890423 -0.23904355289009571 0 -0.058152355847957013 -0.22528154502713649 0 -0.065732442467890423 -0.23904355289009571 0 -0.075220294722860237 -0.21847327176994 0 -0.087379472336805278 -0.24187516102157619 0 -0.065732442467890423 -0.23904355289009571 0 -0.075220294722860237 -0.21847327176994 0 -0.075220294722860237 -0.21847327176994 0 -0.096055783299258859 -0.2120027395863581 0 -0.10314213340836111 -0.22899623661183291 0 -0.087379472336805278 -0.24187516102157619 0 -0.075220294722860237 -0.21847327176994 0 -0.087379472336805278 -0.24187516102157619 0 -0.075220294722860237 -0.21847327176994 0 -0.10314213340836111 -0.22899623661183291 0 -0.075220294722860237 -0.21847327176994 0 -0.10314213340836111 -0.22899623661183291 0 -0.075220294722860237 -0.21847327176994 0 -0.083057441930065021 -0.2011961248333641 0 -0.096055783299258859 -0.2120027395863581 0 -0.083057441930065021 -0.2011961248333641 0 -0.096328982928179485 -0.19866049789303239 0 -0.096055783299258859 -0.2120027395863581 0 -0.075220294722860237 -0.21847327176994 0 -0.066173874124916029 -0.2010622806915589 0 -0.075220294722860237 -0.21847327176994 0 -0.066173874124916029 -0.2010622806915589 0 -0.083057441930065021 -0.2011961248333641 0 -0.047934004933248862 -0.20818982764020891 0 -0.075220294722860237 -0.21847327176994 0 -0.066173874124916029 -0.2010622806915589 0 -0.066173874124916029 -0.2010622806915589 0 -0.072315068246660896 -0.1880870943354398 0 -0.083057441930065021 -0.2011961248333641 0 -0.055602064563934309 -0.18869046690157781 0 -0.066173874124916029 -0.2010622806915589 0 -0.072315068246660896 -0.1880870943354398 0 -0.072315068246660896 -0.1880870943354398 0 -0.083057441930065021 -0.2011961248333641 0 -0.089526915440454574 -0.18602114145624671 0 -0.083057441930065021 -0.2011961248333641 0 -0.096328982928179485 -0.19866049789303239 0 -0.089526915440454574 -0.18602114145624671 0 -0.096328982928179485 -0.19866049789303239 0 -0.10538432339520851 -0.18774355575532761 0 -0.10762045057591051 -0.20633892783386551 0 -0.096328982928179485 -0.19866049789303239 0 -0.10538432339520851 -0.18774355575532761 0 -0.089526915440454574 -0.18602114145624671 0 -0.10538432339520851 -0.18774355575532761 0 -0.12524202110302241 -0.2052122296632844 0 -0.11956624225348809 -0.1837053145386737 0 -0.12524202110302241 -0.2052122296632844 0 -0.12847810832223719 -0.18953501883725729 0 -0.10538432339520851 -0.18774355575532761 0 -0.10762045057591051 -0.20633892783386551 0 -0.12524202110302241 -0.2052122296632844 0 -0.10538432339520851 -0.18774355575532761 0 -0.11956624225348809 -0.1837053145386737 0 -0.12524202110302241 -0.2052122296632844 0 -0.11956624225348809 -0.1837053145386737 0 -0.12524202110302241 -0.2052122296632844 0 -0.1169872391490453 -0.2129500748051176 0 -0.10762045057591051 -0.20633892783386551 0 -0.12524202110302241 -0.2052122296632844 0 -0.1169872391490453 -0.2129500748051176 0 -0.1191831498085504 -0.22185419360887371 0 -0.12916614905953369 -0.2200817108633267 0 -0.1169872391490453 -0.2129500748051176 0 -0.12916614905953369 -0.2200817108633267 0 -0.12524202110302241 -0.2052122296632844 0 -0.1169872391490453 -0.2129500748051176 0 -0.1085977512482252 -0.21642843448920951 0 -0.1191831498085504 -0.22185419360887371 0 -0.1169872391490453 -0.2129500748051176 0 -0.1085977512482252 -0.21642843448920951 0 -0.10762045057591051 -0.20633892783386551 0 -0.1085977512482252 -0.21642843448920951 0 -0.10762045057591051 -0.20633892783386551 0 -0.096055783299258859 -0.2120027395863581 0 -0.096328982928179485 -0.19866049789303239 0 -0.10762045057591051 -0.20633892783386551 0 -0.096055783299258859 -0.2120027395863581 0 -0.1085977512482252 -0.21642843448920951 0 -0.096055783299258859 -0.2120027395863581 0 -0.10314213340836111 -0.22899623661183291 0 -0.10314213340836111 -0.22899623661183291 0 -0.1191831498085504 -0.22185419360887371 0 -0.1230108002042514 -0.22754533792899351 0 -0.10314213340836111 -0.22899623661183291 0 -0.1230108002042514 -0.22754533792899351 0 -0.13106397209386211 -0.23951920145372499 0 -0.10314213340836111 -0.22899623661183291 0 -0.13106397209386211 -0.23951920145372499 0 -0.1085977512482252 -0.21642843448920951 0 -0.10314213340836111 -0.22899623661183291 0 -0.1191831498085504 -0.22185419360887371 0 -0.1191831498085504 -0.22185419360887371 0 -0.1230108002042514 -0.22754533792899351 0 -0.12916614905953369 -0.2200817108633267 0 -0.1191831498085504 -0.22185419360887371 0 -0.1230108002042514 -0.22754533792899351 0 -0.120388863706147 -0.25677221141539519 0 -0.11757332655895231 -0.24319708930481029 0 -0.1321345853324031 -0.24111104339895839 0 -0.10314213340836111 -0.22899623661183291 0 -0.11757332655895231 -0.24319708930481029 0 -0.13106397209386211 -0.23951920145372499 0 -0.120388863706147 -0.25677221141539519 0 -0.11757332655895231 -0.24319708930481029 0 -0.104328086066999 -0.2478987508450152 0 -0.10314213340836111 -0.22899623661183291 0 -0.11757332655895231 -0.24319708930481029 0 -0.104328086066999 -0.2478987508450152 0 -0.087379472336805278 -0.24187516102157619 0 -0.10314213340836111 -0.22899623661183291 0 -0.104328086066999 -0.2478987508450152 0 -0.092399314855778542 -0.15421888660121241 0 -0.089033754231069406 -0.13391802693028609 0 -0.070908166307606241 -0.1462393737883603 0 -0.092399314855778542 -0.15421888660121241 0 -0.070908166307606241 -0.1462393737883603 0 -0.078103108604607688 -0.1597920146777233 0 -0.092399314855778542 -0.15421888660121241 0 -0.070908166307606241 -0.1462393737883603 0 -0.089033754231069406 -0.13391802693028609 0 -0.062658126441694939 -0.12541336612296419 0 -0.070908166307606241 -0.1462393737883603 0 -0.060769725623205553 -0.1619466337708966 0 -0.056367226439172829 -0.15013772315776969 0 -0.070908166307606241 -0.1462393737883603 0 -0.060769725623205553 -0.1619466337708966 0 -0.070908166307606241 -0.1462393737883603 0 -0.078103108604607688 -0.1597920146777233 0 -0.060769725623205553 -0.1619466337708966 0 -0.078103108604607688 -0.1597920146777233 0 -0.074491943533893656 -0.17421081206637529 0 -0.06037138828061335 -0.17593163183430721 0 -0.060769725623205553 -0.1619466337708966 0 -0.074491943533893656 -0.17421081206637529 0 -0.06037138828061335 -0.17593163183430721 0 -0.055602064563934309 -0.18869046690157781 0 -0.072315068246660896 -0.1880870943354398 0 -0.06037138828061335 -0.17593163183430721 0 -0.072315068246660896 -0.1880870943354398 0 -0.074491943533893656 -0.17421081206637529 0 -0.072315068246660896 -0.1880870943354398 0 -0.074491943533893656 -0.17421081206637529 0 -0.089526915440454574 -0.18602114145624671 0 -0.074491943533893656 -0.17421081206637529 0 -0.089526915440454574 -0.18602114145624671 0 -0.096076064092828747 -0.17102587676020531 0 -0.092399314855778542 -0.15421888660121241 0 -0.078103108604607688 -0.1597920146777233 0 -0.096076064092828747 -0.17102587676020531 0 -0.078103108604607688 -0.1597920146777233 0 -0.074491943533893656 -0.17421081206637529 0 -0.096076064092828747 -0.17102587676020531 0 -0.092399314855778542 -0.15421888660121241 0 -0.096076064092828747 -0.17102587676020531 0 -0.1138904634039512 -0.16219839941406369 0 -0.092399314855778542 -0.15421888660121241 0 -0.1138904634039512 -0.16219839941406369 0 -0.096076064092828747 -0.17102587676020531 0 -0.1087292732863691 -0.1761682866170676 0 -0.1138904634039512 -0.16219839941406369 0 -0.10538432339520851 -0.18774355575532761 0 -0.089526915440454574 -0.18602114145624671 0 -0.096076064092828747 -0.17102587676020531 0 -0.10538432339520851 -0.18774355575532761 0 -0.096076064092828747 -0.17102587676020531 0 -0.1087292732863691 -0.1761682866170676 0 -0.1087292732863691 -0.1761682866170676 0 -0.11956624225348809 -0.1837053145386737 0 -0.1138904634039512 -0.16219839941406369 0 -0.11956624225348809 -0.1837053145386737 0 -0.1138904634039512 -0.16219839941406369 0 -0.11956624225348809 -0.1837053145386737 0 -0.1138904634039512 -0.16219839941406369 0 -0.12726881071525489 -0.17743599815338529 0 -0.10538432339520851 -0.18774355575532761 0 -0.1087292732863691 -0.1761682866170676 0 -0.11956624225348809 -0.1837053145386737 0 -0.1138904634039512 -0.16219839941406369 0 -0.13123074467385451 -0.16863672430216919 0 -0.1138904634039512 -0.16219839941406369 0 -0.1278426897103889 -0.162217330065622 0 -0.13123074467385451 -0.16863672430216919 0 -0.1138904634039512 -0.16219839941406369 0 -0.13123074467385451 -0.16863672430216919 0 -0.12726881071525489 -0.17743599815338529 0 -0.1138904634039512 -0.16219839941406369 0 -0.1213894289007262 -0.15181876176418879 0 -0.1278426897103889 -0.162217330065622 0 -0.1138904634039512 -0.16219839941406369 0 -0.1084532332324451 -0.14159540361179579 0 -0.1138904634039512 -0.16219839941406369 0 -0.1213894289007262 -0.15181876176418879 0 -0.1084532332324451 -0.14159540361179579 0 -0.1213894289007262 -0.15181876176418879 0 -0.12024428358111269 -0.13969250987145579 0 -0.13059679912568939 -0.14659537862621649 0 -0.1213894289007262 -0.15181876176418879 0 -0.1084532332324451 -0.14159540361179579 0 -0.12024428358111269 -0.13969250987145579 0 -0.092399314855778542 -0.15421888660121241 0 -0.1138904634039512 -0.16219839941406369 0 -0.1084532332324451 -0.14159540361179579 0 -0.092399314855778542 -0.15421888660121241 0 -0.089033754231069406 -0.13391802693028609 0 -0.1084532332324451 -0.14159540361179579 0 -0.1110663418054073 -0.1246208076941883 0 -0.089033754231069406 -0.13391802693028609 0 -0.1084532332324451 -0.14159540361179579 0 -0.1110663418054073 -0.1246208076941883 0 -0.1084532332324451 -0.14159540361179579 0 -0.12024428358111269 -0.13969250987145579 0 -0.1110663418054073 -0.1246208076941883 0 -0.12024428358111269 -0.13969250987145579 0 -0.12986188190646511 -0.13074954693054719 0 -0.12024428358111269 -0.13969250987145579 0 -0.12986188190646511 -0.13074954693054719 0 -0.13059679912568939 -0.14659537862621649 0 -0.12986188190646511 -0.13074954693054719 0 -0.1428076032650413 -0.13567212202383319 0 -0.13059679912568939 -0.14659537862621649 0 -0.12986188190646511 -0.13074954693054719 0 -0.1428076032650413 -0.13567212202383319 0 -0.14028391624781639 -0.1208831083471215 0 -0.1428076032650413 -0.13567212202383319 0 -0.15337953675811519 -0.12596595461133181 0 -0.14028391624781639 -0.1208831083471215 0 -0.1428076032650413 -0.13567212202383319 0 -0.15337953675811519 -0.12596595461133181 0 -0.1579384384451698 -0.14249663598369081 0 -0.1525497797299111 -0.15331904853560949 0 -0.14444960910046051 -0.14894156321718691 0 -0.1579384384451698 -0.14249663598369081 0 -0.1428076032650413 -0.13567212202383319 0 -0.14444960910046051 -0.14894156321718691 0 -0.1579384384451698 -0.14249663598369081 0 -0.1525497797299111 -0.15331904853560949 0 -0.14444960910046051 -0.14894156321718691 0 -0.14430952267320321 -0.15906267633841339 0 -0.14444960910046051 -0.14894156321718691 0 -0.13516110226010181 -0.1542415934040535 0 -0.14430952267320321 -0.15906267633841339 0 -0.14444960910046051 -0.14894156321718691 0 -0.13516110226010181 -0.1542415934040535 0 -0.13059679912568939 -0.14659537862621649 0 -0.1428076032650413 -0.13567212202383319 0 -0.14444960910046051 -0.14894156321718691 0 -0.13059679912568939 -0.14659537862621649 0 -0.1213894289007262 -0.15181876176418879 0 -0.13059679912568939 -0.14659537862621649 0 -0.128606890690767 -0.1543910187728289 0 -0.1213894289007262 -0.15181876176418879 0 -0.128606890690767 -0.1543910187728289 0 -0.1278426897103889 -0.162217330065622 0 -0.13516110226010181 -0.1542415934040535 0 -0.13059679912568939 -0.14659537862621649 0 -0.128606890690767 -0.1543910187728289 0 -0.13123074467385451 -0.16863672430216919 0 -0.14857102594375801 -0.175075049190274 0 -0.1278426897103889 -0.162217330065622 0 -0.13123074467385451 -0.16863672430216919 0 -0.15350496055655169 -0.17030867721986889 0 -0.13516110226010181 -0.1542415934040535 0 -0.128606890690767 -0.1543910187728289 0 -0.1278426897103889 -0.162217330065622 0 -0.13516110226010181 -0.1542415934040535 0 -0.1278426897103889 -0.162217330065622 0 -0.14430952267320321 -0.15906267633841339 0 -0.13123074467385451 -0.16863672430216919 0 -0.1366257147928836 -0.17674804848193679 0 -0.14857102594375801 -0.175075049190274 0 -0.11956624225348809 -0.1837053145386737 0 -0.12726881071525489 -0.17743599815338529 0 -0.12847810832223719 -0.18953501883725729 0 -0.12726881071525489 -0.17743599815338529 0 -0.13597905295387239 -0.1848371920429068 0 -0.12847810832223719 -0.18953501883725729 0 -0.13123074467385451 -0.16863672430216919 0 -0.12726881071525489 -0.17743599815338529 0 -0.1366257147928836 -0.17674804848193679 0 -0.12726881071525489 -0.17743599815338529 0 -0.1366257147928836 -0.17674804848193679 0 -0.13597905295387239 -0.1848371920429068 0 -0.1366257147928836 -0.17674804848193679 0 -0.13597905295387239 -0.1848371920429068 0 -0.14237447817308649 -0.18074142878917829 0 -0.13597905295387239 -0.1848371920429068 0 -0.14237447817308649 -0.18074142878917829 0 -0.1487559829886351 -0.18954632389234069 0 -0.14237447817308649 -0.18074142878917829 0 -0.14857102594375801 -0.175075049190274 0 -0.1487559829886351 -0.18954632389234069 0 -0.1366257147928836 -0.17674804848193679 0 -0.14237447817308649 -0.18074142878917829 0 -0.14857102594375801 -0.175075049190274 0 -0.14857102594375801 -0.175075049190274 0 -0.15350496055655169 -0.17030867721986889 0 -0.15847818659667229 -0.18281954509243981 0 -0.14857102594375801 -0.175075049190274 0 -0.15847818659667229 -0.18281954509243981 0 -0.1487559829886351 -0.18954632389234069 0 -0.13123074467385451 -0.16863672430216919 0 -0.14857102594375801 -0.175075049190274 0 -0.15350496055655169 -0.17030867721986889 0 -0.1278426897103889 -0.162217330065622 0 -0.14430952267320321 -0.15906267633841339 0 -0.15350496055655169 -0.17030867721986889 0 -0.1278426897103889 -0.162217330065622 0 -0.15350496055655169 -0.17030867721986889 0 -0.14430952267320321 -0.15906267633841339 0 -0.15350496055655169 -0.17030867721986889 0 -0.15529233107264859 -0.1606128900749268 0 -0.1525497797299111 -0.15331904853560949 0 -0.15529233107264859 -0.1606128900749268 0 -0.1607589973580735 -0.1554814770638297 0 -0.1525497797299111 -0.15331904853560949 0 -0.14430952267320321 -0.15906267633841339 0 -0.15529233107264859 -0.1606128900749268 0 -0.15529233107264859 -0.1606128900749268 0 -0.16737187677167581 -0.16372844542638951 0 -0.1607589973580735 -0.1554814770638297 0 -0.15350496055655169 -0.17030867721986889 0 -0.16737187677167581 -0.16372844542638951 0 -0.17916723140271421 -0.17840002437411639 0 -0.15350496055655169 -0.17030867721986889 0 -0.15529233107264859 -0.1606128900749268 0 -0.16737187677167581 -0.16372844542638951 0 -0.16737187677167581 -0.16372844542638951 0 -0.1607589973580735 -0.1554814770638297 0 -0.17130206776368651 -0.15112408121805071 0 -0.15847818659667229 -0.18281954509243981 0 -0.17916723140271421 -0.17840002437411639 0 -0.16239173209170249 -0.2007676507855993 0 -0.15350496055655169 -0.17030867721986889 0 -0.15847818659667229 -0.18281954509243981 0 -0.17916723140271421 -0.17840002437411639 0 -0.15350496055655169 -0.17030867721986889 0 -0.17916723140271421 -0.17840002437411639 0 -0.17916723140271421 -0.17840002437411639 0 -0.179876639179296 -0.1582778815790335 0 -0.19631651477357939 -0.15553401266546529 0 -0.16737187677167581 -0.16372844542638951 0 -0.17916723140271421 -0.17840002437411639 0 -0.179876639179296 -0.1582778815790335 0 -0.16737187677167581 -0.16372844542638951 0 -0.179876639179296 -0.1582778815790335 0 -0.17130206776368651 -0.15112408121805071 0 -0.179876639179296 -0.1582778815790335 0 -0.18522550518482389 -0.14260284421114641 0 -0.19631651477357939 -0.15553401266546529 0 -0.179876639179296 -0.1582778815790335 0 -0.18522550518482389 -0.14260284421114641 0 -0.17130206776368651 -0.15112408121805071 0 -0.18522550518482389 -0.14260284421114641 0 -0.1726304190002956 -0.1395721100844334 0 -0.17130206776368651 -0.15112408121805071 0 -0.18522550518482389 -0.14260284421114641 0 -0.18177795587056031 -0.12683496289893381 0 -0.1726304190002956 -0.1395721100844334 0 -0.18177795587056031 -0.12683496289893381 0 -0.1726304190002956 -0.1395721100844334 0 -0.16888661091080351 -0.12613169669527621 0 -0.1726304190002956 -0.1395721100844334 0 -0.16888661091080351 -0.12613169669527621 0 -0.1579384384451698 -0.14249663598369081 0 -0.15337953675811519 -0.12596595461133181 0 -0.16888661091080351 -0.12613169669527621 0 -0.1579384384451698 -0.14249663598369081 0 -0.1525497797299111 -0.15331904853560949 0 -0.1579384384451698 -0.14249663598369081 0 -0.1607589973580735 -0.1554814770638297 0 -0.1579384384451698 -0.14249663598369081 0 -0.1607589973580735 -0.1554814770638297 0 -0.17130206776368651 -0.15112408121805071 0 -0.1726304190002956 -0.1395721100844334 0 -0.1579384384451698 -0.14249663598369081 0 -0.17130206776368651 -0.15112408121805071 0 -0.1545873459861043 -0.2472905373035425 0 -0.1481308262668774 -0.2388808696738422 0 -0.1430149355188356 -0.24754299693300361 0 -0.1545873459861043 -0.2472905373035425 0 -0.1481308262668774 -0.2388808696738422 0 -0.1632250505098907 -0.23862562755602779 0 -0.1481308262668774 -0.2388808696738422 0 -0.1430149355188356 -0.24754299693300361 0 -0.13405959354170799 -0.23854433205007569 0 -0.13787151839962 -0.24964100582109611 0 -0.1321345853324031 -0.24111104339895839 0 -0.13405959354170799 -0.23854433205007569 0 -0.1430149355188356 -0.24754299693300361 0 -0.13405959354170799 -0.23854433205007569 0 -0.1430149355188356 -0.24754299693300361 0 -0.13787151839962 -0.24964100582109611 0 -0.13787151839962 -0.24964100582109611 0 -0.1321345853324031 -0.24111104339895839 0 -0.120388863706147 -0.25677221141539519 0 -0.1321345853324031 -0.24111104339895839 0 -0.1430149355188356 -0.24754299693300361 0 -0.13787151839962 -0.24964100582109611 0 -0.13405959354170799 -0.23854433205007569 0 -0.120388863706147 -0.25677221141539519 0 -0.13787151839962 -0.24964100582109611 0 -0.1321345853324031 -0.24111104339895839 0 -0.11757332655895231 -0.24319708930481029 0 -0.1321345853324031 -0.24111104339895839 0 -0.13106397209386211 -0.23951920145372499 0 -0.1230108002042514 -0.22754533792899351 0 -0.13106397209386211 -0.23951920145372499 0 -0.13405959354170799 -0.23854433205007569 0 -0.1321345853324031 -0.24111104339895839 0 -0.13106397209386211 -0.23951920145372499 0 -0.1321345853324031 -0.24111104339895839 0 -0.13106397209386211 -0.23951920145372499 0 -0.13405959354170799 -0.23854433205007569 0 -0.1321345853324031 -0.24111104339895839 0 -0.13405959354170799 -0.23854433205007569 0 -0.132725851155574 -0.22818718398046231 0 -0.12916614905953369 -0.2200817108633267 0 -0.14561623278069019 -0.22313527719708179 0 -0.13405959354170799 -0.23854433205007569 0 -0.132725851155574 -0.22818718398046231 0 -0.14561623278069019 -0.22313527719708179 0 -0.13405959354170799 -0.23854433205007569 0 -0.14561623278069019 -0.22313527719708179 0 -0.1230108002042514 -0.22754533792899351 0 -0.13106397209386211 -0.23951920145372499 0 -0.1230108002042514 -0.22754533792899351 0 -0.13405959354170799 -0.23854433205007569 0 -0.132725851155574 -0.22818718398046231 0 -0.1230108002042514 -0.22754533792899351 0 -0.13405959354170799 -0.23854433205007569 0 -0.1230108002042514 -0.22754533792899351 0 -0.132725851155574 -0.22818718398046231 0 -0.12916614905953369 -0.2200817108633267 0 -0.1481308262668774 -0.2388808696738422 0 -0.13405959354170799 -0.23854433205007569 0 -0.14561623278069019 -0.22313527719708179 0 -0.14561623278069019 -0.22313527719708179 0 -0.1632250505098907 -0.23862562755602779 0 -0.1481308262668774 -0.2388808696738422 0 -0.14561623278069019 -0.22313527719708179 0 -0.1632250505098907 -0.23862562755602779 0 -0.14561623278069019 -0.22313527719708179 0 -0.1588217871418181 -0.2213815247947172 0 -0.1632250505098907 -0.23862562755602779 0 -0.14561623278069019 -0.22313527719708179 0 -0.16239173209170249 -0.2007676507855993 0 -0.14561623278069019 -0.22313527719708179 0 -0.1429846808024666 -0.204445318451623 0 -0.16239173209170249 -0.2007676507855993 0 -0.14561623278069019 -0.22313527719708179 0 -0.16239173209170249 -0.2007676507855993 0 -0.1588217871418181 -0.2213815247947172 0 -0.14561623278069019 -0.22313527719708179 0 -0.12524202110302241 -0.2052122296632844 0 -0.14561623278069019 -0.22313527719708179 0 -0.1429846808024666 -0.204445318451623 0 -0.12524202110302241 -0.2052122296632844 0 -0.12916614905953369 -0.2200817108633267 0 -0.14561623278069019 -0.22313527719708179 0 -0.12524202110302241 -0.2052122296632844 0 -0.12916614905953369 -0.2200817108633267 0 -0.12524202110302241 -0.2052122296632844 0 -0.12524202110302241 -0.2052122296632844 0 -0.13433441458554829 -0.19648435978803649 0 -0.12847810832223719 -0.18953501883725729 0 -0.1429846808024666 -0.204445318451623 0 -0.12524202110302241 -0.2052122296632844 0 -0.13433441458554829 -0.19648435978803649 0 -0.13597905295387239 -0.1848371920429068 0 -0.13433441458554829 -0.19648435978803649 0 -0.12847810832223719 -0.18953501883725729 0 -0.13597905295387239 -0.1848371920429068 0 -0.13433441458554829 -0.19648435978803649 0 -0.1487559829886351 -0.18954632389234069 0 -0.1429846808024666 -0.204445318451623 0 -0.1487559829886351 -0.18954632389234069 0 -0.16239173209170249 -0.2007676507855993 0 -0.1429846808024666 -0.204445318451623 0 -0.13433441458554829 -0.19648435978803649 0 -0.1487559829886351 -0.18954632389234069 0 -0.15847818659667229 -0.18281954509243981 0 -0.1487559829886351 -0.18954632389234069 0 -0.16239173209170249 -0.2007676507855993 0 -0.17916723140271421 -0.17840002437411639 0 -0.16239173209170249 -0.2007676507855993 0 -0.17916723140271421 -0.17840002437411639 0 -0.16239173209170249 -0.2007676507855993 0 -0.18024571315628821 -0.20291913897854719 0 -0.17916723140271421 -0.17840002437411639 0 -0.18024571315628821 -0.20291913897854719 0 -0.19398690136803029 -0.1988610726103944 0 -0.18024571315628821 -0.20291913897854719 0 -0.18179398691960269 -0.21306010144320681 0 -0.17291385426693801 -0.21383659773140451 0 -0.18024571315628821 -0.20291913897854719 0 -0.18179398691960269 -0.21306010144320681 0 -0.1903617827462977 -0.2108340014449801 0 -0.18179398691960269 -0.21306010144320681 0 -0.1892735351187502 -0.218584997407618 0 -0.1903617827462977 -0.2108340014449801 0 -0.18179398691960269 -0.21306010144320681 0 -0.18137880365463999 -0.22010736470931469 0 -0.1892735351187502 -0.218584997407618 0 -0.18179398691960269 -0.21306010144320681 0 -0.17291385426693801 -0.21383659773140451 0 -0.18137880365463999 -0.22010736470931469 0 -0.16239173209170249 -0.2007676507855993 0 -0.18024571315628821 -0.20291913897854719 0 -0.17291385426693801 -0.21383659773140451 0 -0.16239173209170249 -0.2007676507855993 0 -0.17291385426693801 -0.21383659773140451 0 -0.1588217871418181 -0.2213815247947172 0 -0.1588217871418181 -0.2213815247947172 0 -0.17341638050954741 -0.22746929372458149 0 -0.1632250505098907 -0.23862562755602779 0 -0.17291385426693801 -0.21383659773140451 0 -0.1588217871418181 -0.2213815247947172 0 -0.17341638050954741 -0.22746929372458149 0 -0.1588217871418181 -0.2213815247947172 0 -0.17341638050954741 -0.22746929372458149 0 -0.17291385426693801 -0.21383659773140451 0 -0.18137880365463999 -0.22010736470931469 0 -0.17341638050954741 -0.22746929372458149 0 -0.18137880365463999 -0.22010736470931469 0 -0.18656482885541731 -0.22487143914364949 0 -0.1892735351187502 -0.218584997407618 0 -0.18137880365463999 -0.22010736470931469 0 -0.18656482885541731 -0.22487143914364949 0 -0.17341638050954741 -0.22746929372458149 0 -0.17341638050954741 -0.22746929372458149 0 -0.18801097387727589 -0.23355706265444731 0 -0.18656482885541731 -0.22487143914364949 0 -0.17341638050954741 -0.22746929372458149 0 -0.18801097387727589 -0.23355706265444731 0 -0.17341638050954741 -0.22746929372458149 0 -0.17525742040752709 -0.23774388118707129 0 -0.18801097387727589 -0.23355706265444731 0 -0.17637727673339379 -0.25132354081323011 0 -0.17525742040752709 -0.23774388118707129 0 -0.18801097387727589 -0.23355706265444731 0 -0.17637727673339379 -0.25132354081323011 0 -0.18801097387727589 -0.23355706265444731 0 -0.17637727673339379 -0.25132354081323011 0 -0.1951871203824995 -0.2365504123579894 0 -0.18801097387727589 -0.23355706265444731 0 -0.17637727673339379 -0.25132354081323011 0 -0.17525742040752709 -0.23774388118707129 0 -0.1632250505098907 -0.23862562755602779 0 -0.16315446049666699 -0.2529892402972011 0 -0.17637727673339379 -0.25132354081323011 0 -0.1632250505098907 -0.23862562755602779 0 -0.17341638050954741 -0.22746929372458149 0 -0.17525742040752709 -0.23774388118707129 0 -0.1632250505098907 -0.23862562755602779 0 -0.16315446049666699 -0.2529892402972011 0 -0.1545873459861043 -0.2472905373035425 0 -0.1632250505098907 -0.23862562755602779 0 -0.21328338570417679 -0.2440988160028281 0 -0.1951871203824995 -0.2365504123579894 0 -0.21328338570417679 -0.2440988160028281 0 -0.1951871203824995 -0.2365504123579894 0 -0.20855951036462081 -0.22995779869371291 0 -0.20139530574148681 -0.25048772882533799 0 -0.21328338570417679 -0.2440988160028281 0 -0.1951871203824995 -0.2365504123579894 0 -0.18998674056478279 -0.26279643774595629 0 -0.20139530574148681 -0.25048772882533799 0 -0.1951871203824995 -0.2365504123579894 0 -0.18998674056478279 -0.26279643774595629 0 -0.1951871203824995 -0.2365504123579894 0 -0.1951871203824995 -0.2365504123579894 0 -0.18801097387727589 -0.23355706265444731 0 -0.1951871203824995 -0.2365504123579894 0 -0.20090381621664019 -0.22811455922117041 0 -0.1987112644161049 -0.21876425499665669 0 -0.1951871203824995 -0.2365504123579894 0 -0.20090381621664019 -0.22811455922117041 0 -0.20855951036462081 -0.22995779869371291 0 -0.1951871203824995 -0.2365504123579894 0 -0.18801097387727589 -0.23355706265444731 0 -0.19649878115773761 -0.22059485117524849 0 -0.1951871203824995 -0.2365504123579894 0 -0.1987112644161049 -0.21876425499665669 0 -0.1951871203824995 -0.2365504123579894 0 -0.19649878115773761 -0.22059485117524849 0 -0.1987112644161049 -0.21876425499665669 0 -0.18801097387727589 -0.23355706265444731 0 -0.19649878115773761 -0.22059485117524849 0 -0.18656482885541731 -0.22487143914364949 0 -0.18801097387727589 -0.23355706265444731 0 -0.19649878115773761 -0.22059485117524849 0 -0.18656482885541731 -0.22487143914364949 0 -0.19649878115773761 -0.22059485117524849 0 -0.1892735351187502 -0.218584997407618 0 -0.20090381621664019 -0.22811455922117041 0 -0.1987112644161049 -0.21876425499665669 0 -0.20456788120889099 -0.22191920467195941 0 -0.20456788120889099 -0.22191920467195941 0 -0.20855951036462081 -0.22995779869371291 0 -0.21098309712108909 -0.21783888475757979 0 -0.21328338570417679 -0.2440988160028281 0 -0.20855951036462081 -0.22995779869371291 0 -0.2236332570232305 -0.21989118175291711 0 -0.21328338570417679 -0.2440988160028281 0 -0.2236332570232305 -0.21989118175291711 0 -0.20090381621664019 -0.22811455922117041 0 -0.20456788120889099 -0.22191920467195941 0 -0.20855951036462081 -0.22995779869371291 0 -0.20855951036462081 -0.22995779869371291 0 -0.21098309712108909 -0.21783888475757979 0 -0.2236332570232305 -0.21989118175291711 0 -0.21098309712108909 -0.21783888475757979 0 -0.20901225026099671 -0.20546174141574761 0 -0.2236332570232305 -0.21989118175291711 0 -0.20901225026099671 -0.20546174141574761 0 -0.20456987196390469 -0.21354902408537449 0 -0.1985236372420271 -0.20994835831692579 0 -0.21098309712108909 -0.21783888475757979 0 -0.20901225026099671 -0.20546174141574761 0 -0.20456987196390469 -0.21354902408537449 0 -0.20456788120889099 -0.22191920467195941 0 -0.21098309712108909 -0.21783888475757979 0 -0.20456987196390469 -0.21354902408537449 0 -0.1987112644161049 -0.21876425499665669 0 -0.20456788120889099 -0.22191920467195941 0 -0.20456987196390469 -0.21354902408537449 0 -0.1987112644161049 -0.21876425499665669 0 -0.20456987196390469 -0.21354902408537449 0 -0.1985236372420271 -0.20994835831692579 0 -0.1987112644161049 -0.21876425499665669 0 -0.19441428023116339 -0.2156727308840248 0 -0.1985236372420271 -0.20994835831692579 0 -0.19649878115773761 -0.22059485117524849 0 -0.1987112644161049 -0.21876425499665669 0 -0.19441428023116339 -0.2156727308840248 0 -0.19649878115773761 -0.22059485117524849 0 -0.19441428023116339 -0.2156727308840248 0 -0.1892735351187502 -0.218584997407618 0 -0.19441428023116339 -0.2156727308840248 0 -0.1903617827462977 -0.2108340014449801 0 -0.1985236372420271 -0.20994835831692579 0 -0.19441428023116339 -0.2156727308840248 0 -0.1892735351187502 -0.218584997407618 0 -0.1903617827462977 -0.2108340014449801 0 -0.18024571315628821 -0.20291913897854719 0 -0.1903617827462977 -0.2108340014449801 0 -0.19398690136803029 -0.1988610726103944 0 -0.1903617827462977 -0.2108340014449801 0 -0.1985236372420271 -0.20994835831692579 0 -0.19398690136803029 -0.1988610726103944 0 -0.20901225026099671 -0.20546174141574761 0 -0.1985236372420271 -0.20994835831692579 0 -0.19398690136803029 -0.1988610726103944 0 -0.17916723140271421 -0.17840002437411639 0 -0.19398690136803029 -0.1988610726103944 0 -0.20657517987249699 -0.18704178593855969 0 -0.20901225026099671 -0.20546174141574761 0 -0.19398690136803029 -0.1988610726103944 0 -0.20657517987249699 -0.18704178593855969 0 -0.20901225026099671 -0.20546174141574761 0 -0.23398312834227941 -0.1956835475030039 0 -0.20657517987249699 -0.18704178593855969 0 -0.23398312834227941 -0.1956835475030039 0 -0.20657517987249699 -0.18704178593855969 0 -0.23398312834227941 -0.1956835475030039 0 -0.24504024716200021 -0.19264976878867901 0 -0.24222288572303641 -0.17641132402963619 0 -0.23398312834227941 -0.1956835475030039 0 -0.25235756446763818 -0.201477030953672 0 -0.23398312834227941 -0.1956835475030039 0 -0.24504024716200021 -0.19264976878867901 0 -0.25235756446763818 -0.201477030953672 0 -0.23398312834227941 -0.1956835475030039 0 -0.24394874291565219 -0.21675591692375329 0 -0.25235756446763818 -0.201477030953672 0 -0.20901225026099671 -0.20546174141574761 0 -0.23398312834227941 -0.1956835475030039 0 -0.2236332570232305 -0.21989118175291711 0 -0.23398312834227941 -0.1956835475030039 0 -0.24394874291565219 -0.21675591692375329 0 -0.2236332570232305 -0.21989118175291711 0 -0.23398312834227941 -0.1956835475030039 0 -0.2236332570232305 -0.21989118175291711 0 -0.21328338570417679 -0.2440988160028281 0 -0.2236332570232305 -0.21989118175291711 0 -0.24002632773827151 -0.23693900435056189 0 -0.24394874291565219 -0.21675591692375329 0 -0.24002632773827151 -0.23693900435056189 0 -0.25737524138608681 -0.23056732834211319 0 -0.24394874291565219 -0.21675591692375329 0 -0.2236332570232305 -0.21989118175291711 0 -0.24002632773827151 -0.23693900435056189 0 -0.25244940239910019 -0.26043593849293539 0 -0.2328663940516385 -0.25226737724788167 0 -0.24002632773827151 -0.23693900435056189 0 -0.2328663940516385 -0.25226737724788167 0 -0.21328338570417679 -0.2440988160028281 0 -0.2328663940516385 -0.25226737724788167 0 -0.21328338570417679 -0.2440988160028281 0 -0.24002632773827151 -0.23693900435056189 0 -0.20872368169478281 -0.1401506993408593 0 -0.20984716032453479 -0.16802825931762189 0 -0.22547328370890929 -0.15828101168524811 0 -0.20872368169478281 -0.1401506993408593 0 -0.19631651477357939 -0.15553401266546529 0 -0.20984716032453479 -0.16802825931762189 0 -0.20872368169478281 -0.1401506993408593 0 -0.22547328370890929 -0.15828101168524811 0 -0.20872368169478281 -0.1401506993408593 0 -0.2190385450891664 -0.12140794937950571 0 -0.19744881141458229 -0.12457945009389371 0 -0.18522550518482389 -0.14260284421114641 0 -0.20872368169478281 -0.1401506993408593 0 -0.19744881141458229 -0.12457945009389371 0 -0.18522550518482389 -0.14260284421114641 0 -0.18177795587056031 -0.12683496289893381 0 -0.19744881141458229 -0.12457945009389371 0 -0.18522550518482389 -0.14260284421114641 0 -0.20872368169478281 -0.1401506993408593 0 -0.19631651477357939 -0.15553401266546529 0 -0.17916723140271421 -0.17840002437411639 0 -0.19631651477357939 -0.15553401266546529 0 -0.17916723140271421 -0.17840002437411639 0 -0.19631651477357939 -0.15553401266546529 0 -0.20984716032453479 -0.16802825931762189 0 -0.17916723140271421 -0.17840002437411639 0 -0.20657517987249699 -0.18704178593855969 0 -0.20984716032453479 -0.16802825931762189 0 -0.17916723140271421 -0.17840002437411639 0 -0.20657517987249699 -0.18704178593855969 0 -0.20657517987249699 -0.18704178593855969 0 -0.20984716032453479 -0.16802825931762189 0 -0.22362032759425179 -0.17708918569481411 0 -0.22547328370890929 -0.15828101168524811 0 -0.24222288572303641 -0.17641132402963619 0 -0.20984716032453479 -0.16802825931762189 0 -0.22547328370890929 -0.15828101168524811 0 -0.22362032759425179 -0.17708918569481411 0 -0.22547328370890929 -0.15828101168524811 0 -0.22362032759425179 -0.17708918569481411 0 -0.24222288572303641 -0.17641132402963619 0 -0.23398312834227941 -0.1956835475030039 0 -0.22362032759425179 -0.17708918569481411 0 -0.24222288572303641 -0.17641132402963619 0 -0.23398312834227941 -0.1956835475030039 0 -0.20657517987249699 -0.18704178593855969 0 -0.22362032759425179 -0.17708918569481411 0 -0.24504024716200021 -0.19264976878867901 0 -0.24222288572303641 -0.17641132402963619 0 -0.25647744315801629 -0.1918409192169887 0 -0.23398312834227941 -0.1956835475030039 0 -0.24222288572303641 -0.17641132402963619 0 -0.24222288572303641 -0.17641132402963619 0 -0.25647744315801629 -0.1918409192169887 0 -0.22547328370890929 -0.15828101168524811 0 -0.24222288572303641 -0.17641132402963619 0 -0.25247834534795749 -0.15242451221220529 0 -0.24222288572303641 -0.17641132402963619 0 -0.25247834534795749 -0.15242451221220529 0 -0.23575844521856229 -0.13691623079585519 0 -0.25247834534795749 -0.15242451221220529 0 -0.22547328370890929 -0.15828101168524811 0 -0.23575844521856229 -0.13691623079585519 0 -0.25247834534795749 -0.15242451221220529 0 -0.20872368169478281 -0.1401506993408593 0 -0.22547328370890929 -0.15828101168524811 0 -0.23575844521856229 -0.13691623079585519 0 -0.23575844521856229 -0.13691623079585519 0 -0.2190385450891664 -0.12140794937950571 0 -0.20872368169478281 -0.1401506993408593 0 -0.23575844521856229 -0.13691623079585519 0 -0.2190385450891664 -0.12140794937950571 0 -0.23575844521856229 -0.13691623079585519 0 -0.2388587585210471 -0.1154889826266227 0 -0.26320209547441559 -0.12734240125195009 0 -0.2388587585210471 -0.1154889826266227 0 -0.2424488268228237 -0.095069973537377062 0 -0.22396370301556279 -0.10182134705103341 0 -0.2388587585210471 -0.1154889826266227 0 -0.2424488268228237 -0.095069973537377062 0 -0.25485205480712741 -0.1050993971302407 0 -0.2424488268228237 -0.095069973537377062 0 -0.22396370301556279 -0.10182134705103341 0 -0.23101478203134879 -0.085842567727191982 0 -0.23575844521856229 -0.13691623079585519 0 -0.2388587585210471 -0.1154889826266227 0 -0.2190385450891664 -0.12140794937950571 0 -0.2388587585210471 -0.1154889826266227 0 -0.22396370301556279 -0.10182134705103341 0 -0.2190385450891664 -0.12140794937950571 0 -0.23706814196845991 -0.058727718000564449 0 -0.25435412317631328 -0.057439415585967837 0 -0.25135042489119219 -0.073388271780483294 0 -0.22346781773761121 -0.070792702405703317 0 -0.23706814196845991 -0.058727718000564449 0 -0.25135042489119219 -0.073388271780483294 0 -0.23101478203134879 -0.085842567727191982 0 -0.22346781773761121 -0.070792702405703317 0 -0.25135042489119219 -0.073388271780483294 0 -0.22346781773761121 -0.070792702405703317 0 -0.25135042489119219 -0.073388271780483294 0 -0.2424488268228237 -0.095069973537377062 0 -0.23101478203134879 -0.085842567727191982 0 -0.25135042489119219 -0.073388271780483294 0 -0.22396370301556279 -0.10182134705103341 0 -0.23101478203134879 -0.085842567727191982 0 -0.2138431376895541 -0.088140543861362844 0 -0.23101478203134879 -0.085842567727191982 0 -0.22346781773761121 -0.070792702405703317 0 -0.2138431376895541 -0.088140543861362844 0 -0.22346781773761121 -0.070792702405703317 0 -0.20897509672737691 -0.062621783359424615 0 -0.22383408816135239 -0.058893339907846558 0 -0.22346781773761121 -0.070792702405703317 0 -0.22383408816135239 -0.058893339907846558 0 -0.23706814196845991 -0.058727718000564449 0 -0.22346781773761121 -0.070792702405703317 0 -0.20954582970461699 -0.074490590753222882 0 -0.2138431376895541 -0.088140543861362844 0 -0.22346781773761121 -0.070792702405703317 0 -0.20954582970461699 -0.074490590753222882 0 -0.19558521058403011 -0.068197133030924645 0 -0.22346781773761121 -0.070792702405703317 0 -0.20897509672737691 -0.062621783359424615 0 -0.19558521058403011 -0.068197133030924645 0 -0.22346781773761121 -0.070792702405703317 0 -0.19558521058403011 -0.068197133030924645 0 -0.2138431376895541 -0.088140543861362844 0 -0.19984261120375599 -0.085806470873255727 0 -0.20231864495977059 -0.1058996679631561 0 -0.20954582970461699 -0.074490590753222882 0 -0.2138431376895541 -0.088140543861362844 0 -0.19984261120375599 -0.085806470873255727 0 -0.20954582970461699 -0.074490590753222882 0 -0.19984261120375599 -0.085806470873255727 0 -0.20060417953638809 -0.075577391947457759 0 -0.1884748162232513 -0.084485650401353377 0 -0.19984261120375599 -0.085806470873255727 0 -0.18738270871644869 -0.09672235426832386 0 -0.1884748162232513 -0.084485650401353377 0 -0.19984261120375599 -0.085806470873255727 0 -0.19553878650145051 -0.077851969893722728 0 -0.1884748162232513 -0.084485650401353377 0 -0.19553878650145051 -0.077851969893722728 0 -0.1871131269012091 -0.075045366467340169 0 -0.19984261120375599 -0.085806470873255727 0 -0.19553878650145051 -0.077851969893722728 0 -0.20060417953638809 -0.075577391947457759 0 -0.20954582970461699 -0.074490590753222882 0 -0.20060417953638809 -0.075577391947457759 0 -0.19558521058403011 -0.068197133030924645 0 -0.19553878650145051 -0.077851969893722728 0 -0.19558521058403011 -0.068197133030924645 0 -0.19553878650145051 -0.077851969893722728 0 -0.20060417953638809 -0.075577391947457759 0 -0.19558521058403011 -0.068197133030924645 0 -0.19553878650145051 -0.077851969893722728 0 -0.19203387275826789 -0.072190554688036257 0 -0.19558521058403011 -0.068197133030924645 0 -0.19553878650145051 -0.077851969893722728 0 -0.19203387275826789 -0.072190554688036257 0 -0.1871131269012091 -0.075045366467340169 0 -0.19203387275826789 -0.072190554688036257 0 -0.18989836704638199 -0.0676677493601575 0 -0.1871131269012091 -0.075045366467340169 0 -0.18989836704638199 -0.0676677493601575 0 -0.19558521058403011 -0.068197133030924645 0 -0.19203387275826789 -0.072190554688036257 0 -0.18989836704638199 -0.0676677493601575 0 -0.19558521058403011 -0.068197133030924645 0 -0.2190385450891664 -0.12140794937950571 0 -0.20231864495977059 -0.1058996679631561 0 -0.19744881141458229 -0.12457945009389371 0 -0.22396370301556279 -0.10182134705103341 0 -0.2190385450891664 -0.12140794937950571 0 -0.20231864495977059 -0.1058996679631561 0 -0.2190385450891664 -0.12140794937950571 0 -0.20231864495977059 -0.1058996679631561 0 -0.22396370301556279 -0.10182134705103341 0 -0.2138431376895541 -0.088140543861362844 0 -0.20231864495977059 -0.1058996679631561 0 -0.19984261120375599 -0.085806470873255727 0 -0.20231864495977059 -0.1058996679631561 0 -0.18738270871644869 -0.09672235426832386 0 -0.20231864495977059 -0.1058996679631561 0 -0.18122438943255531 -0.1118817444430695 0 -0.18738270871644869 -0.09672235426832386 0 -0.20231864495977059 -0.1058996679631561 0 -0.19744881141458229 -0.12457945009389371 0 -0.18122438943255531 -0.1118817444430695 0 -0.16888661091080351 -0.12613169669527621 0 -0.18122438943255531 -0.1118817444430695 0 -0.16650817730761611 -0.1094285293704213 0 -0.18177795587056031 -0.12683496289893381 0 -0.19744881141458229 -0.12457945009389371 0 -0.18122438943255531 -0.1118817444430695 0 -0.18177795587056031 -0.12683496289893381 0 -0.16888661091080351 -0.12613169669527621 0 -0.18122438943255531 -0.1118817444430695 0 -0.15337953675811519 -0.12596595461133181 0 -0.16650817730761611 -0.1094285293704213 0 -0.1506045199642228 -0.11150442852423641 0 -0.15337953675811519 -0.12596595461133181 0 -0.16888661091080351 -0.12613169669527621 0 -0.16650817730761611 -0.1094285293704213 0 -0.16650817730761611 -0.1094285293704213 0 -0.1711937948674388 -0.097433906485085833 0 -0.15459371518640319 -0.096463408549400637 0 -0.16650817730761611 -0.1094285293704213 0 -0.1506045199642228 -0.11150442852423641 0 -0.15459371518640319 -0.096463408549400637 0 -0.18122438943255531 -0.1118817444430695 0 -0.1711937948674388 -0.097433906485085833 0 -0.18738270871644869 -0.09672235426832386 0 -0.1711937948674388 -0.097433906485085833 0 -0.18738270871644869 -0.09672235426832386 0 -0.17920664998699001 -0.088971107458240273 0 -0.18122438943255531 -0.1118817444430695 0 -0.16650817730761611 -0.1094285293704213 0 -0.1711937948674388 -0.097433906485085833 0 -0.1884748162232513 -0.084485650401353377 0 -0.18738270871644869 -0.09672235426832386 0 -0.17920664998699001 -0.088971107458240273 0 -0.1884748162232513 -0.084485650401353377 0 -0.17945757817403599 -0.079668266612598904 0 -0.1871131269012091 -0.075045366467340169 0 -0.1884748162232513 -0.084485650401353377 0 -0.17945757817403599 -0.079668266612598904 0 -0.17920664998699001 -0.088971107458240273 0 -0.17945757817403599 -0.079668266612598904 0 -0.17118170438914751 -0.075964782909519468 0 -0.16757977247710931 -0.084644604647166596 0 -0.17945757817403599 -0.079668266612598904 0 -0.17920664998699001 -0.088971107458240273 0 -0.16757977247710931 -0.084644604647166596 0 -0.1711937948674388 -0.097433906485085833 0 -0.17920664998699001 -0.088971107458240273 0 -0.16757977247710931 -0.084644604647166596 0 -0.18989836704638199 -0.0676677493601575 0 -0.17697006215818711 -0.068340833925598005 0 -0.1717260904099239 -0.055187128190487433 0 -0.18989836704638199 -0.0676677493601575 0 -0.1871131269012091 -0.075045366467340169 0 -0.17697006215818711 -0.068340833925598005 0 -0.17945757817403599 -0.079668266612598904 0 -0.1871131269012091 -0.075045366467340169 0 -0.17697006215818711 -0.068340833925598005 0 -0.17945757817403599 -0.079668266612598904 0 -0.17697006215818711 -0.068340833925598005 0 -0.17118170438914751 -0.075964782909519468 0 -0.17697006215818711 -0.068340833925598005 0 -0.16071940474725749 -0.071205426452714396 0 -0.1717260904099239 -0.055187128190487433 0 -0.17697006215818711 -0.068340833925598005 0 -0.17118170438914751 -0.075964782909519468 0 -0.16071940474725749 -0.071205426452714396 0 -0.17118170438914751 -0.075964782909519468 0 -0.16071940474725749 -0.071205426452714396 0 -0.16757977247710931 -0.084644604647166596 0 -0.1711937948674388 -0.097433906485085833 0 -0.16757977247710931 -0.084644604647166596 0 -0.15459371518640319 -0.096463408549400637 0 -0.16071940474725749 -0.071205426452714396 0 -0.16757977247710931 -0.084644604647166596 0 -0.15593216693945819 -0.08393691967323498 0 -0.16757977247710931 -0.084644604647166596 0 -0.15593216693945819 -0.08393691967323498 0 -0.15459371518640319 -0.096463408549400637 0 -0.16071940474725749 -0.071205426452714396 0 -0.15593216693945819 -0.08393691967323498 0 -0.14083577534706279 -0.083434239043658265 0 -0.15593216693945819 -0.08393691967323498 0 -0.14083577534706279 -0.083434239043658265 0 -0.15459371518640319 -0.096463408549400637 0 -0.16071940474725749 -0.071205426452714396 0 -0.14083577534706279 -0.083434239043658265 0 -0.14777939183958561 -0.06039084091583146 0 -0.1238326932692472 -0.065594553641175501 0 -0.12863804936774489 -0.076802340418861664 0 -0.14777939183958561 -0.06039084091583146 0 -0.14083577534706279 -0.083434239043658265 0 -0.12863804936774489 -0.076802340418861664 0 -0.14777939183958561 -0.06039084091583146 0 -0.1238326932692472 -0.065594553641175501 0 -0.14777939183958561 -0.06039084091583146 0 -0.1147765590452736 -0.097427281403426852 0 -0.14083577534706279 -0.083434239043658265 0 -0.12863804936774489 -0.076802340418861664 0 -0.1147765590452736 -0.097427281403426852 0 -0.14083577534706279 -0.083434239043658265 0 -0.1147765590452736 -0.097427281403426852 0 -0.14083577534706279 -0.083434239043658265 0 -0.13825484837715321 -0.1044677489412378 0 -0.1147765590452736 -0.097427281403426852 0 -0.13825484837715321 -0.1044677489412378 0 -0.12682245530800421 -0.1162709151799925 0 -0.13825484837715321 -0.1044677489412378 0 -0.12682245530800421 -0.1162709151799925 0 -0.14028391624781639 -0.1208831083471215 0 -0.12986188190646511 -0.13074954693054719 0 -0.12682245530800421 -0.1162709151799925 0 -0.14028391624781639 -0.1208831083471215 0 -0.13825484837715321 -0.1044677489412378 0 -0.14028391624781639 -0.1208831083471215 0 -0.1506045199642228 -0.11150442852423641 0 -0.15337953675811519 -0.12596595461133181 0 -0.14028391624781639 -0.1208831083471215 0 -0.1506045199642228 -0.11150442852423641 0 -0.14083577534706279 -0.083434239043658265 0 -0.13825484837715321 -0.1044677489412378 0 -0.15459371518640319 -0.096463408549400637 0 -0.13825484837715321 -0.1044677489412378 0 -0.1506045199642228 -0.11150442852423641 0 -0.15459371518640319 -0.096463408549400637 0 -0.15108448360991891 -0.012011959110182791 0 -0.1375111245095775 -0.034886461439568667 0 -0.16665470367514029 -0.029385431790186829 0 -0.15108448360991891 -0.012011959110182791 0 -0.12901753950566691 -0.01634088936833427 0 -0.13711919296946221 0.0059281162406943227 0 -0.1093222308133128 -0.0073945743824425439 0 -0.12901753950566691 -0.01634088936833427 0 -0.13711919296946221 0.0059281162406943227 0 -0.15108448360991891 -0.012011959110182791 0 -0.12901753950566691 -0.01634088936833427 0 -0.1375111245095775 -0.034886461439568667 0 -0.1375111245095775 -0.034886461439568667 0 -0.12821861588022959 -0.047235600070347973 0 -0.13686423089381769 -0.056586311068690803 0 -0.1238326932692472 -0.065594553641175501 0 -0.13686423089381769 -0.056586311068690803 0 -0.14777939183958561 -0.06039084091583146 0 -0.1238326932692472 -0.065594553641175501 0 -0.12623174269787471 -0.061121217968830147 0 -0.13686423089381769 -0.056586311068690803 0 -0.12623174269787471 -0.061121217968830147 0 -0.12727364551370651 -0.054041068104789577 0 -0.13686423089381769 -0.056586311068690803 0 -0.12727364551370651 -0.054041068104789577 0 -0.12821861588022959 -0.047235600070347973 0 -0.13686423089381769 -0.056586311068690803 0 -0.13686423089381769 -0.056586311068690803 0 -0.14777939183958561 -0.06039084091583146 0 -0.1569157203892915 -0.046068224775286881 0 -0.1375111245095775 -0.034886461439568667 0 -0.16665470367514029 -0.029385431790186829 0 -0.1375111245095775 -0.034886461439568667 0 -0.13686423089381769 -0.056586311068690803 0 -0.1569157203892915 -0.046068224775286881 0 -0.1375111245095775 -0.034886461439568667 0 -0.1569157203892915 -0.046068224775286881 0 -0.16665470367514029 -0.029385431790186829 0 -0.1569157203892915 -0.046068224775286881 0 -0.18095878100770391 -0.039973175246956143 0 -0.16665470367514029 -0.029385431790186829 0 -0.1569157203892915 -0.046068224775286881 0 -0.1717260904099239 -0.055187128190487433 0 -0.18095878100770391 -0.039973175246956143 0 -0.16071940474725749 -0.071205426452714396 0 -0.14777939183958561 -0.06039084091583146 0 -0.1717260904099239 -0.055187128190487433 0 -0.14777939183958561 -0.06039084091583146 0 -0.1717260904099239 -0.055187128190487433 0 -0.14777939183958561 -0.06039084091583146 0 -0.1569157203892915 -0.046068224775286881 0 -0.1717260904099239 -0.055187128190487433 0 -0.18989836704638199 -0.0676677493601575 0 -0.1717260904099239 -0.055187128190487433 0 -0.19567278898026219 -0.049983415465143982 0 -0.1717260904099239 -0.055187128190487433 0 -0.18095878100770391 -0.039973175246956143 0 -0.19567278898026219 -0.049983415465143982 0 -0.1717260904099239 -0.055187128190487433 0 -0.19567278898026219 -0.049983415465143982 0 -0.18095878100770391 -0.039973175246956143 0 -0.16665470367514029 -0.029385431790186829 0 -0.19579828284070311 -0.023884402140804461 0 -0.16665470367514029 -0.029385431790186829 0 -0.1781260474450464 -0.01153259009031803 0 -0.19579828284070311 -0.023884402140804461 0 -0.16665470367514029 -0.029385431790186829 0 -0.19579828284070311 -0.023884402140804461 0 -0.15108448360991891 -0.012011959110182791 0 -0.16665470367514029 -0.029385431790186829 0 -0.1781260474450464 -0.01153259009031803 0 -0.15108448360991891 -0.012011959110182791 0 -0.1781260474450464 -0.01153259009031803 0 -0.1671266295075636 0.0072413763392705629 0 -0.1781260474450464 -0.01153259009031803 0 -0.1671266295075636 0.0072413763392705629 0 -0.1959160645214538 0.00061070578357951683 0 -0.1781260474450464 -0.01153259009031803 0 -0.19579828284070311 -0.023884402140804461 0 -0.1959160645214538 0.00061070578357951683 0 -0.19579828284070311 -0.023884402140804461 0 -0.206216024381665 -0.021917989409861321 0 -0.1959160645214538 0.00061070578357951683 0 -0.19579828284070311 -0.023884402140804461 0 -0.1959160645214538 0.00061070578357951683 0 -0.19579828284070311 -0.023884402140804461 0 -0.206216024381665 -0.021917989409861321 0 -0.20461705089012969 -0.034641747977182259 0 -0.19579828284070311 -0.023884402140804461 0 -0.206216024381665 -0.021917989409861321 0 -0.206216024381665 -0.021917989409861321 0 -0.20461705089012969 -0.034641747977182259 0 -0.2150234198460837 -0.031264265215874977 0 -0.206216024381665 -0.021917989409861321 0 -0.21647262002942361 -0.016943677323925189 0 -0.2150234198460837 -0.031264265215874977 0 -0.206216024381665 -0.021917989409861321 0 -0.21647262002942361 -0.016943677323925189 0 -0.21305867300918269 -0.0060677175615454293 0 -0.206216024381665 -0.021917989409861321 0 -0.21305867300918269 -0.0060677175615454293 0 -0.1959160645214538 0.00061070578357951683 0 -0.18989836704638199 -0.0676677493601575 0 -0.19558521058403011 -0.068197133030924645 0 -0.19567278898026219 -0.049983415465143982 0 -0.19558521058403011 -0.068197133030924645 0 -0.19567278898026219 -0.049983415465143982 0 -0.20897509672737691 -0.062621783359424615 0 -0.19558521058403011 -0.068197133030924645 0 -0.19567278898026219 -0.049983415465143982 0 -0.19579828284070311 -0.023884402140804461 0 -0.19567278898026219 -0.049983415465143982 0 -0.20461705089012969 -0.034641747977182259 0 -0.18095878100770391 -0.039973175246956143 0 -0.19579828284070311 -0.023884402140804461 0 -0.19567278898026219 -0.049983415465143982 0 -0.19579828284070311 -0.023884402140804461 0 -0.19567278898026219 -0.049983415465143982 0 -0.20461705089012969 -0.034641747977182259 0 -0.2150234198460837 -0.031264265215874977 0 -0.21074904259611199 -0.046707285665418638 0 -0.2150234198460837 -0.031264265215874977 0 -0.21074904259611199 -0.046707285665418638 0 -0.22582529621196151 -0.043431155865692073 0 -0.21074904259611199 -0.046707285665418638 0 -0.22582529621196151 -0.043431155865692073 0 -0.19567278898026219 -0.049983415465143982 0 -0.20461705089012969 -0.034641747977182259 0 -0.21074904259611199 -0.046707285665418638 0 -0.20897509672737691 -0.062621783359424615 0 -0.22582529621196151 -0.043431155865692073 0 -0.20897509672737691 -0.062621783359424615 0 -0.19567278898026219 -0.049983415465143982 0 -0.21074904259611199 -0.046707285665418638 0 -0.20897509672737691 -0.062621783359424615 0 -0.21074904259611199 -0.046707285665418638 0 -0.22582529621196151 -0.043431155865692073 0 -0.19567278898026219 -0.049983415465143982 0 -0.21074904259611199 -0.046707285665418638 0 -0.20897509672737691 -0.062621783359424615 0 -0.22383408816135239 -0.058893339907846558 0 -0.22582529621196151 -0.043431155865692073 0 -0.22383408816135239 -0.058893339907846558 0 -0.22582529621196151 -0.043431155865692073 0 -0.23706814196845991 -0.058727718000564449 0 -0.2150234198460837 -0.031264265215874977 0 -0.22582529621196151 -0.043431155865692073 0 -0.22626048496721021 -0.023943735053168672 0 -0.22582529621196151 -0.043431155865692073 0 -0.2407565603838521 -0.040186532848098491 0 -0.22582529621196151 -0.043431155865692073 0 -0.24403302935753249 -0.022694438497941449 0 -0.22582529621196151 -0.043431155865692073 0 -0.2407565603838521 -0.040186532848098491 0 -0.24403302935753249 -0.022694438497941449 0 -0.2407565603838521 -0.040186532848098491 0 -0.24403302935753249 -0.022694438497941449 0 -0.25568782455574252 -0.036941909830504313 0 -0.22582529621196151 -0.043431155865692073 0 -0.2407565603838521 -0.040186532848098491 0 -0.24418220592985579 -0.050324971724095682 0 -0.2407565603838521 -0.040186532848098491 0 -0.25568782455574252 -0.036941909830504313 0 -0.2407565603838521 -0.040186532848098491 0 -0.24418220592985579 -0.050324971724095682 0 -0.25251482674017051 -0.045305150956696849 0 -0.2407565603838521 -0.040186532848098491 0 -0.25251482674017051 -0.045305150956696849 0 -0.25568782455574252 -0.036941909830504313 0 -0.24418220592985579 -0.050324971724095682 0 -0.23706814196845991 -0.058727718000564449 0 -0.25435412317631328 -0.057439415585967837 0 -0.22582529621196151 -0.043431155865692073 0 -0.24418220592985579 -0.050324971724095682 0 -0.23706814196845991 -0.058727718000564449 0 -0.21647262002942361 -0.016943677323925189 0 -0.23032236358522429 -0.0059337563736012074 0 -0.22626048496721021 -0.023943735053168672 0 -0.21647262002942361 -0.016943677323925189 0 -0.21305867300918269 -0.0060677175615454293 0 -0.23032236358522429 -0.0059337563736012074 0 -0.21305867300918269 -0.0060677175615454293 0 -0.23032236358522429 -0.0059337563736012074 0 -0.2166116978129177 0.01082692575074028 0 -0.22582529621196151 -0.043431155865692073 0 -0.22626048496721021 -0.023943735053168672 0 -0.24403302935753249 -0.022694438497941449 0 -0.23032236358522429 -0.0059337563736012074 0 -0.22626048496721021 -0.023943735053168672 0 -0.24403302935753249 -0.022694438497941449 0 -0.21647262002942361 -0.016943677323925189 0 -0.2150234198460837 -0.031264265215874977 0 -0.22626048496721021 -0.023943735053168672 0 -0.24403302935753249 -0.022694438497941449 0 -0.25568782455574252 -0.036941909830504313 0 -0.25807201738883828 -0.0067054889342117539 0 -0.23734185760087881 0.0020607184082661809 0 -0.24403302935753249 -0.022694438497941449 0 -0.24274351442336881 -0.0097611162907823429 0 -0.25807201738883828 -0.0067054889342117539 0 -0.23032236358522429 -0.0059337563736012074 0 -0.24403302935753249 -0.022694438497941449 0 -0.24274351442336881 -0.0097611162907823429 0 -0.23032236358522429 -0.0059337563736012074 0 -0.24403302935753249 -0.022694438497941449 0 -0.24274351442336881 -0.0097611162907823429 0 -0.25807201738883828 -0.0067054889342117539 0 -0.23734185760087881 0.0020607184082661809 0 -0.23032236358522429 -0.0059337563736012074 0 -0.24274351442336881 -0.0097611162907823429 0 -0.23734185760087881 0.0020607184082661809 0 -0.24403302935753249 -0.022694438497941449 0 -0.25807201738883828 -0.0067054889342117539 0 -0.24403302935753249 -0.022694438497941449 0 -0.25807201738883828 -0.0067054889342117539 0 -0.26540881696594631 -0.022875190497903451 0 -0.24403302935753249 -0.022694438497941449 0 -0.26540881696594631 -0.022875190497903451 0 -0.25568782455574252 -0.036941909830504313 0 -0.26540881696594631 -0.022875190497903451 0 -0.28009097575211611 -0.0316390081363064 0 -0.25568782455574252 -0.036941909830504313 0 -0.26540881696594631 -0.022875190497903451 0 -0.28128307216866377 -0.0165207976881632 0 -0.28009097575211611 -0.0316390081363064 0 -0.25807201738883828 -0.0067054889342117539 0 -0.26540881696594631 -0.022875190497903451 0 -0.28128307216866377 -0.0165207976881632 0 -0.25807201738883828 -0.0067054889342117539 0 -0.28128307216866377 -0.0165207976881632 0 -0.25807201738883828 -0.0067054889342117539 0 -0.28128307216866377 -0.0165207976881632 0 -0.27077045769226621 0.0077567159695035651 0 -0.28128307216866377 -0.0165207976881632 0 -0.30449412694849032 -0.02633610644211189 0 -0.29788531652794809 -0.001210280655613488 0 -0.28128307216866377 -0.0165207976881632 0 -0.29788531652794809 -0.001210280655613488 0 -0.27077045769226621 0.0077567159695035651 0 -0.30449412694849032 -0.02633610644211189 0 -0.28009097575211611 -0.0316390081363064 0 -0.28128307216866377 -0.0165207976881632 0 -0.30449412694849032 -0.02633610644211189 0 -0.28128307216866377 -0.0165207976881632 0 -0.30449412694849032 -0.02633610644211189 0 -0.28009097575211611 -0.0316390081363064 0 -0.30449412694849032 -0.02633610644211189 0 -0.30658077314070409 -0.02588266993553719 0 -0.29788531652794809 -0.001210280655613488 0 -0.30658077314070409 -0.02588266993553719 0 -0.31230173506020248 -0.024639482184445581 0 -0.29788531652794809 -0.001210280655613488 0 -0.30658077314070409 -0.02588266993553719 0 -0.31230173506020248 -0.024639482184445581 0 -0.31645896114226563 -0.03139570166153835 0 -0.30658077314070409 -0.02588266993553719 0 -0.31645896114226563 -0.03139570166153835 0 -0.30449412694849032 -0.02633610644211189 0 -0.30658077314070409 -0.02588266993553719 0 -0.30658077314070409 -0.02588266993553719 0 -0.31230173506020248 -0.024639482184445581 0 -0.31230173506020248 -0.024639482184445581 0 -0.29788531652794809 -0.001210280655613488 0 -0.31576693495074748 -0.0094507015710058578 0 -0.31230173506020248 -0.024639482184445581 0 -0.29788531652794809 -0.001210280655613488 0 -0.29788531652794809 -0.001210280655613488 0 -0.31576693495074748 -0.0094507015710058578 0 -0.31812509627846491 0.0064589535239619484 0 -0.30359434423959869 -0.061323070187857383 0 -0.29537334585379671 -0.052096068371187763 0 -0.29480598093990812 -0.069864498002154912 0 -0.30700593521419389 -0.053048386447658608 0 -0.30831018647425729 -0.042804937645395953 0 -0.29537334585379671 -0.052096068371187763 0 -0.30359434423959869 -0.061323070187857383 0 -0.30700593521419389 -0.053048386447658608 0 -0.29537334585379671 -0.052096068371187763 0 -0.30359434423959869 -0.061323070187857383 0 -0.30700593521419389 -0.053048386447658608 0 -0.31255956037629562 -0.061538115634515077 0 -0.30700593521419389 -0.053048386447658608 0 -0.31661559418077279 -0.050470574335662877 0 -0.31255956037629562 -0.061538115634515077 0 -0.30700593521419389 -0.053048386447658608 0 -0.30831018647425729 -0.042804937645395953 0 -0.31661559418077279 -0.050470574335662877 0 -0.30658077314070409 -0.02588266993553719 0 -0.29537334585379671 -0.052096068371187763 0 -0.30658077314070409 -0.02588266993553719 0 -0.30831018647425729 -0.042804937645395953 0 -0.29537334585379671 -0.052096068371187763 0 -0.30449412694849032 -0.02633610644211189 0 -0.30658077314070409 -0.02588266993553719 0 -0.29537334585379671 -0.052096068371187763 0 -0.30658077314070409 -0.02588266993553719 0 -0.30831018647425729 -0.042804937645395953 0 -0.31645896114226563 -0.03139570166153835 0 -0.29537334585379671 -0.052096068371187763 0 -0.28009097575211611 -0.0316390081363064 0 -0.27549319006493761 -0.046867527200876842 0 -0.30449412694849032 -0.02633610644211189 0 -0.29537334585379671 -0.052096068371187763 0 -0.28009097575211611 -0.0316390081363064 0 -0.29537334585379671 -0.052096068371187763 0 -0.28320839382113172 -0.057252506371788928 0 -0.28464959572733628 -0.077178179331441832 0 -0.29537334585379671 -0.052096068371187763 0 -0.28320839382113172 -0.057252506371788928 0 -0.27549319006493761 -0.046867527200876842 0 -0.28320839382113172 -0.057252506371788928 0 -0.27293489987212621 -0.054331695366237991 0 -0.27674954736535862 -0.064964165293487572 0 -0.28320839382113172 -0.057252506371788928 0 -0.27293489987212621 -0.054331695366237991 0 -0.27549319006493761 -0.046867527200876842 0 -0.27293489987212621 -0.054331695366237991 0 -0.27549319006493761 -0.046867527200876842 0 -0.263184282147918 -0.048485039854903919 0 -0.27293489987212621 -0.054331695366237991 0 -0.26428824824573161 -0.056934619983308912 0 -0.263184282147918 -0.048485039854903919 0 -0.27008471622495861 -0.060742563657445528 0 -0.26428824824573161 -0.056934619983308912 0 -0.26600623039907628 -0.065889336417882777 0 -0.27293489987212621 -0.054331695366237991 0 -0.27008471622495861 -0.060742563657445528 0 -0.26428824824573161 -0.056934619983308912 0 -0.27293489987212621 -0.054331695366237991 0 -0.27008471622495861 -0.060742563657445528 0 -0.27674954736535862 -0.064964165293487572 0 -0.28009097575211611 -0.0316390081363064 0 -0.25568782455574252 -0.036941909830504313 0 -0.28009097575211611 -0.0316390081363064 0 -0.27549319006493761 -0.046867527200876842 0 -0.2569239642473416 -0.038453035896612073 0 -0.27549319006493761 -0.046867527200876842 0 -0.2569239642473416 -0.038453035896612073 0 -0.263184282147918 -0.048485039854903919 0 -0.28009097575211611 -0.0316390081363064 0 -0.2569239642473416 -0.038453035896612073 0 -0.25568782455574252 -0.036941909830504313 0 -0.25251482674017051 -0.045305150956696849 0 -0.2569239642473416 -0.038453035896612073 0 -0.263184282147918 -0.048485039854903919 0 -0.25251482674017051 -0.045305150956696849 0 -0.2569239642473416 -0.038453035896612073 0 -0.25568782455574252 -0.036941909830504313 0 -0.2569239642473416 -0.038453035896612073 0 -0.25568782455574252 -0.036941909830504313 0 -0.26428824824573161 -0.056934619983308912 0 -0.25435412317631328 -0.057439415585967837 0 -0.26600623039907628 -0.065889336417882777 0 -0.26428824824573161 -0.056934619983308912 0 -0.263184282147918 -0.048485039854903919 0 -0.25435412317631328 -0.057439415585967837 0 -0.24418220592985579 -0.050324971724095682 0 -0.25251482674017051 -0.045305150956696849 0 -0.25435412317631328 -0.057439415585967837 0 -0.25251482674017051 -0.045305150956696849 0 -0.263184282147918 -0.048485039854903919 0 -0.25435412317631328 -0.057439415585967837 0 -0.25135042489119219 -0.073388271780483294 0 -0.27923303204477312 -0.075983841155263257 0 -0.25135042489119219 -0.073388271780483294 0 -0.27923303204477312 -0.075983841155263257 0 -0.26600623039907628 -0.065889336417882777 0 -0.25435412317631328 -0.057439415585967837 0 -0.25135042489119219 -0.073388271780483294 0 -0.26600623039907628 -0.065889336417882777 0 -0.2424488268228237 -0.095069973537377062 0 -0.25135042489119219 -0.073388271780483294 0 -0.26018054526468309 -0.090159354105593878 0 -0.25135042489119219 -0.073388271780483294 0 -0.26018054526468309 -0.090159354105593878 0 -0.27923303204477312 -0.075983841155263257 0 -0.26018054526468309 -0.090159354105593878 0 -0.27923303204477312 -0.075983841155263257 0 -0.27392584560087602 -0.10226029029169589 0 -0.27923303204477312 -0.075983841155263257 0 -0.27392584560087602 -0.10226029029169589 0 -0.28464959572733628 -0.077178179331441832 0 -0.27392584560087602 -0.10226029029169589 0 -0.28464959572733628 -0.077178179331441832 0 -0.27923303204477312 -0.075983841155263257 0 -0.27674954736535862 -0.064964165293487572 0 -0.28464959572733628 -0.077178179331441832 0 -0.27923303204477312 -0.075983841155263257 0 -0.27674954736535862 -0.064964165293487572 0 -0.26600623039907628 -0.065889336417882777 0 -0.27008471622495861 -0.060742563657445528 0 -0.27674954736535862 -0.064964165293487572 0 -0.26600623039907628 -0.065889336417882777 0 -0.25485205480712741 -0.1050993971302407 0 -0.27392584560087602 -0.10226029029169589 0 -0.26320209547441559 -0.12734240125195009 0 -0.2388587585210471 -0.1154889826266227 0 -0.25485205480712741 -0.1050993971302407 0 -0.26320209547441559 -0.12734240125195009 0 -0.26018054526468309 -0.090159354105593878 0 -0.25485205480712741 -0.1050993971302407 0 -0.27392584560087602 -0.10226029029169589 0 -0.2424488268228237 -0.095069973537377062 0 -0.26018054526468309 -0.090159354105593878 0 -0.25485205480712741 -0.1050993971302407 0 -0.27392584560087602 -0.10226029029169589 0 -0.28590485593654302 -0.1162217813546591 0 -0.26320209547441559 -0.12734240125195009 0 -0.27392584560087602 -0.10226029029169589 0 -0.26320209547441559 -0.12734240125195009 0 -0.28590485593654302 -0.1162217813546591 0 -0.29366328997302682 -0.095865448479101181 0 -0.30382234878046682 -0.123065486480607 0 -0.28590485593654302 -0.1162217813546591 0 -0.30382234878046682 -0.123065486480607 0 -0.28640073985259012 -0.1347470667266609 0 -0.27392584560087602 -0.10226029029169589 0 -0.28590485593654302 -0.1162217813546591 0 -0.29366328997302682 -0.095865448479101181 0 -0.29366328997302682 -0.095865448479101181 0 -0.31401849081056987 -0.091849665739069997 0 -0.31745655814297152 -0.1150407927092225 0 -0.29366328997302682 -0.095865448479101181 0 -0.30382234878046682 -0.123065486480607 0 -0.31745655814297152 -0.1150407927092225 0 -0.28320839382113172 -0.057252506371788928 0 -0.27674954736535862 -0.064964165293487572 0 -0.28464959572733628 -0.077178179331441832 0 -0.29537334585379671 -0.052096068371187763 0 -0.28464959572733628 -0.077178179331441832 0 -0.29537334585379671 -0.052096068371187763 0 -0.29480598093990812 -0.069864498002154912 0 -0.28464959572733628 -0.077178179331441832 0 -0.29366328997302682 -0.095865448479101181 0 -0.29480598093990812 -0.069864498002154912 0 -0.28464959572733628 -0.077178179331441832 0 -0.27392584560087602 -0.10226029029169589 0 -0.29366328997302682 -0.095865448479101181 0 -0.28464959572733628 -0.077178179331441832 0 -0.29366328997302682 -0.095865448479101181 0 -0.29480598093990812 -0.069864498002154912 0 -0.31401849081056987 -0.091849665739069997 0 -0.29480598093990812 -0.069864498002154912 0 -0.31401849081056987 -0.091849665739069997 0 -0.30359434423959869 -0.061323070187857383 0 -0.29480598093990812 -0.069864498002154912 0 -0.3122843794520852 -0.070340289106939152 0 -0.29480598093990812 -0.069864498002154912 0 -0.3122843794520852 -0.070340289106939152 0 -0.31401849081056987 -0.091849665739069997 0 -0.30359434423959869 -0.061323070187857383 0 -0.3122843794520852 -0.070340289106939152 0 -0.31255956037629562 -0.061538115634515077 0 -0.3122843794520852 -0.070340289106939152 0 -0.32098918369973872 -0.062669840065253696 0 -0.32717699483532758 -0.074101087148137804 0 -0.32098918369973872 -0.062669840065253696 0 -0.32717699483532758 -0.074101087148137804 0 -0.33112846539377988 -0.055236211748552651 0 -0.3122843794520852 -0.070340289106939152 0 -0.32098918369973872 -0.062669840065253696 0 -0.31255956037629562 -0.061538115634515077 0 -0.3122843794520852 -0.070340289106939152 0 -0.32717699483532758 -0.074101087148137804 0 -0.31401849081056987 -0.091849665739069997 0 -0.32717699483532758 -0.074101087148137804 0 -0.31401849081056987 -0.091849665739069997 0 -0.33274707512614832 -0.090027079850373504 0 -0.32717699483532758 -0.074101087148137804 0 -0.33274707512614832 -0.090027079850373504 0 -0.34579796964529519 -0.079076721835565994 0 -0.33274707512614832 -0.090027079850373504 0 -0.34351091965831682 -0.091273091053108629 0 -0.34579796964529519 -0.079076721835565994 0 -0.34579796964529519 -0.079076721835565994 0 -0.34544790865462349 -0.058156445657082799 0 -0.33112846539377988 -0.055236211748552651 0 -0.34579796964529519 -0.079076721835565994 0 -0.33112846539377988 -0.055236211748552651 0 -0.32717699483532758 -0.074101087148137804 0 -0.34579796964529519 -0.079076721835565994 0 -0.33112846539377988 -0.055236211748552651 0 -0.30382234878046682 -0.123065486480607 0 -0.31745655814297152 -0.1150407927092225 0 -0.31755518711615088 -0.13086095855508989 0 -0.31745655814297152 -0.1150407927092225 0 -0.33323100068123163 -0.11383483347598509 0 -0.31755518711615088 -0.13086095855508989 0 -0.31401849081056987 -0.091849665739069997 0 -0.33274707512614832 -0.090027079850373504 0 -0.33323100068123163 -0.11383483347598509 0 -0.31401849081056987 -0.091849665739069997 0 -0.31745655814297152 -0.1150407927092225 0 -0.33323100068123163 -0.11383483347598509 0 -0.31401849081056987 -0.091849665739069997 0 -0.33323100068123163 -0.11383483347598509 0 -0.33274707512614832 -0.090027079850373504 0 -0.34351091965831682 -0.091273091053108629 0 -0.33323100068123163 -0.11383483347598509 0 -0.34351091965831682 -0.091273091053108629 0 -0.33323100068123163 -0.11383483347598509 0 -0.34799621073203102 -0.106656851024408 0 -0.33323100068123163 -0.11383483347598509 0 -0.35244351055189332 -0.13582000121290011 0 -0.35477544869176492 -0.11860224764595891 0 -0.34799621073203102 -0.106656851024408 0 -0.36046747389681072 -0.1029172319225794 0 -0.33323100068123163 -0.11383483347598509 0 -0.35477544869176492 -0.11860224764595891 0 -0.34799621073203102 -0.106656851024408 0 -0.33323100068123163 -0.11383483347598509 0 -0.35477544869176492 -0.11860224764595891 0 -0.35244351055189332 -0.13582000121290011 0 -0.34351091965831682 -0.091273091053108629 0 -0.36046747389681072 -0.1029172319225794 0 -0.34351091965831682 -0.091273091053108629 0 -0.34799621073203102 -0.106656851024408 0 -0.36046747389681072 -0.1029172319225794 0 -0.37094166605301421 -0.11010990604995829 0 -0.36968027855177682 -0.080604785138471718 0 -0.36046747389681072 -0.1029172319225794 0 -0.37094166605301421 -0.11010990604995829 0 -0.36210597993665677 -0.09010388224082258 0 -0.37094166605301421 -0.11010990604995829 0 -0.36968027855177682 -0.080604785138471718 0 -0.37977089098186589 -0.095030352648071706 0 -0.36046747389681072 -0.1029172319225794 0 -0.37094166605301421 -0.11010990604995829 0 -0.36046747389681072 -0.1029172319225794 0 -0.37139327851899689 -0.1206735753434543 0 -0.35477544869176492 -0.11860224764595891 0 -0.36046747389681072 -0.1029172319225794 0 -0.37139327851899689 -0.1206735753434543 0 -0.35477544869176492 -0.11860224764595891 0 -0.37139327851899689 -0.1206735753434543 0 -0.3627457173198757 -0.1296576670166775 0 -0.36046747389681072 -0.1029172319225794 0 -0.37094166605301421 -0.11010990604995829 0 -0.37139327851899689 -0.1206735753434543 0 -0.37094166605301421 -0.11010990604995829 0 -0.37139327851899689 -0.1206735753434543 0 -0.35644230170932478 -0.067784401968771724 0 -0.34579796964529519 -0.079076721835565994 0 -0.34544790865462349 -0.058156445657082799 0 -0.35644230170932478 -0.067784401968771724 0 -0.35774944412546522 -0.079679460384449854 0 -0.36375586437706231 -0.076880968671442868 0 -0.35644230170932478 -0.067784401968771724 0 -0.34579796964529519 -0.079076721835565994 0 -0.35774944412546522 -0.079679460384449854 0 -0.36046747389681072 -0.1029172319225794 0 -0.34579796964529519 -0.079076721835565994 0 -0.36210597993665677 -0.09010388224082258 0 -0.36046747389681072 -0.1029172319225794 0 -0.34579796964529519 -0.079076721835565994 0 -0.34351091965831682 -0.091273091053108629 0 -0.36046747389681072 -0.1029172319225794 0 -0.34579796964529519 -0.079076721835565994 0 -0.34579796964529519 -0.079076721835565994 0 -0.35774944412546522 -0.079679460384449854 0 -0.36210597993665677 -0.09010388224082258 0 -0.37094166605301421 -0.11010990604995829 0 -0.36210597993665677 -0.09010388224082258 0 -0.36968027855177682 -0.080604785138471718 0 -0.35774944412546522 -0.079679460384449854 0 -0.36332289174774018 -0.081817274108796773 0 -0.36210597993665677 -0.09010388224082258 0 -0.35774944412546522 -0.079679460384449854 0 -0.36332289174774018 -0.081817274108796773 0 -0.36375586437706231 -0.076880968671442868 0 -0.36332289174774018 -0.081817274108796773 0 -0.36210597993665677 -0.09010388224082258 0 -0.36968027855177682 -0.080604785138471718 0 -0.36332289174774018 -0.081817274108796773 0 -0.36968027855177682 -0.080604785138471718 0 -0.36375586437706231 -0.076880968671442868 0 -0.36842737964278238 -0.07179880614865175 0 -0.3741991750753233 -0.05581243035603628 0 -0.36518138913774878 -0.061591732823419981 0 -0.36968027855177682 -0.080604785138471718 0 -0.36842737964278238 -0.07179880614865175 0 -0.38463213909761829 -0.073046525154530167 0 -0.36968027855177682 -0.080604785138471718 0 -0.36842737964278238 -0.07179880614865175 0 -0.36375586437706231 -0.076880968671442868 0 -0.35644230170932478 -0.067784401968771724 0 -0.36842737964278238 -0.07179880614865175 0 -0.36375586437706231 -0.076880968671442868 0 -0.35644230170932478 -0.067784401968771724 0 -0.36842737964278238 -0.07179880614865175 0 -0.36518138913774878 -0.061591732823419981 0 -0.3741991750753233 -0.05581243035603628 0 -0.36518138913774878 -0.061591732823419981 0 -0.35611198151912532 -0.048163859839503102 0 -0.3741991750753233 -0.05581243035603628 0 -0.35611198151912532 -0.048163859839503102 0 -0.36496310433840379 -0.040555469984515487 0 -0.3741991750753233 -0.05581243035603628 0 -0.35611198151912532 -0.048163859839503102 0 -0.3741991750753233 -0.05581243035603628 0 -0.36496310433840379 -0.040555469984515487 0 -0.35644230170932478 -0.067784401968771724 0 -0.35611198151912532 -0.048163859839503102 0 -0.34544790865462349 -0.058156445657082799 0 -0.35644230170932478 -0.067784401968771724 0 -0.36518138913774878 -0.061591732823419981 0 -0.35611198151912532 -0.048163859839503102 0 -0.35611198151912532 -0.048163859839503102 0 -0.34544790865462349 -0.058156445657082799 0 -0.33628547133069547 -0.039779780750520653 0 -0.35644230170932478 -0.067784401968771724 0 -0.35611198151912532 -0.048163859839503102 0 -0.35611198151912532 -0.048163859839503102 0 -0.34220315445687949 -0.02842192328530704 0 -0.33628547133069547 -0.039779780750520653 0 -0.35611198151912532 -0.048163859839503102 0 -0.35572703360148472 -0.025298509612994461 0 -0.35611198151912532 -0.048163859839503102 0 -0.35572703360148472 -0.025298509612994461 0 -0.34220315445687949 -0.02842192328530704 0 -0.35611198151912532 -0.048163859839503102 0 -0.33628547133069547 -0.039779780750520653 0 -0.35611198151912532 -0.048163859839503102 0 -0.36496310433840379 -0.040555469984515487 0 -0.35572703360148472 -0.025298509612994461 0 -0.36496310433840379 -0.040555469984515487 0 -0.35572703360148472 -0.025298509612994461 0 -0.3741991750753233 -0.05581243035603628 0 -0.36496310433840379 -0.040555469984515487 0 -0.37408921323493 -0.041816230709288152 0 -0.36496310433840379 -0.040555469984515487 0 -0.37408921323493 -0.041816230709288152 0 -0.37088339729497882 -0.026691286259717961 0 -0.37088339729497882 -0.026691286259717961 0 -0.35545561835894401 -0.0091768362825527475 0 -0.35572703360148472 -0.025298509612994461 0 -0.37088339729497882 -0.026691286259717961 0 -0.35545561835894401 -0.0091768362825527475 0 -0.37088339729497882 -0.026691286259717961 0 -0.36759554044300879 -0.01311597971742829 0 -0.35545561835894401 -0.0091768362825527475 0 -0.37088339729497882 -0.026691286259717961 0 -0.36759554044300879 -0.01311597971742829 0 -0.3774980877731845 -0.017962849169193901 0 -0.36496310433840379 -0.040555469984515487 0 -0.37088339729497882 -0.026691286259717961 0 -0.35572703360148472 -0.025298509612994461 0 -0.35539349731452408 -0.0054869359816589686 0 -0.38003189033049622 -0.0053871107684163432 0 -0.35539349731452408 -0.0054869359816589686 0 -0.38003189033049622 -0.0053871107684163432 0 -0.36281503973688012 0.0071193466643548094 0 -0.36759554044300879 -0.01311597971742829 0 -0.35539349731452408 -0.0054869359816589686 0 -0.38003189033049622 -0.0053871107684163432 0 -0.36759554044300879 -0.01311597971742829 0 -0.35539349731452408 -0.0054869359816589686 0 -0.35545561835894401 -0.0091768362825527475 0 -0.35539349731452408 -0.0054869359816589686 0 -0.35545561835894401 -0.0091768362825527475 0 -0.3522166704560451 -0.0054998072520526901 0 -0.35545561835894401 -0.0091768362825527475 0 -0.35539349731452408 -0.0054869359816589686 0 -0.3522166704560451 -0.0054998072520526901 0 -0.35545561835894401 -0.0091768362825527475 0 -0.35539349731452408 -0.0054869359816589686 0 -0.3522166704560451 -0.0054998072520526901 0 -0.35545561835894401 -0.0091768362825527475 0 -0.35063109634199219 -0.01193283810660953 0 -0.35033169560296512 -0.017084888515397009 0 -0.3522166704560451 -0.0054998072520526901 0 -0.35545561835894401 -0.0091768362825527475 0 -0.35063109634199219 -0.01193283810660953 0 -0.3522166704560451 -0.0054998072520526901 0 -0.35063109634199219 -0.01193283810660953 0 -0.34482107903482778 -0.01422058248514068 0 -0.35063109634199219 -0.01193283810660953 0 -0.34482107903482778 -0.01422058248514068 0 -0.35033169560296512 -0.017084888515397009 0 -0.35545561835894401 -0.0091768362825527475 0 -0.35572703360148472 -0.025298509612994461 0 -0.35545561835894401 -0.0091768362825527475 0 -0.35572703360148472 -0.025298509612994461 0 -0.35389278648843608 -0.022268537635463971 0 -0.35572703360148472 -0.025298509612994461 0 -0.35389278648843608 -0.022268537635463971 0 -0.35572703360148472 -0.025298509612994461 0 -0.35389278648843608 -0.022268537635463971 0 -0.34650283433678009 -0.021968812583474499 0 -0.35545561835894401 -0.0091768362825527475 0 -0.35389278648843608 -0.022268537635463971 0 -0.35033169560296512 -0.017084888515397009 0 -0.35389278648843608 -0.022268537635463971 0 -0.35033169560296512 -0.017084888515397009 0 -0.34650283433678009 -0.021968812583474499 0 -0.34482107903482778 -0.01422058248514068 0 -0.35033169560296512 -0.017084888515397009 0 -0.34650283433678009 -0.021968812583474499 0 -0.35572703360148472 -0.025298509612994461 0 -0.34650283433678009 -0.021968812583474499 0 -0.34220315445687949 -0.02842192328530704 0 -0.34220315445687949 -0.02842192328530704 0 -0.33428062770895522 -0.018103143632294819 0 -0.33157954364060271 -0.02766059646674987 0 -0.34650283433678009 -0.021968812583474499 0 -0.34220315445687949 -0.02842192328530704 0 -0.33428062770895522 -0.018103143632294819 0 -0.34482107903482778 -0.01422058248514068 0 -0.34650283433678009 -0.021968812583474499 0 -0.33428062770895522 -0.018103143632294819 0 -0.33428062770895522 -0.018103143632294819 0 -0.33157954364060271 -0.02766059646674987 0 -0.32324321663358258 -0.022261854774542341 0 -0.33428062770895522 -0.018103143632294819 0 -0.32727931025353929 -0.0056008437643897671 0 -0.32324321663358258 -0.022261854774542341 0 -0.3522166704560451 -0.0054998072520526901 0 -0.34482107903482778 -0.01422058248514068 0 -0.32727931025353929 -0.0056008437643897671 0 -0.3522166704560451 -0.0054998072520526901 0 -0.32727931025353929 -0.0056008437643897671 0 -0.34482107903482778 -0.01422058248514068 0 -0.33428062770895522 -0.018103143632294819 0 -0.32727931025353929 -0.0056008437643897671 0 -0.3522166704560451 -0.0054998072520526901 0 -0.32727931025353929 -0.0056008437643897671 0 -0.33659006994528012 0.0098055517785405645 0 -0.32727931025353929 -0.0056008437643897671 0 -0.31576693495074748 -0.0094507015710058578 0 -0.31812509627846491 0.0064589535239619484 0 -0.32727931025353929 -0.0056008437643897671 0 -0.31576693495074748 -0.0094507015710058578 0 -0.32324321663358258 -0.022261854774542341 0 -0.33157954364060271 -0.02766059646674987 0 -0.32324321663358258 -0.022261854774542341 0 -0.31645896114226563 -0.03139570166153835 0 -0.31230173506020248 -0.024639482184445581 0 -0.31576693495074748 -0.0094507015710058578 0 -0.32324321663358258 -0.022261854774542341 0 -0.31230173506020248 -0.024639482184445581 0 -0.32324321663358258 -0.022261854774542341 0 -0.31230173506020248 -0.024639482184445581 0 -0.32324321663358258 -0.022261854774542341 0 -0.31645896114226563 -0.03139570166153835 0 -0.31230173506020248 -0.024639482184445581 0 -0.31645896114226563 -0.03139570166153835 0 -0.30831018647425729 -0.042804937645395953 0 -0.31645896114226563 -0.03139570166153835 0 -0.31661559418077279 -0.050470574335662877 0 -0.33157954364060271 -0.02766059646674987 0 -0.31645896114226563 -0.03139570166153835 0 -0.33628547133069547 -0.039779780750520653 0 -0.31645896114226563 -0.03139570166153835 0 -0.33112846539377988 -0.055236211748552651 0 -0.31645896114226563 -0.03139570166153835 0 -0.31661559418077279 -0.050470574335662877 0 -0.33112846539377988 -0.055236211748552651 0 -0.31645896114226563 -0.03139570166153835 0 -0.33112846539377988 -0.055236211748552651 0 -0.33628547133069547 -0.039779780750520653 0 -0.31645896114226563 -0.03139570166153835 0 -0.33628547133069547 -0.039779780750520653 0 -0.32098918369973872 -0.062669840065253696 0 -0.31661559418077279 -0.050470574335662877 0 -0.31255956037629562 -0.061538115634515077 0 -0.32098918369973872 -0.062669840065253696 0 -0.31661559418077279 -0.050470574335662877 0 -0.33112846539377988 -0.055236211748552651 0 -0.34544790865462349 -0.058156445657082799 0 -0.33112846539377988 -0.055236211748552651 0 -0.33628547133069547 -0.039779780750520653 0 -0.34220315445687949 -0.02842192328530704 0 -0.33157954364060271 -0.02766059646674987 0 -0.33628547133069547 -0.039779780750520653 0 -0.31049353829928178 -0.23997410907081471 0 -0.29500501705048793 -0.2335444144972289 0 -0.29109069816673733 -0.24857814685159099 0 -0.31049353829928178 -0.23997410907081471 0 -0.3067358868353155 -0.2227699632388512 0 -0.29500501705048793 -0.2335444144972289 0 -0.3067358868353155 -0.2227699632388512 0 -0.29500501705048793 -0.2335444144972289 0 -0.29419437300603291 -0.21466823074028521 0 -0.31049353829928178 -0.23997410907081471 0 -0.3067358868353155 -0.2227699632388512 0 -0.32014948120962089 -0.2220961344728033 0 -0.29500501705048793 -0.2335444144972289 0 -0.28286850882174241 -0.2204074644507848 0 -0.29419437300603291 -0.21466823074028521 0 -0.29500501705048793 -0.2335444144972289 0 -0.28286850882174241 -0.2204074644507848 0 -0.29500501705048793 -0.2335444144972289 0 -0.28286850882174241 -0.2204074644507848 0 -0.28370062343104052 -0.23180059666241079 0 -0.29500501705048793 -0.2335444144972289 0 -0.28370062343104052 -0.23180059666241079 0 -0.29109069816673733 -0.24857814685159099 0 -0.28370062343104052 -0.23180059666241079 0 -0.29109069816673733 -0.24857814685159099 0 -0.27319852873046951 -0.2388028089854945 0 -0.2751333524927278 -0.25148720473187502 0 -0.29109069816673733 -0.24857814685159099 0 -0.27319852873046951 -0.2388028089854945 0 -0.2751333524927278 -0.25148720473187502 0 -0.27319852873046951 -0.2388028089854945 0 -0.26201260759904971 -0.24716288073615961 0 -0.24002632773827151 -0.23693900435056189 0 -0.26201260759904971 -0.24716288073615961 0 -0.25737524138608681 -0.23056732834211319 0 -0.27319852873046951 -0.2388028089854945 0 -0.26201260759904971 -0.24716288073615961 0 -0.25737524138608681 -0.23056732834211319 0 -0.25244940239910019 -0.26043593849293539 0 -0.24002632773827151 -0.23693900435056189 0 -0.26201260759904971 -0.24716288073615961 0 -0.24394874291565219 -0.21675591692375329 0 -0.25737524138608681 -0.23056732834211319 0 -0.25893636814605758 -0.21583395913301859 0 -0.25737524138608681 -0.23056732834211319 0 -0.27026829136791403 -0.22309900504121349 0 -0.25893636814605758 -0.21583395913301859 0 -0.27319852873046951 -0.2388028089854945 0 -0.25737524138608681 -0.23056732834211319 0 -0.27026829136791403 -0.22309900504121349 0 -0.28370062343104052 -0.23180059666241079 0 -0.27319852873046951 -0.2388028089854945 0 -0.27026829136791403 -0.22309900504121349 0 -0.28286850882174241 -0.2204074644507848 0 -0.28370062343104052 -0.23180059666241079 0 -0.27026829136791403 -0.22309900504121349 0 -0.28286850882174241 -0.2204074644507848 0 -0.27026829136791403 -0.22309900504121349 0 -0.27073200059299712 -0.20727051440434061 0 -0.27026829136791403 -0.22309900504121349 0 -0.27073200059299712 -0.20727051440434061 0 -0.25893636814605758 -0.21583395913301859 0 -0.28286850882174241 -0.2204074644507848 0 -0.27073200059299712 -0.20727051440434061 0 -0.27073200059299712 -0.20727051440434061 0 -0.25235756446763818 -0.201477030953672 0 -0.27073200059299712 -0.20727051440434061 0 -0.25893636814605758 -0.21583395913301859 0 -0.25235756446763818 -0.201477030953672 0 -0.24394874291565219 -0.21675591692375329 0 -0.25893636814605758 -0.21583395913301859 0 -0.25235756446763818 -0.201477030953672 0 -0.27073200059299712 -0.20727051440434061 0 -0.25647744315801629 -0.1918409192169887 0 -0.25235756446763818 -0.201477030953672 0 -0.24504024716200021 -0.19264976878867901 0 -0.25647744315801629 -0.1918409192169887 0 -0.25235756446763818 -0.201477030953672 0 -0.27073200059299712 -0.20727051440434061 0 -0.25647744315801629 -0.1918409192169887 0 -0.27073200059299712 -0.20727051440434061 0 -0.25647744315801629 -0.1918409192169887 0 -0.27490978588342119 -0.19080641156372269 0 -0.27073200059299712 -0.20727051440434061 0 -0.27490978588342119 -0.19080641156372269 0 -0.28501812845003832 -0.20286619724415339 0 -0.29388182722071071 -0.19082766315988769 0 -0.28501812845003832 -0.20286619724415339 0 -0.29419437300603291 -0.21466823074028521 0 -0.27490978588342119 -0.19080641156372269 0 -0.29388182722071071 -0.19082766315988769 0 -0.28501812845003832 -0.20286619724415339 0 -0.29388182722071071 -0.19082766315988769 0 -0.29419437300603291 -0.21466823074028521 0 -0.30234891380478651 -0.2095737739431883 0 -0.28286850882174241 -0.2204074644507848 0 -0.27073200059299712 -0.20727051440434061 0 -0.29419437300603291 -0.21466823074028521 0 -0.27073200059299712 -0.20727051440434061 0 -0.29419437300603291 -0.21466823074028521 0 -0.27073200059299712 -0.20727051440434061 0 -0.28501812845003832 -0.20286619724415339 0 -0.29419437300603291 -0.21466823074028521 0 -0.29388182722071071 -0.19082766315988769 0 -0.30234891380478651 -0.2095737739431883 0 -0.31458356815708688 -0.21002923863372919 0 -0.3067358868353155 -0.2227699632388512 0 -0.29419437300603291 -0.21466823074028521 0 -0.30234891380478651 -0.2095737739431883 0 -0.3067358868353155 -0.2227699632388512 0 -0.30234891380478651 -0.2095737739431883 0 -0.31458356815708688 -0.21002923863372919 0 -0.29388182722071071 -0.19082766315988769 0 -0.31458356815708688 -0.21002923863372919 0 -0.29388182722071071 -0.19082766315988769 0 -0.31870702661498029 -0.1870567516539231 0 -0.31458356815708688 -0.21002923863372919 0 -0.29388182722071071 -0.19082766315988769 0 -0.3049085696432669 -0.17796461328976571 0 -0.31870702661498029 -0.1870567516539231 0 -0.29388182722071071 -0.19082766315988769 0 -0.3049085696432669 -0.17796461328976571 0 -0.29352279049891161 -0.1692056983732324 0 -0.3049085696432669 -0.17796461328976571 0 -0.31352263423846499 -0.16476833997201959 0 -0.31870702661498029 -0.1870567516539231 0 -0.29352279049891161 -0.1692056983732324 0 -0.29996168704552778 -0.14975770334933999 0 -0.31352263423846499 -0.16476833997201959 0 -0.3049085696432669 -0.17796461328976571 0 -0.29352279049891161 -0.1692056983732324 0 -0.31352263423846499 -0.16476833997201959 0 -0.29996168704552778 -0.14975770334933999 0 -0.31352263423846499 -0.16476833997201959 0 -0.29352279049891161 -0.1692056983732324 0 -0.27318008628433432 -0.17162608768604609 0 -0.27812429075062239 -0.1508505782665723 0 -0.29352279049891161 -0.1692056983732324 0 -0.27812429075062239 -0.1508505782665723 0 -0.29996168704552778 -0.14975770334933999 0 -0.29388182722071071 -0.19082766315988769 0 -0.27318008628433432 -0.17162608768604609 0 -0.29388182722071071 -0.19082766315988769 0 -0.29352279049891161 -0.1692056983732324 0 -0.27318008628433432 -0.17162608768604609 0 -0.27490978588342119 -0.19080641156372269 0 -0.29388182722071071 -0.19082766315988769 0 -0.27318008628433432 -0.17162608768604609 0 -0.25647744315801629 -0.1918409192169887 0 -0.27490978588342119 -0.19080641156372269 0 -0.27318008628433432 -0.17162608768604609 0 -0.24222288572303641 -0.17641132402963619 0 -0.25647744315801629 -0.1918409192169887 0 -0.27318008628433432 -0.17162608768604609 0 -0.24222288572303641 -0.17641132402963619 0 -0.27318008628433432 -0.17162608768604609 0 -0.25247834534795749 -0.15242451221220529 0 -0.27318008628433432 -0.17162608768604609 0 -0.25247834534795749 -0.15242451221220529 0 -0.27318008628433432 -0.17162608768604609 0 -0.27812429075062239 -0.1508505782665723 0 -0.25247834534795749 -0.15242451221220529 0 -0.27812429075062239 -0.1508505782665723 0 -0.25247834534795749 -0.15242451221220529 0 -0.26320209547441559 -0.12734240125195009 0 -0.23575844521856229 -0.13691623079585519 0 -0.25247834534795749 -0.15242451221220529 0 -0.26320209547441559 -0.12734240125195009 0 -0.25247834534795749 -0.15242451221220529 0 -0.26320209547441559 -0.12734240125195009 0 -0.28590485593654302 -0.1162217813546591 0 -0.26320209547441559 -0.12734240125195009 0 -0.28640073985259012 -0.1347470667266609 0 -0.27812429075062239 -0.1508505782665723 0 -0.26320209547441559 -0.12734240125195009 0 -0.28640073985259012 -0.1347470667266609 0 -0.30382234878046682 -0.123065486480607 0 -0.28640073985259012 -0.1347470667266609 0 -0.29820161261199601 -0.13771684336529119 0 -0.27812429075062239 -0.1508505782665723 0 -0.28640073985259012 -0.1347470667266609 0 -0.29996168704552778 -0.14975770334933999 0 -0.28640073985259012 -0.1347470667266609 0 -0.29996168704552778 -0.14975770334933999 0 -0.29820161261199601 -0.13771684336529119 0 -0.28640073985259012 -0.1347470667266609 0 -0.29996168704552778 -0.14975770334933999 0 -0.29996168704552778 -0.14975770334933999 0 -0.30867249150946557 -0.14391691322631339 0 -0.29820161261199601 -0.13771684336529119 0 -0.30867249150946557 -0.14391691322631339 0 -0.31352263423846499 -0.16476833997201959 0 -0.29996168704552778 -0.14975770334933999 0 -0.30867249150946557 -0.14391691322631339 0 -0.31352263423846499 -0.16476833997201959 0 -0.30382234878046682 -0.123065486480607 0 -0.30867249150946557 -0.14391691322631339 0 -0.30382234878046682 -0.123065486480607 0 -0.30867249150946557 -0.14391691322631339 0 -0.29820161261199601 -0.13771684336529119 0 -0.30382234878046682 -0.123065486480607 0 -0.30867249150946557 -0.14391691322631339 0 -0.31755518711615088 -0.13086095855508989 0 -0.31755518711615088 -0.13086095855508989 0 -0.3262323366034498 -0.15095493184920439 0 -0.33272515904869038 -0.13707490451870161 0 -0.33323100068123163 -0.11383483347598509 0 -0.31755518711615088 -0.13086095855508989 0 -0.33272515904869038 -0.13707490451870161 0 -0.30867249150946557 -0.14391691322631339 0 -0.3262323366034498 -0.15095493184920439 0 -0.31352263423846499 -0.16476833997201959 0 -0.30867249150946557 -0.14391691322631339 0 -0.31755518711615088 -0.13086095855508989 0 -0.3262323366034498 -0.15095493184920439 0 -0.3262323366034498 -0.15095493184920439 0 -0.34265058624306188 -0.14749666456428609 0 -0.33841502100819321 -0.1612226034886492 0 -0.3262323366034498 -0.15095493184920439 0 -0.34265058624306188 -0.14749666456428609 0 -0.33272515904869038 -0.13707490451870161 0 -0.33323100068123163 -0.11383483347598509 0 -0.33272515904869038 -0.13707490451870161 0 -0.35244351055189332 -0.13582000121290011 0 -0.34265058624306188 -0.14749666456428609 0 -0.33272515904869038 -0.13707490451870161 0 -0.35244351055189332 -0.13582000121290011 0 -0.35477544869176492 -0.11860224764595891 0 -0.35244351055189332 -0.13582000121290011 0 -0.3627457173198757 -0.1296576670166775 0 -0.35244351055189332 -0.13582000121290011 0 -0.3627457173198757 -0.1296576670166775 0 -0.37237063151685013 -0.14353484386439511 0 -0.37139327851899689 -0.1206735753434543 0 -0.3627457173198757 -0.1296576670166775 0 -0.37237063151685013 -0.14353484386439511 0 -0.37139327851899689 -0.1206735753434543 0 -0.37237063151685013 -0.14353484386439511 0 -0.37139327851899689 -0.1206735753434543 0 -0.37237063151685013 -0.14353484386439511 0 -0.37966017135080599 -0.13410872206456589 0 -0.35244351055189332 -0.13582000121290011 0 -0.37237063151685013 -0.14353484386439511 0 -0.35484460922450389 -0.1534932446274796 0 -0.37237063151685013 -0.14353484386439511 0 -0.35484460922450389 -0.1534932446274796 0 -0.37334798451470003 -0.16639611238533611 0 -0.37237063151685013 -0.14353484386439511 0 -0.37334798451470003 -0.16639611238533611 0 -0.34265058624306188 -0.14749666456428609 0 -0.35484460922450389 -0.1534932446274796 0 -0.33841502100819321 -0.1612226034886492 0 -0.34265058624306188 -0.14749666456428609 0 -0.35244351055189332 -0.13582000121290011 0 -0.35484460922450389 -0.1534932446274796 0 -0.35484460922450389 -0.1534932446274796 0 -0.35297494319981282 -0.1679020342308592 0 -0.33841502100819321 -0.1612226034886492 0 -0.35297494319981282 -0.1679020342308592 0 -0.34155929012548442 -0.17616235978865399 0 -0.33841502100819321 -0.1612226034886492 0 -0.35484460922450389 -0.1534932446274796 0 -0.35297494319981282 -0.1679020342308592 0 -0.37334798451470003 -0.16639611238533611 0 -0.35297494319981282 -0.1679020342308592 0 -0.37334798451470003 -0.16639611238533611 0 -0.35670781112618283 -0.1822358508641771 0 -0.37334798451470003 -0.16639611238533611 0 -0.35670781112618283 -0.1822358508641771 0 -0.37432533751254993 -0.1892573809062772 0 -0.37334798451470003 -0.16639611238533611 0 -0.37432533751254993 -0.1892573809062772 0 -0.35670781112618283 -0.1822358508641771 0 -0.34565649317730351 -0.186462155851505 0 -0.35268833080292011 -0.19287119884456619 0 -0.35297494319981282 -0.1679020342308592 0 -0.35670781112618283 -0.1822358508641771 0 -0.34155929012548442 -0.17616235978865399 0 -0.35670781112618283 -0.1822358508641771 0 -0.34565649317730351 -0.186462155851505 0 -0.34155929012548442 -0.17616235978865399 0 -0.34565649317730351 -0.186462155851505 0 -0.33123988897130913 -0.18437960081998259 0 -0.34155929012548442 -0.17616235978865399 0 -0.33123988897130913 -0.18437960081998259 0 -0.34155929012548442 -0.17616235978865399 0 -0.33019383418938031 -0.16749756718370201 0 -0.3262323366034498 -0.15095493184920439 0 -0.33841502100819321 -0.1612226034886492 0 -0.33019383418938031 -0.16749756718370201 0 -0.34155929012548442 -0.17616235978865399 0 -0.33841502100819321 -0.1612226034886492 0 -0.33019383418938031 -0.16749756718370201 0 -0.3262323366034498 -0.15095493184920439 0 -0.33019383418938031 -0.16749756718370201 0 -0.31352263423846499 -0.16476833997201959 0 -0.33123988897130913 -0.18437960081998259 0 -0.31352263423846499 -0.16476833997201959 0 -0.33123988897130913 -0.18437960081998259 0 -0.31352263423846499 -0.16476833997201959 0 -0.31870702661498029 -0.1870567516539231 0 -0.33123988897130913 -0.18437960081998259 0 -0.33019383418938031 -0.16749756718370201 0 -0.31352263423846499 -0.16476833997201959 0 -0.31352263423846499 -0.16476833997201959 0 -0.31870702661498029 -0.1870567516539231 0 -0.31870702661498029 -0.1870567516539231 0 -0.32741999355817158 -0.19975078899560289 0 -0.32389141899149609 -0.2093451633358264 0 -0.31870702661498029 -0.1870567516539231 0 -0.31458356815708688 -0.21002923863372919 0 -0.32389141899149609 -0.2093451633358264 0 -0.31870702661498029 -0.1870567516539231 0 -0.32389141899149609 -0.2093451633358264 0 -0.31870702661498029 -0.1870567516539231 0 -0.32741999355817158 -0.19975078899560289 0 -0.32789890551859052 -0.19299740288855199 0 -0.33123988897130913 -0.18437960081998259 0 -0.31870702661498029 -0.1870567516539231 0 -0.32789890551859052 -0.19299740288855199 0 -0.31458356815708688 -0.21002923863372919 0 -0.32389141899149609 -0.2093451633358264 0 -0.32014948120962089 -0.2220961344728033 0 -0.3067358868353155 -0.2227699632388512 0 -0.31458356815708688 -0.21002923863372919 0 -0.32014948120962089 -0.2220961344728033 0 -0.32389141899149609 -0.2093451633358264 0 -0.3290807553271855 -0.2177925870018356 0 -0.32014948120962089 -0.2220961344728033 0 -0.32741999355817158 -0.19975078899560289 0 -0.32389141899149609 -0.2093451633358264 0 -0.33221103094888749 -0.20717707609989541 0 -0.33729151294630683 -0.21266352929198271 0 -0.34895714370415382 -0.20399086166794519 0 -0.334691970024041 -0.23027412288569341 0 -0.33221103094888749 -0.20717707609989541 0 -0.33831080172079092 -0.20570459658652759 0 -0.33478351928381561 -0.19898691928628701 0 -0.34895714370415382 -0.20399086166794519 0 -0.334691970024041 -0.23027412288569341 0 -0.33221103094888749 -0.20717707609989541 0 -0.3290807553271855 -0.2177925870018356 0 -0.33729151294630683 -0.21266352929198271 0 -0.32389141899149609 -0.2093451633358264 0 -0.33221103094888749 -0.20717707609989541 0 -0.3290807553271855 -0.2177925870018356 0 -0.33729151294630683 -0.21266352929198271 0 -0.33831080172079092 -0.20570459658652759 0 -0.34895714370415382 -0.20399086166794519 0 -0.33221103094888749 -0.20717707609989541 0 -0.33729151294630683 -0.21266352929198271 0 -0.33831080172079092 -0.20570459658652759 0 -0.33123988897130913 -0.18437960081998259 0 -0.33478351928381561 -0.19898691928628701 0 -0.34895714370415382 -0.20399086166794519 0 -0.33831080172079092 -0.20570459658652759 0 -0.33478351928381561 -0.19898691928628701 0 -0.34895714370415382 -0.20399086166794519 0 -0.33123988897130913 -0.18437960081998259 0 -0.34895714370415382 -0.20399086166794519 0 -0.33123988897130913 -0.18437960081998259 0 -0.34591284952074619 -0.19444425564117521 0 -0.34895714370415382 -0.20399086166794519 0 -0.32741999355817158 -0.19975078899560289 0 -0.33221103094888749 -0.20717707609989541 0 -0.33478351928381561 -0.19898691928628701 0 -0.32741999355817158 -0.19975078899560289 0 -0.32789890551859052 -0.19299740288855199 0 -0.33478351928381561 -0.19898691928628701 0 -0.33123988897130913 -0.18437960081998259 0 -0.32789890551859052 -0.19299740288855199 0 -0.33478351928381561 -0.19898691928628701 0 -0.34565649317730351 -0.186462155851505 0 -0.33123988897130913 -0.18437960081998259 0 -0.34591284952074619 -0.19444425564117521 0 -0.34565649317730351 -0.186462155851505 0 -0.34591284952074619 -0.19444425564117521 0 -0.35268833080292011 -0.19287119884456619 0 -0.34591284952074619 -0.19444425564117521 0 -0.35019492139734448 -0.20171028414613229 0 -0.35268833080292011 -0.19287119884456619 0 -0.34591284952074619 -0.19444425564117521 0 -0.35019492139734448 -0.20171028414613229 0 -0.34895714370415382 -0.20399086166794519 0 -0.35019492139734448 -0.20171028414613229 0 -0.35377664297568118 -0.20345888513293531 0 -0.34895714370415382 -0.20399086166794519 0 -0.35019492139734448 -0.20171028414613229 0 -0.34895714370415382 -0.20399086166794519 0 -0.35743623768949678 -0.20043044548969111 0 -0.35268833080292011 -0.19287119884456619 0 -0.36165051548310118 -0.19377950203585409 0 -0.35019492139734448 -0.20171028414613229 0 -0.35743623768949678 -0.20043044548969111 0 -0.35268833080292011 -0.19287119884456619 0 -0.35019492139734448 -0.20171028414613229 0 -0.35743623768949678 -0.20043044548969111 0 -0.35377664297568118 -0.20345888513293531 0 -0.35670781112618283 -0.1822358508641771 0 -0.35268833080292011 -0.19287119884456619 0 -0.36165051548310118 -0.19377950203585409 0 -0.36613365985236401 -0.2030069097260325 0 -0.37432533751254993 -0.1892573809062772 0 -0.37530269051039977 -0.2121186494272182 0 -0.37432533751254993 -0.1892573809062772 0 -0.37530269051039977 -0.2121186494272182 0 -0.35670781112618283 -0.1822358508641771 0 -0.36165051548310118 -0.19377950203585409 0 -0.37432533751254993 -0.1892573809062772 0 -0.35743623768949678 -0.20043044548969111 0 -0.36165051548310118 -0.19377950203585409 0 -0.36613365985236401 -0.2030069097260325 0 -0.36165051548310118 -0.19377950203585409 0 -0.36613365985236401 -0.2030069097260325 0 -0.37432533751254993 -0.1892573809062772 0 -0.36613365985236401 -0.2030069097260325 0 -0.3612445378920438 -0.21759180019900279 0 -0.37530269051039977 -0.2121186494272182 0 -0.36613365985236401 -0.2030069097260325 0 -0.3612445378920438 -0.21759180019900279 0 -0.35851826911172968 -0.20770394922797261 0 -0.35743623768949678 -0.20043044548969111 0 -0.36613365985236401 -0.2030069097260325 0 -0.35851826911172968 -0.20770394922797261 0 -0.3612445378920438 -0.21759180019900279 0 -0.34895714370415382 -0.20399086166794519 0 -0.35039260485742829 -0.22169645353265871 0 -0.34895714370415382 -0.20399086166794519 0 -0.35039260485742829 -0.22169645353265871 0 -0.334691970024041 -0.23027412288569341 0 -0.3612445378920438 -0.21759180019900279 0 -0.35851826911172968 -0.20770394922797261 0 -0.34895714370415382 -0.20399086166794519 0 -0.3612445378920438 -0.21759180019900279 0 -0.34895714370415382 -0.20399086166794519 0 -0.35851826911172968 -0.20770394922797261 0 -0.35377664297568118 -0.20345888513293531 0 -0.34895714370415382 -0.20399086166794519 0 -0.35743623768949678 -0.20043044548969111 0 -0.35851826911172968 -0.20770394922797261 0 -0.35377664297568118 -0.20345888513293531 0 -0.3612445378920438 -0.21759180019900279 0 -0.35039260485742829 -0.22169645353265871 0 -0.35667676780947483 -0.23492902937799351 0 -0.35039260485742829 -0.22169645353265871 0 -0.35667676780947483 -0.23492902937799351 0 -0.334691970024041 -0.23027412288569341 0 -0.3612445378920438 -0.21759180019900279 0 -0.37353193207993479 -0.23119273873005949 0 -0.35667676780947483 -0.23492902937799351 0 -0.3612445378920438 -0.21759180019900279 0 -0.37353193207993479 -0.23119273873005949 0 -0.37530269051039977 -0.2121186494272182 0 -0.3612445378920438 -0.21759180019900279 0 -0.37353193207993479 -0.23119273873005949 0 -0.35360226502151387 -0.25460535315068938 0 -0.37296094896050469 -0.25131874535835808 0 -0.35667676780947483 -0.23492902937799351 0 -0.37296094896050469 -0.25131874535835808 0 -0.37353193207993479 -0.23119273873005949 0 -0.35667676780947483 -0.23492902937799351 0 -0.35360226502151387 -0.25460535315068938 0 -0.35667676780947483 -0.23492902937799351 0 -0.334691970024041 -0.23027412288569341 0 -0.3204267963439279 -0.25655738410344142 0 -0.35360226502151387 -0.25460535315068938 0 -0.334691970024041 -0.23027412288569341 0 -0.3290807553271855 -0.2177925870018356 0 -0.33729151294630683 -0.21266352929198271 0 -0.334691970024041 -0.23027412288569341 0 -0.31049353829928178 -0.23997410907081471 0 -0.334691970024041 -0.23027412288569341 0 -0.32014948120962089 -0.2220961344728033 0 -0.3290807553271855 -0.2177925870018356 0 -0.334691970024041 -0.23027412288569341 0 -0.32014948120962089 -0.2220961344728033 0 -0.3204267963439279 -0.25655738410344142 0 -0.31049353829928178 -0.23997410907081471 0 -0.334691970024041 -0.23027412288569341 0 -0.3204267963439279 -0.25655738410344142 0 -0.334691970024041 -0.23027412288569341 0 -0.43287135929340759 -0.22041573128612771 0 -0.41633050832669871 -0.24435537747453029 0 -0.44515169611381661 -0.24178921517315011 0 -0.42686892815175892 -0.26320261671309481 0 -0.41633050832669871 -0.24435537747453029 0 -0.44515169611381661 -0.24178921517315011 0 -0.43287135929340759 -0.22041573128612771 0 -0.41633050832669871 -0.24435537747453029 0 -0.40579208850163773 -0.2255081382359661 0 -0.41633050832669871 -0.24435537747453029 0 -0.40579208850163773 -0.2255081382359661 0 -0.41633050832669871 -0.24435537747453029 0 -0.39305878154435231 -0.2433936727470595 0 -0.40579208850163773 -0.2255081382359661 0 -0.37296094896050469 -0.25131874535835808 0 -0.37353193207993479 -0.23119273873005949 0 -0.39305878154435231 -0.2433936727470595 0 -0.37353193207993479 -0.23119273873005949 0 -0.39305878154435231 -0.2433936727470595 0 -0.38857073715349921 -0.21971570734245319 0 -0.37353193207993479 -0.23119273873005949 0 -0.38857073715349921 -0.21971570734245319 0 -0.37530269051039977 -0.2121186494272182 0 -0.39305878154435231 -0.2433936727470595 0 -0.38857073715349921 -0.21971570734245319 0 -0.40579208850163773 -0.2255081382359661 0 -0.38857073715349921 -0.21971570734245319 0 -0.40579208850163773 -0.2255081382359661 0 -0.39978998916694752 -0.20578356137474099 0 -0.38857073715349921 -0.21971570734245319 0 -0.39978998916694752 -0.20578356137474099 0 -0.38607938997474711 -0.20237807396439589 0 -0.38857073715349921 -0.21971570734245319 0 -0.37530269051039977 -0.2121186494272182 0 -0.38607938997474711 -0.20237807396439589 0 -0.37432533751254993 -0.1892573809062772 0 -0.38607938997474711 -0.20237807396439589 0 -0.39240819553033879 -0.18501507077129009 0 -0.37432533751254993 -0.1892573809062772 0 -0.37530269051039977 -0.2121186494272182 0 -0.38607938997474711 -0.20237807396439589 0 -0.39978998916694752 -0.20578356137474099 0 -0.41247463626214348 -0.19302151974813331 0 -0.39240819553033879 -0.18501507077129009 0 -0.39978998916694752 -0.20578356137474099 0 -0.38607938997474711 -0.20237807396439589 0 -0.39240819553033879 -0.18501507077129009 0 -0.41247463626214348 -0.19302151974813331 0 -0.41633200151561039 -0.20893387584232631 0 -0.42944534851916238 -0.20120338289103271 0 -0.39978998916694752 -0.20578356137474099 0 -0.41247463626214348 -0.19302151974813331 0 -0.41633200151561039 -0.20893387584232631 0 -0.43287135929340759 -0.22041573128612771 0 -0.40579208850163773 -0.2255081382359661 0 -0.41633200151561039 -0.20893387584232631 0 -0.40579208850163773 -0.2255081382359661 0 -0.39978998916694752 -0.20578356137474099 0 -0.41633200151561039 -0.20893387584232631 0 -0.43287135929340759 -0.22041573128612771 0 -0.42944534851916238 -0.20120338289103271 0 -0.44912717071362451 -0.1992405331853894 0 -0.43287135929340759 -0.22041573128612771 0 -0.41633200151561039 -0.20893387584232631 0 -0.42944534851916238 -0.20120338289103271 0 -0.42944534851916238 -0.20120338289103271 0 -0.42969091218428063 -0.1804544422561094 0 -0.44912717071362451 -0.1992405331853894 0 -0.41247463626214348 -0.19302151974813331 0 -0.42944534851916238 -0.20120338289103271 0 -0.42969091218428063 -0.1804544422561094 0 -0.42969091218428063 -0.1804544422561094 0 -0.41239212251863039 -0.1597259847723036 0 -0.43784641888610382 -0.16065200832791321 0 -0.41247463626214348 -0.19302151974813331 0 -0.42969091218428063 -0.1804544422561094 0 -0.40718137065652182 -0.1767387853533002 0 -0.42969091218428063 -0.1804544422561094 0 -0.41239212251863039 -0.1597259847723036 0 -0.40718137065652182 -0.1767387853533002 0 -0.40718137065652182 -0.1767387853533002 0 -0.39240819553033879 -0.18501507077129009 0 -0.39450252364703248 -0.16487360641593729 0 -0.41247463626214348 -0.19302151974813331 0 -0.40718137065652182 -0.1767387853533002 0 -0.39240819553033879 -0.18501507077129009 0 -0.37334798451470003 -0.16639611238533611 0 -0.37432533751254993 -0.1892573809062772 0 -0.39240819553033879 -0.18501507077129009 0 -0.37334798451470003 -0.16639611238533611 0 -0.39240819553033879 -0.18501507077129009 0 -0.39450252364703248 -0.16487360641593729 0 -0.37334798451470003 -0.16639611238533611 0 -0.39450252364703248 -0.16487360641593729 0 -0.38493694455659488 -0.15032027496372161 0 -0.41239212251863039 -0.1597259847723036 0 -0.40718137065652182 -0.1767387853533002 0 -0.39450252364703248 -0.16487360641593729 0 -0.41239212251863039 -0.1597259847723036 0 -0.39450252364703248 -0.16487360641593729 0 -0.39811587805082532 -0.151082675212317 0 -0.41239212251863039 -0.1597259847723036 0 -0.40379604121366869 -0.1445407262926369 0 -0.39811587805082532 -0.151082675212317 0 -0.39306691054342419 -0.1411873019768537 0 -0.39811587805082532 -0.151082675212317 0 -0.38493694455659488 -0.15032027496372161 0 -0.40379604121366869 -0.1445407262926369 0 -0.39306691054342419 -0.1411873019768537 0 -0.39811587805082532 -0.151082675212317 0 -0.39450252364703248 -0.16487360641593729 0 -0.39811587805082532 -0.151082675212317 0 -0.38493694455659488 -0.15032027496372161 0 -0.39306691054342419 -0.1411873019768537 0 -0.38493694455659488 -0.15032027496372161 0 -0.37966017135080599 -0.13410872206456589 0 -0.37237063151685013 -0.14353484386439511 0 -0.38493694455659488 -0.15032027496372161 0 -0.37966017135080599 -0.13410872206456589 0 -0.37237063151685013 -0.14353484386439511 0 -0.37334798451470003 -0.16639611238533611 0 -0.38493694455659488 -0.15032027496372161 0 -0.39306691054342419 -0.1411873019768537 0 -0.37966017135080599 -0.13410872206456589 0 -0.39544898700282571 -0.12693919185055649 0 -0.37139327851899689 -0.1206735753434543 0 -0.37966017135080599 -0.13410872206456589 0 -0.39544898700282571 -0.12693919185055649 0 -0.37139327851899689 -0.1206735753434543 0 -0.37966017135080599 -0.13410872206456589 0 -0.40379604121366869 -0.1445407262926369 0 -0.39306691054342419 -0.1411873019768537 0 -0.39544898700282571 -0.12693919185055649 0 -0.40379604121366869 -0.1445407262926369 0 -0.39544898700282571 -0.12693919185055649 0 -0.41995630795263778 -0.1437684776511538 0 -0.39544898700282571 -0.12693919185055649 0 -0.4149149380030589 -0.12590791161719739 0 -0.41995630795263778 -0.1437684776511538 0 -0.39544898700282571 -0.12693919185055649 0 -0.41995630795263778 -0.1437684776511538 0 -0.41239212251863039 -0.1597259847723036 0 -0.40379604121366869 -0.1445407262926369 0 -0.41995630795263778 -0.1437684776511538 0 -0.41995630795263778 -0.1437684776511538 0 -0.43097061873399028 -0.13521545405804819 0 -0.43784641888610382 -0.16065200832791321 0 -0.43097061873399028 -0.13521545405804819 0 -0.43784641888610382 -0.16065200832791321 0 -0.41239212251863039 -0.1597259847723036 0 -0.41995630795263778 -0.1437684776511538 0 -0.43784641888610382 -0.16065200832791321 0 -0.4149149380030589 -0.12590791161719739 0 -0.41995630795263778 -0.1437684776511538 0 -0.43097061873399028 -0.13521545405804819 0 -0.45071173407042547 -0.1409246841432257 0 -0.44121032455866332 -0.1224397345803445 0 -0.45619814371136419 -0.1213202456852264 0 -0.43097061873399028 -0.13521545405804819 0 -0.45071173407042547 -0.1409246841432257 0 -0.44121032455866332 -0.1224397345803445 0 -0.45071173407042547 -0.1409246841432257 0 -0.45326010824970209 -0.15664539016804699 0 -0.43784641888610382 -0.16065200832791321 0 -0.43097061873399028 -0.13521545405804819 0 -0.45071173407042547 -0.1409246841432257 0 -0.43784641888610382 -0.16065200832791321 0 -0.45071173407042547 -0.1409246841432257 0 -0.46833191195928248 -0.15149995123474519 0 -0.45326010824970209 -0.15664539016804699 0 -0.45071173407042547 -0.1409246841432257 0 -0.46833191195928248 -0.15149995123474519 0 -0.46768311102431398 -0.1328513609391159 0 -0.45071173407042547 -0.1409246841432257 0 -0.46768311102431398 -0.1328513609391159 0 -0.45619814371136419 -0.1213202456852264 0 -0.46768311102431398 -0.1328513609391159 0 -0.48334430842673493 -0.14035356797073939 0 -0.48269293919420159 -0.1218798034032053 0 -0.48334430842673493 -0.14035356797073939 0 -0.5 -0.13185640104403079 0 -0.48269293919420159 -0.1218798034032053 0 -0.48334430842673493 -0.14035356797073939 0 -0.5 -0.1547027057986764 0 -0.48076360099550891 -0.16805990391241349 0 -0.48334430842673493 -0.14035356797073939 0 -0.5 -0.13185640104403079 0 -0.5 -0.1547027057986764 0 -0.46833191195928248 -0.15149995123474519 0 -0.46768311102431398 -0.1328513609391159 0 -0.48334430842673493 -0.14035356797073939 0 -0.46833191195928248 -0.15149995123474519 0 -0.48334430842673493 -0.14035356797073939 0 -0.48076360099550891 -0.16805990391241349 0 -0.46833191195928248 -0.15149995123474519 0 -0.48076360099550891 -0.16805990391241349 0 -0.45760370817108648 -0.17403141695259669 0 -0.5 -0.1547027057986764 0 -0.48076360099550891 -0.16805990391241349 0 -0.499999999999996 -0.17754901055332181 0 -0.48076360099550891 -0.16805990391241349 0 -0.499999999999996 -0.17754901055332181 0 -0.48171723203793471 -0.19896241209326329 0 -0.48076360099550891 -0.16805990391241349 0 -0.45760370817108648 -0.17403141695259669 0 -0.48171723203793471 -0.19896241209326329 0 -0.46833191195928248 -0.15149995123474519 0 -0.45760370817108648 -0.17403141695259669 0 -0.45326010824970209 -0.15664539016804699 0 -0.42969091218428063 -0.1804544422561094 0 -0.45760370817108648 -0.17403141695259669 0 -0.43784641888610382 -0.16065200832791321 0 -0.45760370817108648 -0.17403141695259669 0 -0.45326010824970209 -0.15664539016804699 0 -0.43784641888610382 -0.16065200832791321 0 -0.42969091218428063 -0.1804544422561094 0 -0.45760370817108648 -0.17403141695259669 0 -0.44912717071362451 -0.1992405331853894 0 -0.45760370817108648 -0.17403141695259669 0 -0.44912717071362451 -0.1992405331853894 0 -0.48171723203793471 -0.19896241209326329 0 -0.44912717071362451 -0.1992405331853894 0 -0.48171723203793471 -0.19896241209326329 0 -0.46343446407587557 -0.22037581363320671 0 -0.43287135929340759 -0.22041573128612771 0 -0.44912717071362451 -0.1992405331853894 0 -0.46343446407587557 -0.22037581363320671 0 -0.499999999999996 -0.17754901055332181 0 -0.48171723203793471 -0.19896241209326329 0 -0.5 -0.20671371931256199 0 -0.499999999999996 -0.17754901055332181 0 -0.48171723203793471 -0.19896241209326329 0 -0.48171723203793471 -0.19896241209326329 0 -0.5 -0.20671371931256199 0 -0.48396333837931149 -0.22133827698425579 0 -0.48171723203793471 -0.19896241209326329 0 -0.46343446407587557 -0.22037581363320671 0 -0.48171723203793471 -0.19896241209326329 0 -0.48396333837931149 -0.22133827698425579 0 -0.46343446407587557 -0.22037581363320671 0 -0.48396333837931149 -0.22133827698425579 0 -0.47466499578274712 -0.24476101181044499 0 -0.46343446407587557 -0.22037581363320671 0 -0.5 -0.20671371931256199 0 -0.48396333837931149 -0.22133827698425579 0 -0.5 -0.23587842807180201 0 -0.48396333837931149 -0.22133827698425579 0 -0.5 -0.23587842807180201 0 -0.47466499578274712 -0.24476101181044499 0 -0.5 -0.2650431368310423 0 -0.5 -0.23587842807180201 0 -0.47466499578274712 -0.24476101181044499 0 -0.47466499578274712 -0.24476101181044499 0 -0.46343446407587557 -0.22037581363320671 0 -0.44515169611381661 -0.24178921517315011 0 -0.45783752861143301 -0.25509380603075732 0 -0.47466499578274712 -0.24476101181044499 0 -0.44515169611381661 -0.24178921517315011 0 -0.46343446407587557 -0.22037581363320671 0 -0.44515169611381661 -0.24178921517315011 0 -0.43287135929340759 -0.22041573128612771 0 -0.46343446407587557 -0.22037581363320671 0 -0.44515169611381661 -0.24178921517315011 0 -0.40944753408752499 -0.036075741430514063 0 -0.42440789343215979 -0.042260950272140087 0 -0.40533287367367399 -0.047695638741884927 0 -0.42440789343215979 -0.042260950272140087 0 -0.40533287367367399 -0.047695638741884927 0 -0.40944753408752499 -0.036075741430514063 0 -0.42440789343215979 -0.042260950272140087 0 -0.41765641187760377 -0.029521517631915892 0 -0.40944753408752499 -0.036075741430514063 0 -0.41765641187760377 -0.029521517631915892 0 -0.40935068615233772 -0.028234762808113829 0 -0.40839074884625087 -0.059712732008462228 0 -0.40533287367367399 -0.047695638741884927 0 -0.42290237844700101 -0.062520830305147018 0 -0.40533287367367399 -0.047695638741884927 0 -0.42290237844700101 -0.062520830305147018 0 -0.42440789343215979 -0.042260950272140087 0 -0.40533287367367399 -0.047695638741884927 0 -0.42290237844700101 -0.062520830305147018 0 -0.43424658253425741 -0.056760931933519602 0 -0.42440789343215979 -0.042260950272140087 0 -0.4402181843441666 -0.047140755831702852 0 -0.43424658253425741 -0.056760931933519602 0 -0.42440789343215979 -0.042260950272140087 0 -0.42290237844700101 -0.062520830305147018 0 -0.43424658253425741 -0.056760931933519602 0 -0.42290237844700101 -0.062520830305147018 0 -0.4363838137766583 -0.065579409832916657 0 -0.42440789343215979 -0.042260950272140087 0 -0.44348291319064631 -0.036826261802397738 0 -0.4402181843441666 -0.047140755831702852 0 -0.42440789343215979 -0.042260950272140087 0 -0.44348291319064631 -0.036826261802397738 0 -0.42440789343215979 -0.042260950272140087 0 -0.42745553242730122 -0.026270301620696119 0 -0.44348291319064631 -0.036826261802397738 0 -0.42440789343215979 -0.042260950272140087 0 -0.42745553242730122 -0.026270301620696119 0 -0.41765641187760377 -0.029521517631915892 0 -0.43631094902786122 -0.015851764134622959 0 -0.42745553242730122 -0.026270301620696119 0 -0.44348291319064631 -0.036826261802397738 0 -0.43631094902786122 -0.015851764134622959 0 -0.42745553242730122 -0.026270301620696119 0 -0.42689597376699562 -0.015382299840453421 0 -0.42745553242730122 -0.026270301620696119 0 -0.42689597376699562 -0.015382299840453421 0 -0.41957895608171941 -0.016087823779878531 0 -0.43631094902786122 -0.015851764134622959 0 -0.42975921676070322 -0.0085758581086522161 0 -0.43817197183071049 0.0015455403038448581 0 -0.42975921676070322 -0.0085758581086522161 0 -0.42656569450450321 -0.0019859141793893498 0 -0.43817197183071049 0.0015455403038448581 0 -0.43631094902786122 -0.015851764134622959 0 -0.42975921676070322 -0.0085758581086522161 0 -0.42689597376699562 -0.015382299840453421 0 -0.42689597376699562 -0.015382299840453421 0 -0.42379115954964552 -0.0096354452312114452 0 -0.41957895608171941 -0.016087823779878531 0 -0.42975921676070322 -0.0085758581086522161 0 -0.42689597376699562 -0.015382299840453421 0 -0.42379115954964552 -0.0096354452312114452 0 -0.42379115954964552 -0.0096354452312114452 0 -0.42656569450450321 -0.0019859141793893498 0 -0.41782183006214652 -0.005234000588313332 0 -0.42975921676070322 -0.0085758581086522161 0 -0.42379115954964552 -0.0096354452312114452 0 -0.42656569450450321 -0.0019859141793893498 0 -0.41782183006214652 -0.005234000588313332 0 -0.4163290912294062 -0.005240048587150316 0 -0.41782183006214652 -0.005234000588313332 0 -0.4163290912294062 -0.005240048587150316 0 -0.41957895608171941 -0.016087823779878531 0 -0.4163290912294062 -0.005240048587150316 0 -0.41957895608171941 -0.016087823779878531 0 -0.40859942234497409 -0.01986359679066672 0 -0.42379115954964552 -0.0096354452312114452 0 -0.41782183006214652 -0.005234000588313332 0 -0.41957895608171941 -0.016087823779878531 0 -0.4163290912294062 -0.005240048587150316 0 -0.40859942234497409 -0.01986359679066672 0 -0.4163290912294062 -0.005240048587150316 0 -0.40859942234497409 -0.01986359679066672 0 -0.40540206046375737 -0.0096856385033508852 0 -0.4163290912294062 -0.005240048587150316 0 -0.40566852868012448 -0.0052832410522216568 0 -0.40540206046375737 -0.0096856385033508852 0 -0.4163290912294062 -0.005240048587150316 0 -0.40566852868012448 -0.0052832410522216568 0 -0.42745553242730122 -0.026270301620696119 0 -0.41765641187760377 -0.029521517631915892 0 -0.41957895608171941 -0.016087823779878531 0 -0.41765641187760377 -0.029521517631915892 0 -0.41957895608171941 -0.016087823779878531 0 -0.40859942234497409 -0.01986359679066672 0 -0.40944753408752499 -0.036075741430514063 0 -0.40935068615233772 -0.028234762808113829 0 -0.40179402359408961 -0.027632817373128071 0 -0.41765641187760377 -0.029521517631915892 0 -0.40859942234497409 -0.01986359679066672 0 -0.40935068615233772 -0.028234762808113829 0 -0.40859942234497409 -0.01986359679066672 0 -0.40935068615233772 -0.028234762808113829 0 -0.40179402359408961 -0.027632817373128071 0 -0.40179402359408961 -0.027632817373128071 0 -0.39249299327384629 -0.028917931244280881 0 -0.40111659189591259 -0.03653124152592109 0 -0.40859942234497409 -0.01986359679066672 0 -0.40179402359408961 -0.027632817373128071 0 -0.4021567107437094 -0.01664207540695305 0 -0.40179402359408961 -0.027632817373128071 0 -0.4021567107437094 -0.01664207540695305 0 -0.3953948200972025 -0.019332176563196132 0 -0.4021567107437094 -0.01664207540695305 0 -0.3953948200972025 -0.019332176563196132 0 -0.39682146432224152 -0.011188134604484061 0 -0.3953948200972025 -0.019332176563196132 0 -0.38946989423126932 -0.01313534461047268 0 -0.38755763981967561 -0.019293576783791962 0 -0.3953948200972025 -0.019332176563196132 0 -0.39249299327384629 -0.028917931244280881 0 -0.38755763981967561 -0.019293576783791962 0 -0.40179402359408961 -0.027632817373128071 0 -0.3953948200972025 -0.019332176563196132 0 -0.39249299327384629 -0.028917931244280881 0 -0.40566852868012448 -0.0052832410522216568 0 -0.38003189033049622 -0.0053871107684163432 0 -0.40566852868012448 -0.0052832410522216568 0 -0.39682146432224152 -0.011188134604484061 0 -0.38003189033049622 -0.0053871107684163432 0 -0.40566852868012448 -0.0052832410522216568 0 -0.40540206046375737 -0.0096856385033508852 0 -0.40566852868012448 -0.0052832410522216568 0 -0.40540206046375737 -0.0096856385033508852 0 -0.39682146432224152 -0.011188134604484061 0 -0.4021567107437094 -0.01664207540695305 0 -0.40540206046375737 -0.0096856385033508852 0 -0.39682146432224152 -0.011188134604484061 0 -0.40859942234497409 -0.01986359679066672 0 -0.4021567107437094 -0.01664207540695305 0 -0.40540206046375737 -0.0096856385033508852 0 -0.3953948200972025 -0.019332176563196132 0 -0.39682146432224152 -0.011188134604484061 0 -0.38946989423126932 -0.01313534461047268 0 -0.39682146432224152 -0.011188134604484061 0 -0.38946989423126932 -0.01313534461047268 0 -0.38003189033049622 -0.0053871107684163432 0 -0.38946989423126932 -0.01313534461047268 0 -0.38347881418141089 -0.01273047981391599 0 -0.38003189033049622 -0.0053871107684163432 0 -0.38946989423126932 -0.01313534461047268 0 -0.38347881418141089 -0.01273047981391599 0 -0.38755763981967561 -0.019293576783791962 0 -0.36759554044300879 -0.01311597971742829 0 -0.38003189033049622 -0.0053871107684163432 0 -0.3774980877731845 -0.017962849169193901 0 -0.38347881418141089 -0.01273047981391599 0 -0.38003189033049622 -0.0053871107684163432 0 -0.3774980877731845 -0.017962849169193901 0 -0.38347881418141089 -0.01273047981391599 0 -0.38003189033049622 -0.0053871107684163432 0 -0.39249299327384629 -0.028917931244280881 0 -0.38267205842440061 -0.025593878873220021 0 -0.38514547853272402 -0.032601657027043762 0 -0.39249299327384629 -0.028917931244280881 0 -0.38755763981967561 -0.019293576783791962 0 -0.38267205842440061 -0.025593878873220021 0 -0.38347881418141089 -0.01273047981391599 0 -0.38755763981967561 -0.019293576783791962 0 -0.3774980877731845 -0.017962849169193901 0 -0.38755763981967561 -0.019293576783791962 0 -0.3774980877731845 -0.017962849169193901 0 -0.38267205842440061 -0.025593878873220021 0 -0.37088339729497882 -0.026691286259717961 0 -0.3774980877731845 -0.017962849169193901 0 -0.38267205842440061 -0.025593878873220021 0 -0.37088339729497882 -0.026691286259717961 0 -0.38267205842440061 -0.025593878873220021 0 -0.38514547853272402 -0.032601657027043762 0 -0.37088339729497882 -0.026691286259717961 0 -0.3863111762310143 -0.044205736236882731 0 -0.38514547853272402 -0.032601657027043762 0 -0.37408921323493 -0.041816230709288152 0 -0.37088339729497882 -0.026691286259717961 0 -0.3863111762310143 -0.044205736236882731 0 -0.37088339729497882 -0.026691286259717961 0 -0.3863111762310143 -0.044205736236882731 0 -0.39249299327384629 -0.028917931244280881 0 -0.38514547853272402 -0.032601657027043762 0 -0.39336776743937951 -0.037599452521117203 0 -0.3863111762310143 -0.044205736236882731 0 -0.38514547853272402 -0.032601657027043762 0 -0.39336776743937951 -0.037599452521117203 0 -0.39249299327384629 -0.028917931244280881 0 -0.39336776743937951 -0.037599452521117203 0 -0.40111659189591259 -0.03653124152592109 0 -0.3863111762310143 -0.044205736236882731 0 -0.39336776743937951 -0.037599452521117203 0 -0.3957076298960277 -0.046924357884338713 0 -0.39336776743937951 -0.037599452521117203 0 -0.40533287367367399 -0.047695638741884927 0 -0.3957076298960277 -0.046924357884338713 0 -0.39336776743937951 -0.037599452521117203 0 -0.40533287367367399 -0.047695638741884927 0 -0.39336776743937951 -0.037599452521117203 0 -0.40111659189591259 -0.03653124152592109 0 -0.40533287367367399 -0.047695638741884927 0 -0.40944753408752499 -0.036075741430514063 0 -0.40111659189591259 -0.03653124152592109 0 -0.40533287367367399 -0.047695638741884927 0 -0.40944753408752499 -0.036075741430514063 0 -0.40179402359408961 -0.027632817373128071 0 -0.40111659189591259 -0.03653124152592109 0 -0.40839074884625087 -0.059712732008462228 0 -0.39645130758857222 -0.054562828558609722 0 -0.39795166241691687 -0.065856695864154768 0 -0.40839074884625087 -0.059712732008462228 0 -0.40363337184870418 -0.052780402279697602 0 -0.39645130758857222 -0.054562828558609722 0 -0.40533287367367399 -0.047695638741884927 0 -0.40010407729093572 -0.050541298406260773 0 -0.3957076298960277 -0.046924357884338713 0 -0.40839074884625087 -0.059712732008462228 0 -0.40363337184870418 -0.052780402279697602 0 -0.40533287367367399 -0.047695638741884927 0 -0.40363337184870418 -0.052780402279697602 0 -0.40533287367367399 -0.047695638741884927 0 -0.40010407729093572 -0.050541298406260773 0 -0.40363337184870418 -0.052780402279697602 0 -0.40010407729093572 -0.050541298406260773 0 -0.39645130758857222 -0.054562828558609722 0 -0.3863111762310143 -0.044205736236882731 0 -0.39645130758857222 -0.054562828558609722 0 -0.3957076298960277 -0.046924357884338713 0 -0.40010407729093572 -0.050541298406260773 0 -0.39645130758857222 -0.054562828558609722 0 -0.3957076298960277 -0.046924357884338713 0 -0.3741991750753233 -0.05581243035603628 0 -0.39645130758857222 -0.054562828558609722 0 -0.39795166241691687 -0.065856695864154768 0 -0.3741991750753233 -0.05581243035603628 0 -0.3863111762310143 -0.044205736236882731 0 -0.39645130758857222 -0.054562828558609722 0 -0.3741991750753233 -0.05581243035603628 0 -0.39795166241691687 -0.065856695864154768 0 -0.3741991750753233 -0.05581243035603628 0 -0.37408921323493 -0.041816230709288152 0 -0.3863111762310143 -0.044205736236882731 0 -0.36842737964278238 -0.07179880614865175 0 -0.38463213909761829 -0.073046525154530167 0 -0.3741991750753233 -0.05581243035603628 0 -0.38463213909761829 -0.073046525154530167 0 -0.3741991750753233 -0.05581243035603628 0 -0.38463213909761829 -0.073046525154530167 0 -0.39795166241691687 -0.065856695864154768 0 -0.36842737964278238 -0.07179880614865175 0 -0.3741991750753233 -0.05581243035603628 0 -0.38463213909761829 -0.073046525154530167 0 -0.36968027855177682 -0.080604785138471718 0 -0.38463213909761829 -0.073046525154530167 0 -0.38190928540974012 -0.084116458239182332 0 -0.36968027855177682 -0.080604785138471718 0 -0.38190928540974012 -0.084116458239182332 0 -0.37977089098186589 -0.095030352648071706 0 -0.38190928540974012 -0.084116458239182332 0 -0.39355383300769958 -0.087784170015655777 0 -0.37977089098186589 -0.095030352648071706 0 -0.39355383300769958 -0.087784170015655777 0 -0.37977089098186589 -0.095030352648071706 0 -0.3919554662692174 -0.0980417248531682 0 -0.38463213909761829 -0.073046525154530167 0 -0.39355383300769958 -0.087784170015655777 0 -0.38463213909761829 -0.073046525154530167 0 -0.38190928540974012 -0.084116458239182332 0 -0.39355383300769958 -0.087784170015655777 0 -0.38463213909761829 -0.073046525154530167 0 -0.39355383300769958 -0.087784170015655777 0 -0.40316814442806431 -0.07447374326340242 0 -0.39355383300769958 -0.087784170015655777 0 -0.40480093021326718 -0.086555598405858455 0 -0.40526272498754118 -0.099622134826057224 0 -0.39355383300769958 -0.087784170015655777 0 -0.40480093021326718 -0.086555598405858455 0 -0.40316814442806431 -0.07447374326340242 0 -0.38463213909761829 -0.073046525154530167 0 -0.40316814442806431 -0.07447374326340242 0 -0.38463213909761829 -0.073046525154530167 0 -0.40316814442806431 -0.07447374326340242 0 -0.39795166241691687 -0.065856695864154768 0 -0.37094166605301421 -0.11010990604995829 0 -0.39544898700282571 -0.12693919185055649 0 -0.38923441609976278 -0.10973024192288811 0 -0.37094166605301421 -0.11010990604995829 0 -0.37139327851899689 -0.1206735753434543 0 -0.39544898700282571 -0.12693919185055649 0 -0.37094166605301421 -0.11010990604995829 0 -0.39544898700282571 -0.12693919185055649 0 -0.37094166605301421 -0.11010990604995829 0 -0.38923441609976278 -0.10973024192288811 0 -0.37977089098186589 -0.095030352648071706 0 -0.38923441609976278 -0.10973024192288811 0 -0.37977089098186589 -0.095030352648071706 0 -0.3919554662692174 -0.0980417248531682 0 -0.38923441609976278 -0.10973024192288811 0 -0.3919554662692174 -0.0980417248531682 0 -0.40526272498754118 -0.099622134826057224 0 -0.38923441609976278 -0.10973024192288811 0 -0.40526272498754118 -0.099622134826057224 0 -0.4057911769350131 -0.1143956760009765 0 -0.39355383300769958 -0.087784170015655777 0 -0.3919554662692174 -0.0980417248531682 0 -0.40526272498754118 -0.099622134826057224 0 -0.39544898700282571 -0.12693919185055649 0 -0.38923441609976278 -0.10973024192288811 0 -0.4057911769350131 -0.1143956760009765 0 -0.39544898700282571 -0.12693919185055649 0 -0.4149149380030589 -0.12590791161719739 0 -0.4057911769350131 -0.1143956760009765 0 -0.4149149380030589 -0.12590791161719739 0 -0.4057911769350131 -0.1143956760009765 0 -0.42409481858187692 -0.10977889978818341 0 -0.40526272498754118 -0.099622134826057224 0 -0.4057911769350131 -0.1143956760009765 0 -0.42409481858187692 -0.10977889978818341 0 -0.40526272498754118 -0.099622134826057224 0 -0.42409481858187692 -0.10977889978818341 0 -0.41721901842976339 -0.084342345518318373 0 -0.42409481858187692 -0.10977889978818341 0 -0.41721901842976339 -0.084342345518318373 0 -0.42409481858187692 -0.10977889978818341 0 -0.4302578211619707 -0.09319654139512884 0 -0.4429960793743915 -0.10708722725866079 0 -0.42409481858187692 -0.10977889978818341 0 -0.41721901842976339 -0.084342345518318373 0 -0.4302578211619707 -0.09319654139512884 0 -0.4149149380030589 -0.12590791161719739 0 -0.43097061873399028 -0.13521545405804819 0 -0.42409481858187692 -0.10977889978818341 0 -0.42409481858187692 -0.10977889978818341 0 -0.44121032455866332 -0.1224397345803445 0 -0.4429960793743915 -0.10708722725866079 0 -0.43097061873399028 -0.13521545405804819 0 -0.42409481858187692 -0.10977889978818341 0 -0.43097061873399028 -0.13521545405804819 0 -0.42409481858187692 -0.10977889978818341 0 -0.44121032455866332 -0.1224397345803445 0 -0.40316814442806431 -0.07447374326340242 0 -0.39795166241691687 -0.065856695864154768 0 -0.42170414975851028 -0.075900961372274214 0 -0.39795166241691687 -0.065856695864154768 0 -0.42170414975851028 -0.075900961372274214 0 -0.40839074884625087 -0.059712732008462228 0 -0.42170414975851028 -0.075900961372274214 0 -0.42290237844700101 -0.062520830305147018 0 -0.40316814442806431 -0.07447374326340242 0 -0.42170414975851028 -0.075900961372274214 0 -0.40839074884625087 -0.059712732008462228 0 -0.39795166241691687 -0.065856695864154768 0 -0.42170414975851028 -0.075900961372274214 0 -0.40480093021326718 -0.086555598405858455 0 -0.40316814442806431 -0.07447374326340242 0 -0.41721901842976339 -0.084342345518318373 0 -0.40316814442806431 -0.07447374326340242 0 -0.42170414975851028 -0.075900961372274214 0 -0.41721901842976339 -0.084342345518318373 0 -0.40480093021326718 -0.086555598405858455 0 -0.40526272498754118 -0.099622134826057224 0 -0.41721901842976339 -0.084342345518318373 0 -0.42170414975851028 -0.075900961372274214 0 -0.43879866494000808 -0.083129755845299733 0 -0.42170414975851028 -0.075900961372274214 0 -0.41721901842976339 -0.084342345518318373 0 -0.4302578211619707 -0.09319654139512884 0 -0.42170414975851028 -0.075900961372274214 0 -0.4302578211619707 -0.09319654139512884 0 -0.43879866494000808 -0.083129755845299733 0 -0.42170414975851028 -0.075900961372274214 0 -0.4404718832203276 -0.07734602186840947 0 -0.43879866494000808 -0.083129755845299733 0 -0.42170414975851028 -0.075900961372274214 0 -0.42290237844700101 -0.062520830305147018 0 -0.4404718832203276 -0.07734602186840947 0 -0.42290237844700101 -0.062520830305147018 0 -0.4363838137766583 -0.065579409832916657 0 -0.4404718832203276 -0.07734602186840947 0 -0.42290237844700101 -0.062520830305147018 0 -0.4404718832203276 -0.07734602186840947 0 -0.42170414975851028 -0.075900961372274214 0 -0.4404718832203276 -0.07734602186840947 0 -0.4363838137766583 -0.065579409832916657 0 -0.44467143839749651 -0.062548752177346637 0 -0.44393349229753032 -0.070160465944621511 0 -0.44467143839749651 -0.062548752177346637 0 -0.45355360212199231 -0.06910574799147283 0 -0.45192182950859849 -0.057813894844264732 0 -0.44467143839749651 -0.062548752177346637 0 -0.44393349229753032 -0.070160465944621511 0 -0.45355360212199231 -0.06910574799147283 0 -0.44393349229753032 -0.070160465944621511 0 -0.44625428660191518 -0.077791249989134781 0 -0.45355360212199231 -0.06910574799147283 0 -0.44625428660191518 -0.077791249989134781 0 -0.45630413989224561 -0.078510569321342288 0 -0.45355360212199231 -0.06910574799147283 0 -0.44393349229753032 -0.070160465944621511 0 -0.44625428660191518 -0.077791249989134781 0 -0.4404718832203276 -0.07734602186840947 0 -0.44625428660191518 -0.077791249989134781 0 -0.4404718832203276 -0.07734602186840947 0 -0.4363838137766583 -0.065579409832916657 0 -0.44393349229753032 -0.070160465944621511 0 -0.4404718832203276 -0.07734602186840947 0 -0.4404718832203276 -0.07734602186840947 0 -0.43879866494000808 -0.083129755845299733 0 -0.45589318012150559 -0.090358550318326097 0 -0.43879866494000808 -0.083129755845299733 0 -0.45589318012150559 -0.090358550318326097 0 -0.43879866494000808 -0.083129755845299733 0 -0.45589318012150559 -0.090358550318326097 0 -0.44554599224332159 -0.095095863591440705 0 -0.4302578211619707 -0.09319654139512884 0 -0.43879866494000808 -0.083129755845299733 0 -0.44554599224332159 -0.095095863591440705 0 -0.4404718832203276 -0.07734602186840947 0 -0.45589318012150559 -0.090358550318326097 0 -0.44625428660191518 -0.077791249989134781 0 -0.45630413989224561 -0.078510569321342288 0 -0.45589318012150559 -0.090358550318326097 0 -0.44625428660191518 -0.077791249989134781 0 -0.4404718832203276 -0.07734602186840947 0 -0.45589318012150559 -0.090358550318326097 0 -0.45630413989224561 -0.078510569321342288 0 -0.45589318012150559 -0.090358550318326097 0 -0.47011738965508038 -0.087460039054486557 0 -0.45589318012150559 -0.090358550318326097 0 -0.47794659006076351 -0.099684323303852282 0 -0.47011738965508038 -0.087460039054486557 0 -0.45589318012150559 -0.090358550318326097 0 -0.45742852973212111 -0.091654082115472532 0 -0.45428194207685341 -0.095896123595157506 0 -0.45589318012150559 -0.090358550318326097 0 -0.45742852973212111 -0.091654082115472532 0 -0.45630413989224561 -0.078510569321342288 0 -0.46517856856700529 -0.073039837380481171 0 -0.47011738965508038 -0.087460039054486557 0 -0.46517856856700529 -0.073039837380481171 0 -0.45355360212199231 -0.06910574799147283 0 -0.46594782812841667 -0.055149958384131698 0 -0.45630413989224561 -0.078510569321342288 0 -0.46517856856700529 -0.073039837380481171 0 -0.45355360212199231 -0.06910574799147283 0 -0.4429960793743915 -0.10708722725866079 0 -0.45779345763713131 -0.1075267297020653 0 -0.45619814371136419 -0.1213202456852264 0 -0.44121032455866332 -0.1224397345803445 0 -0.4429960793743915 -0.10708722725866079 0 -0.45619814371136419 -0.1213202456852264 0 -0.4429960793743915 -0.10708722725866079 0 -0.45104826578520019 -0.1009069831360717 0 -0.45779345763713131 -0.1075267297020653 0 -0.4302578211619707 -0.09319654139512884 0 -0.4429960793743915 -0.10708722725866079 0 -0.44554599224332159 -0.095095863591440705 0 -0.45589318012150559 -0.090358550318326097 0 -0.44554599224332159 -0.095095863591440705 0 -0.45428194207685341 -0.095896123595157506 0 -0.4429960793743915 -0.10708722725866079 0 -0.44554599224332159 -0.095095863591440705 0 -0.45104826578520019 -0.1009069831360717 0 -0.44554599224332159 -0.095095863591440705 0 -0.45104826578520019 -0.1009069831360717 0 -0.45428194207685341 -0.095896123595157506 0 -0.45589318012150559 -0.090358550318326097 0 -0.47794659006076351 -0.099684323303852282 0 -0.45742852973212111 -0.091654082115472532 0 -0.46516420649271678 -0.1027331008927206 0 -0.47794659006076351 -0.099684323303852282 0 -0.45589318012150559 -0.090358550318326097 0 -0.45742852973212111 -0.091654082115472532 0 -0.47794659006076351 -0.099684323303852282 0 -0.45742852973212111 -0.091654082115472532 0 -0.45789498943948592 -0.099828963512966662 0 -0.46516420649271678 -0.1027331008927206 0 -0.45742852973212111 -0.091654082115472532 0 -0.45428194207685341 -0.095896123595157506 0 -0.45789498943948592 -0.099828963512966662 0 -0.45104826578520019 -0.1009069831360717 0 -0.45428194207685341 -0.095896123595157506 0 -0.45789498943948592 -0.099828963512966662 0 -0.46516420649271678 -0.1027331008927206 0 -0.45779345763713131 -0.1075267297020653 0 -0.46843956629500499 -0.1143817333601245 0 -0.45789498943948592 -0.099828963512966662 0 -0.46516420649271678 -0.1027331008927206 0 -0.45779345763713131 -0.1075267297020653 0 -0.45104826578520019 -0.1009069831360717 0 -0.45789498943948592 -0.099828963512966662 0 -0.45779345763713131 -0.1075267297020653 0 -0.46768311102431398 -0.1328513609391159 0 -0.46843956629500499 -0.1143817333601245 0 -0.45619814371136419 -0.1213202456852264 0 -0.45779345763713131 -0.1075267297020653 0 -0.46843956629500499 -0.1143817333601245 0 -0.45619814371136419 -0.1213202456852264 0 -0.46768311102431398 -0.1328513609391159 0 -0.46843956629500499 -0.1143817333601245 0 -0.48269293919420159 -0.1218798034032053 0 -0.46843956629500499 -0.1143817333601245 0 -0.48269293919420159 -0.1218798034032053 0 -0.47794659006076351 -0.099684323303852282 0 -0.46516420649271678 -0.1027331008927206 0 -0.46843956629500499 -0.1143817333601245 0 -0.47794659006076351 -0.099684323303852282 0 -0.47794659006076351 -0.099684323303852282 0 -0.49616540758063282 -0.095989037781847752 0 -0.50000000000001843 -0.10901009628938541 0 -0.49616540758063282 -0.095989037781847752 0 -0.50000000000001843 -0.10901009628938541 0 -0.5 -0.086367553570403599 0 -0.47794659006076351 -0.099684323303852282 0 -0.50000000000001843 -0.10901009628938541 0 -0.5 -0.13185640104403079 0 -0.48269293919420159 -0.1218798034032053 0 -0.50000000000001843 -0.10901009628938541 0 -0.48269293919420159 -0.1218798034032053 0 -0.47794659006076351 -0.099684323303852282 0 -0.50000000000001843 -0.10901009628938541 0 -0.46517856856700529 -0.073039837380481171 0 -0.48105661785452469 -0.075569498082989725 0 -0.46594782812841667 -0.055149958384131698 0 -0.48105661785452469 -0.075569498082989725 0 -0.46594782812841667 -0.055149958384131698 0 -0.47794659006076351 -0.099684323303852282 0 -0.48105661785452469 -0.075569498082989725 0 -0.47011738965508038 -0.087460039054486557 0 -0.46517856856700529 -0.073039837380481171 0 -0.48105661785452469 -0.075569498082989725 0 -0.47011738965508038 -0.087460039054486557 0 -0.49616540758063282 -0.095989037781847752 0 -0.48105661785452469 -0.075569498082989725 0 -0.47794659006076351 -0.099684323303852282 0 -0.49616540758063282 -0.095989037781847752 0 -0.48105661785452469 -0.075569498082989725 0 -0.49616540758063282 -0.095989037781847752 0 -0.48105661785452469 -0.075569498082989725 0 -0.5 -0.086367553570403599 0 -0.48105661785452469 -0.075569498082989725 0 -0.50000000000000022 -0.063725010851421932 0 -0.48414350860509031 -0.056089683214702667 0 -0.48105661785452469 -0.075569498082989725 0 -0.5 -0.086367553570403599 0 -0.50000000000000022 -0.063725010851421932 0 -0.50000000000000022 -0.063725010851421932 0 -0.5 -0.035409028499999273 0 -0.4938843043875526 -0.043820947458874021 0 -0.50000000000000022 -0.063725010851421932 0 -0.4938843043875526 -0.043820947458874021 0 -0.48414350860509031 -0.056089683214702667 0 -0.50000000000000022 -0.063725010851421932 0 -0.4938843043875526 -0.043820947458874021 0 -0.4938843043875526 -0.043820947458874021 0 -0.4798287926549577 -0.042183001296095993 0 -0.48414350860509031 -0.056089683214702667 0 -0.4938843043875526 -0.043820947458874021 0 -0.48776860877510492 -0.023916884066326121 0 -0.5 -0.035409028499999273 0 -0.4938843043875526 -0.043820947458874021 0 -0.48776860877510492 -0.023916884066326121 0 -0.4938843043875526 -0.043820947458874021 0 -0.4798287926549577 -0.042183001296095993 0 -0.48776860877510492 -0.023916884066326121 0 -0.4798287926549577 -0.042183001296095993 0 -0.46594782812841667 -0.055149958384131698 0 -0.4689341021628185 -0.029574930742211802 0 -0.4798287926549577 -0.042183001296095993 0 -0.4689341021628185 -0.029574930742211802 0 -0.48776860877510492 -0.023916884066326121 0 -0.4798287926549577 -0.042183001296095993 0 -0.48414350860509031 -0.056089683214702667 0 -0.46594782812841667 -0.055149958384131698 0 -0.48105661785452469 -0.075569498082989725 0 -0.48414350860509031 -0.056089683214702667 0 -0.46594782812841667 -0.055149958384131698 0 -0.46594782812841667 -0.055149958384131698 0 -0.45192182950859849 -0.057813894844264732 0 -0.45016607808788017 -0.047851940286179902 0 -0.45355360212199231 -0.06910574799147283 0 -0.46594782812841667 -0.055149958384131698 0 -0.45192182950859849 -0.057813894844264732 0 -0.46594782812841667 -0.055149958384131698 0 -0.45083903840230988 -0.034730418685272893 0 -0.45016607808788017 -0.047851940286179902 0 -0.46594782812841667 -0.055149958384131698 0 -0.45083903840230988 -0.034730418685272893 0 -0.45083903840230988 -0.034730418685272893 0 -0.4689341021628185 -0.029574930742211802 0 -0.46594782812841667 -0.055149958384131698 0 -0.45083903840230988 -0.034730418685272893 0 -0.4689341021628185 -0.029574930742211802 0 -0.45083903840230988 -0.034730418685272893 0 -0.44348291319064631 -0.036826261802397738 0 -0.45016607808788017 -0.047851940286179902 0 -0.45083903840230988 -0.034730418685272893 0 -0.44348291319064631 -0.036826261802397738 0 -0.45083903840230988 -0.034730418685272893 0 -0.44348291319064631 -0.036826261802397738 0 -0.44720480868502732 -0.029818754724621369 0 -0.45083903840230988 -0.034730418685272893 0 -0.44720480868502732 -0.029818754724621369 0 -0.44348291319064631 -0.036826261802397738 0 -0.4402181843441666 -0.047140755831702852 0 -0.44348291319064631 -0.036826261802397738 0 -0.4402181843441666 -0.047140755831702852 0 -0.45016607808788017 -0.047851940286179902 0 -0.44527020080720692 -0.054413075382192568 0 -0.4402181843441666 -0.047140755831702852 0 -0.45016607808788017 -0.047851940286179902 0 -0.43424658253425741 -0.056760931933519602 0 -0.44527020080720692 -0.054413075382192568 0 -0.4402181843441666 -0.047140755831702852 0 -0.43424658253425741 -0.056760931933519602 0 -0.44467143839749651 -0.062548752177346637 0 -0.44527020080720692 -0.054413075382192568 0 -0.43424658253425741 -0.056760931933519602 0 -0.4363838137766583 -0.065579409832916657 0 -0.44467143839749651 -0.062548752177346637 0 -0.44467143839749651 -0.062548752177346637 0 -0.44527020080720692 -0.054413075382192568 0 -0.45192182950859849 -0.057813894844264732 0 -0.44527020080720692 -0.054413075382192568 0 -0.45192182950859849 -0.057813894844264732 0 -0.45016607808788017 -0.047851940286179902 0 -0.43631094902786122 -0.015851764134622959 0 -0.45210008619080971 -0.0096014037393828758 0 -0.43817197183071049 0.0015455403038448581 0 -0.44348291319064631 -0.036826261802397738 0 -0.45210008619080971 -0.0096014037393828758 0 -0.44720480868502732 -0.029818754724621369 0 -0.44348291319064631 -0.036826261802397738 0 -0.45210008619080971 -0.0096014037393828758 0 -0.43631094902786122 -0.015851764134622959 0 -0.44348291319064631 -0.036826261802397738 0 -0.45210008619080971 -0.0096014037393828758 0 -0.45210008619080971 -0.0096014037393828758 0 -0.44720480868502732 -0.029818754724621369 0 -0.45802364249369409 -0.025614050728363459 0 -0.45083903840230988 -0.034730418685272893 0 -0.44720480868502732 -0.029818754724621369 0 -0.45802364249369409 -0.025614050728363459 0 -0.45802364249369409 -0.025614050728363459 0 -0.46558694688774538 -0.01313754930493059 0 -0.47371767714772173 -0.020757378858910061 0 -0.45083903840230988 -0.034730418685272893 0 -0.45802364249369409 -0.025614050728363459 0 -0.4689341021628185 -0.029574930742211802 0 -0.45210008619080971 -0.0096014037393828758 0 -0.45802364249369409 -0.025614050728363459 0 -0.46558694688774538 -0.01313754930493059 0 -0.45802364249369409 -0.025614050728363459 0 -0.4689341021628185 -0.029574930742211802 0 -0.47371767714772173 -0.020757378858910061 0 -0.45210008619080971 -0.0096014037393828758 0 -0.46558694688774538 -0.01313754930493059 0 -0.47197730088166739 -0.00074549084995030601 0 -0.47197730088166739 -0.00074549084995030601 0 -0.48103800640022049 -0.0059264161676169632 0 -0.48762482889352238 0.0047889207249312603 0 -0.47197730088166739 -0.00074549084995030601 0 -0.47338375543259181 -0.0097432816290745263 0 -0.48103800640022049 -0.0059264161676169632 0 -0.46558694688774538 -0.01313754930493059 0 -0.47197730088166739 -0.00074549084995030601 0 -0.47338375543259181 -0.0097432816290745263 0 -0.47338375543259181 -0.0097432816290745263 0 -0.47937710494377422 -0.0126718040008556 0 -0.47371767714772173 -0.020757378858910061 0 -0.46558694688774538 -0.01313754930493059 0 -0.47338375543259181 -0.0097432816290745263 0 -0.47371767714772173 -0.020757378858910061 0 -0.47338375543259181 -0.0097432816290745263 0 -0.47937710494377422 -0.0126718040008556 0 -0.48103800640022049 -0.0059264161676169632 0 -0.47937710494377422 -0.0126718040008556 0 -0.48346256993676512 -0.018376438838465559 0 -0.48613423181770149 -0.012236927867042269 0 -0.47937710494377422 -0.0126718040008556 0 -0.48103800640022049 -0.0059264161676169632 0 -0.48613423181770149 -0.012236927867042269 0 -0.4689341021628185 -0.029574930742211802 0 -0.47371767714772173 -0.020757378858910061 0 -0.48776860877510492 -0.023916884066326121 0 -0.4689341021628185 -0.029574930742211802 0 -0.48776860877510492 -0.023916884066326121 0 -0.47937710494377422 -0.0126718040008556 0 -0.47371767714772173 -0.020757378858910061 0 -0.48346256993676512 -0.018376438838465559 0 -0.47371767714772173 -0.020757378858910061 0 -0.48346256993676512 -0.018376438838465559 0 -0.48776860877510492 -0.023916884066326121 0 -0.5 -0.035409028499999273 0 -0.49297516896084831 -0.0156129924542803 0 -0.5 -0.0070930461485767538 0 -0.5 -0.035409028499999273 0 -0.48776860877510492 -0.023916884066326121 0 -0.49297516896084831 -0.0156129924542803 0 -0.48776860877510492 -0.023916884066326121 0 -0.48815699867988921 -0.018333355049300011 0 -0.49297516896084831 -0.0156129924542803 0 -0.48776860877510492 -0.023916884066326121 0 -0.48660433582877161 -0.021261530188310711 0 -0.48815699867988921 -0.018333355049300011 0 -0.48346256993676512 -0.018376438838465559 0 -0.48776860877510492 -0.023916884066326121 0 -0.48660433582877161 -0.021261530188310711 0 -0.48346256993676512 -0.018376438838465559 0 -0.48660433582877161 -0.021261530188310711 0 -0.48815699867988921 -0.018333355049300011 0 -0.48346256993676512 -0.018376438838465559 0 -0.48815699867988921 -0.018333355049300011 0 -0.48613423181770149 -0.012236927867042269 0 -0.48103800640022049 -0.0059264161676169632 0 -0.48872628707751808 -0.0058920448497292799 0 -0.48762482889352238 0.0047889207249312603 0 -0.48872628707751808 -0.0058920448497292799 0 -0.5 -0.0070930461485767538 0 -0.48762482889352238 0.0047889207249312603 0 -0.48872628707751808 -0.0058920448497292799 0 -0.48613423181770149 -0.012236927867042269 0 -0.49297516896084831 -0.0156129924542803 0 -0.48103800640022049 -0.0059264161676169632 0 -0.48872628707751808 -0.0058920448497292799 0 -0.48613423181770149 -0.012236927867042269 0 -0.48815699867988921 -0.018333355049300011 0 -0.48613423181770149 -0.012236927867042269 0 -0.49297516896084831 -0.0156129924542803 0 -0.48872628707751808 -0.0058920448497292799 0 -0.49297516896084831 -0.0156129924542803 0 -0.5 -0.0070930461485767538 0 -0.5 -0.0070930461485767538 0 -0.48762482889352238 0.0047889207249312603 0 -0.5 0.02122293620284588 0 -0.48762482889352238 0.0047889207249312603 0 -0.5 0.02122293620284588 0 -0.4859886504408335 0.024396713852159121 0 -0.4859886504408335 0.024396713852159121 0 -0.46889616666534162 0.01224352063171673 0 -0.48410591838107692 0.03172353501784022 0 -0.46889616666534162 0.01224352063171673 0 -0.48410591838107692 0.03172353501784022 0 -0.47183864700206191 0.02562386796373313 0 -0.46889616666534162 0.01224352063171673 0 -0.48410591838107692 0.03172353501784022 0 -0.47183864700206191 0.02562386796373313 0 -0.48410591838107692 0.03172353501784022 0 -0.47680168897409209 0.036199996030529508 0 -0.47197730088166739 -0.00074549084995030601 0 -0.48762482889352238 0.0047889207249312603 0 -0.4859886504408335 0.024396713852159121 0 -0.47197730088166739 -0.00074549084995030601 0 -0.4859886504408335 0.024396713852159121 0 -0.47197730088166739 -0.00074549084995030601 0 -0.4859886504408335 0.024396713852159121 0 -0.46889616666534162 0.01224352063171673 0 -0.4993156700968141 0.051203549403962323 0 -0.49092570550608777 0.044368902148698257 0 -0.47328821245831132 0.057339776418326063 0 -0.48904631343154192 0.061886173141576517 0 -0.4993156700968141 0.051203549403962323 0 -0.47328821245831132 0.057339776418326063 0 -0.4993156700968141 0.051203549403962323 0 -0.47328821245831132 0.057339776418326063 0 -0.4993156700968141 0.051203549403962323 0 -0.49999999999999978 0.049538918554268438 0 -0.48410591838107692 0.03172353501784022 0 -0.4859886504408335 0.024396713852159121 0 -0.49999999999999978 0.049538918554268438 0 -0.5 0.02122293620284588 0 -0.4859886504408335 0.024396713852159121 0 -0.49999999999999978 0.049538918554268438 0 -0.4993156700968141 0.051203549403962323 0 -0.49092570550608777 0.044368902148698257 0 -0.48410591838107692 0.03172353501784022 0 -0.4993156700968141 0.051203549403962323 0 -0.48410591838107692 0.03172353501784022 0 -0.4859886504408335 0.024396713852159121 0 -0.49999999999999978 0.049538918554268438 0 -0.48410591838107692 0.03172353501784022 0 -0.49092570550608777 0.044368902148698257 0 -0.47680168897409209 0.036199996030529508 0 -0.46933443219113452 0.044848312386647549 0 -0.47183864700206191 0.02562386796373313 0 -0.47680168897409209 0.036199996030529508 0 -0.46933443219113452 0.044848312386647549 0 -0.49092570550608777 0.044368902148698257 0 -0.46933443219113452 0.044848312386647549 0 -0.49092570550608777 0.044368902148698257 0 -0.48410591838107692 0.03172353501784022 0 -0.47680168897409209 0.036199996030529508 0 -0.49092570550608777 0.044368902148698257 0 -0.46933443219113452 0.044848312386647549 0 -0.47328821245831132 0.057339776418326063 0 -0.46933443219113452 0.044848312386647549 0 -0.47328821245831132 0.057339776418326063 0 -0.46933443219113452 0.044848312386647549 0 -0.46148929110586179 0.05420289962700179 0 -0.44311239270093827 0.045430543643143501 0 -0.47328821245831132 0.057339776418326063 0 -0.44691436870358497 0.063557667338297749 0 -0.47328821245831132 0.057339776418326063 0 -0.46148929110586179 0.05420289962700179 0 -0.44691436870358497 0.063557667338297749 0 -0.46933443219113452 0.044848312386647549 0 -0.47328821245831132 0.057339776418326063 0 -0.46148929110586179 0.05420289962700179 0 -0.46933443219113452 0.044848312386647549 0 -0.44311239270093827 0.045430543643143501 0 -0.46933443219113452 0.044848312386647549 0 -0.44311239270093827 0.045430543643143501 0 -0.44986934919437638 0.030941239836312969 0 -0.44311239270093827 0.045430543643143501 0 -0.43413375783878438 0.028444111019499362 0 -0.44311239270093827 0.045430543643143501 0 -0.44986934919437638 0.030941239836312969 0 -0.43413375783878438 0.028444111019499362 0 -0.46148929110586179 0.05420289962700179 0 -0.44311239270093827 0.045430543643143501 0 -0.45017869117180842 0.058799079586166238 0 -0.44311239270093827 0.045430543643143501 0 -0.45017869117180842 0.058799079586166238 0 -0.44311239270093827 0.045430543643143501 0 -0.44261067779310492 0.057781178548885467 0 -0.43405455637991808 0.056332773374534538 0 -0.44311239270093827 0.045430543643143501 0 -0.44261067779310492 0.057781178548885467 0 -0.45017869117180842 0.058799079586166238 0 -0.44261067779310492 0.057781178548885467 0 -0.44691436870358497 0.063557667338297749 0 -0.43879338000927431 0.064785828802285228 0 -0.44261067779310492 0.057781178548885467 0 -0.43405455637991808 0.056332773374534538 0 -0.43879338000927431 0.064785828802285228 0 -0.46148929110586179 0.05420289962700179 0 -0.45017869117180842 0.058799079586166238 0 -0.44691436870358497 0.063557667338297749 0 -0.44261067779310492 0.057781178548885467 0 -0.45017869117180842 0.058799079586166238 0 -0.44691436870358497 0.063557667338297749 0 -0.45210008619080971 -0.0096014037393828758 0 -0.46071725919097217 0.017623454323632302 0 -0.45210008619080971 -0.0096014037393828758 0 -0.46889616666534162 0.01224352063171673 0 -0.46071725919097217 0.017623454323632302 0 -0.45210008619080971 -0.0096014037393828758 0 -0.47197730088166739 -0.00074549084995030601 0 -0.46889616666534162 0.01224352063171673 0 -0.46933443219113452 0.044848312386647549 0 -0.46071725919097217 0.017623454323632302 0 -0.47183864700206191 0.02562386796373313 0 -0.46933443219113452 0.044848312386647549 0 -0.46071725919097217 0.017623454323632302 0 -0.47183864700206191 0.02562386796373313 0 -0.46889616666534162 0.01224352063171673 0 -0.46071725919097217 0.017623454323632302 0 -0.46933443219113452 0.044848312386647549 0 -0.46071725919097217 0.017623454323632302 0 -0.44986934919437638 0.030941239836312969 0 -0.43893511761828041 0.018098543076360451 0 -0.44986934919437638 0.030941239836312969 0 -0.43413375783878438 0.028444111019499362 0 -0.46071725919097217 0.017623454323632302 0 -0.43893511761828041 0.018098543076360451 0 -0.44986934919437638 0.030941239836312969 0 -0.46071725919097217 0.017623454323632302 0 -0.43893511761828041 0.018098543076360451 0 -0.43817197183071049 0.0015455403038448581 0 -0.45210008619080971 -0.0096014037393828758 0 -0.46071725919097217 0.017623454323632302 0 -0.43817197183071049 0.0015455403038448581 0 -0.42656569450450321 -0.0019859141793893498 0 -0.41782183006214652 -0.005234000588313332 0 -0.42523142453409529 0.011602031216174509 0 -0.43893511761828041 0.018098543076360451 0 -0.43817197183071049 0.0015455403038448581 0 -0.42523142453409529 0.011602031216174509 0 -0.42656569450450321 -0.0019859141793893498 0 -0.43817197183071049 0.0015455403038448581 0 -0.42523142453409529 0.011602031216174509 0 -0.4163290912294062 -0.005240048587150316 0 -0.42523142453409529 0.011602031216174509 0 -0.41782183006214652 -0.005234000588313332 0 -0.4163290912294062 -0.005240048587150316 0 -0.42523142453409529 0.011602031216174509 0 -0.40566852868012448 -0.0052832410522216568 0 -0.40740079350436992 0.023336000487762611 0 -0.4163290912294062 -0.005240048587150316 0 -0.40566852868012448 -0.0052832410522216568 0 -0.42523142453409529 0.011602031216174509 0 -0.40566852868012448 -0.0052832410522216568 0 -0.42523142453409529 0.011602031216174509 0 -0.40740079350436992 0.023336000487762611 0 -0.40740079350436992 0.023336000487762611 0 -0.43413375783878438 0.028444111019499362 0 -0.42025661009136678 0.035919712710377569 0 -0.40740079350436992 0.023336000487762611 0 -0.43413375783878438 0.028444111019499362 0 -0.42523142453409529 0.011602031216174509 0 -0.43413375783878438 0.028444111019499362 0 -0.43893511761828041 0.018098543076360451 0 -0.42523142453409529 0.011602031216174509 0 -0.43413375783878438 0.028444111019499362 0 -0.42523142453409529 0.011602031216174509 0 -0.40740079350436992 0.023336000487762611 0 -0.43413375783878438 0.028444111019499362 0 -0.44311239270093827 0.045430543643143501 0 -0.43413375783878438 0.028444111019499362 0 -0.42753476057441708 0.045776427659131272 0 -0.43413375783878438 0.028444111019499362 0 -0.42753476057441708 0.045776427659131272 0 -0.42025661009136678 0.035919712710377569 0 -0.44311239270093827 0.045430543643143501 0 -0.42753476057441708 0.045776427659131272 0 -0.44311239270093827 0.045430543643143501 0 -0.42753476057441708 0.045776427659131272 0 -0.43405455637991808 0.056332773374534538 0 -0.42753476057441708 0.045776427659131272 0 -0.43405455637991808 0.056332773374534538 0 -0.42230836852419462 0.053592340075276787 0 -0.43405455637991808 0.056332773374534538 0 -0.42604279864632888 0.059731129076773318 0 -0.42778385672442099 0.067941734918793795 0 -0.43405455637991808 0.056332773374534538 0 -0.42230836852419462 0.053592340075276787 0 -0.42604279864632888 0.059731129076773318 0 -0.42230836852419462 0.053592340075276787 0 -0.42604279864632888 0.059731129076773318 0 -0.42002441295678211 0.061057667938488151 0 -0.40888919487721959 0.047926304349997902 0 -0.41037759625006998 0.072516608212233075 0 -0.41468813406756277 0.055957907267684147 0 -0.40888919487721959 0.047926304349997902 0 -0.41037759625006998 0.072516608212233075 0 -0.42230836852419462 0.053592340075276787 0 -0.42002441295678211 0.061057667938488151 0 -0.41468813406756277 0.055957907267684147 0 -0.42230836852419462 0.053592340075276787 0 -0.41468813406756277 0.055957907267684147 0 -0.41195712844789578 0.046122311675118939 0 -0.42753476057441708 0.045776427659131272 0 -0.42230836852419462 0.053592340075276787 0 -0.41195712844789578 0.046122311675118939 0 -0.41468813406756277 0.055957907267684147 0 -0.40888919487721959 0.047926304349997902 0 -0.41195712844789578 0.046122311675118939 0 -0.40740079350436992 0.023336000487762611 0 -0.40888919487721959 0.047926304349997902 0 -0.40740079350436992 0.023336000487762611 0 -0.40888919487721959 0.047926304349997902 0 -0.41195712844789578 0.046122311675118939 0 -0.40740079350436992 0.023336000487762611 0 -0.42025661009136678 0.035919712710377569 0 -0.41195712844789578 0.046122311675118939 0 -0.42753476057441708 0.045776427659131272 0 -0.42025661009136678 0.035919712710377569 0 -0.41195712844789578 0.046122311675118939 0 -0.42753476057441708 0.045776427659131272 0 -0.41195712844789578 0.046122311675118939 0 -0.40740079350436992 0.023336000487762611 0 -0.40888919487721959 0.047926304349997902 0 -0.39796814295698968 0.039092773896098998 0 -0.40740079350436992 0.023336000487762611 0 -0.39796814295698968 0.039092773896098998 0 -0.38921787521509138 0.031351761140586618 0 -0.39796814295698968 0.039092773896098998 0 -0.39487949493264513 0.059075777401446428 0 -0.40888919487721959 0.047926304349997902 0 -0.39796814295698968 0.039092773896098998 0 -0.39487949493264513 0.059075777401446428 0 -0.40888919487721959 0.047926304349997902 0 -0.39487949493264513 0.059075777401446428 0 -0.41037759625006998 0.072516608212233075 0 -0.39796814295698968 0.039092773896098998 0 -0.39487949493264513 0.059075777401446428 0 -0.38356888766957609 0.054597944674692783 0 -0.38356888766957609 0.054597944674692783 0 -0.37785690104045611 0.042083429050685447 0 -0.36991388961651289 0.058237326072863908 0 -0.39796814295698968 0.039092773896098998 0 -0.38921787521509138 0.031351761140586618 0 -0.37785690104045611 0.042083429050685447 0 -0.39796814295698968 0.039092773896098998 0 -0.38356888766957609 0.054597944674692783 0 -0.37785690104045611 0.042083429050685447 0 -0.38921787521509138 0.031351761140586618 0 -0.37785690104045611 0.042083429050685447 0 -0.37735106688519138 0.02816551559550818 0 -0.38865634342396871 0.01975432800020626 0 -0.36991189334356678 0.016172655512653979 0 -0.37735106688519138 0.02816551559550818 0 -0.38865634342396871 0.01975432800020626 0 -0.36991189334356678 0.016172655512653979 0 -0.38865634342396871 0.01975432800020626 0 -0.36991189334356678 0.016172655512653979 0 -0.37195289213886179 0.01182448652966504 0 -0.38921787521509138 0.031351761140586618 0 -0.37735106688519138 0.02816551559550818 0 -0.38865634342396871 0.01975432800020626 0 -0.38003189033049622 -0.0053871107684163432 0 -0.37195289213886179 0.01182448652966504 0 -0.38003189033049622 -0.0053871107684163432 0 -0.38865634342396871 0.01975432800020626 0 -0.37195289213886179 0.01182448652966504 0 -0.40566852868012448 -0.0052832410522216568 0 -0.40740079350436992 0.023336000487762611 0 -0.38865634342396871 0.01975432800020626 0 -0.40566852868012448 -0.0052832410522216568 0 -0.38003189033049622 -0.0053871107684163432 0 -0.38865634342396871 0.01975432800020626 0 -0.40740079350436992 0.023336000487762611 0 -0.38865634342396871 0.01975432800020626 0 -0.40740079350436992 0.023336000487762611 0 -0.38921787521509138 0.031351761140586618 0 -0.38865634342396871 0.01975432800020626 0 -0.39871476651327159 0.09692529074684339 0 -0.40257167556067652 0.10596842939531161 0 -0.38797021468556903 0.1037775920169338 0 -0.39871476651327159 0.09692529074684339 0 -0.40257167556067652 0.10596842939531161 0 -0.41324671431974802 0.09947946227815789 0 -0.40112858955848002 0.11902874600708011 0 -0.38797021468556903 0.1037775920169338 0 -0.3841495824628377 0.12849640312707389 0 -0.40257167556067652 0.10596842939531161 0 -0.40112858955848002 0.11902874600708011 0 -0.4140542519191926 0.11421600677146131 0 -0.40257167556067652 0.10596842939531161 0 -0.40112858955848002 0.11902874600708011 0 -0.38797021468556903 0.1037775920169338 0 -0.38797021468556903 0.1037775920169338 0 -0.3841495824628377 0.12849640312707389 0 -0.38797021468556903 0.1037775920169338 0 -0.3841495824628377 0.12849640312707389 0 -0.36889745467026241 0.11291669864627971 0 -0.38797021468556903 0.1037775920169338 0 -0.37461159076084538 0.095546281046898981 0 -0.36889745467026241 0.11291669864627971 0 -0.38797021468556903 0.1037775920169338 0 -0.39179084690829841 0.079058780906793497 0 -0.39179084690829841 0.079058780906793497 0 -0.3670327395327696 0.081220952883602787 0 -0.37461159076084538 0.095546281046898981 0 -0.38797021468556903 0.1037775920169338 0 -0.39179084690829841 0.079058780906793497 0 -0.37461159076084538 0.095546281046898981 0 -0.38356888766957609 0.054597944674692783 0 -0.39179084690829841 0.079058780906793497 0 -0.36991388961651289 0.058237326072863908 0 -0.39487949493264513 0.059075777401446428 0 -0.38356888766957609 0.054597944674692783 0 -0.39179084690829841 0.079058780906793497 0 -0.39179084690829841 0.079058780906793497 0 -0.36991388961651289 0.058237326072863908 0 -0.39179084690829841 0.079058780906793497 0 -0.36991388961651289 0.058237326072863908 0 -0.3670327395327696 0.081220952883602787 0 -0.39487949493264513 0.059075777401446428 0 -0.39179084690829841 0.079058780906793497 0 -0.39487949493264513 0.059075777401446428 0 -0.39179084690829841 0.079058780906793497 0 -0.41037759625006998 0.072516608212233075 0 -0.39179084690829841 0.079058780906793497 0 -0.4118659976229202 0.097106912074468393 0 -0.41324671431974802 0.09947946227815789 0 -0.39179084690829841 0.079058780906793497 0 -0.41324671431974802 0.09947946227815789 0 -0.39871476651327159 0.09692529074684339 0 -0.39179084690829841 0.079058780906793497 0 -0.41324671431974802 0.09947946227815789 0 -0.39179084690829841 0.079058780906793497 0 -0.41037759625006998 0.072516608212233075 0 -0.4118659976229202 0.097106912074468393 0 -0.39871476651327159 0.09692529074684339 0 -0.38797021468556903 0.1037775920169338 0 -0.39179084690829841 0.079058780906793497 0 -0.41564230412839398 0.089027778616530426 0 -0.41037759625006998 0.072516608212233075 0 -0.4118659976229202 0.097106912074468393 0 -0.41037759625006998 0.072516608212233075 0 -0.4118659976229202 0.097106912074468393 0 -0.42014197369481449 0.08544373223487628 0 -0.41564230412839398 0.089027778616530426 0 -0.41037759625006998 0.072516608212233075 0 -0.42014197369481449 0.08544373223487628 0 -0.41037759625006998 0.072516608212233075 0 -0.42335962795206322 0.077821932749317133 0 -0.42014197369481449 0.08544373223487628 0 -0.42001322870098828 0.09317801605323088 0 -0.41564230412839398 0.089027778616530426 0 -0.42014197369481449 0.08544373223487628 0 -0.42001322870098828 0.09317801605323088 0 -0.42345596664286739 0.091684406066987287 0 -0.42001322870098828 0.09317801605323088 0 -0.41564230412839398 0.089027778616530426 0 -0.4170721624401667 0.095702156740239269 0 -0.42002441295678211 0.061057667938488151 0 -0.41037759625006998 0.072516608212233075 0 -0.42778385672442099 0.067941734918793795 0 -0.41037759625006998 0.072516608212233075 0 -0.42778385672442099 0.067941734918793795 0 -0.42335962795206322 0.077821932749317133 0 -0.42002441295678211 0.061057667938488151 0 -0.41468813406756277 0.055957907267684147 0 -0.41037759625006998 0.072516608212233075 0 -0.42604279864632888 0.059731129076773318 0 -0.42002441295678211 0.061057667938488151 0 -0.42778385672442099 0.067941734918793795 0 -0.42778385672442099 0.067941734918793795 0 -0.42335962795206322 0.077821932749317133 0 -0.43165420796200882 0.078362096498873948 0 -0.42778385672442099 0.067941734918793795 0 -0.43165420796200882 0.078362096498873948 0 -0.43935492496834638 0.073837885069733128 0 -0.43165420796200882 0.078362096498873948 0 -0.43734503464329072 0.079753689309333964 0 -0.43935492496834638 0.073837885069733128 0 -0.42778385672442099 0.067941734918793795 0 -0.43879338000927431 0.064785828802285228 0 -0.43935492496834638 0.073837885069733128 0 -0.43405455637991808 0.056332773374534538 0 -0.42778385672442099 0.067941734918793795 0 -0.43879338000927431 0.064785828802285228 0 -0.42345596664286739 0.091684406066987287 0 -0.42731206076277461 0.085106694789516879 0 -0.43038761708637641 0.092100572717768461 0 -0.42014197369481449 0.08544373223487628 0 -0.42345596664286739 0.091684406066987287 0 -0.42731206076277461 0.085106694789516879 0 -0.42014197369481449 0.08544373223487628 0 -0.42335962795206322 0.077821932749317133 0 -0.42731206076277461 0.085106694789516879 0 -0.42335962795206322 0.077821932749317133 0 -0.42731206076277461 0.085106694789516879 0 -0.43165420796200882 0.078362096498873948 0 -0.42731206076277461 0.085106694789516879 0 -0.43165420796200882 0.078362096498873948 0 -0.43485739540679402 0.085213250576825883 0 -0.43165420796200882 0.078362096498873948 0 -0.43734503464329072 0.079753689309333964 0 -0.43485739540679402 0.085213250576825883 0 -0.43485739540679402 0.085213250576825883 0 -0.43038761708637641 0.092100572717768461 0 -0.44101760364071152 0.091013675063173038 0 -0.42731206076277461 0.085106694789516879 0 -0.43485739540679402 0.085213250576825883 0 -0.43038761708637641 0.092100572717768461 0 -0.42470122427205781 0.099159885154364164 0 -0.41324671431974802 0.09947946227815789 0 -0.43470258173120019 0.11990014364951961 0 -0.43038761708637641 0.092100572717768461 0 -0.43528973705004698 0.10088297080704151 0 -0.44101760364071152 0.091013675063173038 0 -0.43528973705004698 0.10088297080704151 0 -0.42470122427205781 0.099159885154364164 0 -0.43470258173120019 0.11990014364951961 0 -0.43038761708637641 0.092100572717768461 0 -0.43528973705004698 0.10088297080704151 0 -0.42470122427205781 0.099159885154364164 0 -0.42345596664286739 0.091684406066987287 0 -0.43038761708637641 0.092100572717768461 0 -0.42470122427205781 0.099159885154364164 0 -0.42001322870098828 0.09317801605323088 0 -0.42345596664286739 0.091684406066987287 0 -0.42470122427205781 0.099159885154364164 0 -0.41564230412839398 0.089027778616530426 0 -0.4170721624401667 0.095702156740239269 0 -0.4118659976229202 0.097106912074468393 0 -0.42001322870098828 0.09317801605323088 0 -0.42470122427205781 0.099159885154364164 0 -0.4170721624401667 0.095702156740239269 0 -0.42470122427205781 0.099159885154364164 0 -0.4170721624401667 0.095702156740239269 0 -0.41324671431974802 0.09947946227815789 0 -0.40257167556067652 0.10596842939531161 0 -0.41324671431974802 0.09947946227815789 0 -0.4140542519191926 0.11421600677146131 0 -0.4170721624401667 0.095702156740239269 0 -0.4118659976229202 0.097106912074468393 0 -0.41324671431974802 0.09947946227815789 0 -0.40112858955848002 0.11902874600708011 0 -0.4140542519191926 0.11421600677146131 0 -0.42029928255818971 0.13228656140769221 0 -0.41324671431974802 0.09947946227815789 0 -0.4140542519191926 0.11421600677146131 0 -0.43470258173120019 0.11990014364951961 0 -0.4140542519191926 0.11421600677146131 0 -0.43470258173120019 0.11990014364951961 0 -0.42029928255818971 0.13228656140769221 0 -0.41324671431974802 0.09947946227815789 0 -0.43470258173120019 0.11990014364951961 0 -0.43470258173120019 0.11990014364951961 0 -0.45251239559073181 0.12017628032542731 0 -0.44956252695361748 0.10286716229359261 0 -0.43528973705004698 0.10088297080704151 0 -0.43470258173120019 0.11990014364951961 0 -0.44956252695361748 0.10286716229359261 0 -0.43528973705004698 0.10088297080704151 0 -0.44956252695361748 0.10286716229359261 0 -0.44101760364071152 0.091013675063173038 0 -0.46646258261357709 0.092163632575686466 0 -0.46962602453545699 0.11761699033771569 0 -0.44956252695361748 0.10286716229359261 0 -0.46646258261357709 0.092163632575686466 0 -0.46962602453545699 0.11761699033771569 0 -0.45251239559073181 0.12017628032542731 0 -0.44956252695361748 0.10286716229359261 0 -0.46962602453545699 0.11761699033771569 0 -0.44691436870358497 0.063557667338297749 0 -0.44316671306972188 0.06870633267708065 0 -0.44760417859768209 0.07264394949800651 0 -0.44691436870358497 0.063557667338297749 0 -0.44760417859768209 0.07264394949800651 0 -0.45528232153091208 0.067095897797967735 0 -0.44691436870358497 0.063557667338297749 0 -0.44316671306972188 0.06870633267708065 0 -0.43879338000927431 0.064785828802285228 0 -0.44316671306972188 0.06870633267708065 0 -0.43879338000927431 0.064785828802285228 0 -0.43935492496834638 0.073837885069733128 0 -0.44316671306972188 0.06870633267708065 0 -0.43935492496834638 0.073837885069733128 0 -0.44760417859768209 0.07264394949800651 0 -0.43935492496834638 0.073837885069733128 0 -0.44760417859768209 0.07264394949800651 0 -0.44257594411498391 0.081591822736279407 0 -0.44760417859768209 0.07264394949800651 0 -0.45204671044693351 0.081032653366918797 0 -0.45528232153091208 0.067095897797967735 0 -0.44956252695361748 0.10286716229359261 0 -0.45204671044693351 0.081032653366918797 0 -0.44101760364071152 0.091013675063173038 0 -0.44760417859768209 0.07264394949800651 0 -0.45204671044693351 0.081032653366918797 0 -0.44257594411498391 0.081591822736279407 0 -0.45204671044693351 0.081032653366918797 0 -0.44257594411498391 0.081591822736279407 0 -0.44101760364071152 0.091013675063173038 0 -0.43734503464329072 0.079753689309333964 0 -0.43935492496834638 0.073837885069733128 0 -0.44257594411498391 0.081591822736279407 0 -0.43734503464329072 0.079753689309333964 0 -0.43485739540679402 0.085213250576825883 0 -0.44257594411498391 0.081591822736279407 0 -0.43485739540679402 0.085213250576825883 0 -0.44257594411498391 0.081591822736279407 0 -0.44101760364071152 0.091013675063173038 0 -0.46646258261357709 0.092163632575686466 0 -0.46329914069169709 0.066710274813657239 0 -0.44956252695361748 0.10286716229359261 0 -0.45204671044693351 0.081032653366918797 0 -0.46646258261357709 0.092163632575686466 0 -0.45204671044693351 0.081032653366918797 0 -0.46646258261357709 0.092163632575686466 0 -0.46329914069169709 0.066710274813657239 0 -0.47328821245831132 0.057339776418326063 0 -0.46329914069169709 0.066710274813657239 0 -0.45528232153091208 0.067095897797967735 0 -0.47328821245831132 0.057339776418326063 0 -0.44691436870358497 0.063557667338297749 0 -0.45528232153091208 0.067095897797967735 0 -0.45204671044693351 0.081032653366918797 0 -0.46329914069169709 0.066710274813657239 0 -0.45528232153091208 0.067095897797967735 0 -0.46646258261357709 0.092163632575686466 0 -0.46329914069169709 0.066710274813657239 0 -0.47834774774307598 0.073324732272164295 0 -0.47328821245831132 0.057339776418326063 0 -0.46329914069169709 0.066710274813657239 0 -0.47834774774307598 0.073324732272164295 0 -0.47328821245831132 0.057339776418326063 0 -0.47834774774307598 0.073324732272164295 0 -0.48904631343154192 0.061886173141576517 0 -0.47328821245831132 0.057339776418326063 0 -0.47834774774307598 0.073324732272164295 0 -0.46646258261357709 0.092163632575686466 0 -0.47834774774307598 0.073324732272164295 0 -0.48288727097842199 0.094457118146941299 0 -0.47834774774307598 0.073324732272164295 0 -0.5 0.080420082031716689 0 -0.48288727097842199 0.094457118146941299 0 -0.48904631343154192 0.061886173141576517 0 -0.47834774774307598 0.073324732272164295 0 -0.5 0.080420082031716689 0 -0.48904631343154192 0.061886173141576517 0 -0.4993156700968141 0.051203549403962323 0 -0.5 0.080420082031716689 0 -0.46962602453545699 0.11761699033771569 0 -0.48288727097842199 0.094457118146941299 0 -0.5 0.10876015351742339 0 -0.46646258261357709 0.092163632575686466 0 -0.46962602453545699 0.11761699033771569 0 -0.48288727097842199 0.094457118146941299 0 -0.5 0.080420082031716689 0 -0.48288727097842199 0.094457118146941299 0 -0.5 0.10876015351742339 0 -0.46962602453545699 0.11761699033771569 0 -0.5 0.10876015351742339 0 -0.48440280905907429 0.12958927482006091 0 -0.48440280905907429 0.12958927482006091 0 -0.5 0.13710022500313021 0 -0.48658650093744282 0.15311190937225869 0 -0.5 0.10876015351742339 0 -0.48440280905907429 0.12958927482006091 0 -0.5 0.13710022500313021 0 -0.46962602453545699 0.11761699033771569 0 -0.48440280905907429 0.12958927482006091 0 -0.47278946645733688 0.14307034809974489 0 -0.46962602453545699 0.11761699033771569 0 -0.47278946645733688 0.14307034809974489 0 -0.47278946645733688 0.14307034809974489 0 -0.48658650093744282 0.15311190937225869 0 -0.47595290837921589 0.1685237058617742 0 -0.47278946645733688 0.14307034809974489 0 -0.47595290837921589 0.1685237058617742 0 -0.48440280905907429 0.12958927482006091 0 -0.47278946645733688 0.14307034809974489 0 -0.48658650093744282 0.15311190937225869 0 -0.5 0.13710022500313021 0 -0.48658650093744282 0.15311190937225869 0 -0.5 0.1654402964888369 0 -0.5 0.1654402964888369 0 -0.48762896587656668 0.1670569871602573 0 -0.4879764541896085 0.18115203691815901 0 -0.48658650093744282 0.15311190937225869 0 -0.5 0.1654402964888369 0 -0.48762896587656668 0.1670569871602573 0 -0.5 0.1654402964888369 0 -0.4879764541896085 0.18115203691815901 0 -0.50000000000000111 0.19378036797454359 0 -0.4879764541896085 0.18115203691815901 0 -0.50000000000000111 0.19378036797454359 0 -0.4879764541896085 0.18115203691815901 0 -0.47780207378555112 0.18340226845623619 0 -0.4886304729088547 0.1897515113639647 0 -0.47780207378555112 0.18340226845623619 0 -0.47595290837921589 0.1685237058617742 0 -0.45266160216064372 0.16866112719022641 0 -0.47780207378555112 0.18340226845623619 0 -0.4886304729088547 0.1897515113639647 0 -0.4879764541896085 0.18115203691815901 0 -0.47780207378555112 0.18340226845623619 0 -0.47595290837921589 0.1685237058617742 0 -0.48762896587656668 0.1670569871602573 0 -0.4879764541896085 0.18115203691815901 0 -0.47595290837921589 0.1685237058617742 0 -0.47780207378555112 0.18340226845623619 0 -0.47595290837921589 0.1685237058617742 0 -0.4879764541896085 0.18115203691815901 0 -0.47595290837921589 0.1685237058617742 0 -0.47278946645733688 0.14307034809974489 0 -0.47595290837921589 0.1685237058617742 0 -0.46896153069002999 0.16118066135630671 0 -0.48658650093744282 0.15311190937225869 0 -0.48762896587656668 0.1670569871602573 0 -0.47595290837921589 0.1685237058617742 0 -0.47595290837921589 0.1685237058617742 0 -0.46896153069002999 0.16118066135630671 0 -0.47595290837921589 0.1685237058617742 0 -0.46896153069002999 0.16118066135630671 0 -0.45266160216064372 0.16866112719022641 0 -0.46896153069002999 0.16118066135630671 0 -0.45266160216064372 0.16866112719022641 0 -0.45783191629969983 0.15287328775741449 0 -0.47780207378555112 0.18340226845623619 0 -0.45266160216064372 0.16866112719022641 0 -0.47780207378555112 0.18340226845623619 0 -0.45266160216064372 0.16866112719022641 0 -0.45594963127004989 0.1899520192224195 0 -0.4421518950415857 0.18222916483930571 0 -0.45266160216064372 0.16866112719022641 0 -0.45594963127004989 0.1899520192224195 0 -0.45266160216064372 0.16866112719022641 0 -0.42752113053573659 0.15391998592421571 0 -0.45266160216064372 0.16866112719022641 0 -0.44200848269369902 0.1474756414356713 0 -0.42752113053573659 0.15391998592421571 0 -0.45266160216064372 0.16866112719022641 0 -0.44200848269369902 0.1474756414356713 0 -0.45783191629969983 0.15287328775741449 0 -0.4421518950415857 0.18222916483930571 0 -0.45266160216064372 0.16866112719022641 0 -0.42752113053573659 0.15391998592421571 0 -0.44200848269369902 0.1474756414356713 0 -0.45615844914265241 0.14032082502088139 0 -0.45783191629969983 0.15287328775741449 0 -0.43470258173120019 0.11990014364951961 0 -0.44200848269369902 0.1474756414356713 0 -0.45615844914265241 0.14032082502088139 0 -0.43470258173120019 0.11990014364951961 0 -0.45615844914265241 0.14032082502088139 0 -0.43470258173120019 0.11990014364951961 0 -0.45251239559073181 0.12017628032542731 0 -0.45615844914265241 0.14032082502088139 0 -0.46962602453545699 0.11761699033771569 0 -0.47278946645733688 0.14307034809974489 0 -0.45615844914265241 0.14032082502088139 0 -0.45251239559073181 0.12017628032542731 0 -0.46962602453545699 0.11761699033771569 0 -0.45615844914265241 0.14032082502088139 0 -0.47278946645733688 0.14307034809974489 0 -0.45615844914265241 0.14032082502088139 0 -0.45783191629969983 0.15287328775741449 0 -0.47278946645733688 0.14307034809974489 0 -0.46896153069002999 0.16118066135630671 0 -0.45783191629969983 0.15287328775741449 0 -0.48502232896846842 0.24149713564276129 0 -0.45840927700514777 0.23244146386465089 0 -0.46678780072522441 0.25471668605321779 0 -0.48502232896846842 0.24149713564276129 0 -0.5 0.24808472470876111 0 -0.5 0.22093254634165241 0 -0.48502232896846842 0.24149713564276129 0 -0.5 0.22093254634165241 0 -0.48141220137701057 0.21244970204949859 0 -0.48502232896846842 0.24149713564276129 0 -0.48141220137701057 0.21244970204949859 0 -0.48502232896846842 0.24149713564276129 0 -0.48141220137701057 0.21244970204949859 0 -0.45840927700514777 0.23244146386465089 0 -0.48141220137701057 0.21244970204949859 0 -0.46878854786155733 0.19828098636900229 0 -0.45999028501361611 0.20731995574785489 0 -0.5 0.22093254634165241 0 -0.49018455368349972 0.20209608569360979 0 -0.50000000000000111 0.19378036797454359 0 -0.5 0.22093254634165241 0 -0.48141220137701057 0.21244970204949859 0 -0.49018455368349972 0.20209608569360979 0 -0.47780207378555112 0.18340226845623619 0 -0.49018455368349972 0.20209608569360979 0 -0.4886304729088547 0.1897515113639647 0 -0.4879764541896085 0.18115203691815901 0 -0.50000000000000111 0.19378036797454359 0 -0.4886304729088547 0.1897515113639647 0 -0.49018455368349972 0.20209608569360979 0 -0.50000000000000111 0.19378036797454359 0 -0.4886304729088547 0.1897515113639647 0 -0.47780207378555112 0.18340226845623619 0 -0.48141220137701057 0.21244970204949859 0 -0.49018455368349972 0.20209608569360979 0 -0.47780207378555112 0.18340226845623619 0 -0.48141220137701057 0.21244970204949859 0 -0.47780207378555112 0.18340226845623619 0 -0.48141220137701057 0.21244970204949859 0 -0.46878854786155733 0.19828098636900229 0 -0.47780207378555112 0.18340226845623619 0 -0.46878854786155733 0.19828098636900229 0 -0.45594963127004989 0.1899520192224195 0 -0.46878854786155733 0.19828098636900229 0 -0.45594963127004989 0.1899520192224195 0 -0.45999028501361611 0.20731995574785489 0 -0.45594963127004989 0.1899520192224195 0 -0.45999028501361611 0.20731995574785489 0 -0.43256594693984901 0.20152475144727419 0 -0.4421518950415857 0.18222916483930571 0 -0.45594963127004989 0.1899520192224195 0 -0.43256594693984901 0.20152475144727419 0 -0.45999028501361611 0.20731995574785489 0 -0.43256594693984901 0.20152475144727419 0 -0.44351017034042528 0.21752095598717919 0 -0.45999028501361611 0.20731995574785489 0 -0.43256594693984901 0.20152475144727419 0 -0.48141220137701057 0.21244970204949859 0 -0.45999028501361611 0.20731995574785489 0 -0.45840927700514777 0.23244146386465089 0 -0.44351017034042528 0.21752095598717919 0 -0.45999028501361611 0.20731995574785489 0 -0.45840927700514777 0.23244146386465089 0 -0.44351017034042528 0.21752095598717919 0 -0.45840927700514777 0.23244146386465089 0 -0.43410971286748218 0.2333313413516753 0 -0.45840927700514777 0.23244146386465089 0 -0.43410971286748218 0.2333313413516753 0 -0.4370039676210023 0.26158073592074671 0 -0.45840927700514777 0.23244146386465089 0 -0.46678780072522441 0.25471668605321779 0 -0.4370039676210023 0.26158073592074671 0 -0.41599763215882501 0.23850018830057351 0 -0.3987146468586657 0.24919431997693781 0 -0.41143175113919789 0.25469546670537918 0 -0.41599763215882501 0.23850018830057351 0 -0.43410971286748218 0.2333313413516753 0 -0.4370039676210023 0.26158073592074671 0 -0.41599763215882501 0.23850018830057351 0 -0.43410971286748218 0.2333313413516753 0 -0.41648344799180398 0.21536596709832831 0 -0.44351017034042528 0.21752095598717919 0 -0.43410971286748218 0.2333313413516753 0 -0.41648344799180398 0.21536596709832831 0 -0.41599763215882501 0.23850018830057351 0 -0.41648344799180398 0.21536596709832831 0 -0.40139363860509031 0.2303796093832422 0 -0.41648344799180398 0.21536596709832831 0 -0.43256594693984901 0.20152475144727419 0 -0.40514160886608203 0.19572954714669349 0 -0.41648344799180398 0.21536596709832831 0 -0.40514160886608203 0.19572954714669349 0 -0.3998614510147257 0.21166177751217 0 -0.44351017034042528 0.21752095598717919 0 -0.41648344799180398 0.21536596709832831 0 -0.43256594693984901 0.20152475144727419 0 -0.4421518950415857 0.18222916483930571 0 -0.43256594693984901 0.20152475144727419 0 -0.42521211023121352 0.17947430005977799 0 -0.43256594693984901 0.20152475144727419 0 -0.40514160886608203 0.19572954714669349 0 -0.42521211023121352 0.17947430005977799 0 -0.43256594693984901 0.20152475144727419 0 -0.40514160886608203 0.19572954714669349 0 -0.40514160886608203 0.19572954714669349 0 -0.37771727079231499 0.18993434284611291 0 -0.39669830078647378 0.18335001317170349 0 -0.40514160886608203 0.19572954714669349 0 -0.37771727079231499 0.18993434284611291 0 -0.3896071279726584 0.20212352620412369 0 -0.40514160886608203 0.19572954714669349 0 -0.37771727079231499 0.18993434284611291 0 -0.37771727079231499 0.18993434284611291 0 -0.3896071279726584 0.20212352620412369 0 -0.3758982815920846 0.2035631756625931 0 -0.3896071279726584 0.20212352620412369 0 -0.3758982815920846 0.2035631756625931 0 -0.38746545252221498 0.21159051197495629 0 -0.3758982815920846 0.2035631756625931 0 -0.38746545252221498 0.21159051197495629 0 -0.37463231864048191 0.22411228271658579 0 -0.38746545252221498 0.21159051197495629 0 -0.3998614510147257 0.21166177751217 0 -0.3889121685706764 0.22450682133278049 0 -0.40514160886608203 0.19572954714669349 0 -0.3896071279726584 0.20212352620412369 0 -0.3998614510147257 0.21166177751217 0 -0.3896071279726584 0.20212352620412369 0 -0.38746545252221498 0.21159051197495629 0 -0.3998614510147257 0.21166177751217 0 -0.3998614510147257 0.21166177751217 0 -0.40139363860509031 0.2303796093832422 0 -0.3889121685706764 0.22450682133278049 0 -0.41648344799180398 0.21536596709832831 0 -0.3998614510147257 0.21166177751217 0 -0.40139363860509031 0.2303796093832422 0 -0.40139363860509031 0.2303796093832422 0 -0.3889121685706764 0.22450682133278049 0 -0.38637187428134301 0.23999850327656039 0 -0.3889121685706764 0.22450682133278049 0 -0.38637187428134301 0.23999850327656039 0 -0.37463231864048191 0.22411228271658579 0 -0.38746545252221498 0.21159051197495629 0 -0.3889121685706764 0.22450682133278049 0 -0.37463231864048191 0.22411228271658579 0 -0.38637187428134301 0.23999850327656039 0 -0.37066123097320319 0.24710202255958891 0 -0.37463231864048191 0.22411228271658579 0 -0.38637187428134301 0.23999850327656039 0 -0.37066123097320319 0.24710202255958891 0 -0.38722816796831377 0.26262780220205711 0 -0.41599763215882501 0.23850018830057351 0 -0.40139363860509031 0.2303796093832422 0 -0.3987146468586657 0.24919431997693781 0 -0.40139363860509031 0.2303796093832422 0 -0.38637187428134301 0.23999850327656039 0 -0.3987146468586657 0.24919431997693781 0 -0.42752113053573659 0.15391998592421571 0 -0.4023806589108298 0.13917884465820521 0 -0.42029928255818971 0.13228656140769221 0 -0.42752113053573659 0.15391998592421571 0 -0.4023806589108298 0.13917884465820521 0 -0.40725906512493459 0.15455307633106391 0 -0.42752113053573659 0.15391998592421571 0 -0.4023806589108298 0.13917884465820521 0 -0.40112858955848002 0.11902874600708011 0 -0.42029928255818971 0.13228656140769221 0 -0.4023806589108298 0.13917884465820521 0 -0.43470258173120019 0.11990014364951961 0 -0.44200848269369902 0.1474756414356713 0 -0.42029928255818971 0.13228656140769221 0 -0.44200848269369902 0.1474756414356713 0 -0.42029928255818971 0.13228656140769221 0 -0.42752113053573659 0.15391998592421571 0 -0.4421518950415857 0.18222916483930571 0 -0.42752113053573659 0.15391998592421571 0 -0.42521211023121352 0.17947430005977799 0 -0.42521211023121352 0.17947430005977799 0 -0.4016449386232317 0.17252286063475769 0 -0.39669830078647378 0.18335001317170349 0 -0.42521211023121352 0.17947430005977799 0 -0.39669830078647378 0.18335001317170349 0 -0.42521211023121352 0.17947430005977799 0 -0.41213104105479448 0.164486109609529 0 -0.4016449386232317 0.17252286063475769 0 -0.40514160886608203 0.19572954714669349 0 -0.42521211023121352 0.17947430005977799 0 -0.39669830078647378 0.18335001317170349 0 -0.40725906512493459 0.15455307633106391 0 -0.42752113053573659 0.15391998592421571 0 -0.41213104105479448 0.164486109609529 0 -0.42752113053573659 0.15391998592421571 0 -0.42521211023121352 0.17947430005977799 0 -0.41213104105479448 0.164486109609529 0 -0.40725906512493459 0.15455307633106391 0 -0.41213104105479448 0.164486109609529 0 -0.39901945709091458 0.16257105522199941 0 -0.40725906512493459 0.15455307633106391 0 -0.39901945709091458 0.16257105522199941 0 -0.39524303803239741 0.15260938624136991 0 -0.41213104105479448 0.164486109609529 0 -0.39901945709091458 0.16257105522199941 0 -0.4016449386232317 0.17252286063475769 0 -0.39901945709091458 0.16257105522199941 0 -0.4016449386232317 0.17252286063475769 0 -0.39009723846172101 0.1678471559793413 0 -0.39901945709091458 0.16257105522199941 0 -0.39110583578882901 0.1605457542726404 0 -0.39524303803239741 0.15260938624136991 0 -0.39901945709091458 0.16257105522199941 0 -0.39110583578882901 0.1605457542726404 0 -0.39009723846172101 0.1678471559793413 0 -0.39110583578882901 0.1605457542726404 0 -0.38694968876501817 0.15593832695732959 0 -0.39524303803239741 0.15260938624136991 0 -0.4016449386232317 0.17252286063475769 0 -0.39669830078647378 0.18335001317170349 0 -0.38671148411427292 0.17740852976619509 0 -0.4016449386232317 0.17252286063475769 0 -0.38671148411427292 0.17740852976619509 0 -0.39009723846172101 0.1678471559793413 0 -0.39669830078647378 0.18335001317170349 0 -0.36818449134173431 0.18722572628363021 0 -0.38671148411427292 0.17740852976619509 0 -0.37650831801737511 0.1779340253473537 0 -0.36818449134173431 0.18722572628363021 0 -0.39669830078647378 0.18335001317170349 0 -0.38671148411427292 0.17740852976619509 0 -0.36818449134173431 0.18722572628363021 0 -0.37771727079231499 0.18993434284611291 0 -0.39669830078647378 0.18335001317170349 0 -0.36818449134173431 0.18722572628363021 0 -0.38671148411427292 0.17740852976619509 0 -0.39009723846172101 0.1678471559793413 0 -0.38409060627806102 0.17125409698362201 0 -0.38671148411427292 0.17740852976619509 0 -0.37650831801737511 0.1779340253473537 0 -0.38409060627806102 0.17125409698362201 0 -0.37650831801737511 0.1779340253473537 0 -0.38421975659409358 0.16376284696316151 0 -0.38032895024010638 0.15321521423721379 0 -0.37650831801737511 0.1779340253473537 0 -0.38032895024010638 0.15321521423721379 0 -0.37383961626832102 0.16942557021425941 0 -0.37949474119490728 0.15162541414488839 0 -0.37383961626832102 0.16942557021425941 0 -0.37650831801737511 0.1779340253473537 0 -0.38032895024010638 0.15321521423721379 0 -0.37949474119490728 0.15162541414488839 0 -0.38032895024010638 0.15321521423721379 0 -0.37383961626832102 0.16942557021425941 0 -0.38421975659409358 0.16376284696316151 0 -0.38032895024010638 0.15321521423721379 0 -0.38694968876501817 0.15593832695732959 0 -0.39110583578882901 0.1605457542726404 0 -0.38421975659409358 0.16376284696316151 0 -0.38694968876501817 0.15593832695732959 0 -0.39110583578882901 0.1605457542726404 0 -0.38421975659409358 0.16376284696316151 0 -0.39009723846172101 0.1678471559793413 0 -0.38421975659409358 0.16376284696316151 0 -0.39009723846172101 0.1678471559793413 0 -0.38409060627806102 0.17125409698362201 0 -0.37650831801737511 0.1779340253473537 0 -0.38421975659409358 0.16376284696316151 0 -0.38409060627806102 0.17125409698362201 0 -0.38032895024010638 0.15321521423721379 0 -0.3841495824628377 0.12849640312707389 0 -0.38032895024010638 0.15321521423721379 0 -0.38789251768284272 0.1417295964263679 0 -0.3841495824628377 0.12849640312707389 0 -0.37949474119490728 0.15162541414488839 0 -0.38032895024010638 0.15321521423721379 0 -0.3841495824628377 0.12849640312707389 0 -0.37949474119490728 0.15162541414488839 0 -0.3841495824628377 0.12849640312707389 0 -0.36817009810113149 0.1461857701419485 0 -0.38789251768284272 0.1417295964263679 0 -0.38760354868009123 0.15087313096557031 0 -0.39524303803239741 0.15260938624136991 0 -0.38760354868009123 0.15087313096557031 0 -0.38694968876501817 0.15593832695732959 0 -0.39524303803239741 0.15260938624136991 0 -0.38032895024010638 0.15321521423721379 0 -0.38789251768284272 0.1417295964263679 0 -0.38760354868009123 0.15087313096557031 0 -0.38032895024010638 0.15321521423721379 0 -0.38760354868009123 0.15087313096557031 0 -0.38694968876501817 0.15593832695732959 0 -0.38789251768284272 0.1417295964263679 0 -0.39524303803239741 0.15260938624136991 0 -0.4023806589108298 0.13917884465820521 0 -0.40725906512493459 0.15455307633106391 0 -0.39524303803239741 0.15260938624136991 0 -0.4023806589108298 0.13917884465820521 0 -0.38789251768284272 0.1417295964263679 0 -0.4023806589108298 0.13917884465820521 0 -0.3841495824628377 0.12849640312707389 0 -0.40112858955848002 0.11902874600708011 0 -0.4023806589108298 0.13917884465820521 0 -0.3841495824628377 0.12849640312707389 0 -0.3841495824628377 0.12849640312707389 0 -0.36527883931102179 0.13390763399454289 0 -0.36889745467026241 0.11291669864627971 0 -0.3841495824628377 0.12849640312707389 0 -0.36527883931102179 0.13390763399454289 0 -0.36817009810113149 0.1461857701419485 0 -0.36527883931102179 0.13390763399454289 0 -0.34390292927608579 0.12954003217038881 0 -0.34643661614562599 0.1522996449903003 0 -0.36527883931102179 0.13390763399454289 0 -0.34390292927608579 0.12954003217038881 0 -0.35033094564751172 0.1144650486959975 0 -0.36527883931102179 0.13390763399454289 0 -0.34643661614562599 0.1522996449903003 0 -0.34643661614562599 0.1522996449903003 0 -0.36817009810113149 0.1461857701419485 0 -0.36243161432783949 0.15703179930855279 0 -0.36527883931102179 0.13390763399454289 0 -0.34643661614562599 0.1522996449903003 0 -0.36817009810113149 0.1461857701419485 0 -0.37949474119490728 0.15162541414488839 0 -0.36817009810113149 0.1461857701419485 0 -0.37122919516455721 0.1537537252863328 0 -0.37949474119490728 0.15162541414488839 0 -0.37122919516455721 0.1537537252863328 0 -0.37022284327214361 0.16034950389874381 0 -0.36817009810113149 0.1461857701419485 0 -0.37122919516455721 0.1537537252863328 0 -0.36243161432783949 0.15703179930855279 0 -0.37949474119490728 0.15162541414488839 0 -0.37022284327214361 0.16034950389874381 0 -0.37383961626832102 0.16942557021425941 0 -0.37122919516455721 0.1537537252863328 0 -0.37022284327214361 0.16034950389874381 0 -0.36243161432783949 0.15703179930855279 0 -0.37022284327214361 0.16034950389874381 0 -0.37383961626832102 0.16942557021425941 0 -0.36322402198730708 0.16680974270568741 0 -0.37383961626832102 0.16942557021425941 0 -0.36322402198730708 0.16680974270568741 0 -0.36499262620894812 0.1746894999632744 0 -0.37022284327214361 0.16034950389874381 0 -0.36322402198730708 0.16680974270568741 0 -0.36243161432783949 0.15703179930855279 0 -0.37383961626832102 0.16942557021425941 0 -0.36818449134173431 0.18722572628363021 0 -0.37650831801737511 0.1779340253473537 0 -0.37383961626832102 0.16942557021425941 0 -0.36818449134173431 0.18722572628363021 0 -0.37383961626832102 0.16942557021425941 0 -0.36818449134173431 0.18722572628363021 0 -0.36499262620894812 0.1746894999632744 0 -0.36818449134173431 0.18722572628363021 0 -0.36499262620894812 0.1746894999632744 0 -0.35402214350025712 0.17560586688816671 0 -0.36322402198730708 0.16680974270568741 0 -0.36499262620894812 0.1746894999632744 0 -0.35402214350025712 0.17560586688816671 0 -0.36818449134173431 0.18722572628363021 0 -0.35402214350025712 0.17560586688816671 0 -0.34524755622527742 0.19034340792313509 0 -0.34643661614562599 0.1522996449903003 0 -0.36243161432783949 0.15703179930855279 0 -0.35203776604091569 0.16336994935618149 0 -0.35402214350025712 0.17560586688816671 0 -0.35203776604091569 0.16336994935618149 0 -0.3275943929802303 0.17069165598605759 0 -0.36322402198730708 0.16680974270568741 0 -0.36243161432783949 0.15703179930855279 0 -0.35203776604091569 0.16336994935618149 0 -0.36322402198730708 0.16680974270568741 0 -0.35402214350025712 0.17560586688816671 0 -0.35203776604091569 0.16336994935618149 0 -0.34643661614562599 0.1522996449903003 0 -0.35203776604091569 0.16336994935618149 0 -0.3275943929802303 0.17069165598605759 0 -0.34643661614562599 0.1522996449903003 0 -0.3275943929802303 0.17069165598605759 0 -0.35402214350025712 0.17560586688816671 0 -0.3275943929802303 0.17069165598605759 0 -0.34524755622527742 0.19034340792313509 0 -0.32297930448776618 0.18321055069485001 0 -0.3275943929802303 0.17069165598605759 0 -0.34524755622527742 0.19034340792313509 0 -0.3275943929802303 0.17069165598605759 0 -0.30875216981483161 0.18908366698181181 0 -0.32297930448776618 0.18321055069485001 0 -0.3275943929802303 0.17069165598605759 0 -0.30875216981483161 0.18908366698181181 0 -0.3275943929802303 0.17069165598605759 0 -0.30875216981483161 0.18908366698181181 0 -0.30866811709702191 0.1713589555388354 0 -0.3275943929802303 0.17069165598605759 0 -0.30736128344260988 0.1532465126359733 0 -0.30866811709702191 0.1713589555388354 0 -0.3275943929802303 0.17069165598605759 0 -0.32454649671510971 0.1449707701389179 0 -0.30736128344260988 0.1532465126359733 0 -0.32454649671510971 0.1449707701389179 0 -0.32049618096358218 0.12816357351437699 0 -0.30205032031272722 0.13623602215012101 0 -0.34390292927608579 0.12954003217038881 0 -0.32454649671510971 0.1449707701389179 0 -0.32049618096358218 0.12816357351437699 0 -0.34643661614562599 0.1522996449903003 0 -0.3275943929802303 0.17069165598605759 0 -0.32454649671510971 0.1449707701389179 0 -0.34390292927608579 0.12954003217038881 0 -0.34643661614562599 0.1522996449903003 0 -0.32454649671510971 0.1449707701389179 0 -0.34882086549482672 0.24817496553446461 0 -0.37066123097320319 0.24710202255958891 0 -0.354094293978094 0.23157624291711901 0 -0.34882086549482672 0.24817496553446461 0 -0.354094293978094 0.23157624291711901 0 -0.33807512482233909 0.23366702329068059 0 -0.34882086549482672 0.24817496553446461 0 -0.354094293978094 0.23157624291711901 0 -0.37066123097320319 0.24710202255958891 0 -0.354094293978094 0.23157624291711901 0 -0.37463231864048191 0.22411228271658579 0 -0.354094293978094 0.23157624291711901 0 -0.36113939265991479 0.20940098460037479 0 -0.37066123097320319 0.24710202255958891 0 -0.37463231864048191 0.22411228271658579 0 -0.354094293978094 0.23157624291711901 0 -0.354094293978094 0.23157624291711901 0 -0.36113939265991479 0.20940098460037479 0 -0.354094293978094 0.23157624291711901 0 -0.34744621322326591 0.2059249450902072 0 -0.36113939265991479 0.20940098460037479 0 -0.354094293978094 0.23157624291711901 0 -0.34744621322326591 0.2059249450902072 0 -0.33273869369298142 0.21156274589850349 0 -0.34744621322326591 0.2059249450902072 0 -0.36113939265991479 0.20940098460037479 0 -0.35771105394882258 0.19610505231636699 0 -0.3758982815920846 0.2035631756625931 0 -0.37463231864048191 0.22411228271658579 0 -0.36113939265991479 0.20940098460037479 0 -0.3758982815920846 0.2035631756625931 0 -0.36818449134173431 0.18722572628363021 0 -0.36113939265991479 0.20940098460037479 0 -0.37771727079231499 0.18993434284611291 0 -0.3758982815920846 0.2035631756625931 0 -0.36818449134173431 0.18722572628363021 0 -0.36818449134173431 0.18722572628363021 0 -0.36113939265991479 0.20940098460037479 0 -0.36818449134173431 0.18722572628363021 0 -0.36113939265991479 0.20940098460037479 0 -0.35771105394882258 0.19610505231636699 0 -0.36818449134173431 0.18722572628363021 0 -0.34524755622527742 0.19034340792313509 0 -0.36818449134173431 0.18722572628363021 0 -0.35771105394882258 0.19610505231636699 0 -0.34524755622527742 0.19034340792313509 0 -0.34744621322326591 0.2059249450902072 0 -0.35771105394882258 0.19610505231636699 0 -0.34524755622527742 0.19034340792313509 0 -0.32297930448776618 0.18321055069485001 0 -0.34524755622527742 0.19034340792313509 0 -0.33374628883450458 0.19656123688574381 0 -0.33374628883450458 0.19656123688574381 0 -0.32550378798954521 0.19571697728150389 0 -0.33273869369298142 0.21156274589850349 0 -0.34744621322326591 0.2059249450902072 0 -0.34524755622527742 0.19034340792313509 0 -0.33374628883450458 0.19656123688574381 0 -0.33273869369298142 0.21156274589850349 0 -0.31138309340787168 0.1915492488798847 0 -0.33273869369298142 0.21156274589850349 0 -0.3115388557590581 0.2032593727920077 0 -0.31138309340787168 0.1915492488798847 0 -0.32550378798954521 0.19571697728150389 0 -0.33273869369298142 0.21156274589850349 0 -0.31138309340787168 0.1915492488798847 0 -0.32297930448776618 0.18321055069485001 0 -0.33374628883450458 0.19656123688574381 0 -0.32550378798954521 0.19571697728150389 0 -0.32297930448776618 0.18321055069485001 0 -0.32550378798954521 0.19571697728150389 0 -0.31138309340787168 0.1915492488798847 0 -0.32297930448776618 0.18321055069485001 0 -0.30875216981483161 0.18908366698181181 0 -0.31138309340787168 0.1915492488798847 0 -0.31582805570055911 0.21212036118329511 0 -0.33273869369298142 0.21156274589850349 0 -0.3115388557590581 0.2032593727920077 0 -0.31582805570055911 0.21212036118329511 0 -0.33273869369298142 0.21156274589850349 0 -0.32120868362287891 0.21918778735836589 0 -0.31582805570055911 0.21212036118329511 0 -0.32120868362287891 0.21918778735836589 0 -0.31144778576862192 0.22367365364058439 0 -0.34744621322326591 0.2059249450902072 0 -0.33374628883450458 0.19656123688574381 0 -0.33273869369298142 0.21156274589850349 0 -0.354094293978094 0.23157624291711901 0 -0.33273869369298142 0.21156274589850349 0 -0.33807512482233909 0.23366702329068059 0 -0.354094293978094 0.23157624291711901 0 -0.33273869369298142 0.21156274589850349 0 -0.33273869369298142 0.21156274589850349 0 -0.33807512482233909 0.23366702329068059 0 -0.32482019932935341 0.22939438871108081 0 -0.32482019932935341 0.22939438871108081 0 -0.30220712239074649 0.24647352029368899 0 -0.31144778576862192 0.22367365364058439 0 -0.33273869369298142 0.21156274589850349 0 -0.32120868362287891 0.21918778735836589 0 -0.32482019932935341 0.22939438871108081 0 -0.32120868362287891 0.21918778735836589 0 -0.32482019932935341 0.22939438871108081 0 -0.31144778576862192 0.22367365364058439 0 -0.32482019932935341 0.22939438871108081 0 -0.30220712239074649 0.24647352029368899 0 -0.31728827442131202 0.251362639668403 0 -0.32482019932935341 0.22939438871108081 0 -0.30220712239074649 0.24647352029368899 0 -0.32482019932935341 0.22939438871108081 0 -0.32990157161644001 0.24762677339223521 0 -0.31728827442131202 0.251362639668403 0 -0.34882086549482672 0.24817496553446461 0 -0.33807512482233909 0.23366702329068059 0 -0.32990157161644001 0.24762677339223521 0 -0.33807512482233909 0.23366702329068059 0 -0.32482019932935341 0.22939438871108081 0 -0.32990157161644001 0.24762677339223521 0 -0.29044531079417091 0.2397560066477179 0 -0.30220712239074649 0.24647352029368899 0 -0.28643348722299589 0.25009171211611092 0 -0.29044531079417091 0.2397560066477179 0 -0.2790386707790628 0.2421077021777083 0 -0.28643348722299589 0.25009171211611092 0 -0.2790386707790628 0.2421077021777083 0 -0.28643348722299589 0.25009171211611092 0 -0.27949407817042021 0.25183745425449933 0 -0.29044531079417091 0.2397560066477179 0 -0.28626631169393019 0.22756398594892849 0 -0.2790386707790628 0.2421077021777083 0 -0.29044531079417091 0.2397560066477179 0 -0.30220712239074649 0.24647352029368899 0 -0.29779525263408307 0.23102356609508001 0 -0.30220712239074649 0.24647352029368899 0 -0.29779525263408307 0.23102356609508001 0 -0.31144778576862192 0.22367365364058439 0 -0.29779525263408307 0.23102356609508001 0 -0.31144778576862192 0.22367365364058439 0 -0.29830735170143191 0.21927121733135349 0 -0.29830735170143191 0.21927121733135349 0 -0.28626631169393019 0.22756398594892849 0 -0.28818336932094613 0.21562990569059731 0 -0.29779525263408307 0.23102356609508001 0 -0.29830735170143191 0.21927121733135349 0 -0.28626631169393019 0.22756398594892849 0 -0.29044531079417091 0.2397560066477179 0 -0.29779525263408307 0.23102356609508001 0 -0.28626631169393019 0.22756398594892849 0 -0.28626631169393019 0.22756398594892849 0 -0.28818336932094613 0.21562990569059731 0 -0.2762618608132511 0.2158594623246706 0 -0.28818336932094613 0.21562990569059731 0 -0.28495594505788052 0.20631605076993201 0 -0.2762618608132511 0.2158594623246706 0 -0.28818336932094613 0.21562990569059731 0 -0.28495594505788052 0.20631605076993201 0 -0.29512537733823679 0.2091388120781015 0 -0.29512537733823679 0.2091388120781015 0 -0.30188466043569978 0.202977148015725 0 -0.29294572878715042 0.20146099756372601 0 -0.28495594505788052 0.20631605076993201 0 -0.29512537733823679 0.2091388120781015 0 -0.29294572878715042 0.20146099756372601 0 -0.29830735170143191 0.21927121733135349 0 -0.28818336932094613 0.21562990569059731 0 -0.29512537733823679 0.2091388120781015 0 -0.29830735170143191 0.21927121733135349 0 -0.29512537733823679 0.2091388120781015 0 -0.3057137757186299 0.21150775483746051 0 -0.31582805570055911 0.21212036118329511 0 -0.31144778576862192 0.22367365364058439 0 -0.3057137757186299 0.21150775483746051 0 -0.31144778576862192 0.22367365364058439 0 -0.29830735170143191 0.21927121733135349 0 -0.3057137757186299 0.21150775483746051 0 -0.3057137757186299 0.21150775483746051 0 -0.3115388557590581 0.2032593727920077 0 -0.30188466043569978 0.202977148015725 0 -0.31582805570055911 0.21212036118329511 0 -0.3057137757186299 0.21150775483746051 0 -0.3115388557590581 0.2032593727920077 0 -0.29512537733823679 0.2091388120781015 0 -0.3057137757186299 0.21150775483746051 0 -0.30188466043569978 0.202977148015725 0 -0.30103845991986189 0.19692058200436521 0 -0.30188466043569978 0.202977148015725 0 -0.29294572878715042 0.20146099756372601 0 -0.30875216981483161 0.18908366698181181 0 -0.31138309340787168 0.1915492488798847 0 -0.28172420118407321 0.19195239495050631 0 -0.30103845991986189 0.19692058200436521 0 -0.31138309340787168 0.1915492488798847 0 -0.28172420118407321 0.19195239495050631 0 -0.3115388557590581 0.2032593727920077 0 -0.30103845991986189 0.19692058200436521 0 -0.31138309340787168 0.1915492488798847 0 -0.3115388557590581 0.2032593727920077 0 -0.30103845991986189 0.19692058200436521 0 -0.30188466043569978 0.202977148015725 0 -0.30875216981483161 0.18908366698181181 0 -0.31138309340787168 0.1915492488798847 0 -0.31138309340787168 0.1915492488798847 0 -0.28172420118407321 0.19195239495050631 0 -0.30875216981483161 0.18908366698181181 0 -0.28172420118407321 0.19195239495050631 0 -0.29720244556690201 0.1859710104877336 0 -0.30103845991986189 0.19692058200436521 0 -0.29294572878715042 0.20146099756372601 0 -0.28172420118407321 0.19195239495050631 0 -0.28495594505788052 0.20631605076993201 0 -0.29294572878715042 0.20146099756372601 0 -0.28172420118407321 0.19195239495050631 0 -0.28172420118407321 0.19195239495050631 0 -0.25206530896027463 0.19235554102112939 0 -0.27038598451205698 0.20410904368788371 0 -0.28172420118407321 0.19195239495050631 0 -0.25206530896027463 0.19235554102112939 0 -0.28495594505788052 0.20631605076993201 0 -0.28172420118407321 0.19195239495050631 0 -0.27038598451205698 0.20410904368788371 0 -0.25206530896027463 0.19235554102112939 0 -0.25692260654480559 0.21406176937318019 0 -0.27038598451205698 0.20410904368788371 0 -0.25692260654480559 0.21406176937318019 0 -0.27038598451205698 0.20410904368788371 0 -0.2762618608132511 0.2158594623246706 0 -0.28495594505788052 0.20631605076993201 0 -0.27038598451205698 0.20410904368788371 0 -0.2762618608132511 0.2158594623246706 0 -0.28626631169393019 0.22756398594892849 0 -0.2700159049492642 0.22846211642491809 0 -0.2790386707790628 0.2421077021777083 0 -0.28626631169393019 0.22756398594892849 0 -0.2762618608132511 0.2158594623246706 0 -0.2700159049492642 0.22846211642491809 0 -0.25692260654480559 0.21406176937318019 0 -0.2762618608132511 0.2158594623246706 0 -0.2700159049492642 0.22846211642491809 0 -0.25692260654480559 0.21406176937318019 0 -0.2700159049492642 0.22846211642491809 0 -0.25649435069066051 0.22972084610719559 0 -0.25692260654480559 0.21406176937318019 0 -0.25649435069066051 0.22972084610719559 0 -0.2381323667578818 0.22417883657737869 0 -0.2700159049492642 0.22846211642491809 0 -0.25649435069066051 0.22972084610719559 0 -0.2651116291738751 0.24145893261782611 0 -0.25176944386397782 0.2405068625967319 0 -0.25932040504340997 0.25330497146748832 0 -0.23904676463467969 0.24305729105867771 0 -0.25649435069066051 0.22972084610719559 0 -0.2651116291738751 0.24145893261782611 0 -0.25176944386397782 0.2405068625967319 0 -0.2651116291738751 0.24145893261782611 0 -0.25176944386397782 0.2405068625967319 0 -0.25932040504340997 0.25330497146748832 0 -0.2651116291738751 0.24145893261782611 0 -0.27291010922748149 0.25159775084787978 0 -0.25932040504340997 0.25330497146748832 0 -0.2651116291738751 0.24145893261782611 0 -0.2790386707790628 0.2421077021777083 0 -0.27291010922748149 0.25159775084787978 0 -0.2700159049492642 0.22846211642491809 0 -0.2651116291738751 0.24145893261782611 0 -0.2790386707790628 0.2421077021777083 0 -0.2790386707790628 0.2421077021777083 0 -0.27949407817042021 0.25183745425449933 0 -0.27291010922748149 0.25159775084787978 0 -0.29001270391296019 0.15221500508613239 0 -0.30205032031272722 0.13623602215012101 0 -0.2810738049317974 0.13734294399284419 0 -0.29001270391296019 0.15221500508613239 0 -0.28056825760830012 0.16275197547141729 0 -0.27722023320947642 0.15108867163633549 0 -0.29001270391296019 0.15221500508613239 0 -0.27722023320947642 0.15108867163633549 0 -0.2810738049317974 0.13734294399284419 0 -0.27665106406051221 0.12719151819110189 0 -0.2810738049317974 0.13734294399284419 0 -0.28730427221553151 0.1205019765967726 0 -0.30205032031272722 0.13623602215012101 0 -0.2810738049317974 0.13734294399284419 0 -0.28730427221553151 0.1205019765967726 0 -0.32049618096358218 0.12816357351437699 0 -0.30205032031272722 0.13623602215012101 0 -0.30748343261869621 0.1181976319119023 0 -0.32454649671510971 0.1449707701389179 0 -0.30205032031272722 0.13623602215012101 0 -0.30736128344260988 0.1532465126359733 0 -0.29001270391296019 0.15221500508613239 0 -0.30205032031272722 0.13623602215012101 0 -0.30736128344260988 0.1532465126359733 0 -0.30736128344260988 0.1532465126359733 0 -0.30866811709702191 0.1713589555388354 0 -0.29096462215041591 0.172413986551499 0 -0.30875216981483161 0.18908366698181181 0 -0.30866811709702191 0.1713589555388354 0 -0.29096462215041591 0.172413986551499 0 -0.30875216981483161 0.18908366698181181 0 -0.29720244556690201 0.1859710104877336 0 -0.29096462215041591 0.172413986551499 0 -0.30875216981483161 0.18908366698181181 0 -0.29096462215041591 0.172413986551499 0 -0.28172420118407321 0.19195239495050631 0 -0.29096462215041591 0.172413986551499 0 -0.27299440247107237 0.17381705485188809 0 -0.28172420118407321 0.19195239495050631 0 -0.29720244556690201 0.1859710104877336 0 -0.29096462215041591 0.172413986551499 0 -0.29001270391296019 0.15221500508613239 0 -0.30736128344260988 0.1532465126359733 0 -0.29096462215041591 0.172413986551499 0 -0.29096462215041591 0.172413986551499 0 -0.28056825760830012 0.16275197547141729 0 -0.27299440247107237 0.17381705485188809 0 -0.29001270391296019 0.15221500508613239 0 -0.29096462215041591 0.172413986551499 0 -0.28056825760830012 0.16275197547141729 0 -0.28056825760830012 0.16275197547141729 0 -0.26636467090271021 0.15862957506137551 0 -0.27722023320947642 0.15108867163633549 0 -0.28056825760830012 0.16275197547141729 0 -0.26636467090271021 0.15862957506137551 0 -0.27299440247107237 0.17381705485188809 0 -0.28172420118407321 0.19195239495050631 0 -0.25206530896027463 0.19235554102112939 0 -0.27299440247107237 0.17381705485188809 0 -0.25206530896027463 0.19235554102112939 0 -0.27299440247107237 0.17381705485188809 0 -0.25537995456211787 0.1716825948329013 0 -0.26636467090271021 0.15862957506137551 0 -0.27299440247107237 0.17381705485188809 0 -0.25537995456211787 0.1716825948329013 0 -0.26636467090271021 0.15862957506137551 0 -0.25537995456211787 0.1716825948329013 0 -0.25283233744788458 0.1601161742247936 0 -0.25668243032772098 0.1492133160751011 0 -0.25311632561299002 0.1349665128324545 0 -0.2428796893208188 0.15423057091888731 0 -0.25283233744788458 0.1601161742247936 0 -0.25668243032772098 0.1492133160751011 0 -0.2428796893208188 0.15423057091888731 0 -0.25668243032772098 0.1492133160751011 0 -0.26770977940988078 0.14411002522461949 0 -0.25311632561299002 0.1349665128324545 0 -0.26636467090271021 0.15862957506137551 0 -0.25668243032772098 0.1492133160751011 0 -0.26770977940988078 0.14411002522461949 0 -0.26636467090271021 0.15862957506137551 0 -0.25283233744788458 0.1601161742247936 0 -0.25668243032772098 0.1492133160751011 0 -0.26636467090271021 0.15862957506137551 0 -0.26770977940988078 0.14411002522461949 0 -0.27722023320947642 0.15108867163633549 0 -0.26770977940988078 0.14411002522461949 0 -0.27722023320947642 0.15108867163633549 0 -0.2810738049317974 0.13734294399284419 0 -0.27665106406051221 0.12719151819110189 0 -0.2810738049317974 0.13734294399284419 0 -0.26934573816212032 0.1323534914479719 0 -0.26770977940988078 0.14411002522461949 0 -0.2810738049317974 0.13734294399284419 0 -0.26934573816212032 0.1323534914479719 0 -0.27665106406051221 0.12719151819110189 0 -0.26934573816212032 0.1323534914479719 0 -0.2688804409325995 0.1185676607268191 0 -0.26770977940988078 0.14411002522461949 0 -0.26934573816212032 0.1323534914479719 0 -0.25311632561299002 0.1349665128324545 0 -0.25311632561299002 0.1349665128324545 0 -0.2688804409325995 0.1185676607268191 0 -0.26934573816212032 0.1323534914479719 0 -0.25311632561299002 0.1349665128324545 0 -0.2688804409325995 0.1185676607268191 0 -0.25311632561299002 0.1349665128324545 0 -0.26078243216108571 0.12053986743603359 0 -0.25311632561299002 0.1349665128324545 0 -0.25128034306688202 0.1242423928712058 0 -0.26078243216108571 0.12053986743603359 0 -0.25128034306688202 0.1242423928712058 0 -0.25300731857922298 0.11629697879776769 0 -0.26078243216108571 0.12053986743603359 0 -0.25311632561299002 0.1349665128324545 0 -0.26078243216108571 0.12053986743603359 0 -0.2688804409325995 0.1185676607268191 0 -0.25300731857922298 0.11629697879776769 0 -0.25562003501943598 0.1081052816530666 0 -0.2457753085582616 0.1114510831065504 0 -0.25300731857922298 0.11629697879776769 0 -0.26045492143993793 0.11424464575773099 0 -0.25562003501943598 0.1081052816530666 0 -0.26045492143993793 0.11424464575773099 0 -0.26398438050734552 0.10771344017496789 0 -0.2688804409325995 0.1185676607268191 0 -0.26045492143993793 0.11424464575773099 0 -0.25562003501943598 0.1081052816530666 0 -0.26398438050734552 0.10771344017496789 0 -0.25300731857922298 0.11629697879776769 0 -0.26045492143993793 0.11424464575773099 0 -0.26078243216108571 0.12053986743603359 0 -0.26045492143993793 0.11424464575773099 0 -0.26078243216108571 0.12053986743603359 0 -0.2688804409325995 0.1185676607268191 0 -0.26122352883926958 0.097533916673221255 0 -0.2487222034394978 0.090027478766437644 0 -0.24885199633285651 0.1008730264747618 0 -0.25562003501943598 0.1081052816530666 0 -0.24885199633285651 0.1008730264747618 0 -0.2457753085582616 0.1114510831065504 0 -0.25562003501943598 0.1081052816530666 0 -0.26122352883926958 0.097533916673221255 0 -0.24885199633285651 0.1008730264747618 0 -0.25562003501943598 0.1081052816530666 0 -0.26398438050734552 0.10771344017496789 0 -0.26122352883926958 0.097533916673221255 0 -0.27193200184755562 0.10108465927023561 0 -0.28464455625220908 0.10216880862118401 0 -0.27570933306647222 0.085648068818202444 0 -0.26398438050734552 0.10771344017496789 0 -0.27193200184755562 0.10108465927023561 0 -0.2688804409325995 0.1185676607268191 0 -0.27193200184755562 0.10108465927023561 0 -0.2688804409325995 0.1185676607268191 0 -0.28464455625220908 0.10216880862118401 0 -0.26122352883926958 0.097533916673221255 0 -0.27193200184755562 0.10108465927023561 0 -0.27570933306647222 0.085648068818202444 0 -0.26398438050734552 0.10771344017496789 0 -0.26122352883926958 0.097533916673221255 0 -0.27193200184755562 0.10108465927023561 0 -0.2688804409325995 0.1185676607268191 0 -0.28464455625220908 0.10216880862118401 0 -0.27665106406051221 0.12719151819110189 0 -0.2688804409325995 0.1185676607268191 0 -0.28730427221553151 0.1205019765967726 0 -0.2688804409325995 0.1185676607268191 0 -0.28730427221553151 0.1205019765967726 0 -0.28464455625220908 0.10216880862118401 0 -0.28464455625220908 0.10216880862118401 0 -0.30040867157181789 0.085769956515548029 0 -0.28464455625220908 0.10216880862118401 0 -0.29997595925396459 0.1046155125846616 0 -0.30040867157181789 0.085769956515548029 0 -0.28730427221553151 0.1205019765967726 0 -0.28464455625220908 0.10216880862118401 0 -0.29997595925396459 0.1046155125846616 0 -0.29997595925396459 0.1046155125846616 0 -0.30040867157181789 0.085769956515548029 0 -0.31490675747324048 0.1003599817338283 0 -0.29997595925396459 0.1046155125846616 0 -0.30748343261869621 0.1181976319119023 0 -0.31490675747324048 0.1003599817338283 0 -0.28730427221553151 0.1205019765967726 0 -0.29997595925396459 0.1046155125846616 0 -0.30748343261869621 0.1181976319119023 0 -0.30205032031272722 0.13623602215012101 0 -0.28730427221553151 0.1205019765967726 0 -0.30748343261869621 0.1181976319119023 0 -0.30013919283321289 0.066573690080484194 0 -0.30040867157181789 0.085769956515548029 0 -0.31854241221347329 0.066906066923563615 0 -0.30040867157181789 0.085769956515548029 0 -0.31854241221347329 0.066906066923563615 0 -0.30040867157181789 0.085769956515548029 0 -0.31490675747324048 0.1003599817338283 0 -0.30040867157181789 0.085769956515548029 0 -0.28645196405074658 0.071724742817606713 0 -0.28464455625220908 0.10216880862118401 0 -0.30040867157181789 0.085769956515548029 0 -0.27570933306647222 0.085648068818202444 0 -0.30040867157181789 0.085769956515548029 0 -0.28645196405074658 0.071724742817606713 0 -0.27570933306647222 0.085648068818202444 0 -0.30013919283321289 0.066573690080484194 0 -0.28645196405074658 0.071724742817606713 0 -0.28969224772888108 0.054547891464952071 0 -0.30013919283321289 0.066573690080484194 0 -0.30040867157181789 0.085769956515548029 0 -0.28645196405074658 0.071724742817606713 0 -0.27415218987562362 0.069649778332610268 0 -0.27570933306647222 0.085648068818202444 0 -0.26481595709933642 0.073305818639469861 0 -0.28645196405074658 0.071724742817606713 0 -0.27249525652967538 0.057679529119665403 0 -0.28645196405074658 0.071724742817606713 0 -0.27415218987562362 0.069649778332610268 0 -0.27249525652967538 0.057679529119665403 0 -0.28645196405074658 0.071724742817606713 0 -0.27415218987562362 0.069649778332610268 0 -0.27570933306647222 0.085648068818202444 0 -0.27415218987562362 0.069649778332610268 0 -0.26605966821326821 0.063840277293903777 0 -0.26481595709933642 0.073305818639469861 0 -0.27415218987562362 0.069649778332610268 0 -0.26605966821326821 0.063840277293903777 0 -0.27249525652967538 0.057679529119665403 0 -0.27570933306647222 0.085648068818202444 0 -0.26064600277440192 0.084200438492012114 0 -0.26481595709933642 0.073305818639469861 0 -0.26122352883926958 0.097533916673221255 0 -0.27570933306647222 0.085648068818202444 0 -0.26064600277440192 0.084200438492012114 0 -0.26064600277440192 0.084200438492012114 0 -0.25003595785532501 0.080029089309594181 0 -0.25531636151446091 0.073181752258963992 0 -0.26064600277440192 0.084200438492012114 0 -0.25003595785532501 0.080029089309594181 0 -0.2487222034394978 0.090027478766437644 0 -0.26122352883926958 0.097533916673221255 0 -0.26064600277440192 0.084200438492012114 0 -0.2487222034394978 0.090027478766437644 0 -0.26481595709933642 0.073305818639469861 0 -0.25531636151446091 0.073181752258963992 0 -0.25570420656845338 0.064032290482212498 0 -0.26605966821326821 0.063840277293903777 0 -0.26481595709933642 0.073305818639469861 0 -0.25570420656845338 0.064032290482212498 0 -0.26064600277440192 0.084200438492012114 0 -0.26481595709933642 0.073305818639469861 0 -0.25531636151446091 0.073181752258963992 0 -0.25003595785532501 0.080029089309594181 0 -0.25531636151446091 0.073181752258963992 0 -0.24506267074280011 0.070098293709981621 0 -0.25531636151446091 0.073181752258963992 0 -0.25570420656845338 0.064032290482212498 0 -0.24506267074280011 0.070098293709981621 0 -0.25570420656845338 0.064032290482212498 0 -0.25476199705115199 0.054403074816950558 0 -0.2463041657088135 0.058432307632052191 0 -0.25570420656845338 0.064032290482212498 0 -0.26307408545501121 0.055364058279526403 0 -0.25476199705115199 0.054403074816950558 0 -0.26605966821326821 0.063840277293903777 0 -0.25570420656845338 0.064032290482212498 0 -0.26307408545501121 0.055364058279526403 0 -0.26307408545501121 0.055364058279526403 0 -0.25476199705115199 0.054403074816950558 0 -0.25892125127354187 0.043250245185476772 0 -0.25476199705115199 0.054403074816950558 0 -0.25004781488001232 0.048419795599103921 0 -0.25892125127354187 0.043250245185476772 0 -0.25476199705115199 0.054403074816950558 0 -0.25004781488001232 0.048419795599103921 0 -0.2463041657088135 0.058432307632052191 0 -0.25004781488001232 0.048419795599103921 0 -0.25892125127354187 0.043250245185476772 0 -0.24754032088799149 0.034382237147408332 0 -0.25892125127354187 0.043250245185476772 0 -0.2649525669567685 0.026882477240308459 0 -0.24754032088799149 0.034382237147408332 0 -0.26307408545501121 0.055364058279526403 0 -0.25892125127354187 0.043250245185476772 0 -0.27327149172535259 0.038791489576372518 0 -0.25892125127354187 0.043250245185476772 0 -0.27327149172535259 0.038791489576372518 0 -0.2649525669567685 0.026882477240308459 0 -0.27327149172535259 0.038791489576372518 0 -0.28346889799569402 0.022218920873218841 0 -0.28504695721230339 0.041154890829915088 0 -0.27327149172535259 0.038791489576372518 0 -0.28011836186350048 0.048787011624458927 0 -0.28504695721230339 0.041154890829915088 0 -0.27327149172535259 0.038791489576372518 0 -0.28011836186350048 0.048787011624458927 0 -0.27249525652967538 0.057679529119665403 0 -0.26307408545501121 0.055364058279526403 0 -0.27327149172535259 0.038791489576372518 0 -0.28011836186350048 0.048787011624458927 0 -0.27249525652967538 0.057679529119665403 0 -0.28969224772888108 0.054547891464952071 0 -0.26307408545501121 0.055364058279526403 0 -0.27327149172535259 0.038791489576372518 0 -0.27249525652967538 0.057679529119665403 0 -0.26605966821326821 0.063840277293903777 0 -0.26307408545501121 0.055364058279526403 0 -0.27249525652967538 0.057679529119665403 0 -0.25807201738883828 -0.0067054889342117539 0 -0.25252246992332861 0.01477872657801072 0 -0.27077045769226621 0.0077567159695035651 0 -0.25807201738883828 -0.0067054889342117539 0 -0.27077045769226621 0.0077567159695035651 0 -0.25252246992332861 0.01477872657801072 0 -0.2649525669567685 0.026882477240308459 0 -0.24754032088799149 0.034382237147408332 0 -0.25252246992332861 0.01477872657801072 0 -0.2649525669567685 0.026882477240308459 0 -0.27077045769226621 0.0077567159695035651 0 -0.27327149172535259 0.038791489576372518 0 -0.28346889799569402 0.022218920873218841 0 -0.2649525669567685 0.026882477240308459 0 -0.27077045769226621 0.0077567159695035651 0 -0.28346889799569402 0.022218920873218841 0 -0.27327149172535259 0.038791489576372518 0 -0.2649525669567685 0.026882477240308459 0 -0.28346889799569402 0.022218920873218841 0 -0.27077045769226621 0.0077567159695035651 0 -0.28346889799569402 0.022218920873218841 0 -0.29788531652794809 -0.001210280655613488 0 -0.28346889799569402 0.022218920873218841 0 -0.30635485392332218 0.02238024284903015 0 -0.29788531652794809 -0.001210280655613488 0 -0.27077045769226621 0.0077567159695035651 0 -0.28346889799569402 0.022218920873218841 0 -0.29788531652794809 -0.001210280655613488 0 -0.28346889799569402 0.022218920873218841 0 -0.28346889799569402 0.022218920873218841 0 -0.30635485392332218 0.02238024284903015 0 -0.29870410283697019 0.039570237168741557 0 -0.28346889799569402 0.022218920873218841 0 -0.29870410283697019 0.039570237168741557 0 -0.29788531652794809 -0.001210280655613488 0 -0.30635485392332218 0.02238024284903015 0 -0.31812509627846491 0.0064589535239619484 0 -0.28645196405074658 0.071724742817606713 0 -0.27249525652967538 0.057679529119665403 0 -0.28969224772888108 0.054547891464952071 0 -0.28011836186350048 0.048787011624458927 0 -0.28969224772888108 0.054547891464952071 0 -0.28504695721230339 0.041154890829915088 0 -0.28346889799569402 0.022218920873218841 0 -0.28504695721230339 0.041154890829915088 0 -0.29870410283697019 0.039570237168741557 0 -0.28969224772888108 0.054547891464952071 0 -0.28504695721230339 0.041154890829915088 0 -0.29870410283697019 0.039570237168741557 0 -0.30635485392332218 0.02238024284903015 0 -0.29870410283697019 0.039570237168741557 0 -0.31251060326378771 0.039576670088726007 0 -0.29870410283697019 0.039570237168741557 0 -0.30560066860114599 0.053919792680750533 0 -0.31251060326378771 0.039576670088726007 0 -0.28969224772888108 0.054547891464952071 0 -0.29870410283697019 0.039570237168741557 0 -0.30560066860114599 0.053919792680750533 0 -0.30013919283321289 0.066573690080484194 0 -0.28969224772888108 0.054547891464952071 0 -0.30560066860114599 0.053919792680750533 0 -0.30013919283321289 0.066573690080484194 0 -0.30560066860114599 0.053919792680750533 0 -0.31854241221347329 0.066906066923563615 0 -0.31994077278369021 0.049434221738535407 0 -0.33667615285512792 0.048042177331578423 0 -0.31854241221347329 0.066906066923563615 0 -0.30560066860114599 0.053919792680750533 0 -0.31994077278369021 0.049434221738535407 0 -0.31854241221347329 0.066906066923563615 0 -0.33667615285512792 0.048042177331578423 0 -0.31854241221347329 0.066906066923563615 0 -0.30560066860114599 0.053919792680750533 0 -0.31994077278369021 0.049434221738535407 0 -0.31251060326378771 0.039576670088726007 0 -0.31994077278369021 0.049434221738535407 0 -0.3263740269849158 0.038726401668058449 0 -0.33667615285512792 0.048042177331578423 0 -0.31994077278369021 0.049434221738535407 0 -0.31251060326378771 0.039576670088726007 0 -0.3263740269849158 0.038726401668058449 0 -0.31251060326378771 0.039576670088726007 0 -0.32546820697741419 0.02486649677037827 0 -0.31251060326378771 0.039576670088726007 0 -0.3263740269849158 0.038726401668058449 0 -0.32546820697741419 0.02486649677037827 0 -0.33667615285512792 0.048042177331578423 0 -0.33947177726289512 0.027384603810451411 0 -0.35480989349678238 0.029178287739593248 0 -0.3263740269849158 0.038726401668058449 0 -0.33667615285512792 0.048042177331578423 0 -0.33947177726289512 0.027384603810451411 0 -0.33667615285512792 0.048042177331578423 0 -0.3439773149322114 0.071424000929961304 0 -0.31854241221347329 0.066906066923563615 0 -0.31812509627846491 0.0064589535239619484 0 -0.32546820697741419 0.02486649677037827 0 -0.33659006994528012 0.0098055517785405645 0 -0.32727931025353929 -0.0056008437643897671 0 -0.31812509627846491 0.0064589535239619484 0 -0.33659006994528012 0.0098055517785405645 0 -0.30635485392332218 0.02238024284903015 0 -0.31812509627846491 0.0064589535239619484 0 -0.32546820697741419 0.02486649677037827 0 -0.30635485392332218 0.02238024284903015 0 -0.31251060326378771 0.039576670088726007 0 -0.32546820697741419 0.02486649677037827 0 -0.32546820697741419 0.02486649677037827 0 -0.33947177726289512 0.027384603810451411 0 -0.33842581069104161 0.01015632345203126 0 -0.3263740269849158 0.038726401668058449 0 -0.32546820697741419 0.02486649677037827 0 -0.33947177726289512 0.027384603810451411 0 -0.32546820697741419 0.02486649677037827 0 -0.33842581069104161 0.01015632345203126 0 -0.3522166704560451 -0.0054998072520526901 0 -0.33842581069104161 0.01015632345203126 0 -0.33659006994528012 0.0098055517785405645 0 -0.32546820697741419 0.02486649677037827 0 -0.33842581069104161 0.01015632345203126 0 -0.33659006994528012 0.0098055517785405645 0 -0.33842581069104161 0.01015632345203126 0 -0.33659006994528012 0.0098055517785405645 0 -0.3522166704560451 -0.0054998072520526901 0 -0.33842581069104161 0.01015632345203126 0 -0.35539349731452408 -0.0054869359816589686 0 -0.3522166704560451 -0.0054998072520526901 0 -0.35507657257209052 0.013337935901069631 0 -0.3522166704560451 -0.0054998072520526901 0 -0.33842581069104161 0.01015632345203126 0 -0.35507657257209052 0.013337935901069631 0 -0.35539349731452408 -0.0054869359816589686 0 -0.35507657257209052 0.013337935901069631 0 -0.36281503973688012 0.0071193466643548094 0 -0.33842581069104161 0.01015632345203126 0 -0.35507657257209052 0.013337935901069631 0 -0.35539349731452408 -0.0054869359816589686 0 -0.35507657257209052 0.013337935901069631 0 -0.35507657257209052 0.013337935901069631 0 -0.35480989349678238 0.029178287739593248 0 -0.33947177726289512 0.027384603810451411 0 -0.35507657257209052 0.013337935901069631 0 -0.35480989349678238 0.029178287739593248 0 -0.35507657257209052 0.013337935901069631 0 -0.35480989349678238 0.029178287739593248 0 -0.36771555739675987 0.01575298163583148 0 -0.33947177726289512 0.027384603810451411 0 -0.33842581069104161 0.01015632345203126 0 -0.35507657257209052 0.013337935901069631 0 -0.37735106688519138 0.02816551559550818 0 -0.36991189334356678 0.016172655512653979 0 -0.36219354161432582 0.032615927143314669 0 -0.35480989349678238 0.029178287739593248 0 -0.36771555739675987 0.01575298163583148 0 -0.36219354161432582 0.032615927143314669 0 -0.36991189334356678 0.016172655512653979 0 -0.36219354161432582 0.032615927143314669 0 -0.36991189334356678 0.016172655512653979 0 -0.36771555739675987 0.01575298163583148 0 -0.36219354161432582 0.032615927143314669 0 -0.36991189334356678 0.016172655512653979 0 -0.36771555739675987 0.01575298163583148 0 -0.35480989349678238 0.029178287739593248 0 -0.36771555739675987 0.01575298163583148 0 -0.38003189033049622 -0.0053871107684163432 0 -0.37195289213886179 0.01182448652966504 0 -0.36281503973688012 0.0071193466643548094 0 -0.35507657257209052 0.013337935901069631 0 -0.36771555739675987 0.01575298163583148 0 -0.36281503973688012 0.0071193466643548094 0 -0.35507657257209052 0.013337935901069631 0 -0.36771555739675987 0.01575298163583148 0 -0.36991189334356678 0.016172655512653979 0 -0.37195289213886179 0.01182448652966504 0 -0.36991189334356678 0.016172655512653979 0 -0.36771555739675987 0.01575298163583148 0 -0.37195289213886179 0.01182448652966504 0 -0.36771555739675987 0.01575298163583148 0 -0.37195289213886179 0.01182448652966504 0 -0.36771555739675987 0.01575298163583148 0 -0.37195289213886179 0.01182448652966504 0 -0.36281503973688012 0.0071193466643548094 0 -0.3544263313639886 0.051961324347854339 0 -0.35447518988508447 0.049059198773975202 0 -0.3439773149322114 0.071424000929961304 0 -0.35447518988508447 0.049059198773975202 0 -0.3439773149322114 0.071424000929961304 0 -0.3544263313639886 0.051961324347854339 0 -0.36275405792842719 0.050031673286133428 0 -0.35765849405019529 0.066232834328107087 0 -0.33667615285512792 0.048042177331578423 0 -0.35447518988508447 0.049059198773975202 0 -0.3439773149322114 0.071424000929961304 0 -0.3544263313639886 0.051961324347854339 0 -0.35447518988508447 0.049059198773975202 0 -0.36275405792842719 0.050031673286133428 0 -0.3544263313639886 0.051961324347854339 0 -0.35447518988508447 0.049059198773975202 0 -0.33667615285512792 0.048042177331578423 0 -0.35480989349678238 0.029178287739593248 0 -0.35480989349678238 0.029178287739593248 0 -0.35447518988508447 0.049059198773975202 0 -0.35447518988508447 0.049059198773975202 0 -0.36219354161432582 0.032615927143314669 0 -0.35480989349678238 0.029178287739593248 0 -0.35447518988508447 0.049059198773975202 0 -0.36219354161432582 0.032615927143314669 0 -0.33667615285512792 0.048042177331578423 0 -0.35480989349678238 0.029178287739593248 0 -0.35447518988508447 0.049059198773975202 0 -0.37785690104045611 0.042083429050685447 0 -0.37735106688519138 0.02816551559550818 0 -0.36219354161432582 0.032615927143314669 0 -0.35447518988508447 0.049059198773975202 0 -0.36219354161432582 0.032615927143314669 0 -0.36275405792842719 0.050031673286133428 0 -0.37785690104045611 0.042083429050685447 0 -0.36219354161432582 0.032615927143314669 0 -0.36275405792842719 0.050031673286133428 0 -0.36991388961651289 0.058237326072863908 0 -0.36275405792842719 0.050031673286133428 0 -0.35765849405019529 0.066232834328107087 0 -0.37785690104045611 0.042083429050685447 0 -0.36991388961651289 0.058237326072863908 0 -0.36275405792842719 0.050031673286133428 0 -0.36991388961651289 0.058237326072863908 0 -0.35765849405019529 0.066232834328107087 0 -0.3670327395327696 0.081220952883602787 0 -0.35765849405019529 0.066232834328107087 0 -0.3439773149322114 0.071424000929961304 0 -0.35250265527359392 0.085778303017598659 0 -0.3544263313639886 0.051961324347854339 0 -0.35765849405019529 0.066232834328107087 0 -0.3439773149322114 0.071424000929961304 0 -0.35765849405019529 0.066232834328107087 0 -0.35250265527359392 0.085778303017598659 0 -0.3670327395327696 0.081220952883602787 0 -0.35250265527359392 0.085778303017598659 0 -0.3670327395327696 0.081220952883602787 0 -0.35736669800732768 0.1007573807808851 0 -0.3439773149322114 0.071424000929961304 0 -0.35250265527359392 0.085778303017598659 0 -0.3371349092457091 0.094718539631779827 0 -0.3670327395327696 0.081220952883602787 0 -0.37461159076084538 0.095546281046898981 0 -0.35736669800732768 0.1007573807808851 0 -0.37461159076084538 0.095546281046898981 0 -0.36889745467026241 0.11291669864627971 0 -0.35736669800732768 0.1007573807808851 0 -0.36527883931102179 0.13390763399454289 0 -0.36889745467026241 0.11291669864627971 0 -0.35033094564751172 0.1144650486959975 0 -0.36889745467026241 0.11291669864627971 0 -0.35033094564751172 0.1144650486959975 0 -0.35736669800732768 0.1007573807808851 0 -0.35250265527359392 0.085778303017598659 0 -0.35736669800732768 0.1007573807808851 0 -0.3371349092457091 0.094718539631779827 0 -0.35033094564751172 0.1144650486959975 0 -0.35736669800732768 0.1007573807808851 0 -0.3371349092457091 0.094718539631779827 0 -0.35033094564751172 0.1144650486959975 0 -0.3371349092457091 0.094718539631779827 0 -0.32940484337466308 0.11495000695210859 0 -0.34390292927608579 0.12954003217038881 0 -0.35033094564751172 0.1144650486959975 0 -0.32940484337466308 0.11495000695210859 0 -0.34390292927608579 0.12954003217038881 0 -0.32049618096358218 0.12816357351437699 0 -0.32940484337466308 0.11495000695210859 0 -0.34390292927608579 0.12954003217038881 0 -0.32940484337466308 0.11495000695210859 0 -0.32049618096358218 0.12816357351437699 0 -0.30748343261869621 0.1181976319119023 0 -0.32940484337466308 0.11495000695210859 0 -0.30748343261869621 0.1181976319119023 0 -0.32940484337466308 0.11495000695210859 0 -0.31490675747324048 0.1003599817338283 0 -0.3371349092457091 0.094718539631779827 0 -0.32940484337466308 0.11495000695210859 0 -0.31490675747324048 0.1003599817338283 0 -0.32940484337466308 0.11495000695210859 0 -0.31490675747324048 0.1003599817338283 0 -0.30040867157181789 0.085769956515548029 0 -0.31490675747324048 0.1003599817338283 0 -0.32299401308729048 0.083835709146936221 0 -0.3371349092457091 0.094718539631779827 0 -0.31490675747324048 0.1003599817338283 0 -0.32299401308729048 0.083835709146936221 0 -0.30040867157181789 0.085769956515548029 0 -0.32299401308729048 0.083835709146936221 0 -0.31854241221347329 0.066906066923563615 0 -0.3439773149322114 0.071424000929961304 0 -0.32299401308729048 0.083835709146936221 0 -0.31854241221347329 0.066906066923563615 0 -0.3439773149322114 0.071424000929961304 0 -0.3371349092457091 0.094718539631779827 0 -0.32299401308729048 0.083835709146936221 0 -0.37959735337450767 0.5 0 -0.38276806934716878 0.46153368816580592 0 -0.40724021053452641 0.47918575632572458 0 -0.37959735337450767 0.5 0 -0.43123639693697841 0.5 0 -0.40724021053452641 0.47918575632572458 0 -0.38276806934716878 0.46153368816580592 0 -0.38397359351389038 0.43411062268176881 0 -0.36412357645677779 0.43868931766580321 0 -0.38276806934716878 0.46153368816580592 0 -0.40174559527245601 0.44406770952572261 0 -0.38397359351389038 0.43411062268176881 0 -0.38276806934716878 0.46153368816580592 0 -0.41050480994979821 0.45971667984506381 0 -0.40724021053452641 0.47918575632572458 0 -0.38276806934716878 0.46153368816580592 0 -0.40174559527245601 0.44406770952572261 0 -0.41050480994979821 0.45971667984506381 0 -0.41050480994979821 0.45971667984506381 0 -0.43227579148106399 0.46670066156981049 0 -0.40724021053452641 0.47918575632572458 0 -0.40174559527245601 0.44406770952572261 0 -0.42377205126578882 0.44457873096456169 0 -0.41154985084633761 0.42618980137418438 0 -0.40174559527245601 0.44406770952572261 0 -0.41050480994979821 0.45971667984506381 0 -0.42377205126578882 0.44457873096456169 0 -0.42377205126578882 0.44457873096456169 0 -0.43227579148106399 0.46670066156981049 0 -0.44800523146932902 0.44679806697899138 0 -0.41050480994979821 0.45971667984506381 0 -0.42377205126578882 0.44457873096456169 0 -0.43227579148106399 0.46670066156981049 0 -0.43227579148106399 0.46670066156981049 0 -0.43123639693697841 0.5 0 -0.40724021053452641 0.47918575632572458 0 -0.43123639693697841 0.5 0 -0.45734729465703189 0.47312750026167288 0 -0.5 0.5 0 -0.43227579148106399 0.46670066156981049 0 -0.43123639693697841 0.5 0 -0.45734729465703189 0.47312750026167288 0 -0.45734729465703189 0.47312750026167288 0 -0.5 0.5 0 -0.47521905339778792 0.45213877275956271 0 -0.5 0.5 0 -0.5 0.43901540488735591 0 -0.47521905339778792 0.45213877275956271 0 -0.5 0.43901540488735591 0 -0.47521905339778792 0.45213877275956271 0 -0.48368356726024808 0.42390870031241729 0 -0.47521905339778792 0.45213877275956271 0 -0.44800523146932902 0.44679806697899138 0 -0.46373467145759389 0.42689547238817233 0 -0.45734729465703189 0.47312750026167288 0 -0.47521905339778792 0.45213877275956271 0 -0.44800523146932902 0.44679806697899138 0 -0.43227579148106399 0.46670066156981049 0 -0.45734729465703189 0.47312750026167288 0 -0.44800523146932902 0.44679806697899138 0 -0.43227579148106399 0.46670066156981049 0 -0.44800523146932902 0.44679806697899138 0 -0.44800523146932902 0.44679806697899138 0 -0.44951601411872638 0.41475517384659638 0 -0.43184688500335983 0.42086736997427848 0 -0.44800523146932902 0.44679806697899138 0 -0.44951601411872638 0.41475517384659638 0 -0.46373467145759389 0.42689547238817233 0 -0.44951601411872638 0.41475517384659638 0 -0.46373467145759389 0.42689547238817233 0 -0.46423654900512479 0.39861815715378079 0 -0.44800523146932902 0.44679806697899138 0 -0.46373467145759389 0.42689547238817233 0 -0.47521905339778792 0.45213877275956271 0 -0.46373467145759389 0.42689547238817233 0 -0.48368356726024808 0.42390870031241729 0 -0.5 0.43901540488735591 0 -0.48368356726024808 0.42390870031241729 0 -0.5 0.3945009737296421 0 -0.46373467145759389 0.42689547238817233 0 -0.48368356726024808 0.42390870031241729 0 -0.47946411144585882 0.40699287779735321 0 -0.46373467145759389 0.42689547238817233 0 -0.47946411144585882 0.40699287779735321 0 -0.46423654900512479 0.39861815715378079 0 -0.46373467145759389 0.42689547238817233 0 -0.47946411144585882 0.40699287779735321 0 -0.48368356726024808 0.42390870031241729 0 -0.47946411144585882 0.40699287779735321 0 -0.5 0.3945009737296421 0 -0.5 0.3945009737296421 0 -0.49029345206748193 0.37464485267024339 0 -0.49999999999999872 0.36200891636195071 0 -0.5 0.3945009737296421 0 -0.48112406480065861 0.39160283532467349 0 -0.49029345206748193 0.37464485267024339 0 -0.48112406480065861 0.39160283532467349 0 -0.49029345206748193 0.37464485267024339 0 -0.47946411144585882 0.40699287779735321 0 -0.5 0.3945009737296421 0 -0.48112406480065861 0.39160283532467349 0 -0.47946411144585882 0.40699287779735321 0 -0.48112406480065861 0.39160283532467349 0 -0.46423654900512479 0.39861815715378079 0 -0.48112406480065861 0.39160283532467349 0 -0.47259774387020231 0.3752111091830107 0 -0.49029345206748193 0.37464485267024339 0 -0.48112406480065861 0.39160283532467349 0 -0.47259774387020231 0.3752111091830107 0 -0.46423654900512479 0.39861815715378079 0 -0.47259774387020231 0.3752111091830107 0 -0.45568428744819139 0.3823725861625587 0 -0.46423654900512479 0.39861815715378079 0 -0.44951601411872638 0.41475517384659638 0 -0.46423654900512479 0.39861815715378079 0 -0.44709420611591588 0.39384589356086741 0 -0.45568428744819139 0.3823725861625587 0 -0.46423654900512479 0.39861815715378079 0 -0.44709420611591588 0.39384589356086741 0 -0.44951601411872638 0.41475517384659638 0 -0.44709420611591588 0.39384589356086741 0 -0.42358411836446258 0.3949334427104188 0 -0.45568428744819139 0.3823725861625587 0 -0.44709420611591588 0.39384589356086741 0 -0.43876757926396281 0.38060155510908372 0 -0.45568428744819139 0.3823725861625587 0 -0.43876757926396281 0.38060155510908372 0 -0.45484387142829658 0.3662839121795825 0 -0.42358411836446258 0.3949334427104188 0 -0.40617272421017869 0.40190740071228198 0 -0.41532135172556539 0.36899951544655912 0 -0.44709420611591588 0.39384589356086741 0 -0.43876757926396281 0.38060155510908372 0 -0.42358411836446258 0.3949334427104188 0 -0.43876757926396281 0.38060155510908372 0 -0.42358411836446258 0.3949334427104188 0 -0.41532135172556539 0.36899951544655912 0 -0.42358411836446258 0.3949334427104188 0 -0.41532135172556539 0.36899951544655912 0 -0.42358411836446258 0.3949334427104188 0 -0.43184688500335983 0.42086736997427848 0 -0.40617272421017869 0.40190740071228198 0 -0.42358411836446258 0.3949334427104188 0 -0.43184688500335983 0.42086736997427848 0 -0.44951601411872638 0.41475517384659638 0 -0.42358411836446258 0.3949334427104188 0 -0.43184688500335983 0.42086736997427848 0 -0.42377205126578882 0.44457873096456169 0 -0.44800523146932902 0.44679806697899138 0 -0.43184688500335983 0.42086736997427848 0 -0.42377205126578882 0.44457873096456169 0 -0.43184688500335983 0.42086736997427848 0 -0.41154985084633761 0.42618980137418438 0 -0.43184688500335983 0.42086736997427848 0 -0.41154985084633761 0.42618980137418438 0 -0.40617272421017869 0.40190740071228198 0 -0.39421199847990418 0.41952779569407739 0 -0.38362755910841878 0.40384704684692058 0 -0.40617272421017869 0.40190740071228198 0 -0.41154985084633761 0.42618980137418438 0 -0.39421199847990418 0.41952779569407739 0 -0.40617272421017869 0.40190740071228198 0 -0.40174559527245601 0.44406770952572261 0 -0.39421199847990418 0.41952779569407739 0 -0.38397359351389038 0.43411062268176881 0 -0.40174559527245601 0.44406770952572261 0 -0.41154985084633761 0.42618980137418438 0 -0.39421199847990418 0.41952779569407739 0 -0.39421199847990418 0.41952779569407739 0 -0.38397359351389038 0.43411062268176881 0 -0.36898122790746513 0.41571523418476303 0 -0.39421199847990418 0.41952779569407739 0 -0.38362755910841878 0.40384704684692058 0 -0.36898122790746513 0.41571523418476303 0 -0.39180589330885501 0.38543785004486991 0 -0.40617272421017869 0.40190740071228198 0 -0.41532135172556539 0.36899951544655912 0 -0.38362755910841878 0.40384704684692058 0 -0.39180589330885501 0.38543785004486991 0 -0.36878341396795788 0.39350628446381192 0 -0.39180589330885501 0.38543785004486991 0 -0.38118999439220619 0.37184547950681529 0 -0.36878341396795788 0.39350628446381192 0 -0.38362755910841878 0.40384704684692058 0 -0.39180589330885501 0.38543785004486991 0 -0.40617272421017869 0.40190740071228198 0 -0.39686641188316513 0.36259970635027938 0 -0.3830518353719794 0.35065100397891991 0 -0.40705858508666831 0.34306558818269928 0 -0.39180589330885501 0.38543785004486991 0 -0.39686641188316513 0.36259970635027938 0 -0.41532135172556539 0.36899951544655912 0 -0.38118999439220619 0.37184547950681529 0 -0.3830518353719794 0.35065100397891991 0 -0.36282638403622869 0.37009127391181462 0 -0.39686641188316513 0.36259970635027938 0 -0.38118999439220619 0.37184547950681529 0 -0.3830518353719794 0.35065100397891991 0 -0.39180589330885501 0.38543785004486991 0 -0.39686641188316513 0.36259970635027938 0 -0.38118999439220619 0.37184547950681529 0 -0.3830518353719794 0.35065100397891991 0 -0.3844714710471332 0.33601955942230921 0 -0.36906372881045341 0.34482130486537949 0 -0.3830518353719794 0.35065100397891991 0 -0.3844714710471332 0.33601955942230921 0 -0.40327728670773022 0.33121073404602508 0 -0.37595386092880478 0.33103355527835521 0 -0.3844714710471332 0.33601955942230921 0 -0.36906372881045341 0.34482130486537949 0 -0.37595386092880478 0.33103355527835521 0 -0.3844714710471332 0.33601955942230921 0 -0.38177257162602751 0.32441397859217758 0 -0.3844714710471332 0.33601955942230921 0 -0.38177257162602751 0.32441397859217758 0 -0.39106975716123588 0.32768196360681462 0 -0.37595386092880478 0.33103355527835521 0 -0.38177257162602751 0.32441397859217758 0 -0.38177257162602751 0.32441397859217758 0 -0.39106975716123588 0.32768196360681462 0 -0.38177257162602751 0.32441397859217758 0 -0.40018303695768548 0.30346956436836692 0 -0.38177257162602751 0.32441397859217758 0 -0.39990270917774029 0.31986889379012001 0 -0.40018303695768548 0.30346956436836692 0 -0.38177257162602751 0.32441397859217758 0 -0.39106975716123588 0.32768196360681462 0 -0.39990270917774029 0.31986889379012001 0 -0.39106975716123588 0.32768196360681462 0 -0.39990270917774029 0.31986889379012001 0 -0.40327728670773022 0.33121073404602508 0 -0.39990270917774029 0.31986889379012001 0 -0.40327728670773022 0.33121073404602508 0 -0.41162061498281771 0.32132331542131448 0 -0.3830518353719794 0.35065100397891991 0 -0.40327728670773022 0.33121073404602508 0 -0.40705858508666831 0.34306558818269928 0 -0.3844714710471332 0.33601955942230921 0 -0.39106975716123588 0.32768196360681462 0 -0.40327728670773022 0.33121073404602508 0 -0.3830518353719794 0.35065100397891991 0 -0.40327728670773022 0.33121073404602508 0 -0.42085731765960482 0.33213377783467252 0 -0.40705858508666831 0.34306558818269928 0 -0.42268586681311721 0.35067869651608119 0 -0.40327728670773022 0.33121073404602508 0 -0.42085731765960482 0.33213377783467252 0 -0.40705858508666831 0.34306558818269928 0 -0.40327728670773022 0.33121073404602508 0 -0.42085731765960482 0.33213377783467252 0 -0.41162061498281771 0.32132331542131448 0 -0.42085731765960482 0.33213377783467252 0 -0.41162061498281771 0.32132331542131448 0 -0.42351150043159591 0.31326706022527578 0 -0.39990270917774029 0.31986889379012001 0 -0.41162061498281771 0.32132331542131448 0 -0.41055426093741743 0.31013611121047913 0 -0.41162061498281771 0.32132331542131448 0 -0.42351150043159591 0.31326706022527578 0 -0.41055426093741743 0.31013611121047913 0 -0.42085731765960482 0.33213377783467252 0 -0.43453840176250053 0.32577657496718032 0 -0.42351150043159591 0.31326706022527578 0 -0.43453840176250053 0.32577657496718032 0 -0.42351150043159591 0.31326706022527578 0 -0.44297954537134659 0.30898065862297819 0 -0.42085731765960482 0.33213377783467252 0 -0.43453840176250053 0.32577657496718032 0 -0.43428571581769732 0.34587584454891462 0 -0.42085731765960482 0.33213377783467252 0 -0.42268586681311721 0.35067869651608119 0 -0.43428571581769732 0.34587584454891462 0 -0.42268586681311721 0.35067869651608119 0 -0.43428571581769732 0.34587584454891462 0 -0.43610005070779451 0.36232591397842778 0 -0.40705858508666831 0.34306558818269928 0 -0.41532135172556539 0.36899951544655912 0 -0.40705858508666831 0.34306558818269928 0 -0.42268586681311721 0.35067869651608119 0 -0.41532135172556539 0.36899951544655912 0 -0.39686641188316513 0.36259970635027938 0 -0.40705858508666831 0.34306558818269928 0 -0.41532135172556539 0.36899951544655912 0 -0.42268586681311721 0.35067869651608119 0 -0.41532135172556539 0.36899951544655912 0 -0.43610005070779451 0.36232591397842778 0 -0.43876757926396281 0.38060155510908372 0 -0.41532135172556539 0.36899951544655912 0 -0.43610005070779451 0.36232591397842778 0 -0.43876757926396281 0.38060155510908372 0 -0.43610005070779451 0.36232591397842778 0 -0.45484387142829658 0.3662839121795825 0 -0.43610005070779451 0.36232591397842778 0 -0.45399820390960111 0.34458839106266642 0 -0.45484387142829658 0.3662839121795825 0 -0.43428571581769732 0.34587584454891462 0 -0.43610005070779451 0.36232591397842778 0 -0.45399820390960111 0.34458839106266642 0 -0.45399820390960111 0.34458839106266642 0 -0.45484387142829658 0.3662839121795825 0 -0.47137234358748392 0.35312938891814549 0 -0.47259774387020231 0.3752111091830107 0 -0.45484387142829658 0.3662839121795825 0 -0.47137234358748392 0.35312938891814549 0 -0.47259774387020231 0.3752111091830107 0 -0.45568428744819139 0.3823725861625587 0 -0.45484387142829658 0.3662839121795825 0 -0.47259774387020231 0.3752111091830107 0 -0.49029345206748193 0.37464485267024339 0 -0.48533606168354898 0.36158488681963502 0 -0.47259774387020231 0.3752111091830107 0 -0.47137234358748392 0.35312938891814549 0 -0.48533606168354898 0.36158488681963502 0 -0.47137234358748392 0.35312938891814549 0 -0.48522067503898769 0.34584777060428751 0 -0.48533606168354898 0.36158488681963502 0 -0.48522067503898769 0.34584777060428751 0 -0.49946283933430252 0.35768687001581168 0 -0.48533606168354898 0.36158488681963502 0 -0.48522067503898769 0.34584777060428751 0 -0.49946283933430252 0.35768687001581168 0 -0.49585271174284212 0.32863943642254922 0 -0.49946283933430252 0.35768687001581168 0 -0.49999999999999872 0.36200891636195071 0 -0.49946283933430252 0.35768687001581168 0 -0.49029345206748193 0.37464485267024339 0 -0.49999999999999872 0.36200891636195071 0 -0.49946283933430252 0.35768687001581168 0 -0.49029345206748193 0.37464485267024339 0 -0.48533606168354898 0.36158488681963502 0 -0.49946283933430252 0.35768687001581168 0 -0.49029345206748193 0.37464485267024339 0 -0.49585271174284212 0.32863943642254922 0 -0.49224258415138422 0.29959200282928661 0 -0.49585271174284212 0.32863943642254922 0 -0.47246832415524459 0.32790567861473852 0 -0.49224258415138422 0.29959200282928661 0 -0.49585271174284212 0.32863943642254922 0 -0.5 0.32954125981008658 0 -0.5 0.30238908144297799 0 -0.49946283933430252 0.35768687001581168 0 -0.49585271174284212 0.32863943642254922 0 -0.48522067503898769 0.34584777060428751 0 -0.49585271174284212 0.32863943642254922 0 -0.47246832415524459 0.32790567861473852 0 -0.49946283933430252 0.35768687001581168 0 -0.49585271174284212 0.32863943642254922 0 -0.5 0.32954125981008658 0 -0.47137234358748392 0.35312938891814549 0 -0.48522067503898769 0.34584777060428751 0 -0.47246832415524459 0.32790567861473852 0 -0.45216960649822718 0.32487178861835081 0 -0.44297954537134659 0.30898065862297819 0 -0.46758805889506722 0.3054273716574043 0 -0.47246832415524459 0.32790567861473852 0 -0.45216960649822718 0.32487178861835081 0 -0.46758805889506722 0.3054273716574043 0 -0.45399820390960111 0.34458839106266642 0 -0.47137234358748392 0.35312938891814549 0 -0.47246832415524459 0.32790567861473852 0 -0.45399820390960111 0.34458839106266642 0 -0.47246832415524459 0.32790567861473852 0 -0.45216960649822718 0.32487178861835081 0 -0.43453840176250053 0.32577657496718032 0 -0.43428571581769732 0.34587584454891462 0 -0.44396307819949021 0.33570378046380073 0 -0.45399820390960111 0.34458839106266642 0 -0.44396307819949021 0.33570378046380073 0 -0.45216960649822718 0.32487178861835081 0 -0.43453840176250053 0.32577657496718032 0 -0.44396307819949021 0.33570378046380073 0 -0.45216960649822718 0.32487178861835081 0 -0.43428571581769732 0.34587584454891462 0 -0.45399820390960111 0.34458839106266642 0 -0.44396307819949021 0.33570378046380073 0 -0.43453840176250053 0.32577657496718032 0 -0.45216960649822718 0.32487178861835081 0 -0.44297954537134659 0.30898065862297819 0 -0.44297954537134659 0.30898065862297819 0 -0.45018648863098881 0.29221883276486649 0 -0.43195127811188949 0.29581046129174082 0 -0.45018648863098881 0.29221883276486649 0 -0.43957533175176738 0.28040177655313331 0 -0.43195127811188949 0.29581046129174082 0 -0.45018648863098881 0.29221883276486649 0 -0.45993430728210782 0.27388560096371789 0 -0.43957533175176738 0.28040177655313331 0 -0.45018648863098881 0.29221883276486649 0 -0.46758805889506722 0.3054273716574043 0 -0.47509790272869512 0.28748269308832991 0 -0.45018648863098881 0.29221883276486649 0 -0.47509790272869512 0.28748269308832991 0 -0.45993430728210782 0.27388560096371789 0 -0.44297954537134659 0.30898065862297819 0 -0.45018648863098881 0.29221883276486649 0 -0.46758805889506722 0.3054273716574043 0 -0.46758805889506722 0.3054273716574043 0 -0.47509790272869512 0.28748269308832991 0 -0.49224258415138422 0.29959200282928661 0 -0.47246832415524459 0.32790567861473852 0 -0.46758805889506722 0.3054273716574043 0 -0.49224258415138422 0.29959200282928661 0 -0.49224258415138422 0.29959200282928661 0 -0.48863245655992638 0.27054456923602399 0 -0.5 0.27523690307586962 0 -0.5 0.30238908144297799 0 -0.49224258415138422 0.29959200282928661 0 -0.5 0.27523690307586962 0 -0.49224258415138422 0.29959200282928661 0 -0.48863245655992638 0.27054456923602399 0 -0.47509790272869512 0.28748269308832991 0 -0.49224258415138422 0.29959200282928661 0 -0.48863245655992638 0.27054456923602399 0 -0.49585271174284212 0.32863943642254922 0 -0.5 0.30238908144297799 0 -0.49224258415138422 0.29959200282928661 0 -0.48502232896846842 0.24149713564276129 0 -0.48863245655992638 0.27054456923602399 0 -0.48502232896846842 0.24149713564276129 0 -0.5 0.24808472470876111 0 -0.48863245655992638 0.27054456923602399 0 -0.5 0.24808472470876111 0 -0.48863245655992638 0.27054456923602399 0 -0.5 0.27523690307586962 0 -0.47509790272869512 0.28748269308832991 0 -0.48863245655992638 0.27054456923602399 0 -0.45993430728210782 0.27388560096371789 0 -0.48863245655992638 0.27054456923602399 0 -0.46678780072522441 0.25471668605321779 0 -0.45993430728210782 0.27388560096371789 0 -0.48502232896846842 0.24149713564276129 0 -0.48863245655992638 0.27054456923602399 0 -0.46678780072522441 0.25471668605321779 0 -0.46678780072522441 0.25471668605321779 0 -0.45993430728210782 0.27388560096371789 0 -0.4370039676210023 0.26158073592074671 0 -0.45993430728210782 0.27388560096371789 0 -0.43957533175176738 0.28040177655313331 0 -0.4370039676210023 0.26158073592074671 0 -0.4370039676210023 0.26158073592074671 0 -0.41143175113919789 0.25469546670537918 0 -0.41476084259200569 0.26826611057010552 0 -0.41599763215882501 0.23850018830057351 0 -0.4370039676210023 0.26158073592074671 0 -0.41143175113919789 0.25469546670537918 0 -0.41143175113919789 0.25469546670537918 0 -0.41476084259200569 0.26826611057010552 0 -0.4027390796940834 0.26280144598241889 0 -0.41476084259200569 0.26826611057010552 0 -0.41859350228934389 0.28252515014455681 0 -0.40379510496342452 0.27815358184452521 0 -0.41476084259200569 0.26826611057010552 0 -0.4027390796940834 0.26280144598241889 0 -0.40379510496342452 0.27815358184452521 0 -0.4370039676210023 0.26158073592074671 0 -0.41859350228934389 0.28252515014455681 0 -0.43957533175176738 0.28040177655313331 0 -0.4370039676210023 0.26158073592074671 0 -0.41859350228934389 0.28252515014455681 0 -0.4370039676210023 0.26158073592074671 0 -0.41476084259200569 0.26826611057010552 0 -0.41859350228934389 0.28252515014455681 0 -0.43957533175176738 0.28040177655313331 0 -0.43195127811188949 0.29581046129174082 0 -0.41859350228934389 0.28252515014455681 0 -0.43195127811188949 0.29581046129174082 0 -0.41675774278454281 0.29947523859961539 0 -0.41859350228934389 0.28252515014455681 0 -0.42351150043159591 0.31326706022527578 0 -0.44297954537134659 0.30898065862297819 0 -0.43195127811188949 0.29581046129174082 0 -0.42351150043159591 0.31326706022527578 0 -0.43195127811188949 0.29581046129174082 0 -0.41675774278454281 0.29947523859961539 0 -0.41675774278454281 0.29947523859961539 0 -0.41055426093741743 0.31013611121047913 0 -0.40018303695768548 0.30346956436836692 0 -0.42351150043159591 0.31326706022527578 0 -0.41675774278454281 0.29947523859961539 0 -0.41055426093741743 0.31013611121047913 0 -0.41675774278454281 0.29947523859961539 0 -0.41859350228934389 0.28252515014455681 0 -0.40018303695768548 0.30346956436836692 0 -0.41859350228934389 0.28252515014455681 0 -0.39671568751255187 0.29180090712248002 0 -0.40379510496342452 0.27815358184452521 0 -0.41859350228934389 0.28252515014455681 0 -0.40018303695768548 0.30346956436836692 0 -0.41859350228934389 0.28252515014455681 0 -0.39671568751255187 0.29180090712248002 0 -0.40018303695768548 0.30346956436836692 0 -0.39671568751255187 0.29180090712248002 0 -0.38499877228266027 0.27708017793754702 0 -0.40379510496342452 0.27815358184452521 0 -0.39990270917774029 0.31986889379012001 0 -0.41055426093741743 0.31013611121047913 0 -0.40018303695768548 0.30346956436836692 0 -0.39671568751255187 0.29180090712248002 0 -0.40018303695768548 0.30346956436836692 0 -0.38843794465053189 0.30079707218221252 0 -0.38177257162602751 0.32441397859217758 0 -0.3781910883755481 0.30387946849855357 0 -0.36601128096482799 0.3041056448471281 0 -0.38177257162602751 0.32441397859217758 0 -0.3781910883755481 0.30387946849855357 0 -0.38843794465053189 0.30079707218221252 0 -0.3781910883755481 0.30387946849855357 0 -0.38843794465053189 0.30079707218221252 0 -0.37193771260796632 0.28603026850306079 0 -0.38177257162602751 0.32441397859217758 0 -0.40018303695768548 0.30346956436836692 0 -0.38843794465053189 0.30079707218221252 0 -0.39671568751255187 0.29180090712248002 0 -0.38499877228266027 0.27708017793754702 0 -0.37193771260796632 0.28603026850306079 0 -0.39671568751255187 0.29180090712248002 0 -0.37193771260796632 0.28603026850306079 0 -0.39671568751255187 0.29180090712248002 0 -0.38843794465053189 0.30079707218221252 0 -0.37193771260796632 0.28603026850306079 0 -0.38499877228266027 0.27708017793754702 0 -0.38722816796831377 0.26262780220205711 0 -0.36531718836104482 0.26678833001561197 0 -0.37066123097320319 0.24710202255958891 0 -0.38722816796831377 0.26262780220205711 0 -0.38637187428134301 0.23999850327656039 0 -0.3987146468586657 0.24919431997693781 0 -0.38722816796831377 0.26262780220205711 0 -0.3987146468586657 0.24919431997693781 0 -0.38722816796831377 0.26262780220205711 0 -0.4027390796940834 0.26280144598241889 0 -0.3987146468586657 0.24919431997693781 0 -0.41143175113919789 0.25469546670537918 0 -0.4027390796940834 0.26280144598241889 0 -0.38722816796831377 0.26262780220205711 0 -0.40379510496342452 0.27815358184452521 0 -0.38722816796831377 0.26262780220205711 0 -0.4027390796940834 0.26280144598241889 0 -0.40379510496342452 0.27815358184452521 0 -0.38499877228266027 0.27708017793754702 0 -0.38722816796831377 0.26262780220205711 0 -0.40379510496342452 0.27815358184452521 0 -0.34715973770338071 0.28025962988364161 0 -0.36531718836104482 0.26678833001561197 0 -0.34354743701155838 0.26477368815180968 0 -0.34882086549482672 0.24817496553446461 0 -0.34354743701155838 0.26477368815180968 0 -0.34882086549482672 0.24817496553446461 0 -0.36531718836104482 0.26678833001561197 0 -0.34354743701155838 0.26477368815180968 0 -0.37066123097320319 0.24710202255958891 0 -0.38722816796831377 0.26262780220205711 0 -0.36531718836104482 0.26678833001561197 0 -0.34882086549482672 0.24817496553446461 0 -0.37066123097320319 0.24710202255958891 0 -0.36531718836104482 0.26678833001561197 0 -0.38499877228266027 0.27708017793754702 0 -0.36531718836104482 0.26678833001561197 0 -0.37193771260796632 0.28603026850306079 0 -0.34715973770338071 0.28025962988364161 0 -0.36531718836104482 0.26678833001561197 0 -0.37193771260796632 0.28603026850306079 0 -0.37193771260796632 0.28603026850306079 0 -0.36601128096482799 0.3041056448471281 0 -0.35230702822233162 0.29779145174146032 0 -0.34715973770338071 0.28025962988364161 0 -0.37193771260796632 0.28603026850306079 0 -0.3781910883755481 0.30387946849855357 0 -0.37193771260796632 0.28603026850306079 0 -0.36601128096482799 0.3041056448471281 0 -0.35230702822233162 0.29779145174146032 0 -0.33690961011846521 0.30864453036897938 0 -0.3593410908722463 0.31652925448057861 0 -0.36601128096482799 0.3041056448471281 0 -0.35230702822233162 0.29779145174146032 0 -0.3593410908722463 0.31652925448057861 0 -0.34715973770338071 0.28025962988364161 0 -0.37193771260796632 0.28603026850306079 0 -0.35230702822233162 0.29779145174146032 0 -0.34715973770338071 0.28025962988364161 0 -0.35230702822233162 0.29779145174146032 0 -0.33248273706710357 0.29117938236537372 0 -0.34715973770338071 0.28025962988364161 0 -0.33248273706710357 0.29117938236537372 0 -0.32238176279879521 0.27448899126422233 0 -0.35230702822233162 0.29779145174146032 0 -0.33248273706710357 0.29117938236537372 0 -0.33690961011846521 0.30864453036897938 0 -0.33248273706710357 0.29117938236537372 0 -0.33690961011846521 0.30864453036897938 0 -0.314478129364684 0.30075980625738019 0 -0.33690961011846521 0.30864453036897938 0 -0.314478129364684 0.30075980625738019 0 -0.32437596037801242 0.3193351714180323 0 -0.33690961011846521 0.30864453036897938 0 -0.314478129364684 0.30075980625738019 0 -0.314478129364684 0.30075980625738019 0 -0.32238176279879521 0.27448899126422233 0 -0.30735619950935422 0.28369459671173858 0 -0.33248273706710357 0.29117938236537372 0 -0.314478129364684 0.30075980625738019 0 -0.32238176279879521 0.27448899126422233 0 -0.314478129364684 0.30075980625738019 0 -0.32238176279879521 0.27448899126422233 0 -0.32496602863711738 0.26589917364455051 0 -0.32238176279879521 0.27448899126422233 0 -0.33443155302271171 0.26822265690379288 0 -0.32496602863711738 0.26589917364455051 0 -0.32238176279879521 0.27448899126422233 0 -0.32496602863711738 0.26589917364455051 0 -0.32238176279879521 0.27448899126422233 0 -0.31365609155137858 0.2632584360813891 0 -0.34715973770338071 0.28025962988364161 0 -0.32238176279879521 0.27448899126422233 0 -0.33443155302271171 0.26822265690379288 0 -0.34715973770338071 0.28025962988364161 0 -0.32238176279879521 0.27448899126422233 0 -0.34715973770338071 0.28025962988364161 0 -0.33443155302271171 0.26822265690379288 0 -0.34354743701155838 0.26477368815180968 0 -0.34882086549482672 0.24817496553446461 0 -0.32990157161644001 0.24762677339223521 0 -0.3342345911032007 0.25852603464166712 0 -0.34882086549482672 0.24817496553446461 0 -0.34354743701155838 0.26477368815180968 0 -0.3342345911032007 0.25852603464166712 0 -0.33443155302271171 0.26822265690379288 0 -0.34354743701155838 0.26477368815180968 0 -0.3342345911032007 0.25852603464166712 0 -0.32496602863711738 0.26589917364455051 0 -0.33443155302271171 0.26822265690379288 0 -0.3342345911032007 0.25852603464166712 0 -0.32990157161644001 0.24762677339223521 0 -0.3342345911032007 0.25852603464166712 0 -0.3242014039187317 0.25710641452847732 0 -0.32990157161644001 0.24762677339223521 0 -0.3242014039187317 0.25710641452847732 0 -0.31728827442131202 0.251362639668403 0 -0.32496602863711738 0.26589917364455051 0 -0.3242014039187317 0.25710641452847732 0 -0.31365609155137858 0.2632584360813891 0 -0.32496602863711738 0.26589917364455051 0 -0.3342345911032007 0.25852603464166712 0 -0.3242014039187317 0.25710641452847732 0 -0.3242014039187317 0.25710641452847732 0 -0.31365609155137858 0.2632584360813891 0 -0.31728827442131202 0.251362639668403 0 -0.30220712239074649 0.24647352029368899 0 -0.31365609155137858 0.2632584360813891 0 -0.31728827442131202 0.251362639668403 0 -0.30220712239074649 0.24647352029368899 0 -0.31365609155137858 0.2632584360813891 0 -0.29957079032797101 0.26917645546605717 0 -0.30220712239074649 0.24647352029368899 0 -0.29957079032797101 0.26917645546605717 0 -0.29017537783879832 0.26313640060309362 0 -0.32238176279879521 0.27448899126422233 0 -0.29957079032797101 0.26917645546605717 0 -0.32238176279879521 0.27448899126422233 0 -0.31365609155137858 0.2632584360813891 0 -0.29957079032797101 0.26917645546605717 0 -0.32238176279879521 0.27448899126422233 0 -0.29957079032797101 0.26917645546605717 0 -0.30735619950935422 0.28369459671173858 0 -0.29957079032797101 0.26917645546605717 0 -0.29204385809326761 0.2815403865784295 0 -0.30735619950935422 0.28369459671173858 0 -0.29957079032797101 0.26917645546605717 0 -0.28789708973888239 0.27190881376022541 0 -0.29204385809326761 0.2815403865784295 0 -0.29957079032797101 0.26917645546605717 0 -0.28789708973888239 0.27190881376022541 0 -0.29017537783879832 0.26313640060309362 0 -0.28789708973888239 0.27190881376022541 0 -0.29017537783879832 0.26313640060309362 0 -0.28160784128425148 0.26457056161919768 0 -0.28789708973888239 0.27190881376022541 0 -0.28160784128425148 0.26457056161919768 0 -0.27699982896060349 0.27205976517931613 0 -0.28789708973888239 0.27190881376022541 0 -0.28173222120321118 0.2789196022089529 0 -0.27699982896060349 0.27205976517931613 0 -0.28789708973888239 0.27190881376022541 0 -0.28173222120321118 0.2789196022089529 0 -0.29204385809326761 0.2815403865784295 0 -0.30220712239074649 0.24647352029368899 0 -0.28643348722299589 0.25009171211611092 0 -0.27959404545214039 0.26355265187629839 0 -0.30220712239074649 0.24647352029368899 0 -0.29017537783879832 0.26313640060309362 0 -0.27959404545214039 0.26355265187629839 0 -0.30220712239074649 0.24647352029368899 0 -0.27959404545214039 0.26355265187629839 0 -0.29017537783879832 0.26313640060309362 0 -0.28160784128425148 0.26457056161919768 0 -0.27959404545214039 0.26355265187629839 0 -0.28643348722299589 0.25009171211611092 0 -0.27949407817042021 0.25183745425449933 0 -0.27959404545214039 0.26355265187629839 0 -0.27949407817042021 0.25183745425449933 0 -0.27291010922748149 0.25159775084787978 0 -0.27959404545214039 0.26355265187629839 0 -0.27291010922748149 0.25159775084787978 0 -0.27959404545214039 0.26355265187629839 0 -0.25932040504340997 0.25330497146748832 0 -0.27959404545214039 0.26355265187629839 0 -0.25932040504340997 0.25330497146748832 0 -0.26019350040700429 0.26374362132216878 0 -0.27959404545214039 0.26355265187629839 0 -0.25932040504340997 0.25330497146748832 0 -0.28160784128425148 0.26457056161919768 0 -0.27959404545214039 0.26355265187629839 0 -0.27959404545214039 0.26355265187629839 0 -0.25764408732584659 0.28013094522794912 0 -0.27959404545214039 0.26355265187629839 0 -0.25764408732584659 0.28013094522794912 0 -0.26019350040700429 0.26374362132216878 0 -0.27699982896060349 0.27205976517931613 0 -0.25764408732584659 0.28013094522794912 0 -0.27264006794404338 0.28189453302816431 0 -0.28160784128425148 0.26457056161919768 0 -0.27959404545214039 0.26355265187629839 0 -0.27699982896060349 0.27205976517931613 0 -0.27959404545214039 0.26355265187629839 0 -0.27699982896060349 0.27205976517931613 0 -0.25764408732584659 0.28013094522794912 0 -0.28173222120321118 0.2789196022089529 0 -0.27699982896060349 0.27205976517931613 0 -0.27264006794404338 0.28189453302816431 0 -0.25764408732584659 0.28013094522794912 0 -0.26019350040700429 0.26374362132216878 0 -0.242663231965797 0.27552459943965513 0 -0.25932040504340997 0.25330497146748832 0 -0.26019350040700429 0.26374362132216878 0 -0.24800314716261071 0.25472600388125571 0 -0.26280658819517733 0.31045790801634893 0 -0.2553874965106574 0.29824971761982882 0 -0.24913355635218751 0.3161515071801887 0 -0.26280658819517733 0.31045790801634893 0 -0.2553874965106574 0.29824971761982882 0 -0.26762542888006652 0.30072524907715542 0 -0.25764408732584659 0.28013094522794912 0 -0.2553874965106574 0.29824971761982882 0 -0.26673858634080477 0.29011803151625909 0 -0.2553874965106574 0.29824971761982882 0 -0.26673858634080477 0.29011803151625909 0 -0.26762542888006652 0.30072524907715542 0 -0.26673858634080477 0.29011803151625909 0 -0.28051008451234921 0.29257717894301338 0 -0.26762542888006652 0.30072524907715542 0 -0.26673858634080477 0.29011803151625909 0 -0.27264006794404338 0.28189453302816431 0 -0.28051008451234921 0.29257717894301338 0 -0.25764408732584659 0.28013094522794912 0 -0.26673858634080477 0.29011803151625909 0 -0.27264006794404338 0.28189453302816431 0 -0.28173222120321118 0.2789196022089529 0 -0.27264006794404338 0.28189453302816431 0 -0.28051008451234921 0.29257717894301338 0 -0.28051008451234921 0.29257717894301338 0 -0.26762542888006652 0.30072524907715542 0 -0.27482696522310213 0.31203648507243809 0 -0.26280658819517733 0.31045790801634893 0 -0.26762542888006652 0.30072524907715542 0 -0.27482696522310213 0.31203648507243809 0 -0.28051008451234921 0.29257717894301338 0 -0.28915600033007699 0.31108767130669918 0 -0.29549464310806478 0.29408706122317002 0 -0.28051008451234921 0.29257717894301338 0 -0.27482696522310213 0.31203648507243809 0 -0.28915600033007699 0.31108767130669918 0 -0.28915600033007699 0.31108767130669918 0 -0.29549464310806478 0.29408706122317002 0 -0.3019145187531414 0.30616267881125342 0 -0.28173222120321118 0.2789196022089529 0 -0.28051008451234921 0.29257717894301338 0 -0.29204385809326761 0.2815403865784295 0 -0.28051008451234921 0.29257717894301338 0 -0.29549464310806478 0.29408706122317002 0 -0.29204385809326761 0.2815403865784295 0 -0.314478129364684 0.30075980625738019 0 -0.29549464310806478 0.29408706122317002 0 -0.30735619950935422 0.28369459671173858 0 -0.29549464310806478 0.29408706122317002 0 -0.29204385809326761 0.2815403865784295 0 -0.30735619950935422 0.28369459671173858 0 -0.314478129364684 0.30075980625738019 0 -0.3019145187531414 0.30616267881125342 0 -0.30843738838363471 0.32083857003834448 0 -0.314478129364684 0.30075980625738019 0 -0.30843738838363471 0.32083857003834448 0 -0.314478129364684 0.30075980625738019 0 -0.29549464310806478 0.29408706122317002 0 -0.3019145187531414 0.30616267881125342 0 -0.314478129364684 0.30075980625738019 0 -0.29549464310806478 0.29408706122317002 0 -0.28915600033007699 0.31108767130669918 0 -0.3019145187531414 0.30616267881125342 0 -0.30843738838363471 0.32083857003834448 0 -0.28915600033007699 0.31108767130669918 0 -0.30843738838363471 0.32083857003834448 0 -0.29682996025289349 0.33955297505456372 0 -0.30843738838363471 0.32083857003834448 0 -0.30239664740258337 0.34091733381930822 0 -0.30843738838363471 0.32083857003834448 0 -0.30239664740258337 0.34091733381930822 0 -0.31403070689778029 0.34098503009937059 0 -0.30843738838363471 0.32083857003834448 0 -0.30239664740258337 0.34091733381930822 0 -0.29682996025289349 0.33955297505456372 0 -0.30239664740258337 0.34091733381930822 0 -0.29682996025289349 0.33955297505456372 0 -0.30609133203781419 0.3498572610236611 0 -0.29682996025289349 0.33955297505456372 0 -0.28541138883237338 0.33063104437950841 0 -0.28728738120791769 0.34174522007004482 0 -0.28541138883237338 0.33063104437950841 0 -0.28728738120791769 0.34174522007004482 0 -0.2744471220271934 0.33675431941137612 0 -0.28915600033007699 0.31108767130669918 0 -0.29682996025289349 0.33955297505456372 0 -0.28541138883237338 0.33063104437950841 0 -0.28915600033007699 0.31108767130669918 0 -0.28541138883237338 0.33063104437950841 0 -0.27933648034378539 0.32401503605485832 0 -0.28915600033007699 0.31108767130669918 0 -0.29682996025289349 0.33955297505456372 0 -0.27482696522310213 0.31203648507243809 0 -0.28915600033007699 0.31108767130669918 0 -0.27933648034378539 0.32401503605485832 0 -0.26280658819517733 0.31045790801634893 0 -0.27482696522310213 0.31203648507243809 0 -0.26705949400987311 0.32512658113213339 0 -0.27482696522310213 0.31203648507243809 0 -0.26705949400987311 0.32512658113213339 0 -0.27933648034378539 0.32401503605485832 0 -0.26705949400987311 0.32512658113213339 0 -0.27933648034378539 0.32401503605485832 0 -0.2744471220271934 0.33675431941137612 0 -0.28541138883237338 0.33063104437950841 0 -0.27933648034378539 0.32401503605485832 0 -0.2744471220271934 0.33675431941137612 0 -0.26705949400987311 0.32512658113213339 0 -0.2744471220271934 0.33675431941137612 0 -0.25744198814776997 0.33839065998507462 0 -0.26705949400987311 0.32512658113213339 0 -0.25744198814776997 0.33839065998507462 0 -0.24913355635218751 0.3161515071801887 0 -0.26280658819517733 0.31045790801634893 0 -0.26705949400987311 0.32512658113213339 0 -0.24913355635218751 0.3161515071801887 0 -0.26469264045823959 0.36084373813071308 0 -0.26326241239494108 0.38095136348494157 0 -0.24209789970856149 0.37994225619138139 0 -0.26469264045823959 0.36084373813071308 0 -0.24209789970856149 0.37994225619138139 0 -0.25744198814776997 0.33839065998507462 0 -0.26469264045823959 0.36084373813071308 0 -0.24141852661702989 0.35435256988853531 0 -0.2744471220271934 0.33675431941137612 0 -0.25744198814776997 0.33839065998507462 0 -0.26469264045823959 0.36084373813071308 0 -0.28728738120791769 0.34174522007004482 0 -0.26469264045823959 0.36084373813071308 0 -0.28728738120791769 0.34174522007004482 0 -0.2744471220271934 0.33675431941137612 0 -0.26469264045823959 0.36084373813071308 0 -0.28728738120791769 0.34174522007004482 0 -0.26469264045823959 0.36084373813071308 0 -0.27989585309410647 0.36833773071437292 0 -0.26469264045823959 0.36084373813071308 0 -0.27989585309410647 0.36833773071437292 0 -0.26326241239494108 0.38095136348494157 0 -0.27989585309410647 0.36833773071437292 0 -0.29337300616598161 0.35978420812603601 0 -0.29167589122220411 0.37313047245726949 0 -0.29337300616598161 0.35978420812603601 0 -0.29167589122220411 0.37313047245726949 0 -0.30450392017571098 0.3680182788024281 0 -0.28728738120791769 0.34174522007004482 0 -0.27989585309410647 0.36833773071437292 0 -0.29337300616598161 0.35978420812603601 0 -0.29682996025289349 0.33955297505456372 0 -0.28728738120791769 0.34174522007004482 0 -0.29337300616598161 0.35978420812603601 0 -0.29682996025289349 0.33955297505456372 0 -0.30609133203781419 0.3498572610236611 0 -0.30450392017571098 0.3680182788024281 0 -0.29682996025289349 0.33955297505456372 0 -0.30450392017571098 0.3680182788024281 0 -0.29682996025289349 0.33955297505456372 0 -0.29337300616598161 0.35978420812603601 0 -0.30450392017571098 0.3680182788024281 0 -0.30239664740258337 0.34091733381930822 0 -0.30609133203781419 0.3498572610236611 0 -0.31403070689778029 0.34098503009937059 0 -0.30609133203781419 0.3498572610236611 0 -0.30450392017571098 0.3680182788024281 0 -0.31259659940471729 0.36031282798934428 0 -0.29167589122220411 0.37313047245726949 0 -0.30450392017571098 0.3680182788024281 0 -0.29785899140293592 0.38227422862142879 0 -0.29337300616598161 0.35978420812603601 0 -0.30450392017571098 0.3680182788024281 0 -0.30450392017571098 0.3680182788024281 0 -0.31259659940471729 0.36031282798934428 0 -0.32062582070039819 0.36870086016570408 0 -0.30450392017571098 0.3680182788024281 0 -0.32062582070039819 0.36870086016570408 0 -0.32599635608629601 0.38391726392987258 0 -0.31259659940471729 0.36031282798934428 0 -0.32062582070039819 0.36870086016570408 0 -0.31916532470494602 0.35467491196558393 0 -0.32062582070039819 0.36870086016570408 0 -0.33212069742903599 0.36318391520013849 0 -0.31916532470494602 0.35467491196558393 0 -0.32062582070039819 0.36870086016570408 0 -0.33212069742903599 0.36318391520013849 0 -0.33286538723476811 0.37550730548203293 0 -0.33212069742903599 0.36318391520013849 0 -0.34435799837443598 0.37197885085018939 0 -0.34616382833932002 0.35552160019945139 0 -0.33212069742903599 0.36318391520013849 0 -0.34435799837443598 0.37197885085018939 0 -0.33286538723476811 0.37550730548203293 0 -0.33284551110067678 0.3521821383309483 0 -0.33901346149271649 0.340385768859019 0 -0.34616382833932002 0.35552160019945139 0 -0.33212069742903599 0.36318391520013849 0 -0.33284551110067678 0.3521821383309483 0 -0.34616382833932002 0.35552160019945139 0 -0.33284551110067678 0.3521821383309483 0 -0.32522601194053818 0.34489635177559608 0 -0.33901346149271649 0.340385768859019 0 -0.33284551110067678 0.3521821383309483 0 -0.32522601194053818 0.34489635177559608 0 -0.31916532470494602 0.35467491196558393 0 -0.33212069742903599 0.36318391520013849 0 -0.33284551110067678 0.3521821383309483 0 -0.31916532470494602 0.35467491196558393 0 -0.30609133203781419 0.3498572610236611 0 -0.31259659940471729 0.36031282798934428 0 -0.31916532470494602 0.35467491196558393 0 -0.32522601194053818 0.34489635177559608 0 -0.31916532470494602 0.35467491196558393 0 -0.31403070689778029 0.34098503009937059 0 -0.30609133203781419 0.3498572610236611 0 -0.31916532470494602 0.35467491196558393 0 -0.31403070689778029 0.34098503009937059 0 -0.30843738838363471 0.32083857003834448 0 -0.31403070689778029 0.34098503009937059 0 -0.32466001832775943 0.33319759432440221 0 -0.32522601194053818 0.34489635177559608 0 -0.31403070689778029 0.34098503009937059 0 -0.32466001832775943 0.33319759432440221 0 -0.314478129364684 0.30075980625738019 0 -0.30843738838363471 0.32083857003834448 0 -0.32437596037801242 0.3193351714180323 0 -0.30843738838363471 0.32083857003834448 0 -0.32466001832775943 0.33319759432440221 0 -0.32437596037801242 0.3193351714180323 0 -0.33690961011846521 0.30864453036897938 0 -0.33586523429981768 0.32603413378763768 0 -0.34928964143719637 0.32727407937610908 0 -0.33690961011846521 0.30864453036897938 0 -0.32437596037801242 0.3193351714180323 0 -0.33586523429981768 0.32603413378763768 0 -0.32466001832775943 0.33319759432440221 0 -0.32437596037801242 0.3193351714180323 0 -0.33586523429981768 0.32603413378763768 0 -0.32522601194053818 0.34489635177559608 0 -0.32466001832775943 0.33319759432440221 0 -0.33901346149271649 0.340385768859019 0 -0.32466001832775943 0.33319759432440221 0 -0.33586523429981768 0.32603413378763768 0 -0.33901346149271649 0.340385768859019 0 -0.33586523429981768 0.32603413378763768 0 -0.33901346149271649 0.340385768859019 0 -0.34928964143719637 0.32727407937610908 0 -0.33901346149271649 0.340385768859019 0 -0.35356643565998691 0.33990938560288619 0 -0.34928964143719637 0.32727407937610908 0 -0.35356643565998691 0.33990938560288619 0 -0.34928964143719637 0.32727407937610908 0 -0.36218134112929212 0.33193104570811499 0 -0.33690961011846521 0.30864453036897938 0 -0.34928964143719637 0.32727407937610908 0 -0.3593410908722463 0.31652925448057861 0 -0.33690961011846521 0.30864453036897938 0 -0.3593410908722463 0.31652925448057861 0 -0.34928964143719637 0.32727407937610908 0 -0.3593410908722463 0.31652925448057861 0 -0.36218134112929212 0.33193104570811499 0 -0.37595386092880478 0.33103355527835521 0 -0.38177257162602751 0.32441397859217758 0 -0.3593410908722463 0.31652925448057861 0 -0.38177257162602751 0.32441397859217758 0 -0.3593410908722463 0.31652925448057861 0 -0.37595386092880478 0.33103355527835521 0 -0.3593410908722463 0.31652925448057861 0 -0.36218134112929212 0.33193104570811499 0 -0.38177257162602751 0.32441397859217758 0 -0.36601128096482799 0.3041056448471281 0 -0.3593410908722463 0.31652925448057861 0 -0.35356643565998691 0.33990938560288619 0 -0.36218134112929212 0.33193104570811499 0 -0.36906372881045341 0.34482130486537949 0 -0.37595386092880478 0.33103355527835521 0 -0.36218134112929212 0.33193104570811499 0 -0.36906372881045341 0.34482130486537949 0 -0.3830518353719794 0.35065100397891991 0 -0.36906372881045341 0.34482130486537949 0 -0.36282638403622869 0.37009127391181462 0 -0.36906372881045341 0.34482130486537949 0 -0.36282638403622869 0.37009127391181462 0 -0.35790509421149719 0.35258589114488292 0 -0.35356643565998691 0.33990938560288619 0 -0.36906372881045341 0.34482130486537949 0 -0.35790509421149719 0.35258589114488292 0 -0.3830518353719794 0.35065100397891991 0 -0.36282638403622869 0.37009127391181462 0 -0.36282638403622869 0.37009127391181462 0 -0.34435799837443598 0.37197885085018939 0 -0.34616382833932002 0.35552160019945139 0 -0.36282638403622869 0.37009127391181462 0 -0.34616382833932002 0.35552160019945139 0 -0.35790509421149719 0.35258589114488292 0 -0.33901346149271649 0.340385768859019 0 -0.35356643565998691 0.33990938560288619 0 -0.34616382833932002 0.35552160019945139 0 -0.35356643565998691 0.33990938560288619 0 -0.34616382833932002 0.35552160019945139 0 -0.35790509421149719 0.35258589114488292 0 -0.34748879199688049 0.39981624905731777 0 -0.35600389110003933 0.38946556140839078 0 -0.36878341396795788 0.39350628446381192 0 -0.34748879199688049 0.39981624905731777 0 -0.35600389110003933 0.38946556140839078 0 -0.34260093270047792 0.38953154384470928 0 -0.36282638403622869 0.37009127391181462 0 -0.34260093270047792 0.38953154384470928 0 -0.36282638403622869 0.37009127391181462 0 -0.34435799837443598 0.37197885085018939 0 -0.34260093270047792 0.38953154384470928 0 -0.36282638403622869 0.37009127391181462 0 -0.35600389110003933 0.38946556140839078 0 -0.34260093270047792 0.38953154384470928 0 -0.38118999439220619 0.37184547950681529 0 -0.36282638403622869 0.37009127391181462 0 -0.36878341396795788 0.39350628446381192 0 -0.36282638403622869 0.37009127391181462 0 -0.35600389110003933 0.38946556140839078 0 -0.36878341396795788 0.39350628446381192 0 -0.34748879199688049 0.39981624905731777 0 -0.36878341396795788 0.39350628446381192 0 -0.36898122790746513 0.41571523418476303 0 -0.38362755910841878 0.40384704684692058 0 -0.36878341396795788 0.39350628446381192 0 -0.36898122790746513 0.41571523418476303 0 -0.36898122790746513 0.41571523418476303 0 -0.34637683002708219 0.42077435199313712 0 -0.36412357645677779 0.43868931766580321 0 -0.38397359351389038 0.43411062268176881 0 -0.36898122790746513 0.41571523418476303 0 -0.36412357645677779 0.43868931766580321 0 -0.34637683002708219 0.42077435199313712 0 -0.33677885444410821 0.43589112267339658 0 -0.36412357645677779 0.43868931766580321 0 -0.34748879199688049 0.39981624905731777 0 -0.36898122790746513 0.41571523418476303 0 -0.34637683002708219 0.42077435199313712 0 -0.34748879199688049 0.39981624905731777 0 -0.36898122790746513 0.41571523418476303 0 -0.33738398904815631 0.41156823120633901 0 -0.32474636019715608 0.42192485307167621 0 -0.32745849218678458 0.40441708801812398 0 -0.34637683002708219 0.42077435199313712 0 -0.33738398904815631 0.41156823120633901 0 -0.32474636019715608 0.42192485307167621 0 -0.34748879199688049 0.39981624905731777 0 -0.34637683002708219 0.42077435199313712 0 -0.33738398904815631 0.41156823120633901 0 -0.34637683002708219 0.42077435199313712 0 -0.33677885444410821 0.43589112267339658 0 -0.32474636019715608 0.42192485307167621 0 -0.32474636019715608 0.42192485307167621 0 -0.30523910636367019 0.42224875829430958 0 -0.31437501445844218 0.44149576452954592 0 -0.33677885444410821 0.43589112267339658 0 -0.32474636019715608 0.42192485307167621 0 -0.31437501445844218 0.44149576452954592 0 -0.32474636019715608 0.42192485307167621 0 -0.32745849218678458 0.40441708801812398 0 -0.30964722585519339 0.40735317765795842 0 -0.32474636019715608 0.42192485307167621 0 -0.30964722585519339 0.40735317765795842 0 -0.30523910636367019 0.42224875829430958 0 -0.32745849218678458 0.40441708801812398 0 -0.32599635608629601 0.38391726392987258 0 -0.31041951393831951 0.38996120983090382 0 -0.32745849218678458 0.40441708801812398 0 -0.31041951393831951 0.38996120983090382 0 -0.30964722585519339 0.40735317765795842 0 -0.34748879199688049 0.39981624905731777 0 -0.32599635608629601 0.38391726392987258 0 -0.34748879199688049 0.39981624905731777 0 -0.32745849218678458 0.40441708801812398 0 -0.32599635608629601 0.38391726392987258 0 -0.34748879199688049 0.39981624905731777 0 -0.34260093270047792 0.38953154384470928 0 -0.32599635608629601 0.38391726392987258 0 -0.34748879199688049 0.39981624905731777 0 -0.33738398904815631 0.41156823120633901 0 -0.32745849218678458 0.40441708801812398 0 -0.34435799837443598 0.37197885085018939 0 -0.34260093270047792 0.38953154384470928 0 -0.33286538723476811 0.37550730548203293 0 -0.34260093270047792 0.38953154384470928 0 -0.33286538723476811 0.37550730548203293 0 -0.32599635608629601 0.38391726392987258 0 -0.30450392017571098 0.3680182788024281 0 -0.32599635608629601 0.38391726392987258 0 -0.30450392017571098 0.3680182788024281 0 -0.32599635608629601 0.38391726392987258 0 -0.31041951393831951 0.38996120983090382 0 -0.32062582070039819 0.36870086016570408 0 -0.33286538723476811 0.37550730548203293 0 -0.32599635608629601 0.38391726392987258 0 -0.30450392017571098 0.3680182788024281 0 -0.31041951393831951 0.38996120983090382 0 -0.30450392017571098 0.3680182788024281 0 -0.31041951393831951 0.38996120983090382 0 -0.29785899140293592 0.38227422862142879 0 -0.31041951393831951 0.38996120983090382 0 -0.29785899140293592 0.38227422862142879 0 -0.29860173629605652 0.39529850072586842 0 -0.29860173629605652 0.39529850072586842 0 -0.29233526501154777 0.40966597149696943 0 -0.30964722585519339 0.40735317765795842 0 -0.31041951393831951 0.38996120983090382 0 -0.29860173629605652 0.39529850072586842 0 -0.30964722585519339 0.40735317765795842 0 -0.28274768527228578 0.38723791602208141 0 -0.27489929486923032 0.41402413808049521 0 -0.29233526501154777 0.40966597149696943 0 -0.29860173629605652 0.39529850072586842 0 -0.28274768527228578 0.38723791602208141 0 -0.29233526501154777 0.40966597149696943 0 -0.29785899140293592 0.38227422862142879 0 -0.29860173629605652 0.39529850072586842 0 -0.28274768527228578 0.38723791602208141 0 -0.27989585309410647 0.36833773071437292 0 -0.29167589122220411 0.37313047245726949 0 -0.28274768527228578 0.38723791602208141 0 -0.29167589122220411 0.37313047245726949 0 -0.29785899140293592 0.38227422862142879 0 -0.28274768527228578 0.38723791602208141 0 -0.27989585309410647 0.36833773071437292 0 -0.28274768527228578 0.38723791602208141 0 -0.26326241239494108 0.38095136348494157 0 -0.28274768527228578 0.38723791602208141 0 -0.26065683073682089 0.39924136556670448 0 -0.26326241239494108 0.38095136348494157 0 -0.28274768527228578 0.38723791602208141 0 -0.26065683073682089 0.39924136556670448 0 -0.27489929486923032 0.41402413808049521 0 -0.26065683073682089 0.39924136556670448 0 -0.26326241239494108 0.38095136348494157 0 -0.24209789970856149 0.37994225619138139 0 -0.2614209362179214 0.42829939215348217 0 -0.25225545090412099 0.44501051780490508 0 -0.2377502061398313 0.42579475959156632 0 -0.26065683073682089 0.39924136556670448 0 -0.2614209362179214 0.42829939215348217 0 -0.23951275595798571 0.40499312746784549 0 -0.26065683073682089 0.39924136556670448 0 -0.2614209362179214 0.42829939215348217 0 -0.27489929486923032 0.41402413808049521 0 -0.2614209362179214 0.42829939215348217 0 -0.28509166629601151 0.43080402471539803 0 -0.2614209362179214 0.42829939215348217 0 -0.27489929486923032 0.41402413808049521 0 -0.28509166629601151 0.43080402471539803 0 -0.2614209362179214 0.42829939215348217 0 -0.28509166629601151 0.43080402471539803 0 -0.27357548888451427 0.45275713959164188 0 -0.27489929486923032 0.41402413808049521 0 -0.28509166629601151 0.43080402471539803 0 -0.29233526501154777 0.40966597149696943 0 -0.28509166629601151 0.43080402471539803 0 -0.29233526501154777 0.40966597149696943 0 -0.30523910636367019 0.42224875829430958 0 -0.29233526501154777 0.40966597149696943 0 -0.30964722585519339 0.40735317765795842 0 -0.30523910636367019 0.42224875829430958 0 -0.28509166629601151 0.43080402471539803 0 -0.30523910636367019 0.42224875829430958 0 -0.31437501445844218 0.44149576452954592 0 -0.28509166629601151 0.43080402471539803 0 -0.29556973625549487 0.45428917921023571 0 -0.31437501445844218 0.44149576452954592 0 -0.29556973625549487 0.45428917921023571 0 -0.31805238971939448 0.46863987486248099 0 -0.31437501445844218 0.44149576452954592 0 -0.29556973625549487 0.45428917921023571 0 -0.29033640002177069 0.46879776640951648 0 -0.31805238971939448 0.46863987486248099 0 -0.29556973625549487 0.45428917921023571 0 -0.27357548888451427 0.45275713959164188 0 -0.29033640002177069 0.46879776640951648 0 -0.28509166629601151 0.43080402471539803 0 -0.29556973625549487 0.45428917921023571 0 -0.27357548888451427 0.45275713959164188 0 -0.27357548888451427 0.45275713959164188 0 -0.25779908468260959 0.4640431881347844 0 -0.27576520707719532 0.47602879208985549 0 -0.27357548888451427 0.45275713959164188 0 -0.27576520707719532 0.47602879208985549 0 -0.29033640002177069 0.46879776640951648 0 -0.27357548888451427 0.45275713959164188 0 -0.25779908468260959 0.4640431881347844 0 -0.25225545090412099 0.44501051780490508 0 -0.2614209362179214 0.42829939215348217 0 -0.27357548888451427 0.45275713959164188 0 -0.25225545090412099 0.44501051780490508 0 -0.26093534285895759 0.5 0 -0.26091743739831053 0.48142088392823129 0 -0.2422926532762725 0.47930939792105748 0 -0.25779908468260959 0.4640431881347844 0 -0.26091743739831053 0.48142088392823129 0 -0.27576520707719532 0.47602879208985549 0 -0.25779908468260959 0.4640431881347844 0 -0.26091743739831053 0.48142088392823129 0 -0.2422926532762725 0.47930939792105748 0 -0.26091743739831053 0.48142088392823129 0 -0.27576520707719532 0.47602879208985549 0 -0.27522361308429061 0.48903802349591691 0 -0.25779908468260959 0.4640431881347844 0 -0.27576520707719532 0.47602879208985549 0 -0.26093534285895759 0.5 0 -0.27522361308429061 0.48903802349591691 0 -0.28631639736266168 0.5 0 -0.26093534285895759 0.5 0 -0.26091743739831053 0.48142088392823129 0 -0.27522361308429061 0.48903802349591691 0 -0.29501679635070271 0.48361515346082012 0 -0.31169745186636588 0.49999999999999861 0 -0.31805238971939448 0.46863987486248099 0 -0.27522361308429061 0.48903802349591691 0 -0.29373132947178088 0.48801439604492658 0 -0.28631639736266168 0.5 0 -0.27576520707719532 0.47602879208985549 0 -0.29373132947178088 0.48801439604492658 0 -0.27576520707719532 0.47602879208985549 0 -0.29373132947178088 0.48801439604492658 0 -0.29501679635070271 0.48361515346082012 0 -0.27576520707719532 0.47602879208985549 0 -0.27522361308429061 0.48903802349591691 0 -0.29373132947178088 0.48801439604492658 0 -0.27576520707719532 0.47602879208985549 0 -0.29033640002177069 0.46879776640951648 0 -0.29501679635070271 0.48361515346082012 0 -0.29501679635070271 0.48361515346082012 0 -0.31805238971939448 0.46863987486248099 0 -0.29033640002177069 0.46879776640951648 0 -0.29501679635070271 0.48361515346082012 0 -0.31805238971939448 0.46863987486248099 0 -0.29373132947178088 0.48801439604492658 0 -0.29501679635070271 0.48361515346082012 0 -0.31169745186636588 0.49999999999999861 0 -0.29373132947178088 0.48801439604492658 0 -0.28631639736266168 0.5 0 -0.31169745186636588 0.49999999999999861 0 -0.29373132947178088 0.48801439604492658 0 -0.31169745186636588 0.49999999999999861 0 -0.37959735337450767 0.5 0 -0.31169745186636588 0.49999999999999861 0 -0.31805238971939448 0.46863987486248099 0 -0.31805238971939448 0.46863987486248099 0 -0.31437501445844218 0.44149576452954592 0 -0.34108798308808608 0.45366459626414207 0 -0.33677885444410821 0.43589112267339658 0 -0.31437501445844218 0.44149576452954592 0 -0.34108798308808608 0.45366459626414207 0 -0.31805238971939448 0.46863987486248099 0 -0.34108798308808608 0.45366459626414207 0 -0.38276806934716878 0.46153368816580592 0 -0.34108798308808608 0.45366459626414207 0 -0.36412357645677779 0.43868931766580321 0 -0.34108798308808608 0.45366459626414207 0 -0.36412357645677779 0.43868931766580321 0 -0.33677885444410821 0.43589112267339658 0 -0.34108798308808608 0.45366459626414207 0 -0.36412357645677779 0.43868931766580321 0 -0.37959735337450767 0.5 0 -0.31805238971939448 0.46863987486248099 0 -0.34108798308808608 0.45366459626414207 0 -0.37959735337450767 0.5 0 -0.38276806934716878 0.46153368816580592 0 -0.34108798308808608 0.45366459626414207 0 -0.15382627251460301 0.4834897128954726 0 -0.14197869067978719 0.46895406906089893 0 -0.12893624596053099 0.5 0 -0.15382627251460301 0.4834897128954726 0 -0.14197869067978719 0.46895406906089893 0 -0.1635796956352164 0.47210198505585738 0 -0.15382627251460301 0.4834897128954726 0 -0.12893624596053099 0.5 0 -0.15744225892399119 0.50000000000000044 0 -0.14197869067978719 0.46895406906089893 0 -0.12893624596053099 0.5 0 -0.1187070756848814 0.47608876725346161 0 -0.14197869067978719 0.46895406906089893 0 -0.12774480630476689 0.4523017931909934 0 -0.1461047290410612 0.44998284501098013 0 -0.14197869067978719 0.46895406906089893 0 -0.12774480630476689 0.4523017931909934 0 -0.1187070756848814 0.47608876725346161 0 -0.12774480630476689 0.4523017931909934 0 -0.1461047290410612 0.44998284501098013 0 -0.1401528949948998 0.43692788270214972 0 -0.12774480630476689 0.4523017931909934 0 -0.1401528949948998 0.43692788270214972 0 -0.122768864332314 0.42638231891009221 0 -0.1461047290410612 0.44998284501098013 0 -0.1545536234932445 0.43834011906663478 0 -0.16479216269769231 0.4530498323069545 0 -0.1461047290410612 0.44998284501098013 0 -0.1545536234932445 0.43834011906663478 0 -0.1401528949948998 0.43692788270214972 0 -0.14197869067978719 0.46895406906089893 0 -0.1461047290410612 0.44998284501098013 0 -0.16479216269769231 0.4530498323069545 0 -0.14197869067978719 0.46895406906089893 0 -0.16479216269769231 0.4530498323069545 0 -0.1635796956352164 0.47210198505585738 0 -0.16479216269769231 0.4530498323069545 0 -0.18572014854800259 0.47001087401064029 0 -0.1635796956352164 0.47210198505585738 0 -0.1545536234932445 0.43834011906663478 0 -0.16479216269769231 0.4530498323069545 0 -0.16921534803920049 0.42902803431652292 0 -0.16479216269769231 0.4530498323069545 0 -0.19102595075868631 0.44628565462616082 0 -0.16921534803920049 0.42902803431652292 0 -0.16479216269769231 0.4530498323069545 0 -0.18572014854800259 0.47001087401064029 0 -0.19102595075868631 0.44628565462616082 0 -0.18572014854800259 0.47001087401064029 0 -0.1635796956352164 0.47210198505585738 0 -0.171581203735997 0.48500543700532051 0 -0.18572014854800259 0.47001087401064029 0 -0.171581203735997 0.48500543700532051 0 -0.19640666670672319 0.48528421110790909 0 -0.18572014854800259 0.47001087401064029 0 -0.171581203735997 0.48500543700532051 0 -0.15382627251460301 0.4834897128954726 0 -0.1635796956352164 0.47210198505585738 0 -0.171581203735997 0.48500543700532051 0 -0.15744225892399119 0.50000000000000044 0 -0.171581203735997 0.48500543700532051 0 -0.1834796020677453 0.5 0 -0.15382627251460301 0.4834897128954726 0 -0.15744225892399119 0.50000000000000044 0 -0.171581203735997 0.48500543700532051 0 -0.15744225892399119 0.50000000000000044 0 -0.171581203735997 0.48500543700532051 0 -0.171581203735997 0.48500543700532051 0 -0.1834796020677453 0.5 0 -0.19640666670672319 0.48528421110790909 0 -0.1834796020677453 0.5 0 -0.19640666670672319 0.48528421110790909 0 -0.2095169452114993 0.5 0 -0.18572014854800259 0.47001087401064029 0 -0.19640666670672319 0.48528421110790909 0 -0.20586872995754191 0.46419043641744068 0 -0.19640666670672319 0.48528421110790909 0 -0.22071150915639751 0.48209521820872059 0 -0.20586872995754191 0.46419043641744068 0 -0.22071150915639751 0.48209521820872059 0 -0.22189196772970221 0.4660120320530044 0 -0.20586872995754191 0.46419043641744068 0 -0.22071150915639751 0.48209521820872059 0 -0.20586872995754191 0.46419043641744068 0 -0.19640666670672319 0.48528421110790909 0 -0.2095169452114993 0.5 0 -0.22071150915639751 0.48209521820872059 0 -0.2095169452114993 0.5 0 -0.22071150915639751 0.48209521820872059 0 -0.23555428835525341 0.50000000000000044 0 -0.22071150915639751 0.48209521820872059 0 -0.2422926532762725 0.47930939792105748 0 -0.23555428835525341 0.50000000000000044 0 -0.22071150915639751 0.48209521820872059 0 -0.23555428835525341 0.50000000000000044 0 -0.22071150915639751 0.48209521820872059 0 -0.2422926532762725 0.47930939792105748 0 -0.22189196772970221 0.4660120320530044 0 -0.26093534285895759 0.5 0 -0.2422926532762725 0.47930939792105748 0 -0.23555428835525341 0.50000000000000044 0 -0.25225545090412099 0.44501051780490508 0 -0.23452764954842331 0.45371166498664639 0 -0.2377502061398313 0.42579475959156632 0 -0.25779908468260959 0.4640431881347844 0 -0.25225545090412099 0.44501051780490508 0 -0.23452764954842331 0.45371166498664639 0 -0.25779908468260959 0.4640431881347844 0 -0.2422926532762725 0.47930939792105748 0 -0.23452764954842331 0.45371166498664639 0 -0.2422926532762725 0.47930939792105748 0 -0.23452764954842331 0.45371166498664639 0 -0.22189196772970221 0.4660120320530044 0 -0.23452764954842331 0.45371166498664639 0 -0.22189196772970221 0.4660120320530044 0 -0.21276736053984169 0.444301028787013 0 -0.23452764954842331 0.45371166498664639 0 -0.21276736053984169 0.444301028787013 0 -0.2377502061398313 0.42579475959156632 0 -0.21276736053984169 0.444301028787013 0 -0.20586872995754191 0.46419043641744068 0 -0.19102595075868631 0.44628565462616082 0 -0.22189196772970221 0.4660120320530044 0 -0.21276736053984169 0.444301028787013 0 -0.20586872995754191 0.46419043641744068 0 -0.18572014854800259 0.47001087401064029 0 -0.20586872995754191 0.46419043641744068 0 -0.19102595075868631 0.44628565462616082 0 -0.20586872995754191 0.46419043641744068 0 -0.19102595075868631 0.44628565462616082 0 -0.19040874598365121 0.42078549446773472 0 -0.2140794760617413 0.42329012702965052 0 -0.21276736053984169 0.444301028787013 0 -0.19102595075868631 0.44628565462616082 0 -0.19040874598365121 0.42078549446773472 0 -0.19040874598365121 0.42078549446773472 0 -0.19952027085917601 0.40030094352274381 0 -0.18016361334869979 0.40046370799091718 0 -0.19040874598365121 0.42078549446773472 0 -0.2140794760617413 0.42329012702965052 0 -0.19952027085917601 0.40030094352274381 0 -0.2140794760617413 0.42329012702965052 0 -0.2195031589588832 0.39904077425204992 0 -0.19952027085917601 0.40030094352274381 0 -0.21276736053984169 0.444301028787013 0 -0.19040874598365121 0.42078549446773472 0 -0.2140794760617413 0.42329012702965052 0 -0.2140794760617413 0.42329012702965052 0 -0.2377502061398313 0.42579475959156632 0 -0.21276736053984169 0.444301028787013 0 -0.2140794760617413 0.42329012702965052 0 -0.2377502061398313 0.42579475959156632 0 -0.2140794760617413 0.42329012702965052 0 -0.2377502061398313 0.42579475959156632 0 -0.23951275595798571 0.40499312746784549 0 -0.2140794760617413 0.42329012702965052 0 -0.23951275595798571 0.40499312746784549 0 -0.2195031589588832 0.39904077425204992 0 -0.2614209362179214 0.42829939215348217 0 -0.2377502061398313 0.42579475959156632 0 -0.23951275595798571 0.40499312746784549 0 -0.2614209362179214 0.42829939215348217 0 -0.2377502061398313 0.42579475959156632 0 -0.26065683073682089 0.39924136556670448 0 -0.24209789970856149 0.37994225619138139 0 -0.23951275595798571 0.40499312746784549 0 -0.24209789970856149 0.37994225619138139 0 -0.23951275595798571 0.40499312746784549 0 -0.2195031589588832 0.39904077425204992 0 -0.24209789970856149 0.37994225619138139 0 -0.2195031589588832 0.39904077425204992 0 -0.24209789970856149 0.37994225619138139 0 -0.2195031589588832 0.39904077425204992 0 -0.2218268857497247 0.36949779052758491 0 -0.2195031589588832 0.39904077425204992 0 -0.202834880514451 0.37812721876085098 0 -0.2218268857497247 0.36949779052758491 0 -0.2195031589588832 0.39904077425204992 0 -0.19952027085917601 0.40030094352274381 0 -0.202834880514451 0.37812721876085098 0 -0.19952027085917601 0.40030094352274381 0 -0.1835832983669973 0.37698533658113897 0 -0.18016361334869979 0.40046370799091718 0 -0.19952027085917601 0.40030094352274381 0 -0.202834880514451 0.37812721876085098 0 -0.1835832983669973 0.37698533658113897 0 -0.1835832983669973 0.37698533658113897 0 -0.1625343606765372 0.39012800924452512 0 -0.18016361334869979 0.40046370799091718 0 -0.1835832983669973 0.37698533658113897 0 -0.1625343606765372 0.39012800924452512 0 -0.16162615579974571 0.37153798105241648 0 -0.1625343606765372 0.39012800924452512 0 -0.18016361334869979 0.40046370799091718 0 -0.16087991565296769 0.40970651418529358 0 -0.19040874598365121 0.42078549446773472 0 -0.18016361334869979 0.40046370799091718 0 -0.17516690575612981 0.414995937740117 0 -0.19040874598365121 0.42078549446773472 0 -0.17516690575612981 0.414995937740117 0 -0.16921534803920049 0.42902803431652292 0 -0.18016361334869979 0.40046370799091718 0 -0.17516690575612981 0.414995937740117 0 -0.16087991565296769 0.40970651418529358 0 -0.19102595075868631 0.44628565462616082 0 -0.19040874598365121 0.42078549446773472 0 -0.16921534803920049 0.42902803431652292 0 -0.1545536234932445 0.43834011906663478 0 -0.16921534803920049 0.42902803431652292 0 -0.1462559409257749 0.42107746310567518 0 -0.16921534803920049 0.42902803431652292 0 -0.16087991565296769 0.40970651418529358 0 -0.1462559409257749 0.42107746310567518 0 -0.17516690575612981 0.414995937740117 0 -0.16921534803920049 0.42902803431652292 0 -0.16087991565296769 0.40970651418529358 0 -0.16087991565296769 0.40970651418529358 0 -0.1462559409257749 0.42107746310567518 0 -0.14526352463901851 0.39940432275088539 0 -0.1545536234932445 0.43834011906663478 0 -0.1462559409257749 0.42107746310567518 0 -0.1401528949948998 0.43692788270214972 0 -0.1462559409257749 0.42107746310567518 0 -0.1401528949948998 0.43692788270214972 0 -0.122768864332314 0.42638231891009221 0 -0.1462559409257749 0.42107746310567518 0 -0.12965594829386429 0.40741252108087922 0 -0.122768864332314 0.42638231891009221 0 -0.1462559409257749 0.42107746310567518 0 -0.12965594829386429 0.40741252108087922 0 -0.14526352463901851 0.39940432275088539 0 -0.12965594829386429 0.40741252108087922 0 -0.12610309816609799 0.38771973428475642 0 -0.14526352463901851 0.39940432275088539 0 -0.12610309816609799 0.38771973428475642 0 -0.14190399141401361 0.3832713597846395 0 -0.13132429704935941 0.36938296962175171 0 -0.12610309816609799 0.38771973428475642 0 -0.14190399141401361 0.3832713597846395 0 -0.14526352463901851 0.39940432275088539 0 -0.1625343606765372 0.39012800924452512 0 -0.14190399141401361 0.3832713597846395 0 -0.16162615579974571 0.37153798105241648 0 -0.1625343606765372 0.39012800924452512 0 -0.16087991565296769 0.40970651418529358 0 -0.14526352463901851 0.39940432275088539 0 -0.1625343606765372 0.39012800924452512 0 -0.14190399141401361 0.3832713597846395 0 -0.14526352463901851 0.39940432275088539 0 -0.13865380924995671 0.35217346652041681 0 -0.14900481731365439 0.33715084661464628 0 -0.1592357155044945 0.35092461582447831 0 -0.14654879380351399 0.36545807856074058 0 -0.13865380924995671 0.35217346652041681 0 -0.1592357155044945 0.35092461582447831 0 -0.14190399141401361 0.3832713597846395 0 -0.14654879380351399 0.36545807856074058 0 -0.16162615579974571 0.37153798105241648 0 -0.14654879380351399 0.36545807856074058 0 -0.1592357155044945 0.35092461582447831 0 -0.16162615579974571 0.37153798105241648 0 -0.14654879380351399 0.36545807856074058 0 -0.13132429704935941 0.36938296962175171 0 -0.13865380924995671 0.35217346652041681 0 -0.14190399141401361 0.3832713597846395 0 -0.14654879380351399 0.36545807856074058 0 -0.13132429704935941 0.36938296962175171 0 -0.13132429704935941 0.36938296962175171 0 -0.13865380924995671 0.35217346652041681 0 -0.12031134189322019 0.3538456545815829 0 -0.13865380924995671 0.35217346652041681 0 -0.12738594765207731 0.33434475648681039 0 -0.12031134189322019 0.3538456545815829 0 -0.13865380924995671 0.35217346652041681 0 -0.12738594765207731 0.33434475648681039 0 -0.14900481731365439 0.33715084661464628 0 -0.12738594765207731 0.33434475648681039 0 -0.14422741803914479 0.32067163388439213 0 -0.14900481731365439 0.33715084661464628 0 -0.12738594765207731 0.33434475648681039 0 -0.14422741803914479 0.32067163388439213 0 -0.1189708891108567 0.31283839014754111 0 -0.14422741803914479 0.32067163388439213 0 -0.1189708891108567 0.31283839014754111 0 -0.14422741803914479 0.32067163388439213 0 -0.14900481731365439 0.33715084661464628 0 -0.1694839469674328 0.3285048776212432 0 -0.1694839469674328 0.3285048776212432 0 -0.17910495396300019 0.34499586050092479 0 -0.1592357155044945 0.35092461582447831 0 -0.14900481731365439 0.33715084661464628 0 -0.1694839469674328 0.3285048776212432 0 -0.1592357155044945 0.35092461582447831 0 -0.1694839469674328 0.3285048776212432 0 -0.18235753289953999 0.31185869267607552 0 -0.16219467391842909 0.30930007788819031 0 -0.14422741803914479 0.32067163388439213 0 -0.1694839469674328 0.3285048776212432 0 -0.16219467391842909 0.30930007788819031 0 -0.14422741803914479 0.32067163388439213 0 -0.1694839469674328 0.3285048776212432 0 -0.1694839469674328 0.3285048776212432 0 -0.19351459608921659 0.32856645986975258 0 -0.18235753289953999 0.31185869267607552 0 -0.1694839469674328 0.3285048776212432 0 -0.19474047589572091 0.33633812135809432 0 -0.1694839469674328 0.3285048776212432 0 -0.17910495396300019 0.34499586050092479 0 -0.19474047589572091 0.33633812135809432 0 -0.1694839469674328 0.3285048776212432 0 -0.19351459608921659 0.32856645986975258 0 -0.19474047589572091 0.33633812135809432 0 -0.17754892702955541 0.35854988705015728 0 -0.17910495396300019 0.34499586050092479 0 -0.19451570441779761 0.35066180065065111 0 -0.17754892702955541 0.35854988705015728 0 -0.17910495396300019 0.34499586050092479 0 -0.1592357155044945 0.35092461582447831 0 -0.17754892702955541 0.35854988705015728 0 -0.1592357155044945 0.35092461582447831 0 -0.16162615579974571 0.37153798105241648 0 -0.1835832983669973 0.37698533658113897 0 -0.17754892702955541 0.35854988705015728 0 -0.16162615579974571 0.37153798105241648 0 -0.1835832983669973 0.37698533658113897 0 -0.17754892702955541 0.35854988705015728 0 -0.19135976765832211 0.36455010805425109 0 -0.202834880514451 0.37812721876085098 0 -0.19135976765832211 0.36455010805425109 0 -0.20510984387541389 0.36135255897774621 0 -0.202834880514451 0.37812721876085098 0 -0.1835832983669973 0.37698533658113897 0 -0.19135976765832211 0.36455010805425109 0 -0.17754892702955541 0.35854988705015728 0 -0.19135976765832211 0.36455010805425109 0 -0.19451570441779761 0.35066180065065111 0 -0.17910495396300019 0.34499586050092479 0 -0.19451570441779761 0.35066180065065111 0 -0.19474047589572091 0.33633812135809432 0 -0.19135976765832211 0.36455010805425109 0 -0.19451570441779761 0.35066180065065111 0 -0.20510984387541389 0.36135255897774621 0 -0.19451570441779761 0.35066180065065111 0 -0.20510984387541389 0.36135255897774621 0 -0.21999700482400891 0.34417136509494528 0 -0.20510984387541389 0.36135255897774621 0 -0.2218268857497247 0.36949779052758491 0 -0.21999700482400891 0.34417136509494528 0 -0.202834880514451 0.37812721876085098 0 -0.20510984387541389 0.36135255897774621 0 -0.2218268857497247 0.36949779052758491 0 -0.2218268857497247 0.36949779052758491 0 -0.21999700482400891 0.34417136509494528 0 -0.24141852661702989 0.35435256988853531 0 -0.21999700482400891 0.34417136509494528 0 -0.24141852661702989 0.35435256988853531 0 -0.24266938831725421 0.3346381175457927 0 -0.24209789970856149 0.37994225619138139 0 -0.2218268857497247 0.36949779052758491 0 -0.24141852661702989 0.35435256988853531 0 -0.26469264045823959 0.36084373813071308 0 -0.24209789970856149 0.37994225619138139 0 -0.24141852661702989 0.35435256988853531 0 -0.24913355635218751 0.3161515071801887 0 -0.24266938831725421 0.3346381175457927 0 -0.2282067796952571 0.323962824738522 0 -0.25744198814776997 0.33839065998507462 0 -0.24141852661702989 0.35435256988853531 0 -0.24266938831725421 0.3346381175457927 0 -0.25744198814776997 0.33839065998507462 0 -0.24913355635218751 0.3161515071801887 0 -0.24266938831725421 0.3346381175457927 0 -0.24266938831725421 0.3346381175457927 0 -0.2282067796952571 0.323962824738522 0 -0.21999700482400891 0.34417136509494528 0 -0.2282067796952571 0.323962824738522 0 -0.21593641416661499 0.32816603558176022 0 -0.21999700482400891 0.34417136509494528 0 -0.24266938831725421 0.3346381175457927 0 -0.2282067796952571 0.323962824738522 0 -0.2282067796952571 0.323962824738522 0 -0.2137441710732596 0.31328753193125158 0 -0.21593641416661499 0.32816603558176022 0 -0.2282067796952571 0.323962824738522 0 -0.2137441710732596 0.31328753193125158 0 -0.2137441710732596 0.31328753193125158 0 -0.19351459608921659 0.32856645986975258 0 -0.2137441710732596 0.31328753193125158 0 -0.20758653240976421 0.33010590276716079 0 -0.19351459608921659 0.32856645986975258 0 -0.2137441710732596 0.31328753193125158 0 -0.21593641416661499 0.32816603558176022 0 -0.20758653240976421 0.33010590276716079 0 -0.21999700482400891 0.34417136509494528 0 -0.19474047589572091 0.33633812135809432 0 -0.21999700482400891 0.34417136509494528 0 -0.21593641416661499 0.32816603558176022 0 -0.20758653240976421 0.33010590276716079 0 -0.21999700482400891 0.34417136509494528 0 -0.20758653240976421 0.33010590276716079 0 -0.19474047589572091 0.33633812135809432 0 -0.19451570441779761 0.35066180065065111 0 -0.21999700482400891 0.34417136509494528 0 -0.19474047589572091 0.33633812135809432 0 -0.20758653240976421 0.33010590276716079 0 -0.19351459608921659 0.32856645986975258 0 -0.19474047589572091 0.33633812135809432 0 -0.2137441710732596 0.31328753193125158 0 -0.19351459608921659 0.32856645986975258 0 -0.1961800460567252 0.31331031293990091 0 -0.19351459608921659 0.32856645986975258 0 -0.1961800460567252 0.31331031293990091 0 -0.18235753289953999 0.31185869267607552 0 -0.2137441710732596 0.31328753193125158 0 -0.1961800460567252 0.31331031293990091 0 -0.19510388416488439 0.29952856728252347 0 -0.1961800460567252 0.31331031293990091 0 -0.19510388416488439 0.29952856728252347 0 -0.18235753289953999 0.31185869267607552 0 -0.19510388416488439 0.29952856728252347 0 -0.2037298781016115 0.2771704315001538 0 -0.1877653197949461 0.27674538477788851 0 -0.19510388416488439 0.29952856728252347 0 -0.21411104032931791 0.2928221915159096 0 -0.2037298781016115 0.2771704315001538 0 -0.21411104032931791 0.2928221915159096 0 -0.22269263145214799 0.27593612752095742 0 -0.2037298781016115 0.2771704315001538 0 -0.2137441710732596 0.31328753193125158 0 -0.19510388416488439 0.29952856728252347 0 -0.21411104032931791 0.2928221915159096 0 -0.2137441710732596 0.31328753193125158 0 -0.19510388416488439 0.29952856728252347 0 -0.2137441710732596 0.31328753193125158 0 -0.23569412919955349 0.29670923857960102 0 -0.2282067796952571 0.323962824738522 0 -0.2137441710732596 0.31328753193125158 0 -0.23569412919955349 0.29670923857960102 0 -0.2137441710732596 0.31328753193125158 0 -0.21411104032931791 0.2928221915159096 0 -0.23569412919955349 0.29670923857960102 0 -0.21411104032931791 0.2928221915159096 0 -0.23569412919955349 0.29670923857960102 0 -0.22269263145214799 0.27593612752095742 0 -0.23569412919955349 0.29670923857960102 0 -0.242663231965797 0.27552459943965513 0 -0.22269263145214799 0.27593612752095742 0 -0.25764408732584659 0.28013094522794912 0 -0.2553874965106574 0.29824971761982882 0 -0.23569412919955349 0.29670923857960102 0 -0.25764408732584659 0.28013094522794912 0 -0.23569412919955349 0.29670923857960102 0 -0.242663231965797 0.27552459943965513 0 -0.25764408732584659 0.28013094522794912 0 -0.23569412919955349 0.29670923857960102 0 -0.24913355635218751 0.3161515071801887 0 -0.2282067796952571 0.323962824738522 0 -0.23569412919955349 0.29670923857960102 0 -0.2553874965106574 0.29824971761982882 0 -0.24913355635218751 0.3161515071801887 0 -0.23569412919955349 0.29670923857960102 0 -0.24800314716261071 0.25472600388125571 0 -0.2334519185653488 0.25879813167668769 0 -0.23904676463467969 0.24305729105867771 0 -0.26019350040700429 0.26374362132216878 0 -0.24800314716261071 0.25472600388125571 0 -0.2334519185653488 0.25879813167668769 0 -0.26019350040700429 0.26374362132216878 0 -0.2334519185653488 0.25879813167668769 0 -0.25932040504340997 0.25330497146748832 0 -0.24800314716261071 0.25472600388125571 0 -0.23904676463467969 0.24305729105867771 0 -0.26019350040700429 0.26374362132216878 0 -0.242663231965797 0.27552459943965513 0 -0.2334519185653488 0.25879813167668769 0 -0.242663231965797 0.27552459943965513 0 -0.22269263145214799 0.27593612752095742 0 -0.2334519185653488 0.25879813167668769 0 -0.2334519185653488 0.25879813167668769 0 -0.20671033672369329 0.25385264203120672 0 -0.22445986870165541 0.24673731978024771 0 -0.2334519185653488 0.25879813167668769 0 -0.20671033672369329 0.25385264203120672 0 -0.22269263145214799 0.27593612752095742 0 -0.2334519185653488 0.25879813167668769 0 -0.20671033672369329 0.25385264203120672 0 -0.22269263145214799 0.27593612752095742 0 -0.20671033672369329 0.25385264203120672 0 -0.2037298781016115 0.2771704315001538 0 -0.2037298781016115 0.2771704315001538 0 -0.1877653197949461 0.27674538477788851 0 -0.19318637984344669 0.2636723588766039 0 -0.20671033672369329 0.25385264203120672 0 -0.19318637984344669 0.2636723588766039 0 -0.1799687548820377 0.24890715238572569 0 -0.20671033672369329 0.25385264203120672 0 -0.1799687548820377 0.24890715238572569 0 -0.20671033672369329 0.25385264203120672 0 -0.2037298781016115 0.2771704315001538 0 -0.19318637984344669 0.2636723588766039 0 -0.18140741818214581 0.26098858275493542 0 -0.16468212307862709 0.25704411620549161 0 -0.1799687548820377 0.24890715238572569 0 -0.19318637984344669 0.2636723588766039 0 -0.18140741818214581 0.26098858275493542 0 -0.1799687548820377 0.24890715238572569 0 -0.18140741818214581 0.26098858275493542 0 -0.16468212307862709 0.25704411620549161 0 -0.15782331034813321 0.27201063798506842 0 -0.15782331034813321 0.27201063798506842 0 -0.17537780465174579 0.27319743209158709 0 -0.17646359725650901 0.28576960263379581 0 -0.18140741818214581 0.26098858275493542 0 -0.15782331034813321 0.27201063798506842 0 -0.17537780465174579 0.27319743209158709 0 -0.15782331034813321 0.27201063798506842 0 -0.17646359725650901 0.28576960263379581 0 -0.18140741818214581 0.26098858275493542 0 -0.15782331034813321 0.27201063798506842 0 -0.1877653197949461 0.27674538477788851 0 -0.18140741818214581 0.26098858275493542 0 -0.17537780465174579 0.27319743209158709 0 -0.1877653197949461 0.27674538477788851 0 -0.19318637984344669 0.2636723588766039 0 -0.18140741818214581 0.26098858275493542 0 -0.1877653197949461 0.27674538477788851 0 -0.17537780465174579 0.27319743209158709 0 -0.17646359725650901 0.28576960263379581 0 -0.19510388416488439 0.29952856728252347 0 -0.1877653197949461 0.27674538477788851 0 -0.17646359725650901 0.28576960263379581 0 -0.19510388416488439 0.29952856728252347 0 -0.17646359725650901 0.28576960263379581 0 -0.17646359725650901 0.28576960263379581 0 -0.18235753289953999 0.31185869267607552 0 -0.16219467391842909 0.30930007788819031 0 -0.19510388416488439 0.29952856728252347 0 -0.17646359725650901 0.28576960263379581 0 -0.18235753289953999 0.31185869267607552 0 -0.15782331034813321 0.27201063798506842 0 -0.17646359725650901 0.28576960263379581 0 -0.15530891551132189 0.29099402520703882 0 -0.17646359725650901 0.28576960263379581 0 -0.16219467391842909 0.30930007788819031 0 -0.15530891551132189 0.29099402520703882 0 -0.15530891551132189 0.29099402520703882 0 -0.13758732344749899 0.30100833069083671 0 -0.13933588575203851 0.28065075345584362 0 -0.16219467391842909 0.30930007788819031 0 -0.15530891551132189 0.29099402520703882 0 -0.13758732344749899 0.30100833069083671 0 -0.14422741803914479 0.32067163388439213 0 -0.16219467391842909 0.30930007788819031 0 -0.13758732344749899 0.30100833069083671 0 -0.14422741803914479 0.32067163388439213 0 -0.13758732344749899 0.30100833069083671 0 -0.1189708891108567 0.31283839014754111 0 -0.13758732344749899 0.30100833069083671 0 -0.12084846115594371 0.28929086892661859 0 -0.1189708891108567 0.31283839014754111 0 -0.13758732344749899 0.30100833069083671 0 -0.13933588575203851 0.28065075345584362 0 -0.12084846115594371 0.28929086892661859 0 -0.13933588575203851 0.28065075345584362 0 -0.12084846115594371 0.28929086892661859 0 -0.13933588575203851 0.28065075345584362 0 -0.14525994315812971 0.26273723324157261 0 -0.12388250938896379 0.26980827590933559 0 -0.13933588575203851 0.28065075345584362 0 -0.12388250938896379 0.26980827590933559 0 -0.12084846115594371 0.28929086892661859 0 -0.1326965759681259 0.25346382849807703 0 -0.14525994315812971 0.26273723324157261 0 -0.12388250938896379 0.26980827590933559 0 -0.1326965759681259 0.25346382849807703 0 -0.14525994315812971 0.26273723324157261 0 -0.1326965759681259 0.25346382849807703 0 -0.14525994315812971 0.26273723324157261 0 -0.1532271730403823 0.24396166274024469 0 -0.16468212307862709 0.25704411620549161 0 -0.15782331034813321 0.27201063798506842 0 -0.14525994315812971 0.26273723324157261 0 -0.16468212307862709 0.25704411620549161 0 -0.14525994315812971 0.26273723324157261 0 -0.1532271730403823 0.24396166274024469 0 -0.15782331034813321 0.27201063798506842 0 -0.15530891551132189 0.29099402520703882 0 -0.13933588575203851 0.28065075345584362 0 -0.15782331034813321 0.27201063798506842 0 -0.13933588575203851 0.28065075345584362 0 -0.15782331034813321 0.27201063798506842 0 -0.14525994315812971 0.26273723324157261 0 -0.15782331034813321 0.27201063798506842 0 -0.13933588575203851 0.28065075345584362 0 -0.14525994315812971 0.26273723324157261 0 -0.10547654699335671 0.26433470401815579 0 -0.1003176782579691 0.28180286157830381 0 -0.089753817824167886 0.26920085846432901 0 -0.10547654699335671 0.26433470401815579 0 -0.11263129894905829 0.27630917760810347 0 -0.1003176782579691 0.28180286157830381 0 -0.098253736429257332 0.25100805589531222 0 -0.10547654699335671 0.26433470401815579 0 -0.1173929939574677 0.25626639050019762 0 -0.098253736429257332 0.25100805589531222 0 -0.10547654699335671 0.26433470401815579 0 -0.089753817824167886 0.26920085846432901 0 -0.1326965759681259 0.25346382849807703 0 -0.1173929939574677 0.25626639050019762 0 -0.1141475251329892 0.24126074696716829 0 -0.1326965759681259 0.25346382849807703 0 -0.1173929939574677 0.25626639050019762 0 -0.12388250938896379 0.26980827590933559 0 -0.10547654699335671 0.26433470401815579 0 -0.1173929939574677 0.25626639050019762 0 -0.12388250938896379 0.26980827590933559 0 -0.10547654699335671 0.26433470401815579 0 -0.12388250938896379 0.26980827590933559 0 -0.11263129894905829 0.27630917760810347 0 -0.12388250938896379 0.26980827590933559 0 -0.11263129894905829 0.27630917760810347 0 -0.12084846115594371 0.28929086892661859 0 -0.11263129894905829 0.27630917760810347 0 -0.12084846115594371 0.28929086892661859 0 -0.1003176782579691 0.28180286157830381 0 -0.12084846115594371 0.28929086892661859 0 -0.10236103655984891 0.29793098439739368 0 -0.12084846115594371 0.28929086892661859 0 -0.10236103655984891 0.29793098439739368 0 -0.1189708891108567 0.31283839014754111 0 -0.093714360182568776 0.30500514641068999 0 -0.10275997281276381 0.31813343056302867 0 -0.1189708891108567 0.31283839014754111 0 -0.10236103655984891 0.29793098439739368 0 -0.093714360182568776 0.30500514641068999 0 -0.1189708891108567 0.31283839014754111 0 -0.093714360182568776 0.30500514641068999 0 -0.1189708891108567 0.31283839014754111 0 -0.10236103655984891 0.29793098439739368 0 -0.090844518393931262 0.29283896442640811 0 -0.093714360182568776 0.30500514641068999 0 -0.10236103655984891 0.29793098439739368 0 -0.1003176782579691 0.28180286157830381 0 -0.090844518393931262 0.29283896442640811 0 -0.12084846115594371 0.28929086892661859 0 -0.10236103655984891 0.29793098439739368 0 -0.1003176782579691 0.28180286157830381 0 -0.1003176782579691 0.28180286157830381 0 -0.081519388988776378 0.28271598331123993 0 -0.090844518393931262 0.29283896442640811 0 -0.081519388988776378 0.28271598331123993 0 -0.090844518393931262 0.29283896442640811 0 -0.078759340627578417 0.30051613344773198 0 -0.093714360182568776 0.30500514641068999 0 -0.083328940376747027 0.3146303911310977 0 -0.092749226702523571 0.3155807980643982 0 -0.090844518393931262 0.29283896442640811 0 -0.093714360182568776 0.30500514641068999 0 -0.078759340627578417 0.30051613344773198 0 -0.093714360182568776 0.30500514641068999 0 -0.078759340627578417 0.30051613344773198 0 -0.083328940376747027 0.3146303911310977 0 -0.059880751147799442 0.29587354760619122 0 -0.068214987569793606 0.31748816906590538 0 -0.078759340627578417 0.30051613344773198 0 -0.068214987569793606 0.31748816906590538 0 -0.083328940376747027 0.3146303911310977 0 -0.078759340627578417 0.30051613344773198 0 -0.059880751147799442 0.29587354760619122 0 -0.068214987569793606 0.31748816906590538 0 -0.081519388988776378 0.28271598331123993 0 -0.078759340627578417 0.30051613344773198 0 -0.059880751147799442 0.29587354760619122 0 -0.081519388988776378 0.28271598331123993 0 -0.068617502557371132 0.26913547151373701 0 -0.059880751147799442 0.29587354760619122 0 -0.081519388988776378 0.28271598331123993 0 -0.068617502557371132 0.26913547151373701 0 -0.089753817824167886 0.26920085846432901 0 -0.1003176782579691 0.28180286157830381 0 -0.081519388988776378 0.28271598331123993 0 -0.089753817824167886 0.26920085846432901 0 -0.098253736429257332 0.25100805589531222 0 -0.089753817824167886 0.26920085846432901 0 -0.082044921696215634 0.25498783744416059 0 -0.068617502557371132 0.26913547151373701 0 -0.089753817824167886 0.26920085846432901 0 -0.082044921696215634 0.25498783744416059 0 -0.068617502557371132 0.26913547151373701 0 -0.082044921696215634 0.25498783744416059 0 -0.06281636713277175 0.2459314445567507 0 -0.068617502557371132 0.26913547151373701 0 -0.048892609481842042 0.25434125477316433 0 -0.06281636713277175 0.2459314445567507 0 -0.068617502557371132 0.26913547151373701 0 -0.051546514725805251 0.27425892614647712 0 -0.059880751147799442 0.29587354760619122 0 -0.068617502557371132 0.26913547151373701 0 -0.048892609481842042 0.25434125477316433 0 -0.051546514725805251 0.27425892614647712 0 -0.051546514725805251 0.27425892614647712 0 -0.032353229784936773 0.26687039309676652 0 -0.034548599822531813 0.28466568638353662 0 -0.048892609481842042 0.25434125477316433 0 -0.032353229784936773 0.26687039309676652 0 -0.032240297161415729 0.25159451474613947 0 -0.048892609481842042 0.25434125477316433 0 -0.051546514725805251 0.27425892614647712 0 -0.032353229784936773 0.26687039309676652 0 -0.032353229784936773 0.26687039309676652 0 -0.019332368889011489 0.25272829580483402 0 -0.017680579643651821 0.27024867427983179 0 -0.032353229784936773 0.26687039309676652 0 -0.032240297161415729 0.25159451474613947 0 -0.019332368889011489 0.25272829580483402 0 -0.017680579643651821 0.27024867427983179 0 -0.017432894006834079 0.28482005216521772 0 -0.034548599822531813 0.28466568638353662 0 -0.032353229784936773 0.26687039309676652 0 -0.017680579643651821 0.27024867427983179 0 -0.034548599822531813 0.28466568638353662 0 -0.017680579643651821 0.27024867427983179 0 -0.0091685957668089079 0.27871747946565589 0 -0.0050120886927738752 0.26825511850815892 0 -0.017680579643651821 0.27024867427983179 0 -0.0091685957668089079 0.27871747946565589 0 -0.017432894006834079 0.28482005216521772 0 -0.0091685957668089079 0.27871747946565589 0 -0.0050120886927738752 0.26825511850815892 0 0.002795744170032055 0.27876245576157882 0 -0.019332368889011489 0.25272829580483402 0 -0.017680579643651821 0.27024867427983179 0 -0.0053765651385902042 0.25470293159257312 0 -0.0050120886927738752 0.26825511850815892 0 -0.0053765651385902042 0.25470293159257312 0 0.01025151234772265 0.26209185674429819 0 -0.017680579643651821 0.27024867427983179 0 -0.0050120886927738752 0.26825511850815892 0 -0.0053765651385902042 0.25470293159257312 0 -0.01465591252965417 0.30339159559034579 0 -0.0044395502485222883 0.30354347077297689 0 -0.0085131606608168063 0.29150109661349222 0 -0.01465591252965417 0.30339159559034579 0 -0.0085131606608168063 0.29150109661349222 0 -0.023624490276268239 0.29619943562567491 0 -0.01465591252965417 0.30339159559034579 0 -0.0044395502485222883 0.30354347077297689 0 -0.01154645534046899 0.31664738791256519 0 -0.0044395502485222883 0.30354347077297689 0 -0.00089345811280322289 0.31281964192298528 0 -0.01154645534046899 0.31664738791256519 0 -0.0044395502485222883 0.30354347077297689 0 -0.0085131606608168063 0.29150109661349222 0 0.0029653021229256679 0.29229565189105722 0 -0.0085131606608168063 0.29150109661349222 0 0.0029653021229256679 0.29229565189105722 0 0.002795744170032055 0.27876245576157882 0 -0.0091685957668089079 0.27871747946565589 0 -0.0085131606608168063 0.29150109661349222 0 0.002795744170032055 0.27876245576157882 0 -0.0091685957668089079 0.27871747946565589 0 -0.0085131606608168063 0.29150109661349222 0 -0.017432894006834079 0.28482005216521772 0 -0.017432894006834079 0.28482005216521772 0 -0.023624490276268239 0.29619943562567491 0 -0.034548599822531813 0.28466568638353662 0 -0.0085131606608168063 0.29150109661349222 0 -0.017432894006834079 0.28482005216521772 0 -0.023624490276268239 0.29619943562567491 0 -0.023624490276268239 0.29619943562567491 0 -0.02558496509808603 0.3108309715284639 0 -0.037455358355121877 0.3041345709323956 0 -0.01465591252965417 0.30339159559034579 0 -0.023624490276268239 0.29619943562567491 0 -0.02558496509808603 0.3108309715284639 0 -0.01465591252965417 0.30339159559034579 0 -0.02558496509808603 0.3108309715284639 0 -0.01154645534046899 0.31664738791256519 0 -0.037455358355121877 0.3041345709323956 0 -0.034548599822531813 0.28466568638353662 0 -0.059880751147799442 0.29587354760619122 0 -0.023624490276268239 0.29619943562567491 0 -0.037455358355121877 0.3041345709323956 0 -0.034548599822531813 0.28466568638353662 0 -0.051546514725805251 0.27425892614647712 0 -0.059880751147799442 0.29587354760619122 0 -0.051546514725805251 0.27425892614647712 0 -0.034548599822531813 0.28466568638353662 0 -0.059880751147799442 0.29587354760619122 0 -0.059880751147799442 0.29587354760619122 0 -0.052302788572125739 0.31462080171998891 0 -0.068214987569793606 0.31748816906590538 0 -0.037455358355121877 0.3041345709323956 0 -0.059880751147799442 0.29587354760619122 0 -0.052302788572125739 0.31462080171998891 0 -0.052302788572125739 0.31462080171998891 0 -0.06083577414877786 0.33274755210280249 0 -0.068214987569793606 0.31748816906590538 0 -0.052302788572125739 0.31462080171998891 0 -0.06083577414877786 0.33274755210280249 0 -0.039552335687359663 0.32347796355080899 0 -0.06083577414877786 0.33274755210280249 0 -0.039552335687359663 0.32347796355080899 0 -0.051336655434588853 0.34678565400560202 0 -0.028106537762768929 0.33451754878585982 0 -0.02617537696222012 0.34593957465804692 0 -0.051336655434588853 0.34678565400560202 0 -0.039552335687359663 0.32347796355080899 0 -0.028106537762768929 0.33451754878585982 0 -0.051336655434588853 0.34678565400560202 0 -0.037455358355121877 0.3041345709323956 0 -0.052302788572125739 0.31462080171998891 0 -0.039552335687359663 0.32347796355080899 0 -0.02558496509808603 0.3108309715284639 0 -0.037455358355121877 0.3041345709323956 0 -0.039552335687359663 0.32347796355080899 0 -0.02558496509808603 0.3108309715284639 0 -0.039552335687359663 0.32347796355080899 0 -0.024320324648155211 0.32310949055203042 0 -0.02558496509808603 0.3108309715284639 0 -0.024320324648155211 0.32310949055203042 0 -0.01154645534046899 0.31664738791256519 0 -0.024320324648155211 0.32310949055203042 0 -0.016811329352092431 0.33007358098245437 0 -0.01154645534046899 0.31664738791256519 0 -0.039552335687359663 0.32347796355080899 0 -0.024320324648155211 0.32310949055203042 0 -0.028106537762768929 0.33451754878585982 0 -0.028106537762768929 0.33451754878585982 0 -0.01373585241729175 0.34131997108811901 0 -0.02617537696222012 0.34593957465804692 0 -0.028106537762768929 0.33451754878585982 0 -0.016811329352092431 0.33007358098245437 0 -0.01373585241729175 0.34131997108811901 0 -0.024320324648155211 0.32310949055203042 0 -0.028106537762768929 0.33451754878585982 0 -0.016811329352092431 0.33007358098245437 0 -0.016811329352092431 0.33007358098245437 0 -0.0094085220524318339 0.33557272810033179 0 -0.0058873206972846221 0.32986301875737079 0 -0.016811329352092431 0.33007358098245437 0 -0.0094085220524318339 0.33557272810033179 0 -0.01373585241729175 0.34131997108811901 0 -0.0094085220524318339 0.33557272810033179 0 -0.01373585241729175 0.34131997108811901 0 -0.0062214665674626161 0.34025088497600292 0 -0.01373585241729175 0.34131997108811901 0 -0.0062214665674626161 0.34025088497600292 0 -0.0010140984898514009 0.34509349531049133 0 -0.0094085220524318339 0.33557272810033179 0 -0.0062214665674626161 0.34025088497600292 0 -0.002362718422269084 0.33650576944850441 0 -0.0062214665674626161 0.34025088497600292 0 -0.002362718422269084 0.33650576944850441 0 -0.00187256140503479 0.34084480581969251 0 -0.0062214665674626161 0.34025088497600292 0 -0.00187256140503479 0.34084480581969251 0 -0.0010140984898514009 0.34509349531049133 0 -0.002362718422269084 0.33650576944850441 0 -0.0058873206972846221 0.32986301875737079 0 0.0042723060148418691 0.33151040961871148 0 -0.0094085220524318339 0.33557272810033179 0 -0.002362718422269084 0.33650576944850441 0 -0.0058873206972846221 0.32986301875737079 0 -0.0058873206972846221 0.32986301875737079 0 0.00039920024997303749 0.32204683334877421 0 0.0042723060148418691 0.33151040961871148 0 -0.0058873206972846221 0.32986301875737079 0 -0.01154645534046899 0.31664738791256519 0 0.00039920024997303749 0.32204683334877421 0 -0.00089345811280322289 0.31281964192298528 0 -0.01154645534046899 0.31664738791256519 0 0.00039920024997303749 0.32204683334877421 0 -0.016811329352092431 0.33007358098245437 0 -0.0058873206972846221 0.32986301875737079 0 -0.01154645534046899 0.31664738791256519 0 -0.0091216814354199566 0.36389775285524112 0 -0.0069068780647111904 0.38028717016417002 0 0.0013503109674801231 0.36998046726524803 0 -0.0091216814354199566 0.36389775285524112 0 -0.018475746234384031 0.37413850265737641 0 -0.0069068780647111904 0.38028717016417002 0 -0.0091216814354199566 0.36389775285524112 0 0.0017728915459497561 0.36055465515606772 0 0.0013503109674801231 0.36998046726524803 0 -0.0010140984898514009 0.34509349531049133 0 -0.02617537696222012 0.34593957465804692 0 -0.0091216814354199566 0.36389775285524112 0 -0.0010140984898514009 0.34509349531049133 0 0.00071743957548701129 0.35115971082290298 0 -0.0091216814354199566 0.36389775285524112 0 -0.0010140984898514009 0.34509349531049133 0 -0.023139084436257371 0.3612927159902739 0 -0.01373585241729175 0.34131997108811901 0 -0.0010140984898514009 0.34509349531049133 0 -0.02617537696222012 0.34593957465804692 0 -0.0010140984898514009 0.34509349531049133 0 -0.023139084436257371 0.3612927159902739 0 -0.0091216814354199566 0.36389775285524112 0 0.00071743957548701129 0.35115971082290298 0 0.0017728915459497561 0.36055465515606772 0 -0.02617537696222012 0.34593957465804692 0 -0.023139084436257371 0.3612927159902739 0 -0.040314008150707292 0.36036962542731449 0 -0.0010140984898514009 0.34509349531049133 0 -0.02617537696222012 0.34593957465804692 0 -0.023139084436257371 0.3612927159902739 0 -0.0091216814354199566 0.36389775285524112 0 -0.023139084436257371 0.3612927159902739 0 -0.018475746234384031 0.37413850265737641 0 -0.023139084436257371 0.3612927159902739 0 -0.018475746234384031 0.37413850265737641 0 -0.031944117403375959 0.37560833719526782 0 -0.023139084436257371 0.3612927159902739 0 -0.045264070382662877 0.37749193667005709 0 -0.031944117403375959 0.37560833719526782 0 -0.040314008150707292 0.36036962542731449 0 -0.051251801701870651 0.36677137760300582 0 -0.045264070382662877 0.37749193667005709 0 -0.023139084436257371 0.3612927159902739 0 -0.045264070382662877 0.37749193667005709 0 -0.023139084436257371 0.3612927159902739 0 -0.040314008150707292 0.36036962542731449 0 -0.045264070382662877 0.37749193667005709 0 -0.02617537696222012 0.34593957465804692 0 -0.051336655434588853 0.34678565400560202 0 -0.02617537696222012 0.34593957465804692 0 -0.040314008150707292 0.36036962542731449 0 -0.051336655434588853 0.34678565400560202 0 -0.040314008150707292 0.36036962542731449 0 -0.051336655434588853 0.34678565400560202 0 -0.051251801701870651 0.36677137760300582 0 -0.051336655434588853 0.34678565400560202 0 -0.063167743922143679 0.36590784337324661 0 -0.072289197645789616 0.35895349392102038 0 -0.051336655434588853 0.34678565400560202 0 -0.051251801701870651 0.36677137760300582 0 -0.063167743922143679 0.36590784337324661 0 -0.051251801701870651 0.36677137760300582 0 -0.061750703022648457 0.37766805882473098 0 -0.045264070382662877 0.37749193667005709 0 -0.051251801701870651 0.36677137760300582 0 -0.063167743922143679 0.36590784337324661 0 -0.061750703022648457 0.37766805882473098 0 -0.063167743922143679 0.36590784337324661 0 -0.076720439770535179 0.37411473672991419 0 -0.061750703022648457 0.37766805882473098 0 -0.063167743922143679 0.36590784337324661 0 -0.076720439770535179 0.37411473672991419 0 -0.072289197645789616 0.35895349392102038 0 -0.076720439770535179 0.37411473672991419 0 -0.084883460413781961 0.36071741198533358 0 -0.072289197645789616 0.35895349392102038 0 -0.076720439770535179 0.37411473672991419 0 -0.084883460413781961 0.36071741198533358 0 -0.096127999621829024 0.37220945872880679 0 -0.084883460413781961 0.36071741198533358 0 -0.076549223991787776 0.33910279052561948 0 -0.084883460413781961 0.36071741198533358 0 -0.091308294686239702 0.3458260215813459 0 -0.076549223991787776 0.33910279052561948 0 -0.084883460413781961 0.36071741198533358 0 -0.091308294686239702 0.3458260215813459 0 -0.1016431411940743 0.35707748927866012 0 -0.084883460413781961 0.36071741198533358 0 -0.076497933906957444 0.34763173335315711 0 -0.076549223991787776 0.33910279052561948 0 -0.051336655434588853 0.34678565400560202 0 -0.076497933906957444 0.34763173335315711 0 -0.072289197645789616 0.35895349392102038 0 -0.051336655434588853 0.34678565400560202 0 -0.076497933906957444 0.34763173335315711 0 -0.084883460413781961 0.36071741198533358 0 -0.076497933906957444 0.34763173335315711 0 -0.072289197645789616 0.35895349392102038 0 -0.076549223991787776 0.33910279052561948 0 -0.068214987569793606 0.31748816906590538 0 -0.06083577414877786 0.33274755210280249 0 -0.076497933906957444 0.34763173335315711 0 -0.076549223991787776 0.33910279052561948 0 -0.06083577414877786 0.33274755210280249 0 -0.076549223991787776 0.33910279052561948 0 -0.068214987569793606 0.31748816906590538 0 -0.06083577414877786 0.33274755210280249 0 -0.051336655434588853 0.34678565400560202 0 -0.076497933906957444 0.34763173335315711 0 -0.076549223991787776 0.33910279052561948 0 -0.068214987569793606 0.31748816906590538 0 -0.081132060219502325 0.32609496389364462 0 -0.068214987569793606 0.31748816906590538 0 -0.083328940376747027 0.3146303911310977 0 -0.081132060219502325 0.32609496389364462 0 -0.083328940376747027 0.3146303911310977 0 -0.081132060219502325 0.32609496389364462 0 -0.091193633438014746 0.32455422415277652 0 -0.083328940376747027 0.3146303911310977 0 -0.091193633438014746 0.32455422415277652 0 -0.092749226702523571 0.3155807980643982 0 -0.091308294686239702 0.3458260215813459 0 -0.076549223991787776 0.33910279052561948 0 -0.087450233271724687 0.33408343935930968 0 -0.076549223991787776 0.33910279052561948 0 -0.081132060219502325 0.32609496389364462 0 -0.087450233271724687 0.33408343935930968 0 -0.081132060219502325 0.32609496389364462 0 -0.091193633438014746 0.32455422415277652 0 -0.087450233271724687 0.33408343935930968 0 -0.091193633438014746 0.32455422415277652 0 -0.087450233271724687 0.33408343935930968 0 -0.098805191252374538 0.33201678196621831 0 -0.091308294686239702 0.3458260215813459 0 -0.087450233271724687 0.33408343935930968 0 -0.098805191252374538 0.33201678196621831 0 -0.091308294686239702 0.3458260215813459 0 -0.098805191252374538 0.33201678196621831 0 -0.1076550323871887 0.34169793332512971 0 -0.098805191252374538 0.33201678196621831 0 -0.1076550323871887 0.34169793332512971 0 -0.11246398091831571 0.32780564281571922 0 -0.093714360182568776 0.30500514641068999 0 -0.092749226702523571 0.3155807980643982 0 -0.10275997281276381 0.31813343056302867 0 -0.091193633438014746 0.32455422415277652 0 -0.092749226702523571 0.3155807980643982 0 -0.10275997281276381 0.31813343056302867 0 -0.091193633438014746 0.32455422415277652 0 -0.098805191252374538 0.33201678196621831 0 -0.10275997281276381 0.31813343056302867 0 -0.098805191252374538 0.33201678196621831 0 -0.10275997281276381 0.31813343056302867 0 -0.11246398091831571 0.32780564281571922 0 -0.10275997281276381 0.31813343056302867 0 -0.1189708891108567 0.31283839014754111 0 -0.11246398091831571 0.32780564281571922 0 -0.12738594765207731 0.33434475648681039 0 -0.1189708891108567 0.31283839014754111 0 -0.11246398091831571 0.32780564281571922 0 -0.12738594765207731 0.33434475648681039 0 -0.1076550323871887 0.34169793332512971 0 -0.12031134189322019 0.3538456545815829 0 -0.12738594765207731 0.33434475648681039 0 -0.1076550323871887 0.34169793332512971 0 -0.11246398091831571 0.32780564281571922 0 -0.1076550323871887 0.34169793332512971 0 -0.12031134189322019 0.3538456545815829 0 -0.1016431411940743 0.35707748927866012 0 -0.12031134189322019 0.3538456545815829 0 -0.11428979766020381 0.36972895159191599 0 -0.1016431411940743 0.35707748927866012 0 -0.13132429704935941 0.36938296962175171 0 -0.12031134189322019 0.3538456545815829 0 -0.11428979766020381 0.36972895159191599 0 -0.084883460413781961 0.36071741198533358 0 -0.096127999621829024 0.37220945872880679 0 -0.1016431411940743 0.35707748927866012 0 -0.11428979766020381 0.36972895159191599 0 -0.096127999621829024 0.37220945872880679 0 -0.1016431411940743 0.35707748927866012 0 -0.091308294686239702 0.3458260215813459 0 -0.1076550323871887 0.34169793332512971 0 -0.1016431411940743 0.35707748927866012 0 -0.1076192130346421 0.38400673268129237 0 -0.1095170907143625 0.40341953759793547 0 -0.091165812304756899 0.38826687900840279 0 -0.1095170907143625 0.40341953759793547 0 -0.087012323784728174 0.40889334701346958 0 -0.091165812304756899 0.38826687900840279 0 -0.11428979766020381 0.36972895159191599 0 -0.096127999621829024 0.37220945872880679 0 -0.1076192130346421 0.38400673268129237 0 -0.096127999621829024 0.37220945872880679 0 -0.1076192130346421 0.38400673268129237 0 -0.091165812304756899 0.38826687900840279 0 -0.12610309816609799 0.38771973428475642 0 -0.11428979766020381 0.36972895159191599 0 -0.1076192130346421 0.38400673268129237 0 -0.12610309816609799 0.38771973428475642 0 -0.13132429704935941 0.36938296962175171 0 -0.11428979766020381 0.36972895159191599 0 -0.12610309816609799 0.38771973428475642 0 -0.1076192130346421 0.38400673268129237 0 -0.1095170907143625 0.40341953759793547 0 -0.12965594829386429 0.40741252108087922 0 -0.12610309816609799 0.38771973428475642 0 -0.1095170907143625 0.40341953759793547 0 -0.1095170907143625 0.40341953759793547 0 -0.122768864332314 0.42638231891009221 0 -0.10175159923544461 0.42215813729614321 0 -0.12965594829386429 0.40741252108087922 0 -0.1095170907143625 0.40341953759793547 0 -0.122768864332314 0.42638231891009221 0 -0.122768864332314 0.42638231891009221 0 -0.10175159923544461 0.42215813729614321 0 -0.10547424912863811 0.44007489139476341 0 -0.10175159923544461 0.42215813729614321 0 -0.083985468217180295 0.4320205915644556 0 -0.10547424912863811 0.44007489139476341 0 -0.1095170907143625 0.40341953759793547 0 -0.10175159923544461 0.42215813729614321 0 -0.087012323784728174 0.40889334701346958 0 -0.087012323784728174 0.40889334701346958 0 -0.083985468217180295 0.4320205915644556 0 -0.069397692273290387 0.41105290858901522 0 -0.10175159923544461 0.42215813729614321 0 -0.087012323784728174 0.40889334701346958 0 -0.083985468217180295 0.4320205915644556 0 -0.083985468217180295 0.4320205915644556 0 -0.058942493498203158 0.42593799902312612 0 -0.065609800260249374 0.44681771680302051 0 -0.083985468217180295 0.4320205915644556 0 -0.069397692273290387 0.41105290858901522 0 -0.058942493498203158 0.42593799902312612 0 -0.069397692273290387 0.41105290858901522 0 -0.067389056329068345 0.39369115734984039 0 -0.053212734041553168 0.40815128669197343 0 -0.087012323784728174 0.40889334701346958 0 -0.069397692273290387 0.41105290858901522 0 -0.067389056329068345 0.39369115734984039 0 -0.087012323784728174 0.40889334701346958 0 -0.067389056329068345 0.39369115734984039 0 -0.091165812304756899 0.38826687900840279 0 -0.076720439770535179 0.37411473672991419 0 -0.067389056329068345 0.39369115734984039 0 -0.091165812304756899 0.38826687900840279 0 -0.076720439770535179 0.37411473672991419 0 -0.096127999621829024 0.37220945872880679 0 -0.091165812304756899 0.38826687900840279 0 -0.076720439770535179 0.37411473672991419 0 -0.067389056329068345 0.39369115734984039 0 -0.061750703022648457 0.37766805882473098 0 -0.067389056329068345 0.39369115734984039 0 -0.045264070382662877 0.37749193667005709 0 -0.067389056329068345 0.39369115734984039 0 -0.044261725420868071 0.39241375567259651 0 -0.045264070382662877 0.37749193667005709 0 -0.067389056329068345 0.39369115734984039 0 -0.061750703022648457 0.37766805882473098 0 -0.045264070382662877 0.37749193667005709 0 -0.067389056329068345 0.39369115734984039 0 -0.044261725420868071 0.39241375567259651 0 -0.053212734041553168 0.40815128669197343 0 -0.044261725420868071 0.39241375567259651 0 -0.036173525986483927 0.4071038429258097 0 -0.053212734041553168 0.40815128669197343 0 -0.044261725420868071 0.39241375567259651 0 -0.031572167728201747 0.39442044597204179 0 -0.036173525986483927 0.4071038429258097 0 -0.044261725420868071 0.39241375567259651 0 -0.031572167728201747 0.39442044597204179 0 -0.036026800612316383 0.3881106026681061 0 -0.044261725420868071 0.39241375567259651 0 -0.036026800612316383 0.3881106026681061 0 -0.037940904231441093 0.38123991054261203 0 -0.044261725420868071 0.39241375567259651 0 -0.045264070382662877 0.37749193667005709 0 -0.037940904231441093 0.38123991054261203 0 -0.031572167728201747 0.39442044597204179 0 -0.036026800612316383 0.3881106026681061 0 -0.03033240506875462 0.3843682984851744 0 -0.036026800612316383 0.3881106026681061 0 -0.037940904231441093 0.38123991054261203 0 -0.03033240506875462 0.3843682984851744 0 -0.031944117403375959 0.37560833719526782 0 -0.037940904231441093 0.38123991054261203 0 -0.03033240506875462 0.3843682984851744 0 -0.045264070382662877 0.37749193667005709 0 -0.031944117403375959 0.37560833719526782 0 -0.037940904231441093 0.38123991054261203 0 -0.031944117403375959 0.37560833719526782 0 -0.02681236422689753 0.38586576323083083 0 -0.031944117403375959 0.37560833719526782 0 -0.02681236422689753 0.38586576323083083 0 -0.03033240506875462 0.3843682984851744 0 -0.018475746234384031 0.37413850265737641 0 -0.031944117403375959 0.37560833719526782 0 -0.02681236422689753 0.38586576323083083 0 -0.018475746234384031 0.37413850265737641 0 -0.02681236422689753 0.38586576323083083 0 -0.0069068780647111904 0.38028717016417002 0 -0.02681236422689753 0.38586576323083083 0 -0.0074555354316463863 0.39410037470577192 0 -0.031572167728201747 0.39442044597204179 0 -0.02681236422689753 0.38586576323083083 0 -0.03033240506875462 0.3843682984851744 0 -0.02681236422689753 0.38586576323083083 0 -0.03033240506875462 0.3843682984851744 0 -0.02681236422689753 0.38586576323083083 0 -0.015477539163995311 0.40852198337829071 0 -0.02681236422689753 0.38586576323083083 0 -0.0074555354316463863 0.39410037470577192 0 -0.015477539163995311 0.40852198337829071 0 -0.031572167728201747 0.39442044597204179 0 -0.02681236422689753 0.38586576323083083 0 -0.015477539163995311 0.40852198337829071 0 -0.031572167728201747 0.39442044597204179 0 -0.015477539163995311 0.40852198337829071 0 -0.036173525986483927 0.4071038429258097 0 -0.00178812290019577 0.40542848477950227 0 -0.0074555354316463863 0.39410037470577192 0 -0.015477539163995311 0.40852198337829071 0 -0.0074555354316463863 0.39410037470577192 0 -0.0069068780647111904 0.38028717016417002 0 0.0074705024925483098 0.38588226540941539 0 -0.02681236422689753 0.38586576323083083 0 -0.0074555354316463863 0.39410037470577192 0 -0.0069068780647111904 0.38028717016417002 0 -0.0041427141010954563 0.43117820352575181 0 -0.015477539163995311 0.40852198337829071 0 -0.018091956738105049 0.43364077515642901 0 -0.0041427141010954563 0.43117820352575181 0 -0.018091956738105049 0.43364077515642901 0 -0.012827335402094769 0.44679103718312579 0 -0.0041427141010954563 0.43117820352575181 0 0.0038792896312541398 0.41675659485323269 0 -0.0041427141010954563 0.43117820352575181 0 -0.015477539163995311 0.40852198337829071 0 0.0038792896312541398 0.41675659485323269 0 -0.00178812290019577 0.40542848477950227 0 -0.015477539163995311 0.40852198337829071 0 0.0038792896312541398 0.41675659485323269 0 -0.0041427141010954563 0.43117820352575181 0 -0.015477539163995311 0.40852198337829071 0 -0.015477539163995311 0.40852198337829071 0 -0.0290434111184566 0.42465682969035218 0 -0.036173525986483927 0.4071038429258097 0 -0.015477539163995311 0.40852198337829071 0 -0.0290434111184566 0.42465682969035218 0 -0.018091956738105049 0.43364077515642901 0 -0.0290434111184566 0.42465682969035218 0 -0.018091956738105049 0.43364077515642901 0 -0.040422401334754568 0.44465013717470259 0 -0.0290434111184566 0.42465682969035218 0 -0.040422401334754568 0.44465013717470259 0 -0.0290434111184566 0.42465682969035218 0 -0.043431198208894538 0.42113088695555279 0 -0.040422401334754568 0.44465013717470259 0 -0.0290434111184566 0.42465682969035218 0 -0.043431198208894538 0.42113088695555279 0 -0.036173525986483927 0.4071038429258097 0 -0.043431198208894538 0.42113088695555279 0 -0.036173525986483927 0.4071038429258097 0 -0.053212734041553168 0.40815128669197343 0 -0.069397692273290387 0.41105290858901522 0 -0.053212734041553168 0.40815128669197343 0 -0.058942493498203158 0.42593799902312612 0 -0.043431198208894538 0.42113088695555279 0 -0.053212734041553168 0.40815128669197343 0 -0.058942493498203158 0.42593799902312612 0 -0.043431198208894538 0.42113088695555279 0 -0.058942493498203158 0.42593799902312612 0 -0.040422401334754568 0.44465013717470259 0 -0.051801391551053719 0.46464344465905227 0 -0.040422401334754568 0.44465013717470259 0 -0.065609800260249374 0.44681771680302051 0 -0.058942493498203158 0.42593799902312612 0 -0.040422401334754568 0.44465013717470259 0 -0.065609800260249374 0.44681771680302051 0 -0.051801391551053719 0.46464344465905227 0 -0.040422401334754568 0.44465013717470259 0 -0.051801391551053719 0.46464344465905227 0 -0.032134227033991901 0.45772432403811092 0 -0.023967969804406158 0.46555171644429871 0 -0.051801391551053719 0.46464344465905227 0 -0.032134227033991901 0.45772432403811092 0 -0.040422401334754568 0.44465013717470259 0 -0.051801391551053719 0.46464344465905227 0 -0.023967969804406158 0.46555171644429871 0 -0.032134227033991901 0.45772432403811092 0 -0.040422401334754568 0.44465013717470259 0 -0.02441752982362078 0.44970786379098132 0 -0.018091956738105049 0.43364077515642901 0 -0.02441752982362078 0.44970786379098132 0 -0.012827335402094769 0.44679103718312579 0 -0.018091956738105049 0.43364077515642901 0 -0.040422401334754568 0.44465013717470259 0 -0.02441752982362078 0.44970786379098132 0 -0.02441752982362078 0.44970786379098132 0 -0.021511956703093381 0.46240387084050022 0 -0.012827335402094769 0.44679103718312579 0 -0.023967969804406158 0.46555171644429871 0 -0.021511956703093381 0.46240387084050022 0 -0.0080611892009694042 0.45966402297224568 0 -0.032134227033991901 0.45772432403811092 0 -0.02441752982362078 0.44970786379098132 0 -0.021511956703093381 0.46240387084050022 0 -0.032134227033991901 0.45772432403811092 0 -0.023967969804406158 0.46555171644429871 0 -0.021511956703093381 0.46240387084050022 0 -0.021511956703093381 0.46240387084050022 0 -0.012827335402094769 0.44679103718312579 0 -0.023967969804406158 0.46555171644429871 0 0.003865451942241316 0.46645998822954698 0 -0.021511956703093381 0.46240387084050022 0 -0.0080611892009694042 0.45966402297224568 0 -0.012827335402094769 0.44679103718312579 0 -0.023967969804406158 0.46555171644429871 0 -0.0080611892009694042 0.45966402297224568 0 0.003865451942241316 0.46645998822954698 0 -0.0080611892009694042 0.45966402297224568 0 -0.0041795029588823102 0.44842714770565428 0 0.008313226868631108 0.45607532714149451 0 -0.0041427141010954563 0.43117820352575181 0 -0.0041795029588823102 0.44842714770565428 0 -0.012827335402094769 0.44679103718312579 0 -0.0041427141010954563 0.43117820352575181 0 -0.0041795029588823102 0.44842714770565428 0 0.008313226868631108 0.45607532714149451 0 -0.0041427141010954563 0.43117820352575181 0 -0.012827335402094769 0.44679103718312579 0 -0.0080611892009694042 0.45966402297224568 0 -0.0041795029588823102 0.44842714770565428 0 -0.012827335402094769 0.44679103718312579 0 -0.0104998144943511 0.50000000000000067 0 -0.003317181276056179 0.4832299941147733 0 0.0065726087299690919 0.48870131786084792 0 -0.0104998144943511 0.50000000000000067 0 -0.003317181276056179 0.4832299941147733 0 -0.021778363619560641 0.48636330904635 0 -0.0104998144943511 0.50000000000000067 0 -0.003317181276056179 0.4832299941147733 0 -0.023967969804406158 0.46555171644429871 0 -0.003317181276056179 0.4832299941147733 0 0.003865451942241316 0.46645998822954698 0 -0.023967969804406158 0.46555171644429871 0 -0.003317181276056179 0.4832299941147733 0 -0.021778363619560641 0.48636330904635 0 -0.023967969804406158 0.46555171644429871 0 -0.021778363619560641 0.48636330904635 0 -0.040132236182218839 0.48303483467267788 0 -0.021778363619560641 0.48636330904635 0 -0.030974616340770918 0.5 0 -0.040132236182218839 0.48303483467267788 0 -0.0104998144943511 0.50000000000000067 0 -0.021778363619560641 0.48636330904635 0 -0.030974616340770918 0.5 0 -0.030974616340770918 0.5 0 -0.040132236182218839 0.48303483467267788 0 -0.051449418187190732 0.5 0 -0.051801391551053719 0.46464344465905227 0 -0.023967969804406158 0.46555171644429871 0 -0.040132236182218839 0.48303483467267788 0 -0.051801391551053719 0.46464344465905227 0 -0.040132236182218839 0.48303483467267788 0 -0.06186280579233161 0.48232172232952619 0 -0.051801391551053719 0.46464344465905227 0 -0.06186280579233161 0.48232172232952619 0 -0.040132236182218839 0.48303483467267788 0 -0.06186280579233161 0.48232172232952619 0 -0.051449418187190732 0.5 0 -0.06186280579233161 0.48232172232952619 0 -0.051449418187190732 0.5 0 -0.071924220033610528 0.49999999999999961 0 -0.06186280579233161 0.48232172232952619 0 -0.071924220033610528 0.49999999999999961 0 -0.084279818269198059 0.4813411453246218 0 -0.06186280579233161 0.48232172232952619 0 -0.071924220033610528 0.49999999999999961 0 -0.071924220033610528 0.49999999999999961 0 -0.084279818269198059 0.4813411453246218 0 -0.1004302329970708 0.5 0 -0.084279818269198059 0.4813411453246218 0 -0.073943572349978573 0.46392089181353091 0 -0.096085753148903594 0.46319833896801238 0 -0.06186280579233161 0.48232172232952619 0 -0.084279818269198059 0.4813411453246218 0 -0.073943572349978573 0.46392089181353091 0 -0.051801391551053719 0.46464344465905227 0 -0.06186280579233161 0.48232172232952619 0 -0.073943572349978573 0.46392089181353091 0 -0.073943572349978573 0.46392089181353091 0 -0.065609800260249374 0.44681771680302051 0 -0.08942209154319776 0.45035572171364502 0 -0.051801391551053719 0.46464344465905227 0 -0.073943572349978573 0.46392089181353091 0 -0.051801391551053719 0.46464344465905227 0 -0.073943572349978573 0.46392089181353091 0 -0.065609800260249374 0.44681771680302051 0 -0.083985468217180295 0.4320205915644556 0 -0.08942209154319776 0.45035572171364502 0 -0.10547424912863811 0.44007489139476341 0 -0.083985468217180295 0.4320205915644556 0 -0.065609800260249374 0.44681771680302051 0 -0.08942209154319776 0.45035572171364502 0 -0.073943572349978573 0.46392089181353091 0 -0.096085753148903594 0.46319833896801238 0 -0.073943572349978573 0.46392089181353091 0 -0.08942209154319776 0.45035572171364502 0 -0.096085753148903594 0.46319833896801238 0 -0.096085753148903594 0.46319833896801238 0 -0.11014362147503449 0.45714374137217278 0 -0.1014323252932933 0.47860591883666198 0 -0.08942209154319776 0.45035572171364502 0 -0.096085753148903594 0.46319833896801238 0 -0.11014362147503449 0.45714374137217278 0 -0.08942209154319776 0.45035572171364502 0 -0.10547424912863811 0.44007489139476341 0 -0.11014362147503449 0.45714374137217278 0 -0.12774480630476689 0.4523017931909934 0 -0.10547424912863811 0.44007489139476341 0 -0.11014362147503449 0.45714374137217278 0 -0.12774480630476689 0.4523017931909934 0 -0.122768864332314 0.42638231891009221 0 -0.10547424912863811 0.44007489139476341 0 -0.12774480630476689 0.4523017931909934 0 -0.11014362147503449 0.45714374137217278 0 -0.1187070756848814 0.47608876725346161 0 -0.11014362147503449 0.45714374137217278 0 -0.1187070756848814 0.47608876725346161 0 -0.1014323252932933 0.47860591883666198 0 -0.12893624596053099 0.5 0 -0.1187070756848814 0.47608876725346161 0 -0.1004302329970708 0.5 0 -0.1187070756848814 0.47608876725346161 0 -0.1004302329970708 0.5 0 -0.1014323252932933 0.47860591883666198 0 -0.084279818269198059 0.4813411453246218 0 -0.1004302329970708 0.5 0 -0.1014323252932933 0.47860591883666198 0 -0.084279818269198059 0.4813411453246218 0 -0.096085753148903594 0.46319833896801238 0 -0.1014323252932933 0.47860591883666198 0 -0.16926994467150219 0.092851066492021975 0 -0.1652315842293014 0.076530857515110684 0 -0.1529998352080997 0.090683373928843916 0 -0.16926994467150219 0.092851066492021975 0 -0.1652315842293014 0.076530857515110684 0 -0.17634701510388781 0.081285656672220499 0 -0.15883368800041489 0.064794845496414982 0 -0.1652315842293014 0.076530857515110684 0 -0.1483587318164574 0.074736477785566025 0 -0.15883368800041489 0.064794845496414982 0 -0.1652315842293014 0.076530857515110684 0 -0.17254575209392631 0.067203705834396471 0 -0.1652315842293014 0.076530857515110684 0 -0.17254575209392631 0.067203705834396471 0 -0.17634701510388781 0.081285656672220499 0 -0.17254575209392631 0.067203705834396471 0 -0.18255941613592069 0.055554244951146192 0 -0.1898988958816239 0.074752144928743949 0 -0.17254575209392631 0.067203705834396471 0 -0.17634701510388781 0.081285656672220499 0 -0.1898988958816239 0.074752144928743949 0 -0.17634701510388781 0.081285656672220499 0 -0.1847888986430854 0.095090508590829459 0 -0.1898988958816239 0.074752144928743949 0 -0.16926994467150219 0.092851066492021975 0 -0.17634701510388781 0.081285656672220499 0 -0.1847888986430854 0.095090508590829459 0 -0.1847888986430854 0.095090508590829459 0 -0.17436711037030889 0.10651489414025871 0 -0.1860160016016755 0.1110498634336745 0 -0.16926994467150219 0.092851066492021975 0 -0.1847888986430854 0.095090508590829459 0 -0.17436711037030889 0.10651489414025871 0 -0.1860160016016755 0.1110498634336745 0 -0.17510758573200991 0.1210198934118604 0 -0.18730680634277519 0.12878533102998169 0 -0.17436711037030889 0.10651489414025871 0 -0.1860160016016755 0.1110498634336745 0 -0.17510758573200991 0.1210198934118604 0 -0.17510758573200991 0.1210198934118604 0 -0.15987436908230879 0.1106030661575835 0 -0.16374920123168099 0.1323050226169121 0 -0.15987436908230879 0.1106030661575835 0 -0.14906057485132229 0.12485653658544089 0 -0.16374920123168099 0.1323050226169121 0 -0.17436711037030889 0.10651489414025871 0 -0.17510758573200991 0.1210198934118604 0 -0.15987436908230879 0.1106030661575835 0 -0.16926994467150219 0.092851066492021975 0 -0.15987436908230879 0.1106030661575835 0 -0.1529998352080997 0.090683373928843916 0 -0.16926994467150219 0.092851066492021975 0 -0.17436711037030889 0.10651489414025871 0 -0.15987436908230879 0.1106030661575835 0 -0.15987436908230879 0.1106030661575835 0 -0.13740750691449019 0.1064230087099456 0 -0.1529998352080997 0.090683373928843916 0 -0.13740750691449019 0.1064230087099456 0 -0.13550263527620801 0.084220334745633979 0 -0.1529998352080997 0.090683373928843916 0 -0.15987436908230879 0.1106030661575835 0 -0.14906057485132229 0.12485653658544089 0 -0.13740750691449019 0.1064230087099456 0 -0.13740750691449019 0.1064230087099456 0 -0.13132737138912021 0.13280019362549789 0 -0.1138368173198773 0.1130993385288049 0 -0.14906057485132229 0.12485653658544089 0 -0.13740750691449019 0.1064230087099456 0 -0.13132737138912021 0.13280019362549789 0 -0.13740750691449019 0.1064230087099456 0 -0.13550263527620801 0.084220334745633979 0 -0.1196222026811571 0.095065592832561427 0 -0.1652315842293014 0.076530857515110684 0 -0.1529998352080997 0.090683373928843916 0 -0.1483587318164574 0.074736477785566025 0 -0.13550263527620801 0.084220334745633979 0 -0.1529998352080997 0.090683373928843916 0 -0.1483587318164574 0.074736477785566025 0 -0.1483587318164574 0.074736477785566025 0 -0.13243112273719479 0.070164547759850704 0 -0.14515352544752591 0.062024907267541951 0 -0.15883368800041489 0.064794845496414982 0 -0.1483587318164574 0.074736477785566025 0 -0.14515352544752591 0.062024907267541951 0 -0.13550263527620801 0.084220334745633979 0 -0.13243112273719479 0.070164547759850704 0 -0.115017790644576 0.07818679874631114 0 -0.13550263527620801 0.084220334745633979 0 -0.1483587318164574 0.074736477785566025 0 -0.13243112273719479 0.070164547759850704 0 -0.13243112273719479 0.070164547759850704 0 -0.12960180451780759 0.058226860103583397 0 -0.14515352544752591 0.062024907267541951 0 -0.13243112273719479 0.070164547759850704 0 -0.12960180451780759 0.058226860103583397 0 -0.1192984853094254 0.065118195564949341 0 -0.12960180451780759 0.058226860103583397 0 -0.1406120151667638 0.05140921681143671 0 -0.14515352544752591 0.062024907267541951 0 -0.12960180451780759 0.058226860103583397 0 -0.1406120151667638 0.05140921681143671 0 -0.13349432012071541 0.049889837085827712 0 -0.1406120151667638 0.05140921681143671 0 -0.13349432012071541 0.049889837085827712 0 -0.1377759855030341 0.044164353304091963 0 -0.13349432012071541 0.049889837085827712 0 -0.1269962598944821 0.048064558485738838 0 -0.1377759855030341 0.044164353304091963 0 -0.12960180451780759 0.058226860103583397 0 -0.13349432012071541 0.049889837085827712 0 -0.1269962598944821 0.048064558485738838 0 -0.1377759855030341 0.044164353304091963 0 -0.11957525328100151 0.03953531160325955 0 -0.1377759855030341 0.044164353304091963 0 -0.1321773927031008 0.025214393829852879 0 -0.11957525328100151 0.03953531160325955 0 -0.1269962598944821 0.048064558485738838 0 -0.1377759855030341 0.044164353304091963 0 -0.11957525328100151 0.03953531160325955 0 -0.1377759855030341 0.044164353304091963 0 -0.1601677008194774 0.049859299127619321 0 -0.16405455627299551 0.033051877452975727 0 -0.1377759855030341 0.044164353304091963 0 -0.16405455627299551 0.033051877452975727 0 -0.1377759855030341 0.044164353304091963 0 -0.14765075139123121 0.023120023433377181 0 -0.16405455627299551 0.033051877452975727 0 -0.1406120151667638 0.05140921681143671 0 -0.14515352544752591 0.062024907267541951 0 -0.1601677008194774 0.049859299127619321 0 -0.1406120151667638 0.05140921681143671 0 -0.1377759855030341 0.044164353304091963 0 -0.1601677008194774 0.049859299127619321 0 -0.1377759855030341 0.044164353304091963 0 -0.1601677008194774 0.049859299127619321 0 -0.15883368800041489 0.064794845496414982 0 -0.14515352544752591 0.062024907267541951 0 -0.1601677008194774 0.049859299127619321 0 -0.1377759855030341 0.044164353304091963 0 -0.1321773927031008 0.025214393829852879 0 -0.14765075139123121 0.023120023433377181 0 -0.13711919296946221 0.0059281162406943227 0 -0.1321773927031008 0.025214393829852879 0 -0.1158146975317281 0.01622541745711387 0 -0.13711919296946221 0.0059281162406943227 0 -0.1321773927031008 0.025214393829852879 0 -0.14765075139123121 0.023120023433377181 0 -0.15108448360991891 -0.012011959110182791 0 -0.13711919296946221 0.0059281162406943227 0 -0.1671266295075636 0.0072413763392705629 0 -0.13711919296946221 0.0059281162406943227 0 -0.14765075139123121 0.023120023433377181 0 -0.1671266295075636 0.0072413763392705629 0 -0.14765075139123121 0.023120023433377181 0 -0.1671266295075636 0.0072413763392705629 0 -0.16405455627299551 0.033051877452975727 0 -0.1671266295075636 0.0072413763392705629 0 -0.16405455627299551 0.033051877452975727 0 -0.19033312704295749 0.02193940160185999 0 -0.16405455627299551 0.033051877452975727 0 -0.19033312704295749 0.02193940160185999 0 -0.1671266295075636 0.0072413763392705629 0 -0.1959160645214538 0.00061070578357951683 0 -0.19033312704295749 0.02193940160185999 0 -0.15883368800041489 0.064794845496414982 0 -0.17254575209392631 0.067203705834396471 0 -0.1601677008194774 0.049859299127619321 0 -0.1601677008194774 0.049859299127619321 0 -0.18255941613592069 0.055554244951146192 0 -0.17254575209392631 0.067203705834396471 0 -0.1601677008194774 0.049859299127619321 0 -0.18255941613592069 0.055554244951146192 0 -0.1601677008194774 0.049859299127619321 0 -0.16405455627299551 0.033051877452975727 0 -0.17793666362826829 0.04012469446083565 0 -0.17793666362826829 0.04012469446083565 0 -0.19256851786999049 0.040218649170577027 0 -0.19033312704295749 0.02193940160185999 0 -0.16405455627299551 0.033051877452975727 0 -0.17793666362826829 0.04012469446083565 0 -0.19033312704295749 0.02193940160185999 0 -0.17793666362826829 0.04012469446083565 0 -0.18255941613592069 0.055554244951146192 0 -0.19256851786999049 0.040218649170577027 0 -0.1601677008194774 0.049859299127619321 0 -0.17793666362826829 0.04012469446083565 0 -0.18255941613592069 0.055554244951146192 0 -0.18255941613592069 0.055554244951146192 0 -0.2005269452757078 0.052716221064576158 0 -0.19473748575949831 0.062524726415664686 0 -0.18255941613592069 0.055554244951146192 0 -0.2005269452757078 0.052716221064576158 0 -0.19256851786999049 0.040218649170577027 0 -0.2005269452757078 0.052716221064576158 0 -0.20596468574474089 0.067076294718192431 0 -0.19473748575949831 0.062524726415664686 0 -0.2005269452757078 0.052716221064576158 0 -0.19256851786999049 0.040218649170577027 0 -0.2083860956403924 0.041177468863300211 0 -0.19256851786999049 0.040218649170577027 0 -0.2083860956403924 0.041177468863300211 0 -0.20459010784145221 0.025522787460657139 0 -0.19256851786999049 0.040218649170577027 0 -0.20459010784145221 0.025522787460657139 0 -0.2083860956403924 0.041177468863300211 0 -0.2141877636282116 0.031734073956804658 0 -0.20459010784145221 0.025522787460657139 0 -0.2083860956403924 0.041177468863300211 0 -0.2141877636282116 0.031734073956804658 0 -0.22074818228155171 0.041340315243670669 0 -0.2083860956403924 0.041177468863300211 0 -0.2153526817994256 0.053810695055514737 0 -0.22074818228155171 0.041340315243670669 0 -0.2153526817994256 0.053810695055514737 0 -0.22230275958496681 0.065954531322736307 0 -0.20596468574474089 0.067076294718192431 0 -0.2005269452757078 0.052716221064576158 0 -0.2153526817994256 0.053810695055514737 0 -0.20596468574474089 0.067076294718192431 0 -0.2005269452757078 0.052716221064576158 0 -0.2083860956403924 0.041177468863300211 0 -0.2153526817994256 0.053810695055514737 0 -0.1959160645214538 0.00061070578357951683 0 -0.19033312704295749 0.02193940160185999 0 -0.2166116978129177 0.01082692575074028 0 -0.19256851786999049 0.040218649170577027 0 -0.19033312704295749 0.02193940160185999 0 -0.20459010784145221 0.025522787460657139 0 -0.2141877636282116 0.031734073956804658 0 -0.20459010784145221 0.025522787460657139 0 -0.2166116978129177 0.01082692575074028 0 -0.19033312704295749 0.02193940160185999 0 -0.2166116978129177 0.01082692575074028 0 -0.19033312704295749 0.02193940160185999 0 -0.20459010784145221 0.025522787460657139 0 -0.2166116978129177 0.01082692575074028 0 -0.20459010784145221 0.025522787460657139 0 -0.2166116978129177 0.01082692575074028 0 -0.21305867300918269 -0.0060677175615454293 0 -0.1959160645214538 0.00061070578357951683 0 -0.2166116978129177 0.01082692575074028 0 -0.2166116978129177 0.01082692575074028 0 -0.23734185760087881 0.0020607184082661809 0 -0.23032236358522429 -0.0059337563736012074 0 -0.2166116978129177 0.01082692575074028 0 -0.23032236358522429 -0.0059337563736012074 0 -0.2166116978129177 0.01082692575074028 0 -0.23734185760087881 0.0020607184082661809 0 -0.2166116978129177 0.01082692575074028 0 -0.2384420332501431 0.021895955908175151 0 -0.23734185760087881 0.0020607184082661809 0 -0.2141877636282116 0.031734073956804658 0 -0.2166116978129177 0.01082692575074028 0 -0.225541452949414 0.030396607943795399 0 -0.225541452949414 0.030396607943795399 0 -0.2384420332501431 0.021895955908175151 0 -0.23350204661217611 0.03855174711724374 0 -0.2166116978129177 0.01082692575074028 0 -0.225541452949414 0.030396607943795399 0 -0.2384420332501431 0.021895955908175151 0 -0.25252246992332861 0.01477872657801072 0 -0.2384420332501431 0.021895955908175151 0 -0.24754032088799149 0.034382237147408332 0 -0.25807201738883828 -0.0067054889342117539 0 -0.25252246992332861 0.01477872657801072 0 -0.23734185760087881 0.0020607184082661809 0 -0.25252246992332861 0.01477872657801072 0 -0.2384420332501431 0.021895955908175151 0 -0.23734185760087881 0.0020607184082661809 0 -0.2275190530596905 0.052371298525365283 0 -0.23978768438049611 0.049308292792602737 0 -0.23485876442610709 0.061832292277429798 0 -0.2275190530596905 0.052371298525365283 0 -0.23485876442610709 0.061832292277429798 0 -0.22230275958496681 0.065954531322736307 0 -0.2153526817994256 0.053810695055514737 0 -0.2275190530596905 0.052371298525365283 0 -0.22230275958496681 0.065954531322736307 0 -0.2153526817994256 0.053810695055514737 0 -0.2275190530596905 0.052371298525365283 0 -0.22074818228155171 0.041340315243670669 0 -0.2141877636282116 0.031734073956804658 0 -0.225541452949414 0.030396607943795399 0 -0.22074818228155171 0.041340315243670669 0 -0.225541452949414 0.030396607943795399 0 -0.22074818228155171 0.041340315243670669 0 -0.23350204661217611 0.03855174711724374 0 -0.2275190530596905 0.052371298525365283 0 -0.22074818228155171 0.041340315243670669 0 -0.23350204661217611 0.03855174711724374 0 -0.2275190530596905 0.052371298525365283 0 -0.23350204661217611 0.03855174711724374 0 -0.23978768438049611 0.049308292792602737 0 -0.23350204661217611 0.03855174711724374 0 -0.24754032088799149 0.034382237147408332 0 -0.23978768438049611 0.049308292792602737 0 -0.2384420332501431 0.021895955908175151 0 -0.23350204661217611 0.03855174711724374 0 -0.24754032088799149 0.034382237147408332 0 -0.25004781488001232 0.048419795599103921 0 -0.24754032088799149 0.034382237147408332 0 -0.23978768438049611 0.049308292792602737 0 -0.25004781488001232 0.048419795599103921 0 -0.23978768438049611 0.049308292792602737 0 -0.2463041657088135 0.058432307632052191 0 -0.23978768438049611 0.049308292792602737 0 -0.23485876442610709 0.061832292277429798 0 -0.2463041657088135 0.058432307632052191 0 -0.25570420656845338 0.064032290482212498 0 -0.2463041657088135 0.058432307632052191 0 -0.24506267074280011 0.070098293709981621 0 -0.25003595785532501 0.080029089309594181 0 -0.24506267074280011 0.070098293709981621 0 -0.24053995410494211 0.080787062759819367 0 -0.24506267074280011 0.070098293709981621 0 -0.24053995410494211 0.080787062759819367 0 -0.2333911883844105 0.073226227292081641 0 -0.23485876442610709 0.061832292277429798 0 -0.24506267074280011 0.070098293709981621 0 -0.2333911883844105 0.073226227292081641 0 -0.23485876442610709 0.061832292277429798 0 -0.2463041657088135 0.058432307632052191 0 -0.24506267074280011 0.070098293709981621 0 -0.2487222034394978 0.090027478766437644 0 -0.23882868921646311 0.090118035538545582 0 -0.24166351057204929 0.097078541984106606 0 -0.2487222034394978 0.090027478766437644 0 -0.24053995410494211 0.080787062759819367 0 -0.23882868921646311 0.090118035538545582 0 -0.25003595785532501 0.080029089309594181 0 -0.2487222034394978 0.090027478766437644 0 -0.24053995410494211 0.080787062759819367 0 -0.24053995410494211 0.080787062759819367 0 -0.23882868921646311 0.090118035538545582 0 -0.23161535051313639 0.084021194226714169 0 -0.24053995410494211 0.080787062759819367 0 -0.23161535051313639 0.084021194226714169 0 -0.2333911883844105 0.073226227292081641 0 -0.23882868921646311 0.090118035538545582 0 -0.23161535051313639 0.084021194226714169 0 -0.23108892323304009 0.09690228125705358 0 -0.23161535051313639 0.084021194226714169 0 -0.22129684418991549 0.08611246325968426 0 -0.23108892323304009 0.09690228125705358 0 -0.22129684418991549 0.08611246325968426 0 -0.22463531495380951 0.076999300999047476 0 -0.2158322588380702 0.075940756132434034 0 -0.23161535051313639 0.084021194226714169 0 -0.22129684418991549 0.08611246325968426 0 -0.22463531495380951 0.076999300999047476 0 -0.22129684418991549 0.08611246325968426 0 -0.2158291354888402 0.095619801176833982 0 -0.23108892323304009 0.09690228125705358 0 -0.23485876442610709 0.061832292277429798 0 -0.2333911883844105 0.073226227292081641 0 -0.22230275958496681 0.065954531322736307 0 -0.2333911883844105 0.073226227292081641 0 -0.22463531495380951 0.076999300999047476 0 -0.22230275958496681 0.065954531322736307 0 -0.23161535051313639 0.084021194226714169 0 -0.2333911883844105 0.073226227292081641 0 -0.22463531495380951 0.076999300999047476 0 -0.22463531495380951 0.076999300999047476 0 -0.22230275958496681 0.065954531322736307 0 -0.2158322588380702 0.075940756132434034 0 -0.22230275958496681 0.065954531322736307 0 -0.20596468574474089 0.067076294718192431 0 -0.2158322588380702 0.075940756132434034 0 -0.20596468574474089 0.067076294718192431 0 -0.2158322588380702 0.075940756132434034 0 -0.20679111450205459 0.082860832482534244 0 -0.20679111450205459 0.082860832482534244 0 -0.19883499250401299 0.093939016873514442 0 -0.2158291354888402 0.095619801176833982 0 -0.22129684418991549 0.08611246325968426 0 -0.2158322588380702 0.075940756132434034 0 -0.20679111450205459 0.082860832482534244 0 -0.22129684418991549 0.08611246325968426 0 -0.20679111450205459 0.082860832482534244 0 -0.2158291354888402 0.095619801176833982 0 -0.1847888986430854 0.095090508590829459 0 -0.1898988958816239 0.074752144928743949 0 -0.19883499250401299 0.093939016873514442 0 -0.20679111450205459 0.082860832482534244 0 -0.1898988958816239 0.074752144928743949 0 -0.19883499250401299 0.093939016873514442 0 -0.20596468574474089 0.067076294718192431 0 -0.1898988958816239 0.074752144928743949 0 -0.19473748575949831 0.062524726415664686 0 -0.18255941613592069 0.055554244951146192 0 -0.1898988958816239 0.074752144928743949 0 -0.19473748575949831 0.062524726415664686 0 -0.20596468574474089 0.067076294718192431 0 -0.20679111450205459 0.082860832482534244 0 -0.1898988958816239 0.074752144928743949 0 -0.1860160016016755 0.1110498634336745 0 -0.20193240956929179 0.1210657710179452 0 -0.18730680634277519 0.12878533102998169 0 -0.1860160016016755 0.1110498634336745 0 -0.20193240956929179 0.1210657710179452 0 -0.19776284561060381 0.1085017952921269 0 -0.1847888986430854 0.095090508590829459 0 -0.1860160016016755 0.1110498634336745 0 -0.19776284561060381 0.1085017952921269 0 -0.1847888986430854 0.095090508590829459 0 -0.19883499250401299 0.093939016873514442 0 -0.19776284561060381 0.1085017952921269 0 -0.19883499250401299 0.093939016873514442 0 -0.19776284561060381 0.1085017952921269 0 -0.20642590507555361 0.1025758239334033 0 -0.19883499250401299 0.093939016873514442 0 -0.20642590507555361 0.1025758239334033 0 -0.2158291354888402 0.095619801176833982 0 -0.19776284561060381 0.1085017952921269 0 -0.20642590507555361 0.1025758239334033 0 -0.21386734285832071 0.1106637613545778 0 -0.20642590507555361 0.1025758239334033 0 -0.2158291354888402 0.095619801176833982 0 -0.21386734285832071 0.1106637613545778 0 -0.2158291354888402 0.095619801176833982 0 -0.21386734285832071 0.1106637613545778 0 -0.22377554355062471 0.1050472074149022 0 -0.20193240956929179 0.1210657710179452 0 -0.19776284561060381 0.1085017952921269 0 -0.21386734285832071 0.1106637613545778 0 -0.20193240956929179 0.1210657710179452 0 -0.21386734285832071 0.1106637613545778 0 -0.217358548259904 0.12212991449697549 0 -0.217358548259904 0.12212991449697549 0 -0.22510834365528989 0.1138147478732958 0 -0.2289141282605747 0.1227530231582307 0 -0.21386734285832071 0.1106637613545778 0 -0.22510834365528989 0.1138147478732958 0 -0.22377554355062471 0.1050472074149022 0 -0.21386734285832071 0.1106637613545778 0 -0.217358548259904 0.12212991449697549 0 -0.22510834365528989 0.1138147478732958 0 -0.22510834365528989 0.1138147478732958 0 -0.23158137538475171 0.10714913587554439 0 -0.23515312361756369 0.1151454449395445 0 -0.22510834365528989 0.1138147478732958 0 -0.2289141282605747 0.1227530231582307 0 -0.23515312361756369 0.1151454449395445 0 -0.2289141282605747 0.1227530231582307 0 -0.2374476910485292 0.123013132539656 0 -0.23515312361756369 0.1151454449395445 0 -0.2158291354888402 0.095619801176833982 0 -0.22377554355062471 0.1050472074149022 0 -0.23108892323304009 0.09690228125705358 0 -0.23158137538475171 0.10714913587554439 0 -0.23108892323304009 0.09690228125705358 0 -0.23987323385304771 0.1051361040305591 0 -0.22377554355062471 0.1050472074149022 0 -0.23158137538475171 0.10714913587554439 0 -0.23108892323304009 0.09690228125705358 0 -0.22510834365528989 0.1138147478732958 0 -0.22377554355062471 0.1050472074149022 0 -0.23158137538475171 0.10714913587554439 0 -0.23108892323304009 0.09690228125705358 0 -0.24166351057204929 0.097078541984106606 0 -0.23987323385304771 0.1051361040305591 0 -0.23882868921646311 0.090118035538545582 0 -0.23108892323304009 0.09690228125705358 0 -0.24166351057204929 0.097078541984106606 0 -0.23158137538475171 0.10714913587554439 0 -0.23987323385304771 0.1051361040305591 0 -0.23515312361756369 0.1151454449395445 0 -0.23987323385304771 0.1051361040305591 0 -0.24885199633285651 0.1008730264747618 0 -0.2457753085582616 0.1114510831065504 0 -0.24166351057204929 0.097078541984106606 0 -0.23987323385304771 0.1051361040305591 0 -0.24885199633285651 0.1008730264747618 0 -0.2487222034394978 0.090027478766437644 0 -0.24166351057204929 0.097078541984106606 0 -0.24885199633285651 0.1008730264747618 0 -0.2374476910485292 0.123013132539656 0 -0.24491160910211721 0.12002479508357571 0 -0.24413287464122441 0.12861436213632099 0 -0.2374476910485292 0.123013132539656 0 -0.23515312361756369 0.1151454449395445 0 -0.24491160910211721 0.12002479508357571 0 -0.23515312361756369 0.1151454449395445 0 -0.2457753085582616 0.1114510831065504 0 -0.24491160910211721 0.12002479508357571 0 -0.23987323385304771 0.1051361040305591 0 -0.23515312361756369 0.1151454449395445 0 -0.2457753085582616 0.1114510831065504 0 -0.25300731857922298 0.11629697879776769 0 -0.2457753085582616 0.1114510831065504 0 -0.24491160910211721 0.12002479508357571 0 -0.25128034306688202 0.1242423928712058 0 -0.25300731857922298 0.11629697879776769 0 -0.24491160910211721 0.12002479508357571 0 -0.25128034306688202 0.1242423928712058 0 -0.24491160910211721 0.12002479508357571 0 -0.24413287464122441 0.12861436213632099 0 -0.25311632561299002 0.1349665128324545 0 -0.25128034306688202 0.1242423928712058 0 -0.24413287464122441 0.12861436213632099 0 -0.25311632561299002 0.1349665128324545 0 -0.24413287464122441 0.12861436213632099 0 -0.24130717481208469 0.13723179419065379 0 -0.25311632561299002 0.1349665128324545 0 -0.24130717481208469 0.13723179419065379 0 -0.23956530289867101 0.14906316290553431 0 -0.24130717481208469 0.13723179419065379 0 -0.23519775761988351 0.13130308629696519 0 -0.23223929034515059 0.1403731500779804 0 -0.2374476910485292 0.123013132539656 0 -0.24413287464122441 0.12861436213632099 0 -0.23519775761988351 0.13130308629696519 0 -0.24413287464122441 0.12861436213632099 0 -0.24130717481208469 0.13723179419065379 0 -0.23519775761988351 0.13130308629696519 0 -0.2289141282605747 0.1227530231582307 0 -0.23519775761988351 0.13130308629696519 0 -0.22399384094189659 0.1320120420180643 0 -0.2289141282605747 0.1227530231582307 0 -0.2374476910485292 0.123013132539656 0 -0.23519775761988351 0.13130308629696519 0 -0.23519775761988351 0.13130308629696519 0 -0.23223929034515059 0.1403731500779804 0 -0.22399384094189659 0.1320120420180643 0 -0.23223929034515059 0.1403731500779804 0 -0.22399384094189659 0.1320120420180643 0 -0.22253728340452111 0.1429769776421313 0 -0.22399384094189659 0.1320120420180643 0 -0.22253728340452111 0.1429769776421313 0 -0.2117248776934901 0.13392607872139739 0 -0.217358548259904 0.12212991449697549 0 -0.2289141282605747 0.1227530231582307 0 -0.22399384094189659 0.1320120420180643 0 -0.2305711245479771 0.15029916922995559 0 -0.2428796893208188 0.15423057091888731 0 -0.22532970633840679 0.1621686782972902 0 -0.2193648240086101 0.15364985593442629 0 -0.2305711245479771 0.15029916922995559 0 -0.22532970633840679 0.1621686782972902 0 -0.2193648240086101 0.15364985593442629 0 -0.22253728340452111 0.1429769776421313 0 -0.2305711245479771 0.15029916922995559 0 -0.23223929034515059 0.1403731500779804 0 -0.2305711245479771 0.15029916922995559 0 -0.23956530289867101 0.14906316290553431 0 -0.23223929034515059 0.1403731500779804 0 -0.22253728340452111 0.1429769776421313 0 -0.2305711245479771 0.15029916922995559 0 -0.2305711245479771 0.15029916922995559 0 -0.23956530289867101 0.14906316290553431 0 -0.2428796893208188 0.15423057091888731 0 -0.25311632561299002 0.1349665128324545 0 -0.2428796893208188 0.15423057091888731 0 -0.25311632561299002 0.1349665128324545 0 -0.23956530289867101 0.14906316290553431 0 -0.2428796893208188 0.15423057091888731 0 -0.24130717481208469 0.13723179419065379 0 -0.23223929034515059 0.1403731500779804 0 -0.23956530289867101 0.14906316290553431 0 -0.25311632561299002 0.1349665128324545 0 -0.23956530289867101 0.14906316290553431 0 -0.25283233744788458 0.1601161742247936 0 -0.2428796893208188 0.15423057091888731 0 -0.23264305302864741 0.17349462900532001 0 -0.25537995456211787 0.1716825948329013 0 -0.25283233744788458 0.1601161742247936 0 -0.23264305302864741 0.17349462900532001 0 -0.2428796893208188 0.15423057091888731 0 -0.23264305302864741 0.17349462900532001 0 -0.25206530896027463 0.19235554102112939 0 -0.25537995456211787 0.1716825948329013 0 -0.23264305302864741 0.17349462900532001 0 -0.25206530896027463 0.19235554102112939 0 -0.23264305302864741 0.17349462900532001 0 -0.22240641673647579 0.19275868709175259 0 -0.23264305302864741 0.17349462900532001 0 -0.22240641673647579 0.19275868709175259 0 -0.23264305302864741 0.17349462900532001 0 -0.21751464936070891 0.17780744626662681 0 -0.22240641673647579 0.19275868709175259 0 -0.23264305302864741 0.17349462900532001 0 -0.22532970633840679 0.1621686782972902 0 -0.21751464936070891 0.17780744626662681 0 -0.2428796893208188 0.15423057091888731 0 -0.23264305302864741 0.17349462900532001 0 -0.22532970633840679 0.1621686782972902 0 -0.2193648240086101 0.15364985593442629 0 -0.22532970633840679 0.1621686782972902 0 -0.2088607732590419 0.16456530901550159 0 -0.22532970633840679 0.1621686782972902 0 -0.2088607732590419 0.16456530901550159 0 -0.21751464936070891 0.17780744626662681 0 -0.2058792180906763 0.17960917564319681 0 -0.21303107132404861 0.1928861238697426 0 -0.19735385620641541 0.18845937924460851 0 -0.21751464936070891 0.17780744626662681 0 -0.2058792180906763 0.17960917564319681 0 -0.21303107132404861 0.1928861238697426 0 -0.2088607732590419 0.16456530901550159 0 -0.21751464936070891 0.17780744626662681 0 -0.2058792180906763 0.17960917564319681 0 -0.2088607732590419 0.16456530901550159 0 -0.2058792180906763 0.17960917564319681 0 -0.1926357403031668 0.17432761981950451 0 -0.1926357403031668 0.17432761981950451 0 -0.19735385620641541 0.18845937924460851 0 -0.18296532817023381 0.19315308701215339 0 -0.2058792180906763 0.17960917564319681 0 -0.1926357403031668 0.17432761981950451 0 -0.19735385620641541 0.18845937924460851 0 -0.2088607732590419 0.16456530901550159 0 -0.1926357403031668 0.17432761981950451 0 -0.18879401332360271 0.1534406628603765 0 -0.2088607732590419 0.16456530901550159 0 -0.18879401332360271 0.1534406628603765 0 -0.2095252324931037 0.148239145487253 0 -0.18879401332360271 0.1534406628603765 0 -0.1971551313834127 0.13890194726954741 0 -0.2095252324931037 0.148239145487253 0 -0.18879401332360271 0.1534406628603765 0 -0.1971551313834127 0.13890194726954741 0 -0.17851843814837171 0.1393652887254829 0 -0.1971551313834127 0.13890194726954741 0 -0.18730680634277519 0.12878533102998169 0 -0.17851843814837171 0.1393652887254829 0 -0.20193240956929179 0.1210657710179452 0 -0.1971551313834127 0.13890194726954741 0 -0.18730680634277519 0.12878533102998169 0 -0.1971551313834127 0.13890194726954741 0 -0.2117248776934901 0.13392607872139739 0 -0.2095252324931037 0.148239145487253 0 -0.20193240956929179 0.1210657710179452 0 -0.1971551313834127 0.13890194726954741 0 -0.2117248776934901 0.13392607872139739 0 -0.20193240956929179 0.1210657710179452 0 -0.217358548259904 0.12212991449697549 0 -0.2117248776934901 0.13392607872139739 0 -0.217358548259904 0.12212991449697549 0 -0.22399384094189659 0.1320120420180643 0 -0.2117248776934901 0.13392607872139739 0 -0.2193648240086101 0.15364985593442629 0 -0.2088607732590419 0.16456530901550159 0 -0.2095252324931037 0.148239145487253 0 -0.2193648240086101 0.15364985593442629 0 -0.22253728340452111 0.1429769776421313 0 -0.2095252324931037 0.148239145487253 0 -0.22253728340452111 0.1429769776421313 0 -0.2117248776934901 0.13392607872139739 0 -0.2095252324931037 0.148239145487253 0 -0.22445986870165541 0.24673731978024771 0 -0.23904676463467969 0.24305729105867771 0 -0.21877312422594949 0.23280961064986699 0 -0.2334519185653488 0.25879813167668769 0 -0.22445986870165541 0.24673731978024771 0 -0.23904676463467969 0.24305729105867771 0 -0.23904676463467969 0.24305729105867771 0 -0.21877312422594949 0.23280961064986699 0 -0.25932040504340997 0.25330497146748832 0 -0.23904676463467969 0.24305729105867771 0 -0.25176944386397782 0.2405068625967319 0 -0.23904676463467969 0.24305729105867771 0 -0.2381323667578818 0.22417883657737869 0 -0.25649435069066051 0.22972084610719559 0 -0.25176944386397782 0.2405068625967319 0 -0.2381323667578818 0.22417883657737869 0 -0.2381323667578818 0.22417883657737869 0 -0.21877312422594949 0.23280961064986699 0 -0.21727567120828969 0.21981148948604731 0 -0.23904676463467969 0.24305729105867771 0 -0.2381323667578818 0.22417883657737869 0 -0.21877312422594949 0.23280961064986699 0 -0.2381323667578818 0.22417883657737869 0 -0.2256850957830969 0.210495636386521 0 -0.23569498219410559 0.20468942010441099 0 -0.2381323667578818 0.22417883657737869 0 -0.2256850957830969 0.210495636386521 0 -0.21727567120828969 0.21981148948604731 0 -0.2256850957830969 0.210495636386521 0 -0.21760525766652969 0.20562655560336041 0 -0.21727567120828969 0.21981148948604731 0 -0.2256850957830969 0.210495636386521 0 -0.22012984795337839 0.19704290233820901 0 -0.21760525766652969 0.20562655560336041 0 -0.2256850957830969 0.210495636386521 0 -0.23569498219410559 0.20468942010441099 0 -0.22012984795337839 0.19704290233820901 0 -0.25206530896027463 0.19235554102112939 0 -0.25692260654480559 0.21406176937318019 0 -0.23569498219410559 0.20468942010441099 0 -0.25692260654480559 0.21406176937318019 0 -0.2381323667578818 0.22417883657737869 0 -0.23569498219410559 0.20468942010441099 0 -0.25206530896027463 0.19235554102112939 0 -0.23569498219410559 0.20468942010441099 0 -0.22240641673647579 0.19275868709175259 0 -0.25206530896027463 0.19235554102112939 0 -0.22240641673647579 0.19275868709175259 0 -0.23569498219410559 0.20468942010441099 0 -0.22012984795337839 0.19704290233820901 0 -0.22240641673647579 0.19275868709175259 0 -0.22012984795337839 0.19704290233820901 0 -0.2188117807910433 0.1949979863119192 0 -0.21760525766652969 0.20562655560336041 0 -0.22012984795337839 0.19704290233820901 0 -0.2188117807910433 0.1949979863119192 0 -0.22240641673647579 0.19275868709175259 0 -0.22012984795337839 0.19704290233820901 0 -0.22240641673647579 0.19275868709175259 0 -0.2188117807910433 0.1949979863119192 0 -0.19441004151838351 0.20444629563142369 0 -0.20926987483628659 0.20964778286190519 0 -0.2188117807910433 0.1949979863119192 0 -0.19441004151838351 0.20444629563142369 0 -0.2188117807910433 0.1949979863119192 0 -0.21303107132404861 0.1928861238697426 0 -0.19441004151838351 0.20444629563142369 0 -0.2188117807910433 0.1949979863119192 0 -0.22240641673647579 0.19275868709175259 0 -0.21303107132404861 0.1928861238697426 0 -0.21751464936070891 0.17780744626662681 0 -0.22240641673647579 0.19275868709175259 0 -0.21303107132404861 0.1928861238697426 0 -0.22240641673647579 0.19275868709175259 0 -0.21303107132404861 0.1928861238697426 0 -0.19735385620641541 0.18845937924460851 0 -0.19441004151838351 0.20444629563142369 0 -0.18296532817023381 0.19315308701215339 0 -0.21303107132404861 0.1928861238697426 0 -0.19735385620641541 0.18845937924460851 0 -0.19441004151838351 0.20444629563142369 0 -0.19441004151838351 0.20444629563142369 0 -0.20926987483628659 0.20964778286190519 0 -0.19849948381721921 0.2225619302410563 0 -0.20926987483628659 0.20964778286190519 0 -0.21727567120828969 0.21981148948604731 0 -0.19849948381721921 0.2225619302410563 0 -0.2188117807910433 0.1949979863119192 0 -0.20926987483628659 0.20964778286190519 0 -0.21760525766652969 0.20562655560336041 0 -0.20926987483628659 0.20964778286190519 0 -0.21760525766652969 0.20562655560336041 0 -0.21727567120828969 0.21981148948604731 0 -0.21877312422594949 0.23280961064986699 0 -0.19849948381721921 0.2225619302410563 0 -0.21877312422594949 0.23280961064986699 0 -0.19849948381721921 0.2225619302410563 0 -0.1959081232975621 0.23904623507194669 0 -0.21877312422594949 0.23280961064986699 0 -0.21727567120828969 0.21981148948604731 0 -0.19849948381721921 0.2225619302410563 0 -0.19849948381721921 0.2225619302410563 0 -0.1959081232975621 0.23904623507194669 0 -0.1816832363740318 0.22932955250677531 0 -0.19441004151838351 0.20444629563142369 0 -0.19849948381721921 0.2225619302410563 0 -0.1816832363740318 0.22932955250677531 0 -0.20671033672369329 0.25385264203120672 0 -0.1959081232975621 0.23904623507194669 0 -0.1799687548820377 0.24890715238572569 0 -0.20671033672369329 0.25385264203120672 0 -0.21877312422594949 0.23280961064986699 0 -0.1959081232975621 0.23904623507194669 0 -0.20671033672369329 0.25385264203120672 0 -0.22445986870165541 0.24673731978024771 0 -0.21877312422594949 0.23280961064986699 0 -0.16809876103440341 0.23741759958558559 0 -0.1799687548820377 0.24890715238572569 0 -0.1532271730403823 0.24396166274024469 0 -0.16468212307862709 0.25704411620549161 0 -0.1799687548820377 0.24890715238572569 0 -0.1532271730403823 0.24396166274024469 0 -0.1799687548820377 0.24890715238572569 0 -0.1532271730403823 0.24396166274024469 0 -0.16809876103440341 0.23741759958558559 0 -0.1575524204655312 0.23054929419713149 0 -0.1532271730403823 0.24396166274024469 0 -0.1959081232975621 0.23904623507194669 0 -0.1799687548820377 0.24890715238572569 0 -0.1816832363740318 0.22932955250677531 0 -0.16809876103440341 0.23741759958558559 0 -0.1799687548820377 0.24890715238572569 0 -0.1816832363740318 0.22932955250677531 0 -0.16809876103440341 0.23741759958558559 0 -0.1816832363740318 0.22932955250677531 0 -0.17000830224572369 0.21389460495092821 0 -0.1575524204655312 0.23054929419713149 0 -0.17000830224572369 0.21389460495092821 0 -0.14560656297306379 0.22334291427043271 0 -0.16809876103440341 0.23741759958558559 0 -0.1575524204655312 0.23054929419713149 0 -0.17000830224572369 0.21389460495092821 0 -0.17000830224572369 0.21389460495092821 0 -0.14560656297306379 0.22334291427043271 0 -0.17000830224572369 0.21389460495092821 0 -0.15898631240804451 0.2021391798921417 0 -0.14560656297306379 0.22334291427043271 0 -0.19441004151838351 0.20444629563142369 0 -0.17000830224572369 0.21389460495092821 0 -0.18296532817023381 0.19315308701215339 0 -0.19441004151838351 0.20444629563142369 0 -0.17000830224572369 0.21389460495092821 0 -0.19441004151838351 0.20444629563142369 0 -0.1816832363740318 0.22932955250677531 0 -0.17000830224572369 0.21389460495092821 0 -0.17000830224572369 0.21389460495092821 0 -0.18296532817023381 0.19315308701215339 0 -0.16836907364974041 0.18903810857045311 0 -0.17000830224572369 0.21389460495092821 0 -0.16836907364974041 0.18903810857045311 0 -0.15898631240804451 0.2021391798921417 0 -0.16836907364974041 0.18903810857045311 0 -0.15898631240804451 0.2021391798921417 0 -0.14126559817161391 0.17933756327475969 0 -0.15898631240804451 0.2021391798921417 0 -0.143862236647011 0.20770124881199201 0 -0.14126559817161391 0.17933756327475969 0 -0.143862236647011 0.20770124881199201 0 -0.14126559817161391 0.17933756327475969 0 -0.1226579984415305 0.19556365897103831 0 -0.143862236647011 0.20770124881199201 0 -0.1168469468089313 0.22044464739357819 0 -0.143862236647011 0.20770124881199201 0 -0.14560656297306379 0.22334291427043271 0 -0.1168469468089313 0.22044464739357819 0 -0.143862236647011 0.20770124881199201 0 -0.1168469468089313 0.22044464739357819 0 -0.1226579984415305 0.19556365897103831 0 -0.15898631240804451 0.2021391798921417 0 -0.143862236647011 0.20770124881199201 0 -0.14560656297306379 0.22334291427043271 0 -0.14560656297306379 0.22334291427043271 0 -0.12996000236676469 0.2344638159322309 0 -0.1532271730403823 0.24396166274024469 0 -0.1575524204655312 0.23054929419713149 0 -0.14560656297306379 0.22334291427043271 0 -0.1532271730403823 0.24396166274024469 0 -0.14560656297306379 0.22334291427043271 0 -0.12996000236676469 0.2344638159322309 0 -0.1168469468089313 0.22044464739357819 0 -0.1326965759681259 0.25346382849807703 0 -0.12996000236676469 0.2344638159322309 0 -0.1141475251329892 0.24126074696716829 0 -0.1326965759681259 0.25346382849807703 0 -0.12996000236676469 0.2344638159322309 0 -0.1532271730403823 0.24396166274024469 0 -0.16446731148338581 0.1523468447263715 0 -0.16374920123168099 0.1323050226169121 0 -0.17851843814837171 0.1393652887254829 0 -0.16446731148338581 0.1523468447263715 0 -0.16374920123168099 0.1323050226169121 0 -0.1505975785353291 0.14027937394087869 0 -0.17510758573200991 0.1210198934118604 0 -0.18730680634277519 0.12878533102998169 0 -0.17851843814837171 0.1393652887254829 0 -0.17510758573200991 0.1210198934118604 0 -0.16374920123168099 0.1323050226169121 0 -0.17851843814837171 0.1393652887254829 0 -0.18879401332360271 0.1534406628603765 0 -0.16446731148338581 0.1523468447263715 0 -0.17851843814837171 0.1393652887254829 0 -0.1926357403031668 0.17432761981950451 0 -0.18879401332360271 0.1534406628603765 0 -0.1754997898749534 0.1721460805223394 0 -0.18879401332360271 0.1534406628603765 0 -0.16446731148338581 0.1523468447263715 0 -0.1754997898749534 0.1721460805223394 0 -0.18296532817023381 0.19315308701215339 0 -0.16836907364974041 0.18903810857045311 0 -0.1754997898749534 0.1721460805223394 0 -0.1926357403031668 0.17432761981950451 0 -0.18296532817023381 0.19315308701215339 0 -0.1754997898749534 0.1721460805223394 0 -0.16836907364974041 0.18903810857045311 0 -0.1754997898749534 0.1721460805223394 0 -0.15785830253869301 0.1696425666982643 0 -0.16446731148338581 0.1523468447263715 0 -0.1754997898749534 0.1721460805223394 0 -0.15785830253869301 0.1696425666982643 0 -0.16446731148338581 0.1523468447263715 0 -0.15785830253869301 0.1696425666982643 0 -0.13968973951377139 0.15534423639739781 0 -0.15785830253869301 0.1696425666982643 0 -0.14126559817161391 0.17933756327475969 0 -0.13968973951377139 0.15534423639739781 0 -0.16836907364974041 0.18903810857045311 0 -0.14126559817161391 0.17933756327475969 0 -0.16836907364974041 0.18903810857045311 0 -0.15785830253869301 0.1696425666982643 0 -0.14126559817161391 0.17933756327475969 0 -0.14126559817161391 0.17933756327475969 0 -0.11416212269348749 0.1696370179790665 0 -0.14126559817161391 0.17933756327475969 0 -0.11416212269348749 0.1696370179790665 0 -0.1226579984415305 0.19556365897103831 0 -0.14126559817161391 0.17933756327475969 0 -0.13968973951377139 0.15534423639739781 0 -0.11416212269348749 0.1696370179790665 0 -0.13968973951377139 0.15534423639739781 0 -0.13132737138912021 0.13280019362549789 0 -0.1124853510131136 0.14497520469458 0 -0.13968973951377139 0.15534423639739781 0 -0.1505975785353291 0.14027937394087869 0 -0.13132737138912021 0.13280019362549789 0 -0.16446731148338581 0.1523468447263715 0 -0.13968973951377139 0.15534423639739781 0 -0.1505975785353291 0.14027937394087869 0 -0.14906057485132229 0.12485653658544089 0 -0.1505975785353291 0.14027937394087869 0 -0.13132737138912021 0.13280019362549789 0 -0.14906057485132229 0.12485653658544089 0 -0.16374920123168099 0.1323050226169121 0 -0.1505975785353291 0.14027937394087869 0 -0.1124853510131136 0.14497520469458 0 -0.093337876346260645 0.13270582904707881 0 -0.1138368173198773 0.1130993385288049 0 -0.13132737138912021 0.13280019362549789 0 -0.1124853510131136 0.14497520469458 0 -0.1138368173198773 0.1130993385288049 0 -0.1124853510131136 0.14497520469458 0 -0.087058647215360996 0.15993647268337319 0 -0.093337876346260645 0.13270582904707881 0 -0.11416212269348749 0.1696370179790665 0 -0.081500716861403616 0.18205617381268341 0 -0.097153087886608633 0.2006978173957952 0 -0.13968973951377139 0.15534423639739781 0 -0.1124853510131136 0.14497520469458 0 -0.11416212269348749 0.1696370179790665 0 -0.11416212269348749 0.1696370179790665 0 -0.087058647215360996 0.15993647268337319 0 -0.081500716861403616 0.18205617381268341 0 -0.1124853510131136 0.14497520469458 0 -0.11416212269348749 0.1696370179790665 0 -0.087058647215360996 0.15993647268337319 0 -0.11416212269348749 0.1696370179790665 0 -0.087058647215360996 0.15993647268337319 0 -0.087058647215360996 0.15993647268337319 0 -0.081500716861403616 0.18205617381268341 0 -0.069171468511179973 0.1666093700895365 0 -0.081500716861403616 0.18205617381268341 0 -0.069171468511179973 0.1666093700895365 0 -0.060918390857913951 0.18815445452544169 0 -0.087058647215360996 0.15993647268337319 0 -0.069171468511179973 0.1666093700895365 0 -0.059955171737234518 0.15023592738767991 0 -0.087058647215360996 0.15993647268337319 0 -0.059955171737234518 0.15023592738767991 0 -0.087058647215360996 0.15993647268337319 0 -0.074606307352471285 0.13812341921415219 0 -0.059955171737234518 0.15023592738767991 0 -0.074606307352471285 0.13812341921415219 0 -0.057567733900907719 0.1331401758219927 0 -0.065955274443171091 0.1221626902035232 0 -0.074606307352471285 0.13812341921415219 0 -0.065955274443171091 0.1221626902035232 0 -0.082717466772410278 0.1150385401419584 0 -0.074606307352471285 0.13812341921415219 0 -0.057567733900907719 0.1331401758219927 0 -0.059955171737234518 0.15023592738767991 0 -0.074606307352471285 0.13812341921415219 0 -0.093337876346260645 0.13270582904707881 0 -0.082717466772410278 0.1150385401419584 0 -0.087058647215360996 0.15993647268337319 0 -0.074606307352471285 0.13812341921415219 0 -0.093337876346260645 0.13270582904707881 0 -0.098253736429257332 0.25100805589531222 0 -0.1141475251329892 0.24126074696716829 0 -0.089831656970851631 0.2331880459751644 0 -0.098253736429257332 0.25100805589531222 0 -0.1173929939574677 0.25626639050019762 0 -0.1141475251329892 0.24126074696716829 0 -0.12996000236676469 0.2344638159322309 0 -0.1141475251329892 0.24126074696716829 0 -0.1168469468089313 0.22044464739357819 0 -0.1168469468089313 0.22044464739357819 0 -0.089831656970851631 0.2331880459751644 0 -0.1141475251329892 0.24126074696716829 0 -0.1168469468089313 0.22044464739357819 0 -0.089831656970851631 0.2331880459751644 0 -0.1168469468089313 0.22044464739357819 0 -0.097153087886608633 0.2006978173957952 0 -0.089831656970851631 0.2331880459751644 0 -0.1168469468089313 0.22044464739357819 0 -0.1226579984415305 0.19556365897103831 0 -0.097153087886608633 0.2006978173957952 0 -0.11416212269348749 0.1696370179790665 0 -0.1226579984415305 0.19556365897103831 0 -0.097153087886608633 0.2006978173957952 0 -0.097153087886608633 0.2006978173957952 0 -0.070228241292798838 0.20929612013303481 0 -0.089831656970851631 0.2331880459751644 0 -0.081500716861403616 0.18205617381268341 0 -0.097153087886608633 0.2006978173957952 0 -0.070228241292798838 0.20929612013303481 0 -0.081500716861403616 0.18205617381268341 0 -0.070228241292798838 0.20929612013303481 0 -0.060918390857913951 0.18815445452544169 0 -0.089831656970851631 0.2331880459751644 0 -0.06281636713277175 0.2459314445567507 0 -0.057641609829056299 0.23066318475907369 0 -0.070228241292798838 0.20929612013303481 0 -0.089831656970851631 0.2331880459751644 0 -0.057641609829056299 0.23066318475907369 0 -0.089831656970851631 0.2331880459751644 0 -0.06281636713277175 0.2459314445567507 0 -0.082044921696215634 0.25498783744416059 0 -0.089831656970851631 0.2331880459751644 0 -0.06281636713277175 0.2459314445567507 0 -0.098253736429257332 0.25100805589531222 0 -0.082044921696215634 0.25498783744416059 0 -0.089831656970851631 0.2331880459751644 0 -0.048892609481842042 0.25434125477316433 0 -0.032240297161415729 0.25159451474613947 0 -0.037090491811792442 0.23926550824457951 0 -0.048892609481842042 0.25434125477316433 0 -0.037090491811792442 0.23926550824457951 0 -0.057641609829056299 0.23066318475907369 0 -0.048892609481842042 0.25434125477316433 0 -0.06281636713277175 0.2459314445567507 0 -0.057641609829056299 0.23066318475907369 0 -0.057641609829056299 0.23066318475907369 0 -0.043136643134162121 0.2236272902472346 0 -0.053353187236109108 0.21479141850227321 0 -0.037090491811792442 0.23926550824457951 0 -0.043136643134162121 0.2236272902472346 0 -0.029577861347099062 0.2302108069202512 0 -0.037090491811792442 0.23926550824457951 0 -0.057641609829056299 0.23066318475907369 0 -0.043136643134162121 0.2236272902472346 0 -0.043136643134162121 0.2236272902472346 0 -0.033815116562738702 0.22243236430397079 0 -0.029577861347099062 0.2302108069202512 0 -0.043136643134162121 0.2236272902472346 0 -0.033815116562738702 0.22243236430397079 0 -0.031759952404815391 0.21398247257754369 0 -0.043136643134162121 0.2236272902472346 0 -0.031759952404815391 0.21398247257754369 0 -0.041655641763974127 0.2079857912746832 0 -0.043136643134162121 0.2236272902472346 0 -0.041655641763974127 0.2079857912746832 0 -0.053353187236109108 0.21479141850227321 0 -0.031759952404815391 0.21398247257754369 0 -0.032150209640343597 0.20740920699976301 0 -0.041655641763974127 0.2079857912746832 0 -0.032150209640343597 0.20740920699976301 0 -0.041655641763974127 0.2079857912746832 0 -0.03227015836810436 0.2006536842334585 0 -0.070228241292798838 0.20929612013303481 0 -0.057641609829056299 0.23066318475907369 0 -0.053353187236109108 0.21479141850227321 0 -0.070228241292798838 0.20929612013303481 0 -0.053353187236109108 0.21479141850227321 0 -0.054103800160554189 0.2023847060973395 0 -0.041655641763974127 0.2079857912746832 0 -0.053353187236109108 0.21479141850227321 0 -0.054103800160554189 0.2023847060973395 0 -0.070228241292798838 0.20929612013303481 0 -0.060918390857913951 0.18815445452544169 0 -0.054103800160554189 0.2023847060973395 0 -0.060918390857913951 0.18815445452544169 0 -0.042447004888681611 0.19435052381404089 0 -0.042945359169149558 0.1809739555020472 0 -0.060918390857913951 0.18815445452544169 0 -0.054103800160554189 0.2023847060973395 0 -0.042447004888681611 0.19435052381404089 0 -0.041655641763974127 0.2079857912746832 0 -0.054103800160554189 0.2023847060973395 0 -0.042447004888681611 0.19435052381404089 0 -0.042447004888681611 0.19435052381404089 0 -0.03227015836810436 0.2006536842334585 0 -0.033113945474714537 0.1933781088497063 0 -0.041655641763974127 0.2079857912746832 0 -0.042447004888681611 0.19435052381404089 0 -0.03227015836810436 0.2006536842334585 0 -0.042447004888681611 0.19435052381404089 0 -0.033113945474714537 0.1933781088497063 0 -0.035789934711205257 0.1870285993370161 0 -0.033113945474714537 0.1933781088497063 0 -0.027990958598219332 0.18894003881865801 0 -0.035789934711205257 0.1870285993370161 0 -0.019845888484289611 0.20228503505682149 0 -0.02554106710480367 0.17408081365906361 0 -0.019845888484289611 0.20228503505682149 0 -0.01257164382956057 0.1923563515148928 0 -0.02554106710480367 0.17408081365906361 0 -0.027990958598219332 0.18894003881865801 0 -0.019845888484289611 0.20228503505682149 0 -0.02554106710480367 0.17408081365906361 0 -0.033113945474714537 0.1933781088497063 0 -0.027990958598219332 0.18894003881865801 0 -0.02656746066750397 0.19664093754096579 0 -0.03227015836810436 0.2006536842334585 0 -0.02522824656594597 0.20029867841479199 0 -0.02656746066750397 0.19664093754096579 0 -0.027990958598219332 0.18894003881865801 0 -0.02656746066750397 0.19664093754096579 0 -0.019845888484289611 0.20228503505682149 0 -0.03227015836810436 0.2006536842334585 0 -0.033113945474714537 0.1933781088497063 0 -0.02656746066750397 0.19664093754096579 0 -0.03227015836810436 0.2006536842334585 0 -0.02522824656594597 0.20029867841479199 0 -0.026945746513620202 0.20458883531532651 0 -0.02522824656594597 0.20029867841479199 0 -0.021959698433355501 0.20273940262633969 0 -0.026945746513620202 0.20458883531532651 0 -0.02522824656594597 0.20029867841479199 0 -0.02656746066750397 0.19664093754096579 0 -0.019845888484289611 0.20228503505682149 0 -0.02522824656594597 0.20029867841479199 0 -0.021959698433355501 0.20273940262633969 0 -0.019845888484289611 0.20228503505682149 0 -0.021959698433355501 0.20273940262633969 0 -0.019845888484289611 0.20228503505682149 0 -0.019845888484289611 0.20228503505682149 0 -0.01257164382956057 0.1923563515148928 0 0.0045878725986188366 0.19703295047734609 0 -0.019845888484289611 0.20228503505682149 0 -0.011488410000135519 0.20340718688265161 0 0.0045878725986188366 0.19703295047734609 0 -0.019845888484289611 0.20228503505682149 0 0.0045878725986188366 0.19703295047734609 0 -0.01257164382956057 0.1923563515148928 0 -0.0034766562411832689 0.19053514107700731 0 0.0045878725986188366 0.19703295047734609 0 -0.011488410000135519 0.20340718688265161 0 -0.0032779349438643909 0.20319753551069439 0 0.0045878725986188366 0.19703295047734609 0 -0.01257164382956057 0.1923563515148928 0 -0.0034766562411832689 0.19053514107700731 0 -0.007296139774581701 0.1847611095890162 0 -0.011488410000135519 0.20340718688265161 0 -0.01580413024716017 0.20869311429224549 0 -0.016319679764958569 0.2049092742993612 0 -0.01059093120285917 0.2091296791151277 0 -0.011488410000135519 0.20340718688265161 0 -0.01580413024716017 0.20869311429224549 0 -0.01059093120285917 0.2091296791151277 0 -0.011488410000135519 0.20340718688265161 0 -0.0076123083157181547 0.20592518221029971 0 -0.0032779349438643909 0.20319753551069439 0 -0.002687401871250667 0.21339451792298139 0 0.0034770176162481859 0.20746768799666829 0 -0.01059093120285917 0.2091296791151277 0 -0.0076123083157181547 0.20592518221029971 0 -0.002687401871250667 0.21339451792298139 0 -0.0032779349438643909 0.20319753551069439 0 -0.0076123083157181547 0.20592518221029971 0 -0.002687401871250667 0.21339451792298139 0 -0.011488410000135519 0.20340718688265161 0 -0.0032779349438643909 0.20319753551069439 0 -0.0076123083157181547 0.20592518221029971 0 -0.01059093120285917 0.2091296791151277 0 -0.002687401871250667 0.21339451792298139 0 -0.01490449308260763 0.2169745586289005 0 -0.01059093120285917 0.2091296791151277 0 -0.01490449308260763 0.2169745586289005 0 -0.01580413024716017 0.20869311429224549 0 -0.002687401871250667 0.21339451792298139 0 -0.01490449308260763 0.2169745586289005 0 -0.011533309366932729 0.22519749540020051 0 -0.01490449308260763 0.2169745586289005 0 -0.020141299899581171 0.21326280838810269 0 -0.01580413024716017 0.20869311429224549 0 -0.01490449308260763 0.2169745586289005 0 -0.020141299899581171 0.21326280838810269 0 -0.025315589515630021 0.22088147831081709 0 -0.01580413024716017 0.20869311429224549 0 -0.019064559867835239 0.20615440716105829 0 -0.02077768601471415 0.20909583197381831 0 -0.020141299899581171 0.21326280838810269 0 -0.01580413024716017 0.20869311429224549 0 -0.02077768601471415 0.20909583197381831 0 -0.019845888484289611 0.20228503505682149 0 -0.011488410000135519 0.20340718688265161 0 -0.016319679764958569 0.2049092742993612 0 -0.01580413024716017 0.20869311429224549 0 -0.016319679764958569 0.2049092742993612 0 -0.019064559867835239 0.20615440716105829 0 -0.019845888484289611 0.20228503505682149 0 -0.019064559867835239 0.20615440716105829 0 -0.019845888484289611 0.20228503505682149 0 -0.016319679764958569 0.2049092742993612 0 -0.019064559867835239 0.20615440716105829 0 -0.021959698433355501 0.20273940262633969 0 -0.019064559867835239 0.20615440716105829 0 -0.022993956154288051 0.2065509234969804 0 -0.021959698433355501 0.20273940262633969 0 -0.019845888484289611 0.20228503505682149 0 -0.019064559867835239 0.20615440716105829 0 -0.020141299899581171 0.21326280838810269 0 -0.02077768601471415 0.20909583197381831 0 -0.026024870688163469 0.20992698064344839 0 -0.019064559867835239 0.20615440716105829 0 -0.022993956154288051 0.2065509234969804 0 -0.02077768601471415 0.20909583197381831 0 -0.022993956154288051 0.2065509234969804 0 -0.02077768601471415 0.20909583197381831 0 -0.026024870688163469 0.20992698064344839 0 -0.022993956154288051 0.2065509234969804 0 -0.026024870688163469 0.20992698064344839 0 -0.026945746513620202 0.20458883531532651 0 -0.021959698433355501 0.20273940262633969 0 -0.022993956154288051 0.2065509234969804 0 -0.026945746513620202 0.20458883531532651 0 -0.032150209640343597 0.20740920699976301 0 -0.03227015836810436 0.2006536842334585 0 -0.026945746513620202 0.20458883531532651 0 -0.032150209640343597 0.20740920699976301 0 -0.026024870688163469 0.20992698064344839 0 -0.026945746513620202 0.20458883531532651 0 -0.031759952404815391 0.21398247257754369 0 -0.032150209640343597 0.20740920699976301 0 -0.026024870688163469 0.20992698064344839 0 -0.031759952404815391 0.21398247257754369 0 -0.026024870688163469 0.20992698064344839 0 -0.025810428127047511 0.21451343497997799 0 -0.031759952404815391 0.21398247257754369 0 -0.025810428127047511 0.21451343497997799 0 -0.025315589515630021 0.22088147831081709 0 -0.020141299899581171 0.21326280838810269 0 -0.025810428127047511 0.21451343497997799 0 -0.025315589515630021 0.22088147831081709 0 -0.020141299899581171 0.21326280838810269 0 -0.026024870688163469 0.20992698064344839 0 -0.025810428127047511 0.21451343497997799 0 -0.033815116562738702 0.22243236430397079 0 -0.025315589515630021 0.22088147831081709 0 -0.029577861347099062 0.2302108069202512 0 -0.033815116562738702 0.22243236430397079 0 -0.031759952404815391 0.21398247257754369 0 -0.025315589515630021 0.22088147831081709 0 -0.025315589515630021 0.22088147831081709 0 -0.029577861347099062 0.2302108069202512 0 -0.019020927317924971 0.22878946484997881 0 -0.029577861347099062 0.2302108069202512 0 -0.019020927317924971 0.22878946484997881 0 -0.024015175217327791 0.23998810347091709 0 -0.01490449308260763 0.2169745586289005 0 -0.025315589515630021 0.22088147831081709 0 -0.019020927317924971 0.22878946484997881 0 -0.01490449308260763 0.2169745586289005 0 -0.019020927317924971 0.22878946484997881 0 -0.011533309366932729 0.22519749540020051 0 -0.002687401871250667 0.21339451792298139 0 -0.011533309366932729 0.22519749540020051 0 -0.0036290919011524141 0.22785352363530409 0 -0.019020927317924971 0.22878946484997881 0 -0.011533309366932729 0.22519749540020051 0 -0.011774498919602319 0.23831916798974759 0 -0.011533309366932729 0.22519749540020051 0 -0.0036290919011524141 0.22785352363530409 0 -0.011774498919602319 0.23831916798974759 0 -0.0053765651385902042 0.25470293159257312 0 -0.011774498919602319 0.23831916798974759 0 0.0023639549543397372 0.23696247935464901 0 -0.019332368889011489 0.25272829580483402 0 -0.0053765651385902042 0.25470293159257312 0 -0.011774498919602319 0.23831916798974759 0 -0.0036290919011524141 0.22785352363530409 0 -0.011774498919602319 0.23831916798974759 0 0.0023639549543397372 0.23696247935464901 0 -0.019332368889011489 0.25272829580483402 0 -0.011774498919602319 0.23831916798974759 0 -0.024015175217327791 0.23998810347091709 0 -0.019020927317924971 0.22878946484997881 0 -0.011774498919602319 0.23831916798974759 0 -0.024015175217327791 0.23998810347091709 0 -0.037090491811792442 0.23926550824457951 0 -0.029577861347099062 0.2302108069202512 0 -0.024015175217327791 0.23998810347091709 0 -0.032240297161415729 0.25159451474613947 0 -0.037090491811792442 0.23926550824457951 0 -0.024015175217327791 0.23998810347091709 0 -0.032240297161415729 0.25159451474613947 0 -0.019332368889011489 0.25272829580483402 0 -0.024015175217327791 0.23998810347091709 0 -0.044927079849861752 0.14116639875084569 0 -0.041549341010310673 0.15329775799761591 0 -0.052922735353887827 0.1646604266381437 0 -0.044927079849861752 0.14116639875084569 0 -0.041549341010310673 0.15329775799761591 0 -0.031236245725318312 0.14587659226130581 0 -0.041549341010310673 0.15329775799761591 0 -0.037111303112174782 0.16148761434016831 0 -0.031236245725318312 0.14587659226130581 0 -0.044927079849861752 0.14116639875084569 0 -0.036931424345834227 0.1176723708635483 0 -0.044927079849861752 0.14116639875084569 0 -0.047671119143954548 0.12571548987664119 0 -0.036931424345834227 0.1176723708635483 0 -0.044927079849861752 0.14116639875084569 0 -0.031236245725318312 0.14587659226130581 0 -0.036931424345834227 0.1176723708635483 0 -0.031236245725318312 0.14587659226130581 0 -0.036931424345834227 0.1176723708635483 0 -0.031236245725318312 0.14587659226130581 0 -0.026142166531522279 0.1231497111458857 0 -0.036931424345834227 0.1176723708635483 0 -0.044927079849861752 0.14116639875084569 0 -0.047671119143954548 0.12571548987664119 0 -0.057567733900907719 0.1331401758219927 0 -0.047671119143954548 0.12571548987664119 0 -0.057567733900907719 0.1331401758219927 0 -0.053960738915725948 0.1195456229496784 0 -0.044927079849861752 0.14116639875084569 0 -0.057567733900907719 0.1331401758219927 0 -0.059955171737234518 0.15023592738767991 0 -0.044927079849861752 0.14116639875084569 0 -0.052922735353887827 0.1646604266381437 0 -0.044927079849861752 0.14116639875084569 0 -0.059955171737234518 0.15023592738767991 0 -0.052922735353887827 0.1646604266381437 0 -0.069171468511179973 0.1666093700895365 0 -0.059955171737234518 0.15023592738767991 0 -0.052922735353887827 0.1646604266381437 0 -0.069171468511179973 0.1666093700895365 0 -0.060918390857913951 0.18815445452544169 0 -0.052922735353887827 0.1646604266381437 0 -0.060918390857913951 0.18815445452544169 0 -0.052922735353887827 0.1646604266381437 0 -0.060918390857913951 0.18815445452544169 0 -0.052922735353887827 0.1646604266381437 0 -0.042945359169149558 0.1809739555020472 0 -0.052922735353887827 0.1646604266381437 0 -0.042945359169149558 0.1809739555020472 0 -0.036411177201950889 0.17192854736783161 0 -0.042447004888681611 0.19435052381404089 0 -0.042945359169149558 0.1809739555020472 0 -0.035789934711205257 0.1870285993370161 0 -0.042945359169149558 0.1809739555020472 0 -0.036411177201950889 0.17192854736783161 0 -0.033735699357065739 0.18059039093692331 0 -0.036411177201950889 0.17192854736783161 0 -0.033735699357065739 0.18059039093692331 0 -0.02554106710480367 0.17408081365906361 0 -0.042945359169149558 0.1809739555020472 0 -0.033735699357065739 0.18059039093692331 0 -0.035789934711205257 0.1870285993370161 0 -0.027990958598219332 0.18894003881865801 0 -0.033735699357065739 0.18059039093692331 0 -0.035789934711205257 0.1870285993370161 0 -0.041549341010310673 0.15329775799761591 0 -0.052922735353887827 0.1646604266381437 0 -0.037111303112174782 0.16148761434016831 0 -0.037111303112174782 0.16148761434016831 0 -0.02554106710480367 0.17408081365906361 0 -0.031236245725318312 0.14587659226130581 0 -0.052922735353887827 0.1646604266381437 0 -0.036411177201950889 0.17192854736783161 0 -0.037111303112174782 0.16148761434016831 0 -0.036411177201950889 0.17192854736783161 0 -0.037111303112174782 0.16148761434016831 0 -0.02554106710480367 0.17408081365906361 0 -0.02554106710480367 0.17408081365906361 0 -0.031236245725318312 0.14587659226130581 0 -0.015718898364428389 0.16688240407227911 0 -0.02554106710480367 0.17408081365906361 0 -0.031236245725318312 0.14587659226130581 0 -0.01257164382956057 0.1923563515148928 0 -0.02554106710480367 0.17408081365906361 0 -0.013257312697523249 0.1784457772167885 0 -0.027990958598219332 0.18894003881865801 0 -0.033735699357065739 0.18059039093692331 0 -0.02554106710480367 0.17408081365906361 0 -0.015718898364428389 0.16688240407227911 0 -0.02554106710480367 0.17408081365906361 0 -0.013257312697523249 0.1784457772167885 0 -0.01257164382956057 0.1923563515148928 0 -0.013257312697523249 0.1784457772167885 0 -0.007296139774581701 0.1847611095890162 0 -0.013257312697523249 0.1784457772167885 0 -0.0051588144142419448 0.17414820724869079 0 -0.007296139774581701 0.1847611095890162 0 -0.015718898364428389 0.16688240407227911 0 -0.013257312697523249 0.1784457772167885 0 -0.0051588144142419448 0.17414820724869079 0 -0.0051588144142419448 0.17414820724869079 0 -0.007296139774581701 0.1847611095890162 0 0.0021405894441073061 0.18527508749141491 0 -0.0034766562411832689 0.19053514107700731 0 -0.007296139774581701 0.1847611095890162 0 0.0021405894441073061 0.18527508749141491 0 -0.015718898364428389 0.16688240407227911 0 -0.0058611955365400793 0.1621626899282835 0 -0.01070090624698369 0.15336111251819259 0 -0.015718898364428389 0.16688240407227911 0 -0.0051588144142419448 0.17414820724869079 0 -0.0058611955365400793 0.1621626899282835 0 -0.0051588144142419448 0.17414820724869079 0 -0.0058611955365400793 0.1621626899282835 0 0.0030742250649868378 0.1652486008937579 0 -0.0058611955365400793 0.1621626899282835 0 0.001880762168824652 0.1528316273275977 0 0.0030742250649868378 0.1652486008937579 0 -0.0058611955365400793 0.1621626899282835 0 -0.01070090624698369 0.15336111251819259 0 0.001880762168824652 0.1528316273275977 0 -0.0075726619339051464 0.14192085902661841 0 -0.01070090624698369 0.15336111251819259 0 0.001880762168824652 0.1528316273275977 0 -0.0075726619339051464 0.14192085902661841 0 -0.01070090624698369 0.15336111251819259 0 -0.020930532447975329 0.1450160576090824 0 -0.015718898364428389 0.16688240407227911 0 -0.020930532447975329 0.1450160576090824 0 -0.031236245725318312 0.14587659226130581 0 -0.015718898364428389 0.16688240407227911 0 -0.01070090624698369 0.15336111251819259 0 -0.020930532447975329 0.1450160576090824 0 -0.015718898364428389 0.16688240407227911 0 -0.020930532447975329 0.1450160576090824 0 -0.020930532447975329 0.1450160576090824 0 -0.014655847774779469 0.13194098015011821 0 -0.026142166531522279 0.1231497111458857 0 -0.020930532447975329 0.1450160576090824 0 -0.026142166531522279 0.1231497111458857 0 -0.020930532447975329 0.1450160576090824 0 -0.031236245725318312 0.14587659226130581 0 -0.026142166531522279 0.1231497111458857 0 -0.014655847774779469 0.13194098015011821 0 -0.01298322278807322 0.1199878705874365 0 -0.026142166531522279 0.1231497111458857 0 -0.014655847774779469 0.13194098015011821 0 -0.0030990072154621 0.12900941214742401 0 -0.01298322278807322 0.1199878705874365 0 -0.0075726619339051464 0.14192085902661841 0 -0.014655847774779469 0.13194098015011821 0 -0.0030990072154621 0.12900941214742401 0 -0.0075726619339051464 0.14192085902661841 0 -0.020930532447975329 0.1450160576090824 0 -0.014655847774779469 0.13194098015011821 0 -0.0075726619339051464 0.14192085902661841 0 -0.0030990072154621 0.12900941214742401 0 0.0057190146598268873 0.13865065772656579 0 -0.0030990072154621 0.12900941214742401 0 -0.01298322278807322 0.1199878705874365 0 0.0010414464130725171 0.11483135537457009 0 -0.01298322278807322 0.1199878705874365 0 -0.010218421807335719 0.10647827429181431 0 -0.01980020160672509 0.1093626774883996 0 -0.01298322278807322 0.1199878705874365 0 -0.010218421807335719 0.10647827429181431 0 0.0010414464130725171 0.11483135537457009 0 -0.010218421807335719 0.10647827429181431 0 -0.0040136069123048977 0.089903783068194118 0 0.0024525850133381979 0.10352713562257659 0 -0.010218421807335719 0.10647827429181431 0 -0.0183033962916254 0.095914166734172565 0 -0.0040136069123048977 0.089903783068194118 0 -0.010218421807335719 0.10647827429181431 0 0.0024525850133381979 0.10352713562257659 0 0.0010414464130725171 0.11483135537457009 0 -0.010218421807335719 0.10647827429181431 0 -0.01980020160672509 0.1093626774883996 0 -0.0183033962916254 0.095914166734172565 0 -0.01980020160672509 0.1093626774883996 0 -0.0183033962916254 0.095914166734172565 0 -0.031353800615068837 0.10128336468268891 0 -0.01980020160672509 0.1093626774883996 0 -0.026142166531522279 0.1231497111458857 0 -0.031353800615068837 0.10128336468268891 0 -0.026142166531522279 0.1231497111458857 0 -0.031353800615068837 0.10128336468268891 0 -0.01298322278807322 0.1199878705874365 0 -0.01980020160672509 0.1093626774883996 0 -0.026142166531522279 0.1231497111458857 0 -0.010170505324922139 0.077324264013514124 0 -0.019097135319331798 0.06526900211812936 0 0.001016647018871197 0.063829529348394462 0 -0.0040136069123048977 0.089903783068194118 0 -0.0247901087052508 0.081996945864964477 0 -0.010170505324922139 0.077324264013514124 0 -0.0040136069123048977 0.089903783068194118 0 0.009473257634067693 0.085715089925496118 0 -0.010170505324922139 0.077324264013514124 0 -0.0040136069123048977 0.089903783068194118 0 -0.0247901087052508 0.081996945864964477 0 -0.0183033962916254 0.095914166734172565 0 -0.0247901087052508 0.081996945864964477 0 -0.031353800615068837 0.10128336468268891 0 -0.0247901087052508 0.081996945864964477 0 -0.031353800615068837 0.10128336468268891 0 -0.0183033962916254 0.095914166734172565 0 -0.0040136069123048977 0.089903783068194118 0 -0.0247901087052508 0.081996945864964477 0 -0.0247901087052508 0.081996945864964477 0 -0.03415457932803969 0.089532194757328917 0 -0.031353800615068837 0.10128336468268891 0 -0.010170505324922139 0.077324264013514124 0 -0.0247901087052508 0.081996945864964477 0 -0.019097135319331798 0.06526900211812936 0 -0.0247901087052508 0.081996945864964477 0 -0.019097135319331798 0.06526900211812936 0 -0.034282825455187391 0.063621947950983013 0 -0.0247901087052508 0.081996945864964477 0 -0.019097135319331798 0.06526900211812936 0 -0.0247901087052508 0.081996945864964477 0 -0.034282825455187391 0.063621947950983013 0 -0.050114785201594979 0.072359226470401383 0 -0.034282825455187391 0.063621947950983013 0 -0.050114785201594979 0.072359226470401383 0 -0.046605779514598301 0.057150107140930467 0 -0.0247901087052508 0.081996945864964477 0 -0.050114785201594979 0.072359226470401383 0 -0.0247901087052508 0.081996945864964477 0 -0.03415457932803969 0.089532194757328917 0 -0.050114785201594979 0.072359226470401383 0 -0.03415457932803969 0.089532194757328917 0 -0.049814288513965077 0.08778494079414606 0 -0.050114785201594979 0.072359226470401383 0 -0.03415457932803969 0.089532194757328917 0 -0.049814288513965077 0.08778494079414606 0 -0.043174784093244829 0.099075125894009422 0 -0.049814288513965077 0.08778494079414606 0 -0.057616485791666727 0.096822440539676896 0 -0.064010808155279125 0.081135716309313655 0 -0.049814288513965077 0.08778494079414606 0 -0.050114785201594979 0.072359226470401383 0 -0.064010808155279125 0.081135716309313655 0 -0.050114785201594979 0.072359226470401383 0 -0.075439461697939081 0.062721507075838304 0 -0.061107174762283292 0.053323898884719723 0 -0.026142166531522279 0.1231497111458857 0 -0.036931424345834227 0.1176723708635483 0 -0.031353800615068837 0.10128336468268891 0 -0.036931424345834227 0.1176723708635483 0 -0.038072628302443887 0.11202078885059551 0 -0.031353800615068837 0.10128336468268891 0 -0.036931424345834227 0.1176723708635483 0 -0.031353800615068837 0.10128336468268891 0 -0.044968618707443092 0.1170528809971409 0 -0.038072628302443887 0.11202078885059551 0 -0.049778219516986549 0.1092427875004256 0 -0.044968618707443092 0.1170528809971409 0 -0.036931424345834227 0.1176723708635483 0 -0.038072628302443887 0.11202078885059551 0 -0.047671119143954548 0.12571548987664119 0 -0.044968618707443092 0.1170528809971409 0 -0.036931424345834227 0.1176723708635483 0 -0.036931424345834227 0.1176723708635483 0 -0.038072628302443887 0.11202078885059551 0 -0.038072628302443887 0.11202078885059551 0 -0.031353800615068837 0.10128336468268891 0 -0.043174784093244829 0.099075125894009422 0 -0.03415457932803969 0.089532194757328917 0 -0.031353800615068837 0.10128336468268891 0 -0.043174784093244829 0.099075125894009422 0 -0.03415457932803969 0.089532194757328917 0 -0.031353800615068837 0.10128336468268891 0 -0.038072628302443887 0.11202078885059551 0 -0.043174784093244829 0.099075125894009422 0 -0.049778219516986549 0.1092427875004256 0 -0.043174784093244829 0.099075125894009422 0 -0.049778219516986549 0.1092427875004256 0 -0.057616485791666727 0.096822440539676896 0 -0.049814288513965077 0.08778494079414606 0 -0.043174784093244829 0.099075125894009422 0 -0.057616485791666727 0.096822440539676896 0 -0.049778219516986549 0.1092427875004256 0 -0.057616485791666727 0.096822440539676896 0 -0.064015308807170546 0.1096087060219747 0 -0.053960738915725948 0.1195456229496784 0 -0.065955274443171091 0.1221626902035232 0 -0.064015308807170546 0.1096087060219747 0 -0.049778219516986549 0.1092427875004256 0 -0.053960738915725948 0.1195456229496784 0 -0.064015308807170546 0.1096087060219747 0 -0.044968618707443092 0.1170528809971409 0 -0.049778219516986549 0.1092427875004256 0 -0.053960738915725948 0.1195456229496784 0 -0.047671119143954548 0.12571548987664119 0 -0.044968618707443092 0.1170528809971409 0 -0.053960738915725948 0.1195456229496784 0 -0.057567733900907719 0.1331401758219927 0 -0.053960738915725948 0.1195456229496784 0 -0.065955274443171091 0.1221626902035232 0 -0.065955274443171091 0.1221626902035232 0 -0.064015308807170546 0.1096087060219747 0 -0.082717466772410278 0.1150385401419584 0 -0.082717466772410278 0.1150385401419584 0 -0.074063667403062666 0.094840154796585779 0 -0.096346263250634223 0.093398483432111629 0 -0.064015308807170546 0.1096087060219747 0 -0.082717466772410278 0.1150385401419584 0 -0.074063667403062666 0.094840154796585779 0 -0.057616485791666727 0.096822440539676896 0 -0.064015308807170546 0.1096087060219747 0 -0.074063667403062666 0.094840154796585779 0 -0.057616485791666727 0.096822440539676896 0 -0.074063667403062666 0.094840154796585779 0 -0.064010808155279125 0.081135716309313655 0 -0.074063667403062666 0.094840154796585779 0 -0.064010808155279125 0.081135716309313655 0 -0.078855709181391204 0.073697628335418416 0 -0.050114785201594979 0.072359226470401383 0 -0.064010808155279125 0.081135716309313655 0 -0.075439461697939081 0.062721507075838304 0 -0.050114785201594979 0.072359226470401383 0 -0.075439461697939081 0.062721507075838304 0 -0.064010808155279125 0.081135716309313655 0 -0.075439461697939081 0.062721507075838304 0 -0.078855709181391204 0.073697628335418416 0 -0.078855709181391204 0.073697628335418416 0 -0.090845883360871668 0.066938281252608395 0 -0.096518915596975799 0.076494946131174982 0 -0.075439461697939081 0.062721507075838304 0 -0.078855709181391204 0.073697628335418416 0 -0.090845883360871668 0.066938281252608395 0 -0.078855709181391204 0.073697628335418416 0 -0.096346263250634223 0.093398483432111629 0 -0.096518915596975799 0.076494946131174982 0 -0.078855709181391204 0.073697628335418416 0 -0.096346263250634223 0.093398483432111629 0 -0.074063667403062666 0.094840154796585779 0 -0.078855709181391204 0.073697628335418416 0 -0.096346263250634223 0.093398483432111629 0 -0.096346263250634223 0.093398483432111629 0 -0.096518915596975799 0.076494946131174982 0 -0.115017790644576 0.07818679874631114 0 -0.096518915596975799 0.076494946131174982 0 -0.10484555578950309 0.066363688841068066 0 -0.115017790644576 0.07818679874631114 0 -0.090845883360871668 0.066938281252608395 0 -0.096518915596975799 0.076494946131174982 0 -0.10484555578950309 0.066363688841068066 0 -0.13243112273719479 0.070164547759850704 0 -0.1192984853094254 0.065118195564949341 0 -0.115017790644576 0.07818679874631114 0 -0.10484555578950309 0.066363688841068066 0 -0.1192984853094254 0.065118195564949341 0 -0.115017790644576 0.07818679874631114 0 -0.13550263527620801 0.084220334745633979 0 -0.115017790644576 0.07818679874631114 0 -0.1196222026811571 0.095065592832561427 0 -0.096346263250634223 0.093398483432111629 0 -0.115017790644576 0.07818679874631114 0 -0.1196222026811571 0.095065592832561427 0 -0.096346263250634223 0.093398483432111629 0 -0.1196222026811571 0.095065592832561427 0 -0.1138368173198773 0.1130993385288049 0 -0.13740750691449019 0.1064230087099456 0 -0.1196222026811571 0.095065592832561427 0 -0.1138368173198773 0.1130993385288049 0 -0.13132737138912021 0.13280019362549789 0 -0.1138368173198773 0.1130993385288049 0 -0.093337876346260645 0.13270582904707881 0 -0.082717466772410278 0.1150385401419584 0 -0.1138368173198773 0.1130993385288049 0 -0.082717466772410278 0.1150385401419584 0 -0.096346263250634223 0.093398483432111629 0 -0.1138368173198773 0.1130993385288049 0 -0.096346263250634223 0.093398483432111629 0 -0.1138368173198773 0.1130993385288049 0 -0.1158146975317281 0.01622541745711387 0 -0.1013745210589692 0.034906269902426082 0 -0.084686698285836762 0.01251199100243771 0 -0.1093222308133128 -0.0073945743824425439 0 -0.1158146975317281 0.01622541745711387 0 -0.084686698285836762 0.01251199100243771 0 -0.1093222308133128 -0.0073945743824425439 0 -0.13711919296946221 0.0059281162406943227 0 -0.1158146975317281 0.01622541745711387 0 -0.1321773927031008 0.025214393829852879 0 -0.1158146975317281 0.01622541745711387 0 -0.11957525328100151 0.03953531160325955 0 -0.1158146975317281 0.01622541745711387 0 -0.11957525328100151 0.03953531160325955 0 -0.1013745210589692 0.034906269902426082 0 -0.11957525328100151 0.03953531160325955 0 -0.11459615285804579 0.052649082373933398 0 -0.1013745210589692 0.034906269902426082 0 -0.11957525328100151 0.03953531160325955 0 -0.1013745210589692 0.034906269902426082 0 -0.1269962598944821 0.048064558485738838 0 -0.11957525328100151 0.03953531160325955 0 -0.11459615285804579 0.052649082373933398 0 -0.12960180451780759 0.058226860103583397 0 -0.1192984853094254 0.065118195564949341 0 -0.11459615285804579 0.052649082373933398 0 -0.12960180451780759 0.058226860103583397 0 -0.1269962598944821 0.048064558485738838 0 -0.11459615285804579 0.052649082373933398 0 -0.10484555578950309 0.066363688841068066 0 -0.1192984853094254 0.065118195564949341 0 -0.11459615285804579 0.052649082373933398 0 -0.11459615285804579 0.052649082373933398 0 -0.10076413819428311 0.053083787681275252 0 -0.1013745210589692 0.034906269902426082 0 -0.10484555578950309 0.066363688841068066 0 -0.11459615285804579 0.052649082373933398 0 -0.10076413819428311 0.053083787681275252 0 -0.090845883360871668 0.066938281252608395 0 -0.10484555578950309 0.066363688841068066 0 -0.10076413819428311 0.053083787681275252 0 -0.10076413819428311 0.053083787681275252 0 -0.1013745210589692 0.034906269902426082 0 -0.089110827458893288 0.044889184705106278 0 -0.11459615285804579 0.052649082373933398 0 -0.1013745210589692 0.034906269902426082 0 -0.1013745210589692 0.034906269902426082 0 -0.090238363465086499 0.032073980670308477 0 -0.090238363465086499 0.032073980670308477 0 -0.089110827458893288 0.044889184705106278 0 -0.082000797641805345 0.037076080011492887 0 -0.090238363465086499 0.032073980670308477 0 -0.082000797641805345 0.037076080011492887 0 -0.074576941494149979 0.027460560852695499 0 -0.1013745210589692 0.034906269902426082 0 -0.090238363465086499 0.032073980670308477 0 -0.089110827458893288 0.044889184705106278 0 -0.089110827458893288 0.044889184705106278 0 -0.082000797641805345 0.037076080011492887 0 -0.074077058149091587 0.043880593817861302 0 -0.089110827458893288 0.044889184705106278 0 -0.082122316655196828 0.051592078073368693 0 -0.074077058149091587 0.043880593817861302 0 -0.10076413819428311 0.053083787681275252 0 -0.089110827458893288 0.044889184705106278 0 -0.082122316655196828 0.051592078073368693 0 -0.075439461697939081 0.062721507075838304 0 -0.10076413819428311 0.053083787681275252 0 -0.075439461697939081 0.062721507075838304 0 -0.10076413819428311 0.053083787681275252 0 -0.082122316655196828 0.051592078073368693 0 -0.075439461697939081 0.062721507075838304 0 -0.090845883360871668 0.066938281252608395 0 -0.10076413819428311 0.053083787681275252 0 -0.075439461697939081 0.062721507075838304 0 -0.082122316655196828 0.051592078073368693 0 -0.072624672804598944 0.05302403306975137 0 -0.082122316655196828 0.051592078073368693 0 -0.072624672804598944 0.05302403306975137 0 -0.074077058149091587 0.043880593817861302 0 -0.072624672804598944 0.05302403306975137 0 -0.074077058149091587 0.043880593817861302 0 -0.061107174762283292 0.053323898884719723 0 -0.075439461697939081 0.062721507075838304 0 -0.072624672804598944 0.05302403306975137 0 -0.061107174762283292 0.053323898884719723 0 -0.074077058149091587 0.043880593817861302 0 -0.061107174762283292 0.053323898884719723 0 -0.058517021176522278 0.036370368219554743 0 -0.082000797641805345 0.037076080011492887 0 -0.074077058149091587 0.043880593817861302 0 -0.074576941494149979 0.027460560852695499 0 -0.074077058149091587 0.043880593817861302 0 -0.074576941494149979 0.027460560852695499 0 -0.058517021176522278 0.036370368219554743 0 -0.074576941494149979 0.027460560852695499 0 -0.084686698285836762 0.01251199100243771 0 -0.067931512100497624 0.0095025484431112105 0 -0.074576941494149979 0.027460560852695499 0 -0.060893698801941037 0.02227496491911338 0 -0.058517021176522278 0.036370368219554743 0 -0.074576941494149979 0.027460560852695499 0 -0.067931512100497624 0.0095025484431112105 0 -0.060893698801941037 0.02227496491911338 0 -0.090238363465086499 0.032073980670308477 0 -0.074576941494149979 0.027460560852695499 0 -0.084686698285836762 0.01251199100243771 0 -0.1013745210589692 0.034906269902426082 0 -0.090238363465086499 0.032073980670308477 0 -0.084686698285836762 0.01251199100243771 0 -0.1013745210589692 0.034906269902426082 0 -0.084686698285836762 0.01251199100243771 0 -0.06799887551270356 -0.0098822878975503917 0 -0.084686698285836762 0.01251199100243771 0 -0.067931512100497624 0.0095025484431112105 0 -0.06799887551270356 -0.0098822878975503917 0 -0.084686698285836762 0.01251199100243771 0 -0.06799887551270356 -0.0098822878975503917 0 -0.067931512100497624 0.0095025484431112105 0 -0.058884230972225227 0.00062989583273729373 0 -0.067931512100497624 0.0095025484431112105 0 -0.058884230972225227 0.00062989583273729373 0 -0.054425224298971592 0.01131517442437713 0 -0.058884230972225227 0.00062989583273729373 0 -0.048088803599084781 0.0012871322310296421 0 -0.054425224298971592 0.01131517442437713 0 -0.048088803599084781 0.0012871322310296421 0 -0.054425224298971592 0.01131517442437713 0 -0.043547430762509408 0.01051050203396125 0 -0.054425224298971592 0.01131517442437713 0 -0.047753824585968468 0.023626209973299148 0 -0.043547430762509408 0.01051050203396125 0 -0.067931512100497624 0.0095025484431112105 0 -0.054425224298971592 0.01131517442437713 0 -0.060893698801941037 0.02227496491911338 0 -0.060893698801941037 0.02227496491911338 0 -0.047753824585968468 0.023626209973299148 0 -0.058517021176522278 0.036370368219554743 0 -0.054425224298971592 0.01131517442437713 0 -0.060893698801941037 0.02227496491911338 0 -0.047753824585968468 0.023626209973299148 0 -0.047753824585968468 0.023626209973299148 0 -0.041303725717090477 0.036663808649996701 0 -0.030568394477345731 0.021949129241321232 0 -0.047753824585968468 0.023626209973299148 0 -0.043547430762509408 0.01051050203396125 0 -0.030568394477345731 0.021949129241321232 0 -0.036900906851176453 -0.0056251357002208924 0 -0.048088803599084781 0.0012871322310296421 0 -0.043547430762509408 0.01051050203396125 0 -0.036900906851176453 -0.0056251357002208924 0 -0.043547430762509408 0.01051050203396125 0 -0.030568394477345731 0.021949129241321232 0 -0.036900906851176453 -0.0056251357002208924 0 -0.030568394477345731 0.021949129241321232 0 -0.050114785201594979 0.072359226470401383 0 -0.061107174762283292 0.053323898884719723 0 -0.046605779514598301 0.057150107140930467 0 -0.061107174762283292 0.053323898884719723 0 -0.04934540491011552 0.047003145802521483 0 -0.046605779514598301 0.057150107140930467 0 -0.061107174762283292 0.053323898884719723 0 -0.04934540491011552 0.047003145802521483 0 -0.058517021176522278 0.036370368219554743 0 -0.04934540491011552 0.047003145802521483 0 -0.058517021176522278 0.036370368219554743 0 -0.041303725717090477 0.036663808649996701 0 -0.047753824585968468 0.023626209973299148 0 -0.058517021176522278 0.036370368219554743 0 -0.041303725717090477 0.036663808649996701 0 -0.041303725717090477 0.036663808649996701 0 -0.026349875569459381 0.03879069893811618 0 -0.030568394477345731 0.021949129241321232 0 -0.041303725717090477 0.036663808649996701 0 -0.038178707243810318 0.049442316596026763 0 -0.026349875569459381 0.03879069893811618 0 -0.04934540491011552 0.047003145802521483 0 -0.041303725717090477 0.036663808649996701 0 -0.038178707243810318 0.049442316596026763 0 -0.04934540491011552 0.047003145802521483 0 -0.038178707243810318 0.049442316596026763 0 -0.046605779514598301 0.057150107140930467 0 -0.034282825455187391 0.063621947950983013 0 -0.038178707243810318 0.049442316596026763 0 -0.02607882996101097 0.053299728580763907 0 -0.034282825455187391 0.063621947950983013 0 -0.038178707243810318 0.049442316596026763 0 -0.046605779514598301 0.057150107140930467 0 -0.019097135319331798 0.06526900211812936 0 -0.02607882996101097 0.053299728580763907 0 -0.013404161933412991 0.048541058371294153 0 -0.019097135319331798 0.06526900211812936 0 -0.013404161933412991 0.048541058371294153 0 -0.019097135319331798 0.06526900211812936 0 -0.034282825455187391 0.063621947950983013 0 -0.02607882996101097 0.053299728580763907 0 -0.038178707243810318 0.049442316596026763 0 -0.02607882996101097 0.053299728580763907 0 -0.026349875569459381 0.03879069893811618 0 -0.02607882996101097 0.053299728580763907 0 -0.026349875569459381 0.03879069893811618 0 -0.013404161933412991 0.048541058371294153 0 -0.026349875569459381 0.03879069893811618 0 -0.013404161933412991 0.048541058371294153 0 -0.01094523326668769 0.030853690935312011 0 -0.013404161933412991 0.048541058371294153 0 -0.01094523326668769 0.030853690935312011 0 0.0017408631506383089 0.043736373704600401 0 -0.019097135319331798 0.06526900211812936 0 -0.013404161933412991 0.048541058371294153 0 0.001016647018871197 0.063829529348394462 0 -0.013404161933412991 0.048541058371294153 0 0.0017408631506383089 0.043736373704600401 0 0.001016647018871197 0.063829529348394462 0 -0.036900906851176453 -0.0056251357002208924 0 -0.01192571365644148 0.0092235581006408288 0 -0.036900906851176453 -0.0056251357002208924 0 -0.030568394477345731 0.021949129241321232 0 -0.01192571365644148 0.0092235581006408288 0 -0.026349875569459381 0.03879069893811618 0 -0.030568394477345731 0.021949129241321232 0 -0.01094523326668769 0.030853690935312011 0 -0.030568394477345731 0.021949129241321232 0 -0.01094523326668769 0.030853690935312011 0 -0.01192571365644148 0.0092235581006408288 0 -0.01094523326668769 0.030853690935312011 0 -0.01192571365644148 0.0092235581006408288 0 0.01304947953829359 0.024072251901502511 0 -0.0139647653065136 -0.0075473042418993039 0 -0.01192571365644148 0.0092235581006408288 0 0.010873079861079091 0.0055145921489277057 0 -0.01192571365644148 0.0092235581006408288 0 0.010873079861079091 0.0055145921489277057 0 0.01304947953829359 0.024072251901502511 0 -0.0010690213167974039 -0.0019670037974292669 0 0.010873079861079091 0.0055145921489277057 0 0.010417021748207351 -0.00078749865505162858 0 0.010873079861079091 0.0055145921489277057 0 0.021259495660713831 0.00072546366398377766 0 0.010417021748207351 -0.00078749865505162858 0 -0.01192571365644148 0.0092235581006408288 0 0.01304947953829359 0.024072251901502511 0 0.010873079861079091 0.0055145921489277057 0 0.01304947953829359 0.024072251901502511 0 0.035710925028671917 0.018576488539754781 0 0.01304947953829359 0.024072251901502511 0 0.038024672733028522 0.038920945702364103 0 0.035710925028671917 0.018576488539754781 0 0.010873079861079091 0.0055145921489277057 0 0.035710925028671917 0.018576488539754781 0 0.021259495660713831 0.00072546366398377766 0 0.035710925028671917 0.018576488539754781 0 0.033795628823587942 -0.00040229243432294458 0 0.010873079861079091 0.0055145921489277057 0 0.021259495660713831 0.00072546366398377766 0 0.035710925028671917 0.018576488539754781 0 0.0017408631506383089 0.043736373704600401 0 0.018987584396127442 0.05138533796649887 0 0.001016647018871197 0.063829529348394462 0 -0.01094523326668769 0.030853690935312011 0 0.01304947953829359 0.024072251901502511 0 0.0017408631506383089 0.043736373704600401 0 0.01304947953829359 0.024072251901502511 0 0.0017408631506383089 0.043736373704600401 0 0.018987584396127442 0.05138533796649887 0 0.01304947953829359 0.024072251901502511 0 0.018987584396127442 0.05138533796649887 0 0.038024672733028522 0.038920945702364103 0 0.01304947953829359 0.024072251901502511 0 0.038024672733028522 0.038920945702364103 0 0.018987584396127442 0.05138533796649887 0 0.031473006458631887 0.059955922200576661 0 0.018903414608616321 0.075202582851954677 0 0.018987584396127442 0.05138533796649887 0 0.031473006458631887 0.059955922200576661 0 0.038024672733028522 0.038920945702364103 0 0.046604567749552253 0.060026342954769857 0 0.031473006458631887 0.059955922200576661 0 0.038024672733028522 0.038920945702364103 0 0.046604567749552253 0.060026342954769857 0 0.038024672733028522 0.038920945702364103 0 0.051778582767697812 0.046464731658342813 0 0.038024672733028522 0.038920945702364103 0 0.060548770196264749 0.031638384930581867 0 0.051778582767697812 0.046464731658342813 0 0.060548770196264749 0.031638384930581867 0 0.051778582767697812 0.046464731658342813 0 0.061936320391945729 0.055273253045655418 0 0.046604567749552253 0.060026342954769857 0 0.051778582767697812 0.046464731658342813 0 0.061936320391945729 0.055273253045655418 0 0.046604567749552253 0.060026342954769857 0 0.061936320391945729 0.055273253045655418 0 0.060104264695701473 0.069051883342976822 0 0.035710925028671917 0.018576488539754781 0 0.053634032082412977 0.0065592368806512294 0 0.033795628823587942 -0.00040229243432294458 0 0.038024672733028522 0.038920945702364103 0 0.060548770196264749 0.031638384930581867 0 0.035710925028671917 0.018576488539754781 0 0.060548770196264749 0.031638384930581867 0 0.035710925028671917 0.018576488539754781 0 0.060548770196264749 0.031638384930581867 0 0.035710925028671917 0.018576488539754781 0 0.053634032082412977 0.0065592368806512294 0 0.053634032082412977 0.0065592368806512294 0 0.071634822515017182 0.001768830129076531 0 0.074504467970933408 0.023853881306484349 0 0.071634822515017182 0.001768830129076531 0 0.084185387248347412 0.01196614795116711 0 0.074504467970933408 0.023853881306484349 0 0.084185387248347412 0.01196614795116711 0 0.1003978342016343 0.003046416883448567 0 0.091155594027020059 -0.0067354950573685667 0 0.071634822515017182 0.001768830129076531 0 0.084185387248347412 0.01196614795116711 0 0.091155594027020059 -0.0067354950573685667 0 0.084185387248347412 0.01196614795116711 0 0.074504467970933408 0.023853881306484349 0 0.085933639803639258 0.038591257611025317 0 0.084185387248347412 0.01196614795116711 0 0.085933639803639258 0.038591257611025317 0 0.084185387248347412 0.01196614795116711 0 0.092526429729436879 0.02478841164240838 0 0.085933639803639258 0.038591257611025317 0 0.084185387248347412 0.01196614795116711 0 0.092526429729436879 0.02478841164240838 0 0.1037548370439743 0.016775229648592248 0 0.060548770196264749 0.031638384930581867 0 0.053634032082412977 0.0065592368806512294 0 0.074504467970933408 0.023853881306484349 0 0.060548770196264749 0.031638384930581867 0 0.074721319396970132 0.053374000291571543 0 0.085386615363857374 0.044700281321408838 0 0.060548770196264749 0.031638384930581867 0 0.085386615363857374 0.044700281321408838 0 0.085933639803639258 0.038591257611025317 0 0.060548770196264749 0.031638384930581867 0 0.074504467970933408 0.023853881306484349 0 0.085933639803639258 0.038591257611025317 0 0.060548770196264749 0.031638384930581867 0 0.085386615363857374 0.044700281321408838 0 0.060548770196264749 0.031638384930581867 0 0.061936320391945729 0.055273253045655418 0 0.074721319396970132 0.053374000291571543 0 0.074721319396970132 0.053374000291571543 0 0.087681892358931118 0.065216367270883535 0 0.071948339263229646 0.064912847507336821 0 0.061936320391945729 0.055273253045655418 0 0.074721319396970132 0.053374000291571543 0 0.071948339263229646 0.064912847507336821 0 0.085933639803639258 0.038591257611025317 0 0.087681892358931118 0.065216367270883535 0 0.074721319396970132 0.053374000291571543 0 0.085386615363857374 0.044700281321408838 0 0.087681892358931118 0.065216367270883535 0 0.085933639803639258 0.038591257611025317 0 0.10369225958832511 0.052528212408394573 0 0.087681892358931118 0.065216367270883535 0 0.085386615363857374 0.044700281321408838 0 0.085933639803639258 0.038591257611025317 0 0.087681892358931118 0.065216367270883535 0 0.085933639803639258 0.038591257611025317 0 0.094791855675439241 0.033401039451109782 0 0.099564602781251954 0.039452834902061182 0 0.092526429729436879 0.02478841164240838 0 0.085933639803639258 0.038591257611025317 0 0.094791855675439241 0.033401039451109782 0 0.085933639803639258 0.038591257611025317 0 0.099564602781251954 0.039452834902061182 0 0.10369225958832511 0.052528212408394573 0 0.094791855675439241 0.033401039451109782 0 0.099564602781251954 0.039452834902061182 0 0.10362346066873331 0.030443991465972191 0 0.099564602781251954 0.039452834902061182 0 0.10369225958832511 0.052528212408394573 0 0.1104816651060965 0.040227974407026933 0 0.099564602781251954 0.039452834902061182 0 0.1104816651060965 0.040227974407026933 0 0.10362346066873331 0.030443991465972191 0 0.10369225958832511 0.052528212408394573 0 0.10574673396163579 0.069391875791125726 0 0.087681892358931118 0.065216367270883535 0 0.10369225958832511 0.052528212408394573 0 0.12340016490575879 0.046874822406121633 0 0.12622612717380161 0.06782907403674196 0 0.10369225958832511 0.052528212408394573 0 0.12622612717380161 0.06782907403674196 0 0.12340016490575879 0.046874822406121633 0 0.1104816651060965 0.040227974407026933 0 0.1204266836067301 0.028106190247745941 0 0.10369225958832511 0.052528212408394573 0 0.12340016490575879 0.046874822406121633 0 0.1104816651060965 0.040227974407026933 0 0.1104816651060965 0.040227974407026933 0 0.1204266836067301 0.028106190247745941 0 0.10362346066873331 0.030443991465972191 0 0.1204266836067301 0.028106190247745941 0 0.117635738176045 0.01060736597563606 0 0.1037548370439743 0.016775229648592248 0 0.117635738176045 0.01060736597563606 0 0.1003978342016343 0.003046416883448567 0 0.111052763499568 -0.0051741236291446974 0 0.117635738176045 0.01060736597563606 0 0.13162326829794649 0.011309293970379429 0 0.111052763499568 -0.0051741236291446974 0 0.13162326829794649 0.011309293970379429 0 0.111052763499568 -0.0051741236291446974 0 0.117635738176045 0.01060736597563606 0 0.1003978342016343 0.003046416883448567 0 0.1037548370439743 0.016775229648592248 0 0.084185387248347412 0.01196614795116711 0 0.1003978342016343 0.003046416883448567 0 0.1037548370439743 0.016775229648592248 0 0.1204266836067301 0.028106190247745941 0 0.10362346066873331 0.030443991465972191 0 0.1037548370439743 0.016775229648592248 0 0.092526429729436879 0.02478841164240838 0 0.094791855675439241 0.033401039451109782 0 0.10362346066873331 0.030443991465972191 0 0.092526429729436879 0.02478841164240838 0 0.10362346066873331 0.030443991465972191 0 0.1037548370439743 0.016775229648592248 0 0.1156335863390732 0.097750947760012488 0 0.089430144914226434 0.091841476930741545 0 0.095530599656032111 0.096451795412804922 0 0.1156335863390732 0.097750947760012488 0 0.089430144914226434 0.091841476930741545 0 0.1002881168690649 0.099154726836480564 0 0.095530599656032111 0.096451795412804922 0 0.1156335863390732 0.097750947760012488 0 0.1062359178385877 0.1015683331748158 0 0.10753269427651101 0.1049950376881723 0 0.1014892738697009 0.1043726204145973 0 0.1062359178385877 0.1015683331748158 0 0.1002881168690649 0.099154726836480564 0 0.1014892738697009 0.1043726204145973 0 0.10753269427651101 0.1049950376881723 0 0.1014892738697009 0.1043726204145973 0 0.1072561823880426 0.1110646281078292 0 0.10753269427651101 0.1049950376881723 0 0.1072561823880426 0.1110646281078292 0 0.1062359178385877 0.1015683331748158 0 0.1002881168690649 0.099154726836480564 0 0.1156335863390732 0.097750947760012488 0 0.095530599656032111 0.096451795412804922 0 0.096568745108430956 0.1020673853651296 0 0.092297352637030636 0.1003396738532762 0 0.1002881168690649 0.099154726836480564 0 0.095530599656032111 0.096451795412804922 0 0.096568745108430956 0.1020673853651296 0 0.096568745108430956 0.1020673853651296 0 0.1014892738697009 0.1043726204145973 0 0.093505937327198627 0.1073971154697429 0 0.096568745108430956 0.1020673853651296 0 0.093505937327198627 0.1073971154697429 0 0.092297352637030636 0.1003396738532762 0 0.1014892738697009 0.1043726204145973 0 0.1072561823880426 0.1110646281078292 0 0.093505937327198627 0.1073971154697429 0 0.1002881168690649 0.099154726836480564 0 0.096568745108430956 0.1020673853651296 0 0.1014892738697009 0.1043726204145973 0 0.1072561823880426 0.1110646281078292 0 0.090762933221051778 0.11596897662700251 0 0.09615405001627253 0.12870854768493159 0 0.1072561823880426 0.1110646281078292 0 0.09615405001627253 0.12870854768493159 0 0.1072561823880426 0.1110646281078292 0 0.093505937327198627 0.1073971154697429 0 0.090762933221051778 0.11596897662700251 0 0.1072561823880426 0.1110646281078292 0 0.1197485665525596 0.12378280399914469 0 0.105945364720791 0.1398378081657459 0 0.1072561823880426 0.1110646281078292 0 0.1197485665525596 0.12378280399914469 0 0.12220454349601249 0.11267110715563371 0 0.1197485665525596 0.12378280399914469 0 0.12220454349601249 0.11267110715563371 0 0.13227009923155661 0.1217404696001354 0 0.12220454349601249 0.11267110715563371 0 0.1156335863390732 0.097750947760012488 0 0.1337095497930447 0.1099736533109005 0 0.1072561823880426 0.1110646281078292 0 0.12220454349601249 0.11267110715563371 0 0.1156335863390732 0.097750947760012488 0 0.10753269427651101 0.1049950376881723 0 0.1072561823880426 0.1110646281078292 0 0.1156335863390732 0.097750947760012488 0 0.1072561823880426 0.1110646281078292 0 0.1156335863390732 0.097750947760012488 0 0.1062359178385877 0.1015683331748158 0 0.10753269427651101 0.1049950376881723 0 0.1156335863390732 0.097750947760012488 0 0.1156335863390732 0.097750947760012488 0 0.11794223420238779 0.094081959148804684 0 0.11371266527116029 0.09075877253532677 0 0.1156335863390732 0.097750947760012488 0 0.11794223420238779 0.094081959148804684 0 0.1156335863390732 0.097750947760012488 0 0.11794223420238779 0.094081959148804684 0 0.12836022420896409 0.092531627049253523 0 0.11794223420238779 0.094081959148804684 0 0.119563865374456 0.08661203764115305 0 0.12836022420896409 0.092531627049253523 0 0.119563865374456 0.08661203764115305 0 0.11580391746853 0.077405768433174635 0 0.12754373863290139 0.081534442741149349 0 0.119563865374456 0.08661203764115305 0 0.1115650407001636 0.084951066210873075 0 0.11580391746853 0.077405768433174635 0 0.1115650407001636 0.084951066210873075 0 0.11580391746853 0.077405768433174635 0 0.1048814477310553 0.078552390361003754 0 0.1156335863390732 0.097750947760012488 0 0.11371266527116029 0.09075877253532677 0 0.10372322630160841 0.090472040728430653 0 0.119563865374456 0.08661203764115305 0 0.1115650407001636 0.084951066210873075 0 0.11371266527116029 0.09075877253532677 0 0.1115650407001636 0.084951066210873075 0 0.11371266527116029 0.09075877253532677 0 0.10372322630160841 0.090472040728430653 0 0.11794223420238779 0.094081959148804684 0 0.119563865374456 0.08661203764115305 0 0.11371266527116029 0.09075877253532677 0 0.11580391746853 0.077405768433174635 0 0.10574673396163579 0.069391875791125726 0 0.12622612717380161 0.06782907403674196 0 0.10369225958832511 0.052528212408394573 0 0.10574673396163579 0.069391875791125726 0 0.12622612717380161 0.06782907403674196 0 0.11580391746853 0.077405768433174635 0 0.12622612717380161 0.06782907403674196 0 0.12754373863290139 0.081534442741149349 0 0.10574673396163579 0.069391875791125726 0 0.09619475944917194 0.074819442236555928 0 0.087681892358931118 0.065216367270883535 0 0.11580391746853 0.077405768433174635 0 0.10574673396163579 0.069391875791125726 0 0.1048814477310553 0.078552390361003754 0 0.10574673396163579 0.069391875791125726 0 0.09619475944917194 0.074819442236555928 0 0.1048814477310553 0.078552390361003754 0 0.09619475944917194 0.074819442236555928 0 0.098328663531878358 0.083406983081402833 0 0.089430144914226434 0.091841476930741545 0 0.1156335863390732 0.097750947760012488 0 0.10372322630160841 0.090472040728430653 0 0.089430144914226434 0.091841476930741545 0 0.1115650407001636 0.084951066210873075 0 0.10372322630160841 0.090472040728430653 0 0.1048814477310553 0.078552390361003754 0 0.10372322630160841 0.090472040728430653 0 0.1048814477310553 0.078552390361003754 0 0.098328663531878358 0.083406983081402833 0 0.09619475944917194 0.074819442236555928 0 0.1048814477310553 0.078552390361003754 0 0.098328663531878358 0.083406983081402833 0 0.10372322630160841 0.090472040728430653 0 0.098328663531878358 0.083406983081402833 0 0.089430144914226434 0.091841476930741545 0 0.089430144914226434 0.091841476930741545 0 0.079730159538380654 0.080031342417434662 0 0.087681892358931118 0.065216367270883535 0 0.089430144914226434 0.091841476930741545 0 0.087681892358931118 0.065216367270883535 0 0.089553881888809014 0.093725936076738986 0 0.089430144914226434 0.091841476930741545 0 0.091803467908491906 0.095487917146338919 0 0.089553881888809014 0.093725936076738986 0 0.089430144914226434 0.091841476930741545 0 0.085314967850970841 0.093558758301182265 0 0.089553881888809014 0.093725936076738986 0 0.089430144914226434 0.091841476930741545 0 0.089430144914226434 0.091841476930741545 0 0.079730159538380654 0.080031342417434662 0 0.081830989998010875 0.090127695005062444 0 0.081830989998010875 0.090127695005062444 0 0.085314967850970841 0.093558758301182265 0 0.081455722464855565 0.096027498078177245 0 0.089430144914226434 0.091841476930741545 0 0.081830989998010875 0.090127695005062444 0 0.089430144914226434 0.091841476930741545 0 0.081830989998010875 0.090127695005062444 0 0.085314967850970841 0.093558758301182265 0 0.09619475944917194 0.074819442236555928 0 0.089430144914226434 0.091841476930741545 0 0.087681892358931118 0.065216367270883535 0 0.087681892358931118 0.065216367270883535 0 0.071948339263229646 0.064912847507336821 0 0.077338740602424641 0.071398193416521469 0 0.079730159538380654 0.080031342417434662 0 0.087681892358931118 0.065216367270883535 0 0.077338740602424641 0.071398193416521469 0 0.079730159538380654 0.080031342417434662 0 0.077338740602424641 0.071398193416521469 0 0.069994571249157145 0.075432216470430885 0 0.071948339263229646 0.064912847507336821 0 0.077338740602424641 0.071398193416521469 0 0.069994571249157145 0.075432216470430885 0 0.069994571249157145 0.075432216470430885 0 0.060104264695701473 0.069051883342976822 0 0.060055928550927083 0.081529299228224855 0 0.071948339263229646 0.064912847507336821 0 0.069994571249157145 0.075432216470430885 0 0.060104264695701473 0.069051883342976822 0 0.061936320391945729 0.055273253045655418 0 0.071948339263229646 0.064912847507336821 0 0.060104264695701473 0.069051883342976822 0 0.081830989998010875 0.090127695005062444 0 0.071494127397624285 0.08610178076608771 0 0.07417484198071285 0.095554865692282845 0 0.079730159538380654 0.080031342417434662 0 0.069994571249157145 0.075432216470430885 0 0.071494127397624285 0.08610178076608771 0 0.079730159538380654 0.080031342417434662 0 0.081830989998010875 0.090127695005062444 0 0.071494127397624285 0.08610178076608771 0 0.069994571249157145 0.075432216470430885 0 0.071494127397624285 0.08610178076608771 0 0.060055928550927083 0.081529299228224855 0 0.071494127397624285 0.08610178076608771 0 0.07417484198071285 0.095554865692282845 0 0.062480655279804571 0.093301118683896331 0 0.071494127397624285 0.08610178076608771 0 0.060055928550927083 0.081529299228224855 0 0.062480655279804571 0.093301118683896331 0 0.067944776144049882 0.10491236143040369 0 0.07417484198071285 0.095554865692282845 0 0.062480655279804571 0.093301118683896331 0 0.067944776144049882 0.10491236143040369 0 0.079417316328112331 0.1020443569863969 0 0.075978384660917983 0.1127760489251996 0 0.067944776144049882 0.10491236143040369 0 0.07417484198071285 0.095554865692282845 0 0.079417316328112331 0.1020443569863969 0 0.081830989998010875 0.090127695005062444 0 0.07417484198071285 0.095554865692282845 0 0.081455722464855565 0.096027498078177245 0 0.085314967850970841 0.093558758301182265 0 0.081455722464855565 0.096027498078177245 0 0.086540496166470943 0.098851814405961816 0 0.081455722464855565 0.096027498078177245 0 0.079417316328112331 0.1020443569863969 0 0.086540496166470943 0.098851814405961816 0 0.07417484198071285 0.095554865692282845 0 0.081455722464855565 0.096027498078177245 0 0.079417316328112331 0.1020443569863969 0 0.079417316328112331 0.1020443569863969 0 0.086417070056797052 0.10622966437792999 0 0.075978384660917983 0.1127760489251996 0 0.079417316328112331 0.1020443569863969 0 0.086417070056797052 0.10622966437792999 0 0.086540496166470943 0.098851814405961816 0 0.086417070056797052 0.10622966437792999 0 0.092297352637030636 0.1003396738532762 0 0.086540496166470943 0.098851814405961816 0 0.086417070056797052 0.10622966437792999 0 0.093505937327198627 0.1073971154697429 0 0.092297352637030636 0.1003396738532762 0 0.092297352637030636 0.1003396738532762 0 0.091803467908491906 0.095487917146338919 0 0.089979930130922606 0.097425089187827607 0 0.095530599656032111 0.096451795412804922 0 0.092297352637030636 0.1003396738532762 0 0.091803467908491906 0.095487917146338919 0 0.095530599656032111 0.096451795412804922 0 0.089430144914226434 0.091841476930741545 0 0.091803467908491906 0.095487917146338919 0 0.089553881888809014 0.093725936076738986 0 0.091803467908491906 0.095487917146338919 0 0.089979930130922606 0.097425089187827607 0 0.089553881888809014 0.093725936076738986 0 0.085314967850970841 0.093558758301182265 0 0.086540496166470943 0.098851814405961816 0 0.089553881888809014 0.093725936076738986 0 0.089979930130922606 0.097425089187827607 0 0.086540496166470943 0.098851814405961816 0 0.092297352637030636 0.1003396738532762 0 0.089979930130922606 0.097425089187827607 0 0.086540496166470943 0.098851814405961816 0 0.090762933221051778 0.11596897662700251 0 0.075978384660917983 0.1127760489251996 0 0.083580806203604266 0.13117722807920459 0 0.086417070056797052 0.10622966437792999 0 0.093505937327198627 0.1073971154697429 0 0.090762933221051778 0.11596897662700251 0 0.086417070056797052 0.10622966437792999 0 0.090762933221051778 0.11596897662700251 0 0.075978384660917983 0.1127760489251996 0 0.075978384660917983 0.1127760489251996 0 0.064524628279163429 0.11644185729164599 0 0.070454899834163642 0.13127812458349161 0 0.067944776144049882 0.10491236143040369 0 0.075978384660917983 0.1127760489251996 0 0.064524628279163429 0.11644185729164599 0 0.064524628279163429 0.11644185729164599 0 0.056856853886687257 0.12570640920192089 0 0.070454899834163642 0.13127812458349161 0 0.064524628279163429 0.11644185729164599 0 0.054211924949990782 0.1130198837925968 0 0.056856853886687257 0.12570640920192089 0 0.054211924949990782 0.1130198837925968 0 0.041837054268921668 0.1245531197808655 0 0.056856853886687257 0.12570640920192089 0 0.067944776144049882 0.10491236143040369 0 0.064524628279163429 0.11644185729164599 0 0.054211924949990782 0.1130198837925968 0 0.067944776144049882 0.10491236143040369 0 0.054211924949990782 0.1130198837925968 0 0.052354393927161388 0.1001550038529833 0 0.052354393927161388 0.1001550038529833 0 0.062480655279804571 0.093301118683896331 0 0.049358819679285862 0.088583706275591673 0 0.067944776144049882 0.10491236143040369 0 0.052354393927161388 0.1001550038529833 0 0.062480655279804571 0.093301118683896331 0 0.052354393927161388 0.1001550038529833 0 0.039212832783944378 0.095251169911086633 0 0.049358819679285862 0.088583706275591673 0 0.054211924949990782 0.1130198837925968 0 0.052354393927161388 0.1001550038529833 0 0.042651102835712128 0.10697535422963129 0 0.052354393927161388 0.1001550038529833 0 0.042651102835712128 0.10697535422963129 0 0.039212832783944378 0.095251169911086633 0 0.039212832783944378 0.095251169911086633 0 0.035113974215237709 0.1027367338317548 0 0.030349105418764469 0.098087367937287395 0 0.042651102835712128 0.10697535422963129 0 0.039212832783944378 0.095251169911086633 0 0.035113974215237709 0.1027367338317548 0 0.042651102835712128 0.10697535422963129 0 0.035113974215237709 0.1027367338317548 0 0.032785250373202887 0.1125507689405084 0 0.035113974215237709 0.1027367338317548 0 0.032785250373202887 0.1125507689405084 0 0.02671189320988707 0.1057749259032924 0 0.042651102835712128 0.10697535422963129 0 0.032785250373202887 0.1125507689405084 0 0.041837054268921668 0.1245531197808655 0 0.054211924949990782 0.1130198837925968 0 0.042651102835712128 0.10697535422963129 0 0.041837054268921668 0.1245531197808655 0 0.046604567749552253 0.060026342954769857 0 0.060104264695701473 0.069051883342976822 0 0.048657632960355322 0.076765580661972019 0 0.060104264695701473 0.069051883342976822 0 0.048657632960355322 0.076765580661972019 0 0.060055928550927083 0.081529299228224855 0 0.048657632960355322 0.076765580661972019 0 0.060055928550927083 0.081529299228224855 0 0.049358819679285862 0.088583706275591673 0 0.060055928550927083 0.081529299228224855 0 0.062480655279804571 0.093301118683896331 0 0.049358819679285862 0.088583706275591673 0 0.039212832783944378 0.095251169911086633 0 0.049358819679285862 0.088583706275591673 0 0.039989468488761629 0.084550348728522989 0 0.039212832783944378 0.095251169911086633 0 0.039989468488761629 0.084550348728522989 0 0.027873264214387641 0.087906885266668788 0 0.039212832783944378 0.095251169911086633 0 0.027873264214387641 0.087906885266668788 0 0.030349105418764469 0.098087367937287395 0 0.039989468488761629 0.084550348728522989 0 0.034844792805834947 0.074244401527295778 0 0.027873264214387641 0.087906885266668788 0 0.048657632960355322 0.076765580661972019 0 0.049358819679285862 0.088583706275591673 0 0.039989468488761629 0.084550348728522989 0 0.048657632960355322 0.076765580661972019 0 0.039989468488761629 0.084550348728522989 0 0.034844792805834947 0.074244401527295778 0 0.046604567749552253 0.060026342954769857 0 0.048657632960355322 0.076765580661972019 0 0.034844792805834947 0.074244401527295778 0 0.046604567749552253 0.060026342954769857 0 0.031473006458631887 0.059955922200576661 0 0.034844792805834947 0.074244401527295778 0 0.018987584396127442 0.05138533796649887 0 0.018903414608616321 0.075202582851954677 0 0.031473006458631887 0.059955922200576661 0 0.034844792805834947 0.074244401527295778 0 0.018903414608616321 0.075202582851954677 0 0.018903414608616321 0.075202582851954677 0 0.027873264214387641 0.087906885266668788 0 0.0188192448211052 0.099019827737410526 0 0.034844792805834947 0.074244401527295778 0 0.018903414608616321 0.075202582851954677 0 0.027873264214387641 0.087906885266668788 0 0.018903414608616321 0.075202582851954677 0 0.016762894880641019 0.097810620271423787 0 0.0188192448211052 0.099019827737410526 0 0.018903414608616321 0.075202582851954677 0 0.0188192448211052 0.099019827737410526 0 -0.0040136069123048977 0.089903783068194118 0 0.009473257634067693 0.085715089925496118 0 0.016762894880641019 0.097810620271423787 0 0.018903414608616321 0.075202582851954677 0 0.009473257634067693 0.085715089925496118 0 0.016762894880641019 0.097810620271423787 0 0.018987584396127442 0.05138533796649887 0 0.018903414608616321 0.075202582851954677 0 0.001016647018871197 0.063829529348394462 0 0.018903414608616321 0.075202582851954677 0 0.009473257634067693 0.085715089925496118 0 0.001016647018871197 0.063829529348394462 0 -0.010170505324922139 0.077324264013514124 0 0.009473257634067693 0.085715089925496118 0 0.001016647018871197 0.063829529348394462 0 0.018735075033594079 0.1228370726228664 0 0.0188192448211052 0.099019827737410526 0 0.01136167024237387 0.10714836697530269 0 0.018735075033594079 0.1228370726228664 0 0.0188192448211052 0.099019827737410526 0 0.032785250373202887 0.1125507689405084 0 0.041837054268921668 0.1245531197808655 0 0.018735075033594079 0.1228370726228664 0 0.032785250373202887 0.1125507689405084 0 0.018735075033594079 0.1228370726228664 0 0.02671189320988707 0.1057749259032924 0 0.018735075033594079 0.1228370726228664 0 0.02671189320988707 0.1057749259032924 0 0.0188192448211052 0.099019827737410526 0 0.035113974215237709 0.1027367338317548 0 0.02671189320988707 0.1057749259032924 0 0.030349105418764469 0.098087367937287395 0 0.027873264214387641 0.087906885266668788 0 0.030349105418764469 0.098087367937287395 0 0.025440855950801158 0.098288492973523295 0 0.027873264214387641 0.087906885266668788 0 0.025440855950801158 0.098288492973523295 0 0.0188192448211052 0.099019827737410526 0 0.02671189320988707 0.1057749259032924 0 0.025440855950801158 0.098288492973523295 0 0.0188192448211052 0.099019827737410526 0 0.02671189320988707 0.1057749259032924 0 0.030349105418764469 0.098087367937287395 0 0.025440855950801158 0.098288492973523295 0 0.016762894880641019 0.097810620271423787 0 0.0188192448211052 0.099019827737410526 0 0.01136167024237387 0.10714836697530269 0 0.016762894880641019 0.097810620271423787 0 0.01136167024237387 0.10714836697530269 0 0.0024525850133381979 0.10352713562257659 0 -0.0040136069123048977 0.089903783068194118 0 0.016762894880641019 0.097810620271423787 0 0.0024525850133381979 0.10352713562257659 0 -0.0040136069123048977 0.089903783068194118 0 0.016762894880641019 0.097810620271423787 0 0.01136167024237387 0.10714836697530269 0 0.0024525850133381979 0.10352713562257659 0 0.0010414464130725171 0.11483135537457009 0 0.018735075033594079 0.1228370726228664 0 0.01136167024237387 0.10714836697530269 0 0.0010414464130725171 0.11483135537457009 0 -0.0030990072154621 0.12900941214742401 0 0.018735075033594079 0.1228370726228664 0 0.0010414464130725171 0.11483135537457009 0 -0.0030990072154621 0.12900941214742401 0 0.018735075033594079 0.1228370726228664 0 0.0057190146598268873 0.13865065772656579 0 0.018735075033594079 0.1228370726228664 0 0.0057190146598268873 0.13865065772656579 0 0.018650905246082951 0.14665431750832231 0 0.018735075033594079 0.1228370726228664 0 0.018650905246082951 0.14665431750832231 0 0.018735075033594079 0.1228370726228664 0 0.018650905246082951 0.14665431750832231 0 0.033153673251378621 0.13821624274601599 0 0.041837054268921668 0.1245531197808655 0 0.018735075033594079 0.1228370726228664 0 0.033153673251378621 0.13821624274601599 0 0.018650905246082951 0.14665431750832231 0 0.03023450399329659 0.1668056076064646 0 0.040654889941899038 0.15223558978548929 0 0.018650905246082951 0.14665431750832231 0 0.033153673251378621 0.13821624274601599 0 0.040654889941899038 0.15223558978548929 0 0.0057190146598268873 0.13865065772656579 0 0.018650905246082951 0.14665431750832231 0 0.001880762168824652 0.1528316273275977 0 0.018650905246082951 0.14665431750832231 0 0.001880762168824652 0.1528316273275977 0 0.014180091119791091 0.16390058312115441 0 -0.0075726619339051464 0.14192085902661841 0 0.0057190146598268873 0.13865065772656579 0 0.001880762168824652 0.1528316273275977 0 0.001880762168824652 0.1528316273275977 0 0.0030742250649868378 0.1652486008937579 0 0.014180091119791091 0.16390058312115441 0 -0.0051588144142419448 0.17414820724869079 0 0.0030742250649868378 0.1652486008937579 0 0.0091902345057507436 0.17494414489032831 0 0.0030742250649868378 0.1652486008937579 0 0.014180091119791091 0.16390058312115441 0 0.0091902345057507436 0.17494414489032831 0 -0.0051588144142419448 0.17414820724869079 0 0.0021405894441073061 0.18527508749141491 0 0.0091902345057507436 0.17494414489032831 0 0.0091902345057507436 0.17494414489032831 0 0.0133980491939618 0.18519044985148311 0 0.022571095067456561 0.17720548471695979 0 0.014180091119791091 0.16390058312115441 0 0.0091902345057507436 0.17494414489032831 0 0.022571095067456561 0.17720548471695979 0 0.0021405894441073061 0.18527508749141491 0 0.0091902345057507436 0.17494414489032831 0 0.0133980491939618 0.18519044985148311 0 0.022571095067456561 0.17720548471695979 0 0.03023450399329659 0.1668056076064646 0 0.039402057910411813 0.18061125693445779 0 0.022571095067456561 0.17720548471695979 0 0.039402057910411813 0.18061125693445779 0 0.029021633681527371 0.1917808658978708 0 0.0133980491939618 0.18519044985148311 0 0.022571095067456561 0.17720548471695979 0 0.029021633681527371 0.1917808658978708 0 0.014180091119791091 0.16390058312115441 0 0.022571095067456561 0.17720548471695979 0 0.03023450399329659 0.1668056076064646 0 0.018650905246082951 0.14665431750832231 0 0.014180091119791091 0.16390058312115441 0 0.03023450399329659 0.1668056076064646 0 0.03023450399329659 0.1668056076064646 0 0.049634841049071857 0.16930623500593761 0 0.03023450399329659 0.1668056076064646 0 0.049634841049071857 0.16930623500593761 0 0.040654889941899038 0.15223558978548929 0 0.039402057910411813 0.18061125693445779 0 0.053455394764435907 0.18652878131839551 0 0.029021633681527371 0.1917808658978708 0 0.03023450399329659 0.1668056076064646 0 0.039402057910411813 0.18061125693445779 0 0.049634841049071857 0.16930623500593761 0 0.039402057910411813 0.18061125693445779 0 0.049782972416386101 0.17843397317993151 0 0.049634841049071857 0.16930623500593761 0 0.056428218552119748 0.17876368088657921 0 0.055895386804587117 0.19268910495109859 0 0.069035178104847258 0.17180686240540971 0 0.056428218552119748 0.17876368088657921 0 0.049634841049071857 0.16930623500593761 0 0.069035178104847258 0.17180686240540971 0 0.055895386804587117 0.19268910495109859 0 0.069035178104847258 0.17180686240540971 0 0.039402057910411813 0.18061125693445779 0 0.053455394764435907 0.18652878131839551 0 0.049782972416386101 0.17843397317993151 0 0.053455394764435907 0.18652878131839551 0 0.049782972416386101 0.17843397317993151 0 0.056428218552119748 0.17876368088657921 0 0.049782972416386101 0.17843397317993151 0 0.056428218552119748 0.17876368088657921 0 0.049634841049071857 0.16930623500593761 0 0.053455394764435907 0.18652878131839551 0 0.056428218552119748 0.17876368088657921 0 0.055895386804587117 0.19268910495109859 0 0.049634841049071857 0.16930623500593761 0 0.062782505472912351 0.1644915979217782 0 0.069035178104847258 0.17180686240540971 0 0.049634841049071857 0.16930623500593761 0 0.069035178104847258 0.17180686240540971 0 0.049634841049071857 0.16930623500593761 0 0.058417136084020022 0.1559153190313641 0 0.040654889941899038 0.15223558978548929 0 0.049634841049071857 0.16930623500593761 0 0.058417136084020022 0.1559153190313641 0 0.062782505472912351 0.1644915979217782 0 0.058417136084020022 0.1559153190313641 0 0.053883740737737468 0.140117972571739 0 0.040654889941899038 0.15223558978548929 0 0.058417136084020022 0.1559153190313641 0 0.053883740737737468 0.140117972571739 0 0.071170693308862915 0.1495634846590693 0 0.056856853886687257 0.12570640920192089 0 0.053883740737737468 0.140117972571739 0 0.070454899834163642 0.13127812458349161 0 0.041837054268921668 0.1245531197808655 0 0.056856853886687257 0.12570640920192089 0 0.053883740737737468 0.140117972571739 0 0.041837054268921668 0.1245531197808655 0 0.053883740737737468 0.140117972571739 0 0.033153673251378621 0.13821624274601599 0 0.053883740737737468 0.140117972571739 0 0.033153673251378621 0.13821624274601599 0 0.040654889941899038 0.15223558978548929 0 0.01824544208044231 0.23040764537846739 0 0.041198497273589277 0.23677087327239019 0 0.025514704308534739 0.25899389006193202 0 0.0098196489738565339 0.24907858526724799 0 0.01824544208044231 0.23040764537846739 0 0.025514704308534739 0.25899389006193202 0 0.01824544208044231 0.23040764537846739 0 0.025514704308534739 0.25899389006193202 0 -0.0053765651385902042 0.25470293159257312 0 0.0098196489738565339 0.24907858526724799 0 0.0023639549543397372 0.23696247935464901 0 0.0098196489738565339 0.24907858526724799 0 0.0023639549543397372 0.23696247935464901 0 0.01824544208044231 0.23040764537846739 0 0.0023639549543397372 0.23696247935464901 0 0.0068987946310845203 0.22141302226455389 0 0.01824544208044231 0.23040764537846739 0 -0.0036290919011524141 0.22785352363530409 0 0.0023639549543397372 0.23696247935464901 0 0.0068987946310845203 0.22141302226455389 0 -0.002687401871250667 0.21339451792298139 0 -0.0036290919011524141 0.22785352363530409 0 0.0068987946310845203 0.22141302226455389 0 0.01824544208044231 0.23040764537846739 0 0.02654457674175139 0.20856540558851361 0 0.031540096308007338 0.221822874277009 0 0.01824544208044231 0.23040764537846739 0 0.031540096308007338 0.221822874277009 0 0.041198497273589277 0.23677087327239019 0 0.01824544208044231 0.23040764537846739 0 0.02654457674175139 0.20856540558851361 0 0.01097617985234868 0.20182140069500321 0 0.02654457674175139 0.20856540558851361 0 0.021372955744707239 0.19971401970943989 0 0.036109411950416177 0.20634256094155509 0 0.02654457674175139 0.20856540558851361 0 0.01097617985234868 0.20182140069500321 0 0.021372955744707239 0.19971401970943989 0 0.0068987946310845203 0.22141302226455389 0 0.0034770176162481859 0.20746768799666829 0 0.01097617985234868 0.20182140069500321 0 0.01824544208044231 0.23040764537846739 0 0.01097617985234868 0.20182140069500321 0 0.0068987946310845203 0.22141302226455389 0 0.01824544208044231 0.23040764537846739 0 0.01097617985234868 0.20182140069500321 0 -0.002687401871250667 0.21339451792298139 0 0.0068987946310845203 0.22141302226455389 0 0.0034770176162481859 0.20746768799666829 0 0.01097617985234868 0.20182140069500321 0 0.0045878725986188366 0.19703295047734609 0 0.021372955744707239 0.19971401970943989 0 -0.0032779349438643909 0.20319753551069439 0 0.0034770176162481859 0.20746768799666829 0 0.0045878725986188366 0.19703295047734609 0 0.0034770176162481859 0.20746768799666829 0 0.01097617985234868 0.20182140069500321 0 0.0045878725986188366 0.19703295047734609 0 0.0021405894441073061 0.18527508749141491 0 0.0133980491939618 0.18519044985148311 0 0.0045878725986188366 0.19703295047734609 0 -0.0034766562411832689 0.19053514107700731 0 0.0021405894441073061 0.18527508749141491 0 0.0045878725986188366 0.19703295047734609 0 0.0045878725986188366 0.19703295047734609 0 0.021372955744707239 0.19971401970943989 0 0.029021633681527371 0.1917808658978708 0 0.0045878725986188366 0.19703295047734609 0 0.029021633681527371 0.1917808658978708 0 0.0133980491939618 0.18519044985148311 0 0.0045878725986188366 0.19703295047734609 0 0.029021633681527371 0.1917808658978708 0 0.021372955744707239 0.19971401970943989 0 0.029021633681527371 0.1917808658978708 0 0.036109411950416177 0.20634256094155509 0 0.053455394764435907 0.18652878131839551 0 0.029021633681527371 0.1917808658978708 0 0.043447484541059067 0.1981825321211417 0 0.053455394764435907 0.18652878131839551 0 0.029021633681527371 0.1917808658978708 0 0.029021633681527371 0.1917808658978708 0 0.043447484541059067 0.1981825321211417 0 0.036109411950416177 0.20634256094155509 0 0.055895386804587117 0.19268910495109859 0 0.056882290238644377 0.21454785648284899 0 0.072566083203699533 0.1923248396933078 0 0.053455394764435907 0.18652878131839551 0 0.043447484541059067 0.1981825321211417 0 0.055895386804587117 0.19268910495109859 0 0.043447484541059067 0.1981825321211417 0 0.055895386804587117 0.19268910495109859 0 0.042755595504328753 0.2135713474967886 0 0.055895386804587117 0.19268910495109859 0 0.042755595504328753 0.2135713474967886 0 0.055895386804587117 0.19268910495109859 0 0.056882290238644377 0.21454785648284899 0 0.042755595504328753 0.2135713474967886 0 0.043447484541059067 0.1981825321211417 0 0.042755595504328753 0.2135713474967886 0 0.036109411950416177 0.20634256094155509 0 0.02654457674175139 0.20856540558851361 0 0.036109411950416177 0.20634256094155509 0 0.031540096308007338 0.221822874277009 0 0.042755595504328753 0.2135713474967886 0 0.036109411950416177 0.20634256094155509 0 0.031540096308007338 0.221822874277009 0 0.042755595504328753 0.2135713474967886 0 0.031540096308007338 0.221822874277009 0 0.041198497273589277 0.23677087327239019 0 0.056882290238644377 0.21454785648284899 0 0.042755595504328753 0.2135713474967886 0 0.041198497273589277 0.23677087327239019 0 0.056882290238644377 0.21454785648284899 0 0.041198497273589277 0.23677087327239019 0 0.064287906083042565 0.23545601951890041 0 0.056882290238644377 0.21454785648284899 0 0.041198497273589277 0.23677087327239019 0 0.041198497273589277 0.23677087327239019 0 0.064287906083042565 0.23545601951890041 0 0.054632527195341951 0.25609310062991503 0 0.041198497273589277 0.23677087327239019 0 0.025514704308534739 0.25899389006193202 0 0.084452454610703109 0.24053838717567561 0 0.071955590129945443 0.25108389837817918 0 0.086231138119857415 0.25636820749620531 0 0.084452454610703109 0.24053838717567561 0 0.10148749821634501 0.24791079639650351 0 0.084452454610703109 0.24053838717567561 0 0.10148749821634501 0.24791079639650351 0 0.086231138119857415 0.25636820749620531 0 0.064287906083042565 0.23545601951890041 0 0.054632527195341951 0.25609310062991503 0 0.071955590129945443 0.25108389837817918 0 0.084452454610703109 0.24053838717567561 0 0.064287906083042565 0.23545601951890041 0 0.080158383454505058 0.2277771535360327 0 0.084452454610703109 0.24053838717567561 0 0.064287906083042565 0.23545601951890041 0 0.071955590129945443 0.25108389837817918 0 0.064287906083042565 0.23545601951890041 0 0.070464475735603715 0.22103890595801531 0 0.080158383454505058 0.2277771535360327 0 0.056882290238644377 0.21454785648284899 0 0.064287906083042565 0.23545601951890041 0 0.070464475735603715 0.22103890595801531 0 0.070464475735603715 0.22103890595801531 0 0.080158383454505058 0.2277771535360327 0 0.083688081234002301 0.21622484789760019 0 0.084452454610703109 0.24053838717567561 0 0.080158383454505058 0.2277771535360327 0 0.097898999609173629 0.22562760712997221 0 0.080158383454505058 0.2277771535360327 0 0.083688081234002301 0.21622484789760019 0 0.097898999609173629 0.22562760712997221 0 0.083688081234002301 0.21622484789760019 0 0.096149552115319337 0.2088480340846047 0 0.097898999609173629 0.22562760712997221 0 0.083688081234002301 0.21622484789760019 0 0.073763240915275016 0.2084496759905218 0 0.085215274164425162 0.19811192992083629 0 0.083688081234002301 0.21622484789760019 0 0.085215274164425162 0.19811192992083629 0 0.096149552115319337 0.2088480340846047 0 0.056882290238644377 0.21454785648284899 0 0.073763240915275016 0.2084496759905218 0 0.072566083203699533 0.1923248396933078 0 0.056882290238644377 0.21454785648284899 0 0.072566083203699533 0.1923248396933078 0 0.070464475735603715 0.22103890595801531 0 0.083688081234002301 0.21622484789760019 0 0.073763240915275016 0.2084496759905218 0 0.056882290238644377 0.21454785648284899 0 0.070464475735603715 0.22103890595801531 0 0.073763240915275016 0.2084496759905218 0 0.073763240915275016 0.2084496759905218 0 0.072566083203699533 0.1923248396933078 0 0.085215274164425162 0.19811192992083629 0 0.072566083203699533 0.1923248396933078 0 0.085215274164425162 0.19811192992083629 0 0.081398026202644747 0.18414073053191379 0 0.085215274164425162 0.19811192992083629 0 0.081398026202644747 0.18414073053191379 0 0.093515016601125947 0.184381570948703 0 0.085215274164425162 0.19811192992083629 0 0.1035156957301559 0.1931703997955774 0 0.096149552115319337 0.2088480340846047 0 0.085215274164425162 0.19811192992083629 0 0.1035156957301559 0.1931703997955774 0 0.093515016601125947 0.184381570948703 0 0.1035156957301559 0.1931703997955774 0 0.1200146126140107 0.1954694167724465 0 0.1042819797734048 0.17635003697721241 0 0.1035156957301559 0.1931703997955774 0 0.1200146126140107 0.1954694167724465 0 0.11042970983883971 0.21110538567903739 0 0.11042970983883971 0.21110538567903739 0 0.13005588437042109 0.22229091508470181 0 0.1200146126140107 0.1954694167724465 0 0.11042970983883971 0.21110538567903739 0 0.1348483357580065 0.2144729306314066 0 0.1035156957301559 0.1931703997955774 0 0.11042970983883971 0.21110538567903739 0 0.096149552115319337 0.2088480340846047 0 0.11042970983883971 0.21110538567903739 0 0.096149552115319337 0.2088480340846047 0 0.097898999609173629 0.22562760712997221 0 0.097898999609173629 0.22562760712997221 0 0.1155573692879505 0.22505775278482471 0 0.10513904445095 0.23664600308855899 0 0.084452454610703109 0.24053838717567561 0 0.097898999609173629 0.22562760712997221 0 0.10513904445095 0.23664600308855899 0 0.11042970983883971 0.21110538567903739 0 0.097898999609173629 0.22562760712997221 0 0.1155573692879505 0.22505775278482471 0 0.11042970983883971 0.21110538567903739 0 0.1155573692879505 0.22505775278482471 0 0.13005588437042109 0.22229091508470181 0 0.1155573692879505 0.22505775278482471 0 0.1243760278998567 0.2301764676573424 0 0.13005588437042109 0.22229091508470181 0 0.1155573692879505 0.22505775278482471 0 0.1243760278998567 0.2301764676573424 0 0.1179336768660661 0.23631503511891219 0 0.1155573692879505 0.22505775278482471 0 0.1179336768660661 0.23631503511891219 0 0.10513904445095 0.23664600308855899 0 0.1179336768660661 0.23631503511891219 0 0.1135042681154614 0.24442643992546559 0 0.10513904445095 0.23664600308855899 0 0.1135042681154614 0.24442643992546559 0 0.10148749821634501 0.24791079639650351 0 0.1185225418219875 0.25528320561733031 0 0.1179336768660661 0.23631503511891219 0 0.1238176916648828 0.24490491638607981 0 0.13136892594410321 0.23692495532828509 0 0.1243760278998567 0.2301764676573424 0 0.1179336768660661 0.23631503511891219 0 0.13136892594410321 0.23692495532828509 0 0.1179336768660661 0.23631503511891219 0 0.1238176916648828 0.24490491638607981 0 0.1135042681154614 0.24442643992546559 0 0.1238176916648828 0.24490491638607981 0 0.1135042681154614 0.24442643992546559 0 0.1185225418219875 0.25528320561733031 0 0.1135042681154614 0.24442643992546559 0 0.10513904445095 0.23664600308855899 0 0.10148749821634501 0.24791079639650351 0 0.084452454610703109 0.24053838717567561 0 0.10513904445095 0.23664600308855899 0 0.10148749821634501 0.24791079639650351 0 0.085051917644502123 0.14635246726203391 0 0.093024675364848514 0.14872674457202981 0 0.09615405001627253 0.12870854768493159 0 0.084637763138603883 0.15014806064585859 0 0.093024675364848514 0.14872674457202981 0 0.098306695964931107 0.16765935918371089 0 0.085051917644502123 0.14635246726203391 0 0.073949785272732022 0.16399638683913639 0 0.085051917644502123 0.14635246726203391 0 0.084637763138603883 0.15014806064585859 0 0.073949785272732022 0.16399638683913639 0 0.085051917644502123 0.14635246726203391 0 0.084637763138603883 0.15014806064585859 0 0.093024675364848514 0.14872674457202981 0 0.085051917644502123 0.14635246726203391 0 0.083580806203604266 0.13117722807920459 0 0.09615405001627253 0.12870854768493159 0 0.085051917644502123 0.14635246726203391 0 0.09615405001627253 0.12870854768493159 0 0.090762933221051778 0.11596897662700251 0 0.083580806203604266 0.13117722807920459 0 0.09615405001627253 0.12870854768493159 0 0.085051917644502123 0.14635246726203391 0 0.083580806203604266 0.13117722807920459 0 0.070454899834163642 0.13127812458349161 0 0.053883740737737468 0.140117972571739 0 0.070454899834163642 0.13127812458349161 0 0.071170693308862915 0.1495634846590693 0 0.075978384660917983 0.1127760489251996 0 0.083580806203604266 0.13117722807920459 0 0.070454899834163642 0.13127812458349161 0 0.085051917644502123 0.14635246726203391 0 0.071170693308862915 0.1495634846590693 0 0.073949785272732022 0.16399638683913639 0 0.085051917644502123 0.14635246726203391 0 0.070454899834163642 0.13127812458349161 0 0.071170693308862915 0.1495634846590693 0 0.058417136084020022 0.1559153190313641 0 0.071170693308862915 0.1495634846590693 0 0.067297753719681691 0.15839459399643921 0 0.069035178104847258 0.17180686240540971 0 0.073949785272732022 0.16399638683913639 0 0.086658578939125944 0.17407844969131139 0 0.058417136084020022 0.1559153190313641 0 0.067297753719681691 0.15839459399643921 0 0.062782505472912351 0.1644915979217782 0 0.067297753719681691 0.15839459399643921 0 0.067873362930078257 0.16461326665985479 0 0.072378014422871895 0.16376001231579149 0 0.067297753719681691 0.15839459399643921 0 0.062782505472912351 0.1644915979217782 0 0.067873362930078257 0.16461326665985479 0 0.069035178104847258 0.17180686240540971 0 0.067873362930078257 0.16461326665985479 0 0.072378014422871895 0.16376001231579149 0 0.062782505472912351 0.1644915979217782 0 0.069035178104847258 0.17180686240540971 0 0.067873362930078257 0.16461326665985479 0 0.069035178104847258 0.17180686240540971 0 0.073949785272732022 0.16399638683913639 0 0.069035178104847258 0.17180686240540971 0 0.072378014422871895 0.16376001231579149 0 0.073949785272732022 0.16399638683913639 0 0.071170693308862915 0.1495634846590693 0 0.067297753719681691 0.15839459399643921 0 0.073949785272732022 0.16399638683913639 0 0.067297753719681691 0.15839459399643921 0 0.072378014422871895 0.16376001231579149 0 0.073949785272732022 0.16399638683913639 0 0.072378014422871895 0.16376001231579149 0 0.073949785272732022 0.16399638683913639 0 0.072566083203699533 0.1923248396933078 0 0.069035178104847258 0.17180686240540971 0 0.081398026202644747 0.18414073053191379 0 0.055895386804587117 0.19268910495109859 0 0.072566083203699533 0.1923248396933078 0 0.069035178104847258 0.17180686240540971 0 0.069035178104847258 0.17180686240540971 0 0.086658578939125944 0.17407844969131139 0 0.069035178104847258 0.17180686240540971 0 0.081398026202644747 0.18414073053191379 0 0.086658578939125944 0.17407844969131139 0 0.081398026202644747 0.18414073053191379 0 0.086658578939125944 0.17407844969131139 0 0.093515016601125947 0.184381570948703 0 0.084637763138603883 0.15014806064585859 0 0.073949785272732022 0.16399638683913639 0 0.098306695964931107 0.16765935918371089 0 0.084637763138603883 0.15014806064585859 0 0.098306695964931107 0.16765935918371089 0 0.073949785272732022 0.16399638683913639 0 0.098306695964931107 0.16765935918371089 0 0.073949785272732022 0.16399638683913639 0 0.086658578939125944 0.17407844969131139 0 0.098306695964931107 0.16765935918371089 0 0.098306695964931107 0.16765935918371089 0 0.10463454705354019 0.16861098822366261 0 0.099437551920094319 0.1538028948096673 0 0.093024675364848514 0.14872674457202981 0 0.098306695964931107 0.16765935918371089 0 0.099437551920094319 0.1538028948096673 0 0.098306695964931107 0.16765935918371089 0 0.10463454705354019 0.16861098822366261 0 0.098306695964931107 0.16765935918371089 0 0.10463454705354019 0.16861098822366261 0 0.1042819797734048 0.17635003697721241 0 0.1035156957301559 0.1931703997955774 0 0.093515016601125947 0.184381570948703 0 0.1042819797734048 0.17635003697721241 0 0.086658578939125944 0.17407844969131139 0 0.093515016601125947 0.184381570948703 0 0.1042819797734048 0.17635003697721241 0 0.1035156957301559 0.1931703997955774 0 0.1042819797734048 0.17635003697721241 0 0.086658578939125944 0.17407844969131139 0 0.098306695964931107 0.16765935918371089 0 0.1042819797734048 0.17635003697721241 0 0.086658578939125944 0.17407844969131139 0 0.1042819797734048 0.17635003697721241 0 0.098306695964931107 0.16765935918371089 0 0.1042819797734048 0.17635003697721241 0 0.10463454705354019 0.16861098822366261 0 0.108343380064243 0.17687353555449481 0 0.1042819797734048 0.17635003697721241 0 0.10463454705354019 0.16861098822366261 0 0.1042819797734048 0.17635003697721241 0 0.108343380064243 0.17687353555449481 0 0.1042819797734048 0.17635003697721241 0 0.1200146126140107 0.1954694167724465 0 0.1042819797734048 0.17635003697721241 0 0.10463454705354019 0.16861098822366261 0 0.108343380064243 0.17687353555449481 0 0.12036703782368161 0.17991102482518639 0 0.10463454705354019 0.16861098822366261 0 0.12036703782368161 0.17991102482518639 0 0.1333351036914272 0.17292719016597891 0 0.1200146126140107 0.1954694167724465 0 0.108343380064243 0.17687353555449481 0 0.1042819797734048 0.17635003697721241 0 0.1200146126140107 0.1954694167724465 0 0.108343380064243 0.17687353555449481 0 0.12036703782368161 0.17991102482518639 0 0.10463454705354019 0.16861098822366261 0 0.11991413234655771 0.16361028318829179 0 0.1333351036914272 0.17292719016597891 0 0.10463454705354019 0.16861098822366261 0 0.11991413234655771 0.16361028318829179 0 0.105945364720791 0.1398378081657459 0 0.10463454705354019 0.16861098822366261 0 0.1333351036914272 0.17292719016597891 0 0.105945364720791 0.1398378081657459 0 0.12790696203591231 0.1359390878551987 0 0.12776646877314529 0.1515289379647399 0 0.11991413234655771 0.16361028318829179 0 0.105945364720791 0.1398378081657459 0 0.12776646877314529 0.1515289379647399 0 0.10463454705354019 0.16861098822366261 0 0.105945364720791 0.1398378081657459 0 0.10463454705354019 0.16861098822366261 0 0.099437551920094319 0.1538028948096673 0 0.105945364720791 0.1398378081657459 0 0.093024675364848514 0.14872674457202981 0 0.099437551920094319 0.1538028948096673 0 0.105945364720791 0.1398378081657459 0 0.1072561823880426 0.1110646281078292 0 0.105945364720791 0.1398378081657459 0 0.093024675364848514 0.14872674457202981 0 0.09615405001627253 0.12870854768493159 0 0.105945364720791 0.1398378081657459 0 0.1072561823880426 0.1110646281078292 0 0.09615405001627253 0.12870854768493159 0 0.105945364720791 0.1398378081657459 0 0.1197485665525596 0.12378280399914469 0 0.105945364720791 0.1398378081657459 0 0.12790696203591231 0.1359390878551987 0 0.1197485665525596 0.12378280399914469 0 0.12790696203591231 0.1359390878551987 0 0.13227009923155661 0.1217404696001354 0 0.12790696203591231 0.1359390878551987 0 0.14071796957562399 0.13360818130983479 0 0.13961792374118959 0.14589077937009889 0 0.14071796957562399 0.13360818130983479 0 0.13227009923155661 0.1217404696001354 0 0.1426883030740152 0.1248218674886631 0 0.12790696203591231 0.1359390878551987 0 0.14071796957562399 0.13360818130983479 0 0.13227009923155661 0.1217404696001354 0 0.14071796957562399 0.13360818130983479 0 0.13961792374118959 0.14589077937009889 0 0.1567120625855031 0.1359140248086787 0 0.14071796957562399 0.13360818130983479 0 0.1567120625855031 0.1359140248086787 0 0.1426883030740152 0.1248218674886631 0 0.1567120625855031 0.1359140248086787 0 0.15085115082574091 0.1210206254230821 0 0.1567120625855031 0.1359140248086787 0 0.1426883030740152 0.1248218674886631 0 0.15085115082574091 0.1210206254230821 0 0.14976281630174421 0.15377740133380771 0 0.1567120625855031 0.1359140248086787 0 0.14976281630174421 0.15377740133380771 0 0.13961792374118959 0.14589077937009889 0 0.1567120625855031 0.1359140248086787 0 0.14976281630174421 0.15377740133380771 0 0.13961792374118959 0.14589077937009889 0 0.1369807412441767 0.16023357084433559 0 0.13961792374118959 0.14589077937009889 0 0.12776646877314529 0.1515289379647399 0 0.1369807412441767 0.16023357084433559 0 0.12790696203591231 0.1359390878551987 0 0.13961792374118959 0.14589077937009889 0 0.12776646877314529 0.1515289379647399 0 0.11991413234655771 0.16361028318829179 0 0.12776646877314529 0.1515289379647399 0 0.12949911151382679 0.16207499554083649 0 0.12776646877314529 0.1515289379647399 0 0.12949911151382679 0.16207499554083649 0 0.1369807412441767 0.16023357084433559 0 0.11991413234655771 0.16361028318829179 0 0.12949911151382679 0.16207499554083649 0 0.1333351036914272 0.17292719016597891 0 0.12949911151382679 0.16207499554083649 0 0.1369807412441767 0.16023357084433559 0 0.1333351036914272 0.17292719016597891 0 0.1369807412441767 0.16023357084433559 0 0.1333351036914272 0.17292719016597891 0 0.14281357001798581 0.17164077785893689 0 0.1200146126140107 0.1954694167724465 0 0.12036703782368161 0.17991102482518639 0 0.13550754569518719 0.18567399340934959 0 0.12036703782368161 0.17991102482518639 0 0.1333351036914272 0.17292719016597891 0 0.13550754569518719 0.18567399340934959 0 0.1333351036914272 0.17292719016597891 0 0.13550754569518719 0.18567399340934959 0 0.14693338663056371 0.18096092101390679 0 0.1333351036914272 0.17292719016597891 0 0.14693338663056371 0.18096092101390679 0 0.16203566032931421 0.17724339210829509 0 0.1333351036914272 0.17292719016597891 0 0.14281357001798581 0.17164077785893689 0 0.16203566032931421 0.17724339210829509 0 0.1333351036914272 0.17292719016597891 0 0.16203566032931421 0.17724339210829509 0 0.13550754569518719 0.18567399340934959 0 0.14693338663056371 0.18096092101390679 0 0.14799056986721701 0.1901244490692221 0 0.14693338663056371 0.18096092101390679 0 0.15547991936900649 0.1844536891043784 0 0.14799056986721701 0.1901244490692221 0 0.14693338663056371 0.18096092101390679 0 0.15547991936900649 0.1844536891043784 0 0.16203566032931421 0.17724339210829509 0 0.14976281630174421 0.15377740133380771 0 0.1369807412441767 0.16023357084433559 0 0.14281357001798581 0.17164077785893689 0 0.14976281630174421 0.15377740133380771 0 0.14281357001798581 0.17164077785893689 0 0.14281357001798581 0.17164077785893689 0 0.1547560307496815 0.16644319754265949 0 0.16203566032931421 0.17724339210829509 0 0.14976281630174421 0.15377740133380771 0 0.14281357001798581 0.17164077785893689 0 0.1547560307496815 0.16644319754265949 0 0.14976281630174421 0.15377740133380771 0 0.1547560307496815 0.16644319754265949 0 0.16714715398803709 0.1624310566722377 0 0.1547560307496815 0.16644319754265949 0 0.16714715398803709 0.1624310566722377 0 0.16203566032931421 0.17724339210829509 0 0.16714715398803709 0.1624310566722377 0 0.16913472753867881 0.17793222107462911 0 0.16714715398803709 0.1624310566722377 0 0.16913472753867881 0.17793222107462911 0 0.17509816627940289 0.1826356948631889 0 0.16714715398803709 0.1624310566722377 0 0.17509816627940289 0.1826356948631889 0 0.15547991936900649 0.1844536891043784 0 0.16129334197381859 0.18330628030698581 0 0.15885493459413111 0.19163438256998949 0 0.15547991936900649 0.1844536891043784 0 0.16129334197381859 0.18330628030698581 0 0.16203566032931421 0.17724339210829509 0 0.16714715398803709 0.1624310566722377 0 0.16203566032931421 0.17724339210829509 0 0.16913472753867881 0.17793222107462911 0 0.16129334197381859 0.18330628030698581 0 0.16203566032931421 0.17724339210829509 0 0.16913472753867881 0.17793222107462911 0 0.16913472753867881 0.17793222107462911 0 0.17509816627940289 0.1826356948631889 0 0.17112230108932211 0.19343338547702019 0 0.16913472753867881 0.17793222107462911 0 0.17112230108932211 0.19343338547702019 0 0.16913472753867881 0.17793222107462911 0 0.17112230108932211 0.19343338547702019 0 0.16498702432548371 0.1877146731427651 0 0.16129334197381859 0.18330628030698581 0 0.16913472753867881 0.17793222107462911 0 0.16498702432548371 0.1877146731427651 0 0.17509816627940289 0.1826356948631889 0 0.1824338270074092 0.16271344116436881 0 0.17509816627940289 0.1826356948631889 0 0.1824338270074092 0.16271344116436881 0 0.19265253473434499 0.17961504712923279 0 0.16714715398803709 0.1624310566722377 0 0.17509816627940289 0.1826356948631889 0 0.1824338270074092 0.16271344116436881 0 0.16714715398803709 0.1624310566722377 0 0.1824338270074092 0.16271344116436881 0 0.1750096885596579 0.1505041380914578 0 0.1824338270074092 0.16271344116436881 0 0.18976948773541649 0.14279118746554911 0 0.1824338270074092 0.16271344116436881 0 0.1750096885596579 0.1505041380914578 0 0.18976948773541649 0.14279118746554911 0 0.1750096885596579 0.1505041380914578 0 0.17126056422282651 0.13141147479892981 0 0.18976948773541649 0.14279118746554911 0 0.17126056422282651 0.13141147479892981 0 0.18976948773541649 0.14279118746554911 0 0.17985699198080149 0.12181250809276491 0 0.17126056422282651 0.13141147479892981 0 0.16458282487053469 0.1424317528882974 0 0.1620184957530334 0.1224324491043569 0 0.1567120625855031 0.1359140248086787 0 0.16458282487053469 0.1424317528882974 0 0.1620184957530334 0.1224324491043569 0 0.16458282487053469 0.1424317528882974 0 0.1620184957530334 0.1224324491043569 0 0.1567120625855031 0.1359140248086787 0 0.15085115082574091 0.1210206254230821 0 0.1620184957530334 0.1224324491043569 0 0.1567120625855031 0.1359140248086787 0 0.1620184957530334 0.1224324491043569 0 0.16714715398803709 0.1624310566722377 0 0.16458282487053469 0.1424317528882974 0 0.16714715398803709 0.1624310566722377 0 0.1567120625855031 0.1359140248086787 0 0.16458282487053469 0.1424317528882974 0 0.1750096885596579 0.1505041380914578 0 0.17126056422282651 0.13141147479892981 0 0.16458282487053469 0.1424317528882974 0 0.16714715398803709 0.1624310566722377 0 0.1750096885596579 0.1505041380914578 0 0.16458282487053469 0.1424317528882974 0 0.16714715398803709 0.1624310566722377 0 0.1567120625855031 0.1359140248086787 0 0.14976281630174421 0.15377740133380771 0 0.16714715398803709 0.1624310566722377 0 0.1567120625855031 0.1359140248086787 0 0.13836745630598729 0.2498439252871798 0 0.1496820589020024 0.23347644449036639 0 0.1582123707899874 0.2444046449570304 0 0.13836745630598729 0.2498439252871798 0 0.1582123707899874 0.2444046449570304 0 0.1496820589020024 0.23347644449036639 0 0.1582123707899874 0.2444046449570304 0 0.13836745630598729 0.2498439252871798 0 0.13136892594410321 0.23692495532828509 0 0.1496820589020024 0.23347644449036639 0 0.1238176916648828 0.24490491638607981 0 0.13836745630598729 0.2498439252871798 0 0.13136892594410321 0.23692495532828509 0 0.13136892594410321 0.23692495532828509 0 0.13005588437042109 0.22229091508470181 0 0.1496820589020024 0.23347644449036639 0 0.13005588437042109 0.22229091508470181 0 0.1496820589020024 0.23347644449036639 0 0.1348483357580065 0.2144729306314066 0 0.13005588437042109 0.22229091508470181 0 0.1496820589020024 0.23347644449036639 0 0.1243760278998567 0.2301764676573424 0 0.13136892594410321 0.23692495532828509 0 0.13005588437042109 0.22229091508470181 0 0.1496820589020024 0.23347644449036639 0 0.1348483357580065 0.2144729306314066 0 0.1496820589020024 0.23347644449036639 0 0.15228926864005829 0.21264746224336181 0 0.1348483357580065 0.2144729306314066 0 0.1496820589020024 0.23347644449036639 0 0.15228926864005829 0.21264746224336181 0 0.1633239162833488 0.22830598039072761 0 0.15228926864005829 0.21264746224336181 0 0.1348483357580065 0.2144729306314066 0 0.1403418570279435 0.19936902924961319 0 0.15228926864005829 0.21264746224336181 0 0.15154083097092799 0.19908186581639481 0 0.15965763489420531 0.2024883794463862 0 0.15228926864005829 0.21264746224336181 0 0.1403418570279435 0.19936902924961319 0 0.15154083097092799 0.19908186581639481 0 0.11042970983883971 0.21110538567903739 0 0.13005588437042109 0.22229091508470181 0 0.1348483357580065 0.2144729306314066 0 0.1200146126140107 0.1954694167724465 0 0.1348483357580065 0.2144729306314066 0 0.1200146126140107 0.1954694167724465 0 0.1348483357580065 0.2144729306314066 0 0.1403418570279435 0.19936902924961319 0 0.1200146126140107 0.1954694167724465 0 0.13550754569518719 0.18567399340934959 0 0.1403418570279435 0.19936902924961319 0 0.13550754569518719 0.18567399340934959 0 0.1403418570279435 0.19936902924961319 0 0.14799056986721701 0.1901244490692221 0 0.1403418570279435 0.19936902924961319 0 0.14799056986721701 0.1901244490692221 0 0.15154083097092799 0.19908186581639481 0 0.14799056986721701 0.1901244490692221 0 0.15154083097092799 0.19908186581639481 0 0.15885493459413111 0.19163438256998949 0 0.15547991936900649 0.1844536891043784 0 0.14799056986721701 0.1901244490692221 0 0.15885493459413111 0.19163438256998949 0 0.16129334197381859 0.18330628030698581 0 0.15885493459413111 0.19163438256998949 0 0.16498702432548371 0.1877146731427651 0 0.15885493459413111 0.19163438256998949 0 0.16511095189269709 0.19829818384451381 0 0.1659860677948122 0.19345755327731401 0 0.15885493459413111 0.19163438256998949 0 0.1659860677948122 0.19345755327731401 0 0.16498702432548371 0.1877146731427651 0 0.15885493459413111 0.19163438256998949 0 0.15965763489420531 0.2024883794463862 0 0.16511095189269709 0.19829818384451381 0 0.15154083097092799 0.19908186581639481 0 0.15885493459413111 0.19163438256998949 0 0.15965763489420531 0.2024883794463862 0 0.16511095189269709 0.19829818384451381 0 0.17026040350754981 0.1957741347187244 0 0.1659860677948122 0.19345755327731401 0 0.16511095189269709 0.19829818384451381 0 0.17026040350754981 0.1957741347187244 0 0.17274104556137221 0.20605803736908099 0 0.17026040350754981 0.1957741347187244 0 0.17112230108932211 0.19343338547702019 0 0.17274104556137221 0.20605803736908099 0 0.15965763489420531 0.2024883794463862 0 0.16511095189269709 0.19829818384451381 0 0.17274104556137221 0.20605803736908099 0 0.17026040350754981 0.1957741347187244 0 0.17112230108932211 0.19343338547702019 0 0.17026040350754981 0.1957741347187244 0 0.17112230108932211 0.19343338547702019 0 0.1659860677948122 0.19345755327731401 0 0.17112230108932211 0.19343338547702019 0 0.1659860677948122 0.19345755327731401 0 0.16498702432548371 0.1877146731427651 0 0.17509816627940289 0.1826356948631889 0 0.17112230108932211 0.19343338547702019 0 0.1830130295305743 0.20274847326932591 0 0.17509816627940289 0.1826356948631889 0 0.17112230108932211 0.19343338547702019 0 0.17509816627940289 0.1826356948631889 0 0.1830130295305743 0.20274847326932591 0 0.19265253473434499 0.17961504712923279 0 0.17509816627940289 0.1826356948631889 0 0.1830130295305743 0.20274847326932591 0 0.17112230108932211 0.19343338547702019 0 0.17274104556137221 0.20605803736908099 0 0.17112230108932211 0.19343338547702019 0 0.1830130295305743 0.20274847326932591 0 0.17274104556137221 0.20605803736908099 0 0.17274104556137221 0.20605803736908099 0 0.17486936861339919 0.22265691267620849 0 0.17274104556137221 0.20605803736908099 0 0.1828077235702838 0.21536554707536279 0 0.17486936861339919 0.22265691267620849 0 0.1830130295305743 0.20274847326932591 0 0.17274104556137221 0.20605803736908099 0 0.17274104556137221 0.20605803736908099 0 0.1854485354439398 0.20893743562886449 0 0.1828077235702838 0.21536554707536279 0 0.1830130295305743 0.20274847326932591 0 0.17274104556137221 0.20605803736908099 0 0.1854485354439398 0.20893743562886449 0 0.1830130295305743 0.20274847326932591 0 0.1854485354439398 0.20893743562886449 0 0.1854485354439398 0.20893743562886449 0 0.1828077235702838 0.21536554707536279 0 0.19268452715253259 0.21534105747640839 0 0.15228926864005829 0.21264746224336181 0 0.17274104556137221 0.20605803736908099 0 0.16543609506699131 0.21688338783816979 0 0.15228926864005829 0.21264746224336181 0 0.15965763489420531 0.2024883794463862 0 0.17274104556137221 0.20605803736908099 0 0.15228926864005829 0.21264746224336181 0 0.17274104556137221 0.20605803736908099 0 0.17274104556137221 0.20605803736908099 0 0.16543609506699131 0.21688338783816979 0 0.17486936861339919 0.22265691267620849 0 0.1633239162833488 0.22830598039072761 0 0.17486936861339919 0.22265691267620849 0 0.1769976916654257 0.23925578798333619 0 0.15228926864005829 0.21264746224336181 0 0.16543609506699131 0.21688338783816979 0 0.1633239162833488 0.22830598039072761 0 0.16543609506699131 0.21688338783816979 0 0.1633239162833488 0.22830598039072761 0 0.17486936861339919 0.22265691267620849 0 0.17486936861339919 0.22265691267620849 0 0.1769976916654257 0.23925578798333619 0 0.17486936861339919 0.22265691267620849 0 0.1833538426208971 0.2300395399590239 0 0.1769976916654257 0.23925578798333619 0 0.17486936861339919 0.22265691267620849 0 0.1833538426208971 0.2300395399590239 0 0.18829514108017459 0.2238342922262514 0 0.1828077235702838 0.21536554707536279 0 0.17486936861339919 0.22265691267620849 0 0.18829514108017459 0.2238342922262514 0 0.1769976916654257 0.23925578798333619 0 0.188788352349437 0.2486923718105859 0 0.19554126487626461 0.23417319147742879 0 0.1833538426208971 0.2300395399590239 0 0.1769976916654257 0.23925578798333619 0 0.19554126487626461 0.23417319147742879 0 0.1769976916654257 0.23925578798333619 0 0.17660249971292161 0.24881918903895031 0 0.1795440413456616 0.25911486942791973 0 0.1769976916654257 0.23925578798333619 0 0.19554126487626461 0.23417319147742879 0 0.1769976916654257 0.23925578798333619 0 0.1795440413456616 0.25911486942791973 0 0.1769976916654257 0.23925578798333619 0 0.188788352349437 0.2486923718105859 0 0.1795440413456616 0.25911486942791973 0 0.1769976916654257 0.23925578798333619 0 0.17660249971292161 0.24881918903895031 0 0.16540004083399479 0.24243458092266479 0 0.17660249971292161 0.24881918903895031 0 0.16540004083399479 0.24243458092266479 0 0.1656904407291214 0.25398481605413842 0 0.17660249971292161 0.24881918903895031 0 0.16540004083399479 0.24243458092266479 0 0.1496820589020024 0.23347644449036639 0 0.16540004083399479 0.24243458092266479 0 0.1496820589020024 0.23347644449036639 0 0.16540004083399479 0.24243458092266479 0 0.1582123707899874 0.2444046449570304 0 0.1496820589020024 0.23347644449036639 0 0.1633239162833488 0.22830598039072761 0 0.16540004083399479 0.24243458092266479 0 0.1769976916654257 0.23925578798333619 0 0.16540004083399479 0.24243458092266479 0 0.1633239162833488 0.22830598039072761 0 0.1769976916654257 0.23925578798333619 0 0.16540004083399479 0.24243458092266479 0 0.1582123707899874 0.2444046449570304 0 0.1656904407291214 0.25398481605413842 0 0.16540004083399479 0.24243458092266479 0 0.1582123707899874 0.2444046449570304 0 0.1656904407291214 0.25398481605413842 0 0.16540004083399479 0.24243458092266479 0 0.1582123707899874 0.2444046449570304 0 0.21917711640616669 0.23178902800878909 0 0.2148249139701513 0.25353746840638303 0 0.20890060047308209 0.24008437007675029 0 0.21917711640616669 0.23178902800878909 0 0.2148249139701513 0.25353746840638303 0 0.20890060047308209 0.24008437007675029 0 0.19554126487626461 0.23417319147742879 0 0.2140848380871036 0.22909059497152179 0 0.20890060047308209 0.24008437007675029 0 0.2004570248863248 0.25152357100306377 0 0.2148249139701513 0.25353746840638303 0 0.20890060047308209 0.24008437007675029 0 0.19554126487626461 0.23417319147742879 0 0.2004570248863248 0.25152357100306377 0 0.188788352349437 0.2486923718105859 0 0.19554126487626461 0.23417319147742879 0 0.2004570248863248 0.25152357100306377 0 0.19554126487626461 0.23417319147742879 0 0.19892498405292611 0.22600542205216631 0 0.2140848380871036 0.22909059497152179 0 0.1833538426208971 0.2300395399590239 0 0.19554126487626461 0.23417319147742879 0 0.18829514108017459 0.2238342922262514 0 0.19554126487626461 0.23417319147742879 0 0.18829514108017459 0.2238342922262514 0 0.19892498405292611 0.22600542205216631 0 0.18829514108017459 0.2238342922262514 0 0.19892498405292611 0.22600542205216631 0 0.19268452715253259 0.21534105747640839 0 0.19892498405292611 0.22600542205216631 0 0.20720440990156461 0.22326580014446781 0 0.20182857368119919 0.21659179116595209 0 0.19892498405292611 0.22600542205216631 0 0.20182857368119919 0.21659179116595209 0 0.19268452715253259 0.21534105747640839 0 0.20720440990156461 0.22326580014446781 0 0.21211224065031609 0.22001972190016611 0 0.20182857368119919 0.21659179116595209 0 0.21211224065031609 0.22001972190016611 0 0.22352931884218219 0.21004058761119529 0 0.21917711640616669 0.23178902800878909 0 0.19554126487626461 0.23417319147742879 0 0.2140848380871036 0.22909059497152179 0 0.19892498405292611 0.22600542205216631 0 0.20720440990156461 0.22326580014446781 0 0.2140848380871036 0.22909059497152179 0 0.2140848380871036 0.22909059497152179 0 0.21211224065031609 0.22001972190016611 0 0.21917711640616669 0.23178902800878909 0 0.20890060047308209 0.24008437007675029 0 0.2140848380871036 0.22909059497152179 0 0.21917711640616669 0.23178902800878909 0 0.20720440990156461 0.22326580014446781 0 0.2140848380871036 0.22909059497152179 0 0.21211224065031609 0.22001972190016611 0 0.21211224065031609 0.22001972190016611 0 0.2078448392483592 0.20986185181291681 0 0.22352931884218219 0.21004058761119529 0 0.2078448392483592 0.20986185181291681 0 0.20544727540438709 0.1955203102414643 0 0.22352931884218219 0.21004058761119529 0 0.2078448392483592 0.20986185181291681 0 0.1963067876637114 0.2071368481458061 0 0.20544727540438709 0.1955203102414643 0 0.21211224065031609 0.22001972190016611 0 0.2078448392483592 0.20986185181291681 0 0.20182857368119919 0.21659179116595209 0 0.20182857368119919 0.21659179116595209 0 0.19268452715253259 0.21534105747640839 0 0.1963067876637114 0.2071368481458061 0 0.2078448392483592 0.20986185181291681 0 0.20182857368119919 0.21659179116595209 0 0.1963067876637114 0.2071368481458061 0 0.1828077235702838 0.21536554707536279 0 0.18829514108017459 0.2238342922262514 0 0.19268452715253259 0.21534105747640839 0 0.1854485354439398 0.20893743562886449 0 0.19268452715253259 0.21534105747640839 0 0.1963067876637114 0.2071368481458061 0 0.1830130295305743 0.20274847326932591 0 0.1854485354439398 0.20893743562886449 0 0.1963067876637114 0.2071368481458061 0 0.1830130295305743 0.20274847326932591 0 0.20544727540438709 0.1955203102414643 0 0.1830130295305743 0.20274847326932591 0 0.1963067876637114 0.2071368481458061 0 0.20544727540438709 0.1955203102414643 0 0.1830130295305743 0.20274847326932591 0 0.20544727540438709 0.1955203102414643 0 0.19265253473434499 0.17961504712923279 0 0.20544727540438709 0.1955203102414643 0 0.22788152127819961 0.1882921472136018 0 0.21897230663779629 0.18093281102888939 0 0.20544727540438709 0.1955203102414643 0 0.22788152127819961 0.1882921472136018 0 0.22788152127819961 0.1882921472136018 0 0.22352931884218219 0.21004058761119529 0 0.23388042057983599 0.19563744338480221 0 0.2397934480118703 0.20305204217784681 0 0.22352931884218219 0.21004058761119529 0 0.23388042057983599 0.19563744338480221 0 0.22788152127819961 0.1882921472136018 0 0.22352931884218219 0.21004058761119529 0 0.20544727540438709 0.1955203102414643 0 0.22788152127819961 0.1882921472136018 0 0.22352931884218219 0.21004058761119529 0 0.23388042057983599 0.19563744338480221 0 0.22788152127819961 0.1882921472136018 0 0.23446290618832791 0.18617166929127399 0 0.23388042057983599 0.19563744338480221 0 0.24237584989740679 0.18790697330907211 0 0.23446290618832791 0.18617166929127399 0 0.2397934480118703 0.20305204217784681 0 0.25053223063961699 0.209180953877251 0 0.25327692367436438 0.19184118522532931 0 0.24237584989740679 0.18790697330907211 0 0.2397934480118703 0.20305204217784681 0 0.25327692367436438 0.19184118522532931 0 0.23388042057983599 0.19563744338480221 0 0.24237584989740679 0.18790697330907211 0 0.2397934480118703 0.20305204217784681 0 0.2397934480118703 0.20305204217784681 0 0.23782290017268881 0.22094249809482111 0 0.25053223063961699 0.209180953877251 0 0.23782290017268881 0.22094249809482111 0 0.24928818712813069 0.22177134864970191 0 0.25053223063961699 0.209180953877251 0 0.2397934480118703 0.20305204217784681 0 0.22352931884218219 0.21004058761119529 0 0.23782290017268881 0.22094249809482111 0 0.22352931884218219 0.21004058761119529 0 0.21917711640616669 0.23178902800878909 0 0.23782290017268881 0.22094249809482111 0 0.21917711640616669 0.23178902800878909 0 0.23782290017268881 0.22094249809482111 0 0.2347272103877184 0.2362731469857971 0 0.22352931884218219 0.21004058761119529 0 0.21917711640616669 0.23178902800878909 0 0.23782290017268881 0.22094249809482111 0 0.24928818712813069 0.22177134864970191 0 0.24771278979313671 0.23449037935316691 0 0.23782290017268881 0.22094249809482111 0 0.2347272103877184 0.2362731469857971 0 0.24771278979313671 0.23449037935316691 0 0.24771278979313671 0.23449037935316691 0 0.24146168562089759 0.25309978414275958 0 0.26007206654130183 0.24598283735499671 0 0.2347272103877184 0.2362731469857971 0 0.24771278979313671 0.23449037935316691 0 0.24146168562089759 0.25309978414275958 0 0.21917711640616669 0.23178902800878909 0 0.2347272103877184 0.2362731469857971 0 0.2148249139701513 0.25353746840638303 0 0.2347272103877184 0.2362731469857971 0 0.2148249139701513 0.25353746840638303 0 0.2347272103877184 0.2362731469857971 0 0.2148249139701513 0.25353746840638303 0 0.24146168562089759 0.25309978414275958 0 0.2105618152528016 0.15286977233098731 0 0.21602914332695389 0.13943818218715509 0 0.20568868615826311 0.1347154193320115 0 0.2105618152528016 0.15286977233098731 0 0.21602914332695389 0.13943818218715509 0 0.2242208621982173 0.14854858457697551 0 0.21602914332695389 0.13943818218715509 0 0.21348326422818631 0.127078085556424 0 0.22644681293078869 0.13533261864929011 0 0.21602914332695389 0.13943818218715509 0 0.21348326422818631 0.127078085556424 0 0.20568868615826311 0.1347154193320115 0 0.21348326422818631 0.127078085556424 0 0.20568868615826311 0.1347154193320115 0 0.20829358632635669 0.1235542100756452 0 0.20568868615826311 0.1347154193320115 0 0.20829358632635669 0.1235542100756452 0 0.19710514846342439 0.12286893376672969 0 0.21348326422818631 0.127078085556424 0 0.20829358632635669 0.1235542100756452 0 0.20568868615826311 0.1347154193320115 0 0.18976948773541649 0.14279118746554911 0 0.19710514846342439 0.12286893376672969 0 0.18976948773541649 0.14279118746554911 0 0.19710514846342439 0.12286893376672969 0 0.17985699198080149 0.12181250809276491 0 0.18976948773541649 0.14279118746554911 0 0.19710514846342439 0.12286893376672969 0 0.1824338270074092 0.16271344116436881 0 0.18976948773541649 0.14279118746554911 0 0.1978122488785066 0.16200193622106121 0 0.2105618152528016 0.15286977233098731 0 0.20568868615826311 0.1347154193320115 0 0.18976948773541649 0.14279118746554911 0 0.2105618152528016 0.15286977233098731 0 0.18976948773541649 0.14279118746554911 0 0.1978122488785066 0.16200193622106121 0 0.1978122488785066 0.16200193622106121 0 0.19265253473434499 0.17961504712923279 0 0.2105777429490181 0.17212062101680839 0 0.1824338270074092 0.16271344116436881 0 0.1978122488785066 0.16200193622106121 0 0.19265253473434499 0.17961504712923279 0 0.20544727540438709 0.1955203102414643 0 0.19265253473434499 0.17961504712923279 0 0.2105777429490181 0.17212062101680839 0 0.20544727540438709 0.1955203102414643 0 0.2105777429490181 0.17212062101680839 0 0.21897230663779629 0.18093281102888939 0 0.2105618152528016 0.15286977233098731 0 0.2105777429490181 0.17212062101680839 0 0.23198268691957999 0.16779816564368211 0 0.2105618152528016 0.15286977233098731 0 0.1978122488785066 0.16200193622106121 0 0.2105777429490181 0.17212062101680839 0 0.2105618152528016 0.15286977233098731 0 0.23198268691957999 0.16779816564368211 0 0.2242208621982173 0.14854858457697551 0 0.23198268691957999 0.16779816564368211 0 0.23608385256096209 0.14730418407376281 0 0.2105777429490181 0.17212062101680839 0 0.23198268691957999 0.16779816564368211 0 0.21897230663779629 0.18093281102888939 0 0.22788152127819961 0.1882921472136018 0 0.23198268691957999 0.16779816564368211 0 0.21897230663779629 0.18093281102888939 0 0.22788152127819961 0.1882921472136018 0 0.23198268691957999 0.16779816564368211 0 0.2363253893303543 0.17656610184392041 0 0.22788152127819961 0.1882921472136018 0 0.23198268691957999 0.16779816564368211 0 0.22788152127819961 0.1882921472136018 0 0.23446290618832791 0.18617166929127399 0 0.2363253893303543 0.17656610184392041 0 0.22788152127819961 0.1882921472136018 0 0.23446290618832791 0.18617166929127399 0 0.24237584989740679 0.18790697330907211 0 0.23446290618832791 0.18617166929127399 0 0.2363253893303543 0.17656610184392041 0 0.2363253893303543 0.17656610184392041 0 0.24865668826696641 0.1784961764540462 0 0.24799445479753701 0.16393354422487799 0 0.24237584989740679 0.18790697330907211 0 0.24865668826696641 0.1784961764540462 0 0.25327692367436438 0.19184118522532931 0 0.24237584989740679 0.18790697330907211 0 0.2363253893303543 0.17656610184392041 0 0.24865668826696641 0.1784961764540462 0 0.23198268691957999 0.16779816564368211 0 0.24799445479753701 0.16393354422487799 0 0.23608385256096209 0.14730418407376281 0 0.23198268691957999 0.16779816564368211 0 0.2363253893303543 0.17656610184392041 0 0.24799445479753701 0.16393354422487799 0 0.23608385256096209 0.14730418407376281 0 0.245148776391031 0.13846087242486829 0 0.25389438544166032 0.14621631020051851 0 0.24799445479753701 0.16393354422487799 0 0.23608385256096209 0.14730418407376281 0 0.25389438544166032 0.14621631020051851 0 0.23198268691957999 0.16779816564368211 0 0.23608385256096209 0.14730418407376281 0 0.2242208621982173 0.14854858457697551 0 0.23608385256096209 0.14730418407376281 0 0.2242208621982173 0.14854858457697551 0 0.22644681293078869 0.13533261864929011 0 0.21602914332695389 0.13943818218715509 0 0.2242208621982173 0.14854858457697551 0 0.22644681293078869 0.13533261864929011 0 0.21348326422818631 0.127078085556424 0 0.23816031204630961 0.1253835056226604 0 0.20829358632635669 0.1235542100756452 0 0.21348326422818631 0.127078085556424 0 0.22644681293078869 0.13533261864929011 0 0.23816031204630961 0.1253835056226604 0 0.23608385256096209 0.14730418407376281 0 0.22644681293078869 0.13533261864929011 0 0.2344168414350486 0.13284611217665851 0 0.22644681293078869 0.13533261864929011 0 0.23816031204630961 0.1253835056226604 0 0.2344168414350486 0.13284611217665851 0 0.23608385256096209 0.14730418407376281 0 0.24018501820234431 0.12681020250384351 0 0.245148776391031 0.13846087242486829 0 0.23816031204630961 0.1253835056226604 0 0.24018501820234431 0.12681020250384351 0 0.2344168414350486 0.13284611217665851 0 0.23816031204630961 0.1253835056226604 0 0.2588486672835914 0.12665063870130761 0 0.23608385256096209 0.14730418407376281 0 0.24018501820234431 0.12681020250384351 0 0.23608385256096209 0.14730418407376281 0 0.24018501820234431 0.12681020250384351 0 0.2344168414350486 0.13284611217665851 0 0.245148776391031 0.13846087242486829 0 0.2477059442553762 0.13254331619474599 0 0.25214324428892337 0.13609380042926811 0 0.24018501820234431 0.12681020250384351 0 0.2477059442553762 0.13254331619474599 0 0.25334673813920622 0.128808389421004 0 0.24018501820234431 0.12681020250384351 0 0.245148776391031 0.13846087242486829 0 0.2477059442553762 0.13254331619474599 0 0.23816031204630961 0.1253835056226604 0 0.25334673813920622 0.128808389421004 0 0.23816031204630961 0.1253835056226604 0 0.24018501820234431 0.12681020250384351 0 0.25334673813920622 0.128808389421004 0 0.23816031204630961 0.1253835056226604 0 0.25137412493594458 0.12084510434657129 0 0.2588486672835914 0.12665063870130761 0 0.23816031204630961 0.1253835056226604 0 0.24840820095022001 0.11440693261336581 0 0.25137412493594458 0.12084510434657129 0 0.23816031204630961 0.1253835056226604 0 0.24840820095022001 0.11440693261336581 0 0.2332020296518357 0.111735264545061 0 0.24840820095022001 0.11440693261336581 0 0.24291795956137399 0.1022484570291577 0 0.2332020296518357 0.111735264545061 0 0.24291795956137399 0.1022484570291577 0 0.22995957629003971 0.1012935105267407 0 0.2332020296518357 0.111735264545061 0 0.24291795956137399 0.1022484570291577 0 0.2294342715887922 0.086968393849165146 0 0.22995957629003971 0.1012935105267407 0 0.2229233242627624 0.095914947120004368 0 0.22921463322521321 0.089510545615428358 0 0.24291795956137399 0.1022484570291577 0 0.22995957629003971 0.1012935105267407 0 0.22921463322521321 0.089510545615428358 0 0.22995957629003971 0.1012935105267407 0 0.22098692842637641 0.10606655640757499 0 0.2332020296518357 0.111735264545061 0 0.22995957629003971 0.1012935105267407 0 0.22098692842637641 0.10606655640757499 0 0.2229233242627624 0.095914947120004368 0 0.23816031204630961 0.1253835056226604 0 0.21877920063669479 0.1210126250708668 0 0.23816031204630961 0.1253835056226604 0 0.20829358632635669 0.1235542100756452 0 0.23816031204630961 0.1253835056226604 0 0.21877920063669479 0.1210126250708668 0 0.20829358632635669 0.1235542100756452 0 0.23816031204630961 0.1253835056226604 0 0.2332020296518357 0.111735264545061 0 0.21877920063669479 0.1210126250708668 0 0.22098692842637641 0.10606655640757499 0 0.2332020296518357 0.111735264545061 0 0.21877920063669479 0.1210126250708668 0 0.21877920063669479 0.1210126250708668 0 0.19939808922708091 0.1166417445190695 0 0.21877920063669479 0.1210126250708668 0 0.20829358632635669 0.1235542100756452 0 0.19939808922708091 0.1166417445190695 0 0.21877920063669479 0.1210126250708668 0 0.2111521380187015 0.1103431241005948 0 0.19939808922708091 0.1166417445190695 0 0.20829358632635669 0.1235542100756452 0 0.19939808922708091 0.1166417445190695 0 0.22098692842637641 0.10606655640757499 0 0.21877920063669479 0.1210126250708668 0 0.2111521380187015 0.1103431241005948 0 0.2229233242627624 0.095914947120004368 0 0.2066516883592715 0.096942354443772749 0 0.21660802145628499 0.089937716106078869 0 0.2111521380187015 0.1103431241005948 0 0.2066516883592715 0.096942354443772749 0 0.19939808922708091 0.1166417445190695 0 0.22098692842637641 0.10606655640757499 0 0.2111521380187015 0.1103431241005948 0 0.2066516883592715 0.096942354443772749 0 0.22098692842637641 0.10606655640757499 0 0.2229233242627624 0.095914947120004368 0 0.2066516883592715 0.096942354443772749 0 0.19274350455864719 0.098731566298841944 0 0.19747462465251531 0.1162079595970759 0 0.18438424349863519 0.10731937844525589 0 0.2066516883592715 0.096942354443772749 0 0.19274350455864719 0.098731566298841944 0 0.19747462465251531 0.1162079595970759 0 0.2066516883592715 0.096942354443772749 0 0.19939808922708091 0.1166417445190695 0 0.19274350455864719 0.098731566298841944 0 0.1899832693808981 0.087207282535467792 0 0.1813736541239622 0.096643499483624995 0 0.2066516883592715 0.096942354443772749 0 0.19939808922708091 0.1166417445190695 0 0.19747462465251531 0.1162079595970759 0 0.19747462465251531 0.1162079595970759 0 0.18438424349863519 0.10731937844525589 0 0.19747462465251531 0.1162079595970759 0 0.18226112071026471 0.11277696912906759 0 0.18438424349863519 0.10731937844525589 0 0.19747462465251531 0.1162079595970759 0 0.18226112071026471 0.11277696912906759 0 0.19710514846342439 0.12286893376672969 0 0.17985699198080149 0.12181250809276491 0 0.19710514846342439 0.12286893376672969 0 0.19747462465251531 0.1162079595970759 0 0.18226112071026471 0.11277696912906759 0 0.20829358632635669 0.1235542100756452 0 0.19710514846342439 0.12286893376672969 0 0.19939808922708091 0.1166417445190695 0 0.20829358632635669 0.1235542100756452 0 0.19710514846342439 0.12286893376672969 0 0.19710514846342439 0.12286893376672969 0 0.19939808922708091 0.1166417445190695 0 0.19710514846342439 0.12286893376672969 0 0.19939808922708091 0.1166417445190695 0 0.19747462465251531 0.1162079595970759 0 0.19939808922708091 0.1166417445190695 0 0.19747462465251531 0.1162079595970759 0 0.19646089772674 0.075361425547207483 0 0.18674781540538871 0.08100403414777245 0 0.18006177890638431 0.075490679725150014 0 0.19646089772674 0.075361425547207483 0 0.1933347826930823 0.060759546768951851 0 0.1767546078390663 0.059172910654314632 0 0.20245827747030379 0.075071461512889306 0 0.19646089772674 0.075361425547207483 0 0.1933347826930823 0.060759546768951851 0 0.19646089772674 0.075361425547207483 0 0.1899832693808981 0.087207282535467792 0 0.18674781540538871 0.08100403414777245 0 0.19274350455864719 0.098731566298841944 0 0.1899832693808981 0.087207282535467792 0 0.20174659934571029 0.085192292516195325 0 0.2066516883592715 0.096942354443772749 0 0.19274350455864719 0.098731566298841944 0 0.20174659934571029 0.085192292516195325 0 0.19646089772674 0.075361425547207483 0 0.1899832693808981 0.087207282535467792 0 0.20174659934571029 0.085192292516195325 0 0.20245827747030379 0.075071461512889306 0 0.19646089772674 0.075361425547207483 0 0.20174659934571029 0.085192292516195325 0 0.2066516883592715 0.096942354443772749 0 0.21660802145628499 0.089937716106078869 0 0.2139052874914612 0.077242964368475581 0 0.2066516883592715 0.096942354443772749 0 0.20174659934571029 0.085192292516195325 0 0.2139052874914612 0.077242964368475581 0 0.2066516883592715 0.096942354443772749 0 0.2139052874914612 0.077242964368475581 0 0.20245827747030379 0.075071461512889306 0 0.20174659934571029 0.085192292516195325 0 0.2139052874914612 0.077242964368475581 0 0.21660802145628499 0.089937716106078869 0 0.2139052874914612 0.077242964368475581 0 0.22066281660893039 0.08815154330249679 0 0.20245827747030379 0.075071461512889306 0 0.2139052874914612 0.077242964368475581 0 0.1933347826930823 0.060759546768951851 0 0.21595058361621081 0.071688330669172226 0 0.2008057978172573 0.054525868564886178 0 0.2139052874914612 0.077242964368475581 0 0.1933347826930823 0.060759546768951851 0 0.21595058361621081 0.071688330669172226 0 0.2139052874914612 0.077242964368475581 0 0.1933347826930823 0.060759546768951851 0 0.21595058361621081 0.071688330669172226 0 0.2139052874914612 0.077242964368475581 0 0.21595058361621081 0.071688330669172226 0 0.22977253446495799 0.071121306143871243 0 0.22543052877653019 0.045942609930792612 0 0.21595058361621081 0.071688330669172226 0 0.22977253446495799 0.071121306143871243 0 0.2294342715887922 0.086968393849165146 0 0.22977253446495799 0.071121306143871243 0 0.2294342715887922 0.086968393849165146 0 0.23807492530058569 0.079481122261878159 0 0.2229233242627624 0.095914947120004368 0 0.22066281660893039 0.08815154330249679 0 0.22921463322521321 0.089510545615428358 0 0.2229233242627624 0.095914947120004368 0 0.21660802145628499 0.089937716106078869 0 0.22066281660893039 0.08815154330249679 0 0.2139052874914612 0.077242964368475581 0 0.22066281660893039 0.08815154330249679 0 0.22921463322521321 0.089510545615428358 0 0.21595058361621081 0.071688330669172226 0 0.2294342715887922 0.086968393849165146 0 0.21595058361621081 0.071688330669172226 0 0.2139052874914612 0.077242964368475581 0 0.2294342715887922 0.086968393849165146 0 0.2139052874914612 0.077242964368475581 0 0.22921463322521321 0.089510545615428358 0 0.2139052874914612 0.077242964368475581 0 0.22921463322521321 0.089510545615428358 0 0.2294342715887922 0.086968393849165146 0 0.24291795956137399 0.1022484570291577 0 0.22921463322521321 0.089510545615428358 0 0.2294342715887922 0.086968393849165146 0 0.24291795956137399 0.1022484570291577 0 0.24001164687283391 0.087860881032970975 0 0.24961943104058359 0.082745550991682973 0 0.24291795956137399 0.1022484570291577 0 0.2294342715887922 0.086968393849165146 0 0.24001164687283391 0.087860881032970975 0 0.2294342715887922 0.086968393849165146 0 0.24001164687283391 0.087860881032970975 0 0.23807492530058569 0.079481122261878159 0 0.24001164687283391 0.087860881032970975 0 0.23807492530058569 0.079481122261878159 0 0.24961943104058359 0.082745550991682973 0 0.23807492530058569 0.079481122261878159 0 0.24961943104058359 0.082745550991682973 0 0.24157985373237181 0.065308505426636604 0 0.22977253446495799 0.071121306143871243 0 0.23807492530058569 0.079481122261878159 0 0.24157985373237181 0.065308505426636604 0 0.24157985373237181 0.065308505426636604 0 0.22543052877653019 0.045942609930792612 0 0.25321812939551791 0.047923410168883913 0 0.22543052877653019 0.045942609930792612 0 0.25017114714460148 0.027935038219416852 0 0.25321812939551791 0.047923410168883913 0 0.22977253446495799 0.071121306143871243 0 0.24157985373237181 0.065308505426636604 0 0.22543052877653019 0.045942609930792612 0 0.21595058361621081 0.071688330669172226 0 0.22543052877653019 0.045942609930792612 0 0.2364155492444879 0.01524344595638903 0 0.2453786940251601 -0.0068958978480940566 0 0.2252186252630293 -0.001905012025652924 0 0.2364155492444879 0.01524344595638903 0 0.26602224933683999 0.001585018043547347 0 0.2453786940251601 -0.0068958978480940566 0 0.22543052877653019 0.045942609930792612 0 0.2364155492444879 0.01524344595638903 0 0.25017114714460148 0.027935038219416852 0 0.22543052877653019 0.045942609930792612 0 0.2364155492444879 0.01524344595638903 0 0.2166025557268057 0.01847297511256879 0 0.2364155492444879 0.01524344595638903 0 0.2166025557268057 0.01847297511256879 0 0.2252186252630293 -0.001905012025652924 0 0.2056422560813041 0.0044678359364639644 0 0.2166025557268057 0.01847297511256879 0 0.19123036879170949 0.01431327226320799 0 0.2056422560813041 0.0044678359364639644 0 0.2166025557268057 0.01847297511256879 0 0.2252186252630293 -0.001905012025652924 0 0.2166025557268057 0.01847297511256879 0 0.19123036879170949 0.01431327226320799 0 0.2072971735655624 0.033534252429154553 0 0.19123036879170949 0.01431327226320799 0 0.2072971735655624 0.033534252429154553 0 0.18566101201830409 0.037363406460599692 0 0.2056422560813041 0.0044678359364639644 0 0.19123036879170949 0.01431327226320799 0 0.19616664162111261 -0.0092357271221407307 0 0.21595058361621081 0.071688330669172226 0 0.2008057978172573 0.054525868564886178 0 0.1933347826930823 0.060759546768951851 0 0.21595058361621081 0.071688330669172226 0 0.21328516740018061 0.055957265969174663 0 0.2008057978172573 0.054525868564886178 0 0.21595058361621081 0.071688330669172226 0 0.22543052877653019 0.045942609930792612 0 0.21328516740018061 0.055957265969174663 0 0.21328516740018061 0.055957265969174663 0 0.21178970886120871 0.046423002226452063 0 0.2008057978172573 0.054525868564886178 0 0.22543052877653019 0.045942609930792612 0 0.21328516740018061 0.055957265969174663 0 0.21178970886120871 0.046423002226452063 0 0.21178970886120871 0.046423002226452063 0 0.2072971735655624 0.033534252429154553 0 0.2008057978172573 0.054525868564886178 0 0.22543052877653019 0.045942609930792612 0 0.21178970886120871 0.046423002226452063 0 0.2072971735655624 0.033534252429154553 0 0.22543052877653019 0.045942609930792612 0 0.2166025557268057 0.01847297511256879 0 0.2072971735655624 0.033534252429154553 0 0.2008057978172573 0.054525868564886178 0 0.18566101201830409 0.037363406460599692 0 0.2072971735655624 0.033534252429154553 0 0.2008057978172573 0.054525868564886178 0 0.18566101201830409 0.037363406460599692 0 0.2008057978172573 0.054525868564886178 0 0.1933347826930823 0.060759546768951851 0 0.18566101201830409 0.037363406460599692 0 0.1933347826930823 0.060759546768951851 0 0.17276427789470361 0.044276129169427657 0 0.18566101201830409 0.037363406460599692 0 0.1933347826930823 0.060759546768951851 0 0.1767546078390663 0.059172910654314632 0 0.17276427789470361 0.044276129169427657 0 0.1933347826930823 0.060759546768951851 0 0.17276427789470361 0.044276129169427657 0 0.17276427789470361 0.044276129169427657 0 0.18566101201830409 0.037363406460599692 0 0.17051622621935089 0.020200944356313231 0 0.17276427789470361 0.044276129169427657 0 0.15704831795139251 0.042984395761421768 0 0.15219377309632509 0.027792711569903539 0 0.17276427789470361 0.044276129169427657 0 0.15219377309632509 0.027792711569903539 0 0.1767546078390663 0.059172910654314632 0 0.15704831795139251 0.042984395761421768 0 0.1767546078390663 0.059172910654314632 0 0.15704831795139251 0.042984395761421768 0 0.15645842583778699 0.063790969125866737 0 0.1767546078390663 0.059172910654314632 0 0.17276427789470361 0.044276129169427657 0 0.15704831795139251 0.042984395761421768 0 0.19123036879170949 0.01431327226320799 0 0.17051622621935089 0.020200944356313231 0 0.16895567864545941 0.004835180427338678 0 0.19123036879170949 0.01431327226320799 0 0.16895567864545941 0.004835180427338678 0 0.17979020566437609 -0.0061718643226255166 0 0.18566101201830409 0.037363406460599692 0 0.17051622621935089 0.020200944356313231 0 0.19123036879170949 0.01431327226320799 0 0.18566101201830409 0.037363406460599692 0 0.17051622621935089 0.020200944356313231 0 0.17051622621935089 0.020200944356313231 0 0.1526184812893058 0.0087924494580814833 0 0.15219377309632509 0.027792711569903539 0 0.17276427789470361 0.044276129169427657 0 0.17051622621935089 0.020200944356313231 0 0.15219377309632509 0.027792711569903539 0 0.16895567864545941 0.004835180427338678 0 0.1526184812893058 0.0087924494580814833 0 0.15466091238919971 -0.0093276693272003365 0 0.17051622621935089 0.020200944356313231 0 0.16895567864545941 0.004835180427338678 0 0.1526184812893058 0.0087924494580814833 0 0.1526184812893058 0.0087924494580814833 0 0.13162326829794649 0.011309293970379429 0 0.13982110672202591 -0.0020998739402764322 0 0.1526184812893058 0.0087924494580814833 0 0.15219377309632509 0.027792711569903539 0 0.13162326829794649 0.011309293970379429 0 0.15219377309632509 0.027792711569903539 0 0.13162326829794649 0.011309293970379429 0 0.117635738176045 0.01060736597563606 0 0.13734202806371881 0.02679588086852893 0 0.13162326829794649 0.011309293970379429 0 0.1204266836067301 0.028106190247745941 0 0.117635738176045 0.01060736597563606 0 0.13734202806371881 0.02679588086852893 0 0.15219377309632509 0.027792711569903539 0 0.13734202806371881 0.02679588086852893 0 0.13162326829794649 0.011309293970379429 0 0.117635738176045 0.01060736597563606 0 0.13734202806371881 0.02679588086852893 0 0.13162326829794649 0.011309293970379429 0 0.13982110672202591 -0.0020998739402764322 0 0.12668019528294311 -0.0069025068300239542 0 0.14053202254027791 0.052776448756158598 0 0.12622612717380161 0.06782907403674196 0 0.15645842583778699 0.063790969125866737 0 0.15704831795139251 0.042984395761421768 0 0.14053202254027791 0.052776448756158598 0 0.15645842583778699 0.063790969125866737 0 0.15704831795139251 0.042984395761421768 0 0.15219377309632509 0.027792711569903539 0 0.13734202806371881 0.02679588086852893 0 0.15704831795139251 0.042984395761421768 0 0.13667051019140339 0.040171779957255377 0 0.14053202254027791 0.052776448756158598 0 0.15704831795139251 0.042984395761421768 0 0.13734202806371881 0.02679588086852893 0 0.15704831795139251 0.042984395761421768 0 0.13734202806371881 0.02679588086852893 0 0.13667051019140339 0.040171779957255377 0 0.12340016490575879 0.046874822406121633 0 0.13667051019140339 0.040171779957255377 0 0.14053202254027791 0.052776448756158598 0 0.12340016490575879 0.046874822406121633 0 0.1204266836067301 0.028106190247745941 0 0.13667051019140339 0.040171779957255377 0 0.1204266836067301 0.028106190247745941 0 0.13734202806371881 0.02679588086852893 0 0.13667051019140339 0.040171779957255377 0 0.12340016490575879 0.046874822406121633 0 0.14053202254027791 0.052776448756158598 0 0.12622612717380161 0.06782907403674196 0 0.12622612717380161 0.06782907403674196 0 0.14875999475927809 0.083129935665089333 0 0.12622612717380161 0.06782907403674196 0 0.14875999475927809 0.083129935665089333 0 0.12754373863290139 0.081534442741149349 0 0.12622612717380161 0.06782907403674196 0 0.14875999475927809 0.083129935665089333 0 0.15645842583778699 0.063790969125866737 0 0.14875999475927809 0.083129935665089333 0 0.12836022420896409 0.092531627049253523 0 0.14134060155354411 0.10354846321053369 0 0.14875999475927809 0.083129935665089333 0 0.12754373863290139 0.081534442741149349 0 0.12836022420896409 0.092531627049253523 0 0.119563865374456 0.08661203764115305 0 0.12754373863290139 0.081534442741149349 0 0.12836022420896409 0.092531627049253523 0 0.1156335863390732 0.097750947760012488 0 0.14134060155354411 0.10354846321053369 0 0.1156335863390732 0.097750947760012488 0 0.1337095497930447 0.1099736533109005 0 0.14134060155354411 0.10354846321053369 0 0.1156335863390732 0.097750947760012488 0 0.12836022420896409 0.092531627049253523 0 0.14134060155354411 0.10354846321053369 0 0.1337095497930447 0.1099736533109005 0 0.14499023906597799 0.10612722603748589 0 0.14134060155354411 0.10354846321053369 0 0.12220454349601249 0.11267110715563371 0 0.13227009923155661 0.1217404696001354 0 0.1337095497930447 0.1099736533109005 0 0.1337095497930447 0.1099736533109005 0 0.14106684694417571 0.1167792830609644 0 0.14499023906597799 0.10612722603748589 0 0.13227009923155661 0.1217404696001354 0 0.1337095497930447 0.1099736533109005 0 0.14106684694417571 0.1167792830609644 0 0.13227009923155661 0.1217404696001354 0 0.1426883030740152 0.1248218674886631 0 0.14106684694417571 0.1167792830609644 0 0.1426883030740152 0.1248218674886631 0 0.14106684694417571 0.1167792830609644 0 0.15085115082574091 0.1210206254230821 0 0.14106684694417571 0.1167792830609644 0 0.15085115082574091 0.1210206254230821 0 0.14499023906597799 0.10612722603748589 0 0.15085115082574091 0.1210206254230821 0 0.14499023906597799 0.10612722603748589 0 0.15085115082574091 0.1210206254230821 0 0.14499023906597799 0.10612722603748589 0 0.16058906419623289 0.1206323742265014 0 0.14499023906597799 0.10612722603748589 0 0.14134060155354411 0.10354846321053369 0 0.16704761676801461 0.10934597866105671 0 0.14134060155354411 0.10354846321053369 0 0.15593260882593821 0.098738464016732405 0 0.16704761676801461 0.10934597866105671 0 0.14875999475927809 0.083129935665089333 0 0.14134060155354411 0.10354846321053369 0 0.15593260882593821 0.098738464016732405 0 0.14134060155354411 0.10354846321053369 0 0.16704761676801461 0.10934597866105671 0 0.16704761676801461 0.10934597866105671 0 0.1712938623447551 0.098430797293435887 0 0.1755636190373823 0.1070297276323485 0 0.16704761676801461 0.10934597866105671 0 0.1712938623447551 0.098430797293435887 0 0.15593260882593821 0.098738464016732405 0 0.16704761676801461 0.10934597866105671 0 0.1712938623447551 0.098430797293435887 0 0.16260883549817881 0.1207560824187968 0 0.17985699198080149 0.12181250809276491 0 0.14499023906597799 0.10612722603748589 0 0.16704761676801461 0.10934597866105671 0 0.16058906419623289 0.1206323742265014 0 0.17126056422282651 0.13141147479892981 0 0.16260883549817881 0.1207560824187968 0 0.17985699198080149 0.12181250809276491 0 0.15085115082574091 0.1210206254230821 0 0.1620184957530334 0.1224324491043569 0 0.16058906419623289 0.1206323742265014 0 0.1620184957530334 0.1224324491043569 0 0.16260883549817881 0.1207560824187968 0 0.1620184957530334 0.1224324491043569 0 0.16058906419623289 0.1206323742265014 0 0.16260883549817881 0.1207560824187968 0 0.16058906419623289 0.1206323742265014 0 0.16260883549817881 0.1207560824187968 0 0.16704761676801461 0.10934597866105671 0 0.16058906419623289 0.1206323742265014 0 0.16260883549817881 0.1207560824187968 0 0.16704761676801461 0.10934597866105671 0 0.16260883549817881 0.1207560824187968 0 0.17369076686059659 0.11533422286205949 0 0.16704761676801461 0.10934597866105671 0 0.16260883549817881 0.1207560824187968 0 0.17126056422282651 0.13141147479892981 0 0.1620184957530334 0.1224324491043569 0 0.16260883549817881 0.1207560824187968 0 0.19710514846342439 0.12286893376672969 0 0.18226112071026471 0.11277696912906759 0 0.17985699198080149 0.12181250809276491 0 0.16260883549817881 0.1207560824187968 0 0.17369076686059659 0.11533422286205949 0 0.17985699198080149 0.12181250809276491 0 0.17369076686059659 0.11533422286205949 0 0.18226112071026471 0.11277696912906759 0 0.17985699198080149 0.12181250809276491 0 0.16704761676801461 0.10934597866105671 0 0.18226112071026471 0.11277696912906759 0 0.1755636190373823 0.1070297276323485 0 0.16704761676801461 0.10934597866105671 0 0.17369076686059659 0.11533422286205949 0 0.18226112071026471 0.11277696912906759 0 0.16704761676801461 0.10934597866105671 0 0.18226112071026471 0.11277696912906759 0 0.1712938623447551 0.098430797293435887 0 0.18438424349863519 0.10731937844525589 0 0.1813736541239622 0.096643499483624995 0 0.1712938623447551 0.098430797293435887 0 0.1813736541239622 0.096643499483624995 0 0.17375861417272681 0.092095032500215404 0 0.1712938623447551 0.098430797293435887 0 0.17375861417272681 0.092095032500215404 0 0.1712938623447551 0.098430797293435887 0 0.1755636190373823 0.1070297276323485 0 0.18438424349863519 0.10731937844525589 0 0.1712938623447551 0.098430797293435887 0 0.18438424349863519 0.10731937844525589 0 0.18226112071026471 0.11277696912906759 0 0.1755636190373823 0.1070297276323485 0 0.18438424349863519 0.10731937844525589 0 0.19274350455864719 0.098731566298841944 0 0.18438424349863519 0.10731937844525589 0 0.1813736541239622 0.096643499483624995 0 0.1899832693808981 0.087207282535467792 0 0.1813736541239622 0.096643499483624995 0 0.18048531560753231 0.085956748783264536 0 0.18048531560753231 0.085956748783264536 0 0.17375861417272681 0.092095032500215404 0 0.17388165320553201 0.081396407092069412 0 0.1813736541239622 0.096643499483624995 0 0.18048531560753231 0.085956748783264536 0 0.17375861417272681 0.092095032500215404 0 0.18048531560753231 0.085956748783264536 0 0.17388165320553201 0.081396407092069412 0 0.18006177890638431 0.075490679725150014 0 0.18048531560753231 0.085956748783264536 0 0.18674781540538871 0.08100403414777245 0 0.18006177890638431 0.075490679725150014 0 0.1899832693808981 0.087207282535467792 0 0.18048531560753231 0.085956748783264536 0 0.18674781540538871 0.08100403414777245 0 0.19646089772674 0.075361425547207483 0 0.1767546078390663 0.059172910654314632 0 0.19646089772674 0.075361425547207483 0 0.1767546078390663 0.059172910654314632 0 0.18006177890638431 0.075490679725150014 0 0.1767546078390663 0.059172910654314632 0 0.18006177890638431 0.075490679725150014 0 0.16988349453651341 0.071715393109957337 0 0.17388165320553201 0.081396407092069412 0 0.18006177890638431 0.075490679725150014 0 0.16988349453651341 0.071715393109957337 0 0.15645842583778699 0.063790969125866737 0 0.16988349453651341 0.071715393109957337 0 0.1652190628045033 0.081724181341759822 0 0.14875999475927809 0.083129935665089333 0 0.15645842583778699 0.063790969125866737 0 0.1652190628045033 0.081724181341759822 0 0.1767546078390663 0.059172910654314632 0 0.15645842583778699 0.063790969125866737 0 0.16988349453651341 0.071715393109957337 0 0.1712938623447551 0.098430797293435887 0 0.17375861417272681 0.092095032500215404 0 0.1652190628045033 0.081724181341759822 0 0.14875999475927809 0.083129935665089333 0 0.15593260882593821 0.098738464016732405 0 0.1712938623447551 0.098430797293435887 0 0.14875999475927809 0.083129935665089333 0 0.1712938623447551 0.098430797293435887 0 0.1652190628045033 0.081724181341759822 0 0.14875999475927809 0.083129935665089333 0 0.1712938623447551 0.098430797293435887 0 0.17388165320553201 0.081396407092069412 0 0.16988349453651341 0.071715393109957337 0 0.1652190628045033 0.081724181341759822 0 0.17375861417272681 0.092095032500215404 0 0.17388165320553201 0.081396407092069412 0 0.1652190628045033 0.081724181341759822 0 0.1063698352549685 0.47612105880577721 0 0.1104508424712793 0.49021265238869632 0 0.085991143028624276 0.48042530477739098 0 0.1063698352549685 0.47612105880577721 0 0.09928047883942244 0.46481778817942287 0 0.085991143028624276 0.48042530477739098 0 0.1063698352549685 0.47612105880577721 0 0.1137031824129478 0.47002893028295001 0 0.09928047883942244 0.46481778817942287 0 0.1104508424712793 0.49021265238869632 0 0.085991143028624276 0.48042530477739098 0 0.1058284706322776 0.5 0 0.1104508424712793 0.49021265238869632 0 0.085991143028624276 0.48042530477739098 0 0.1104508424712793 0.49021265238869632 0 0.1349105419139347 0.50000000000000089 0 0.1104508424712793 0.49021265238869632 0 0.1172784241851602 0.48239011809730559 0 0.1349105419139347 0.50000000000000089 0 0.1058284706322776 0.5 0 0.1104508424712793 0.49021265238869632 0 0.1349105419139347 0.50000000000000089 0 0.1172784241851602 0.48239011809730559 0 0.1137031824129478 0.47002893028295001 0 0.12633670454979751 0.4773000659454385 0 0.1063698352549685 0.47612105880577721 0 0.1104508424712793 0.49021265238869632 0 0.1172784241851602 0.48239011809730559 0 0.1063698352549685 0.47612105880577721 0 0.1172784241851602 0.48239011809730559 0 0.1137031824129478 0.47002893028295001 0 0.1137031824129478 0.47002893028295001 0 0.1214684810538849 0.46526649887380112 0 0.12633670454979751 0.4773000659454385 0 0.1214684810538849 0.46526649887380112 0 0.1217963043948825 0.45489592595541439 0 0.11211927828144171 0.46051461359786061 0 0.1217963043948825 0.45489592595541439 0 0.11211927828144171 0.46051461359786061 0 0.11166266856374631 0.45133589563795767 0 0.1137031824129478 0.47002893028295001 0 0.1214684810538849 0.46526649887380112 0 0.11211927828144171 0.46051461359786061 0 0.1239128792744965 0.4450890007155488 0 0.10987236013042601 0.43083481362690912 0 0.13267226055322601 0.44059772862736118 0 0.1217963043948825 0.45489592595541439 0 0.1239128792744965 0.4450890007155488 0 0.11597449591066381 0.44522024121029791 0 0.1217963043948825 0.45489592595541439 0 0.11166266856374631 0.45133589563795767 0 0.11597449591066381 0.44522024121029791 0 0.11166266856374631 0.45133589563795767 0 0.11597449591066381 0.44522024121029791 0 0.10766282546792021 0.442928671482474 0 0.1239128792744965 0.4450890007155488 0 0.11597449591066381 0.44522024121029791 0 0.10987236013042601 0.43083481362690912 0 0.11597449591066381 0.44522024121029791 0 0.10766282546792021 0.442928671482474 0 0.10987236013042601 0.43083481362690912 0 0.10152219740740991 0.45099068894757832 0 0.080597364117558731 0.45291750332881547 0 0.099663284649148115 0.43519704949154547 0 0.10766282546792021 0.442928671482474 0 0.10152219740740991 0.45099068894757832 0 0.099663284649148115 0.43519704949154547 0 0.11166266856374631 0.45133589563795767 0 0.10766282546792021 0.442928671482474 0 0.10152219740740991 0.45099068894757832 0 0.10152219740740991 0.45099068894757832 0 0.09928047883942244 0.46481778817942287 0 0.080597364117558731 0.45291750332881547 0 0.1137031824129478 0.47002893028295001 0 0.11211927828144171 0.46051461359786061 0 0.09928047883942244 0.46481778817942287 0 0.11211927828144171 0.46051461359786061 0 0.11166266856374631 0.45133589563795767 0 0.10152219740740991 0.45099068894757832 0 0.11211927828144171 0.46051461359786061 0 0.10152219740740991 0.45099068894757832 0 0.09928047883942244 0.46481778817942287 0 0.09928047883942244 0.46481778817942287 0 0.080597364117558731 0.45291750332881547 0 0.085991143028624276 0.48042530477739098 0 0.080597364117558731 0.45291750332881547 0 0.089358511469130153 0.42839270578543281 0 0.099663284649148115 0.43519704949154547 0 0.080597364117558731 0.45291750332881547 0 0.099663284649148115 0.43519704949154547 0 0.080597364117558731 0.45291750332881547 0 0.062974917109199627 0.43809366858153809 0 0.075166231665628802 0.42512195364195582 0 0.080597364117558731 0.45291750332881547 0 0.062974917109199627 0.43809366858153809 0 0.05870052706015625 0.45210419241280109 0 0.080597364117558731 0.45291750332881547 0 0.061531443585969278 0.4706379571660857 0 0.05870052706015625 0.45210419241280109 0 0.080597364117558731 0.45291750332881547 0 0.061531443585969278 0.4706379571660857 0 0.080597364117558731 0.45291750332881547 0 0.085991143028624276 0.48042530477739098 0 0.061531443585969278 0.4706379571660857 0 0.085991143028624276 0.48042530477739098 0 0.063660921245903834 0.48715830615924932 0 0.061531443585969278 0.4706379571660857 0 0.085991143028624276 0.48042530477739098 0 0.061531443585969278 0.4706379571660857 0 0.1058284706322776 0.5 0 0.085991143028624276 0.48042530477739098 0 0.076746399350620442 0.5 0 0.085991143028624276 0.48042530477739098 0 0.076746399350620442 0.5 0 0.063660921245903834 0.48715830615924932 0 0.076746399350620442 0.5 0 0.063660921245903834 0.48715830615924932 0 0.047664328068963369 0.5 0 0.063660921245903834 0.48715830615924932 0 0.047664328068963369 0.5 0 0.046371292195341807 0.48472826885276948 0 0.063660921245903834 0.48715830615924932 0 0.061531443585969278 0.4706379571660857 0 0.046371292195341807 0.48472826885276948 0 0.061531443585969278 0.4706379571660857 0 0.046371292195341807 0.48472826885276948 0 0.042220943572860242 0.46291101936705359 0 0.061531443585969278 0.4706379571660857 0 0.046371292195341807 0.48472826885276948 0 0.034434297849690369 0.47764286337759893 0 0.046371292195341807 0.48472826885276948 0 0.042220943572860242 0.46291101936705359 0 0.034434297849690369 0.47764286337759893 0 0.046371292195341807 0.48472826885276948 0 0.033667550335675603 0.48944300064882662 0 0.034434297849690369 0.47764286337759893 0 0.028574015181654689 0.4690232106195813 0 0.042220943572860242 0.46291101936705359 0 0.047664328068963369 0.5 0 0.033667550335675603 0.48944300064882662 0 0.01858225678730618 0.5 0 0.047664328068963369 0.5 0 0.046371292195341807 0.48472826885276948 0 0.033667550335675603 0.48944300064882662 0 0.033667550335675603 0.48944300064882662 0 0.01858225678730618 0.5 0 0.02133768796291954 0.48210881739976369 0 0.028574015181654689 0.4690232106195813 0 0.02133768796291954 0.48210881739976369 0 0.008313226868631108 0.45607532714149451 0 0.034434297849690369 0.47764286337759893 0 0.033667550335675603 0.48944300064882662 0 0.02133768796291954 0.48210881739976369 0 0.034434297849690369 0.47764286337759893 0 0.028574015181654689 0.4690232106195813 0 0.02133768796291954 0.48210881739976369 0 0.02133768796291954 0.48210881739976369 0 0.0067600946700270273 0.47816777778970271 0 0.0065726087299690919 0.48870131786084792 0 0.02133768796291954 0.48210881739976369 0 0.0067600946700270273 0.47816777778970271 0 0.003865451942241316 0.46645998822954698 0 -0.003317181276056179 0.4832299941147733 0 0.0067600946700270273 0.47816777778970271 0 0.003865451942241316 0.46645998822954698 0 0.02133768796291954 0.48210881739976369 0 0.008313226868631108 0.45607532714149451 0 -0.003317181276056179 0.4832299941147733 0 0.003865451942241316 0.46645998822954698 0 -0.003317181276056179 0.4832299941147733 0 0.0067600946700270273 0.47816777778970271 0 0.0065726087299690919 0.48870131786084792 0 0.01858225678730618 0.5 0 0.02133768796291954 0.48210881739976369 0 0.0065726087299690919 0.48870131786084792 0 -0.0104998144943511 0.50000000000000067 0 0.01858225678730618 0.5 0 0.0065726087299690919 0.48870131786084792 0 -0.0041427141010954563 0.43117820352575181 0 0.008313226868631108 0.45607532714149451 0 -0.0041427141010954563 0.43117820352575181 0 0.01450260092375362 0.44162438189958669 0 0.008313226868631108 0.45607532714149451 0 0.01450260092375362 0.44162438189958669 0 0.008313226868631108 0.45607532714149451 0 0.01450260092375362 0.44162438189958669 0 0.008313226868631108 0.45607532714149451 0 0.02291044355975114 0.45518408156802159 0 -0.0080611892009694042 0.45966402297224568 0 0.003865451942241316 0.46645998822954698 0 0.008313226868631108 0.45607532714149451 0 0.02133768796291954 0.48210881739976369 0 0.003865451942241316 0.46645998822954698 0 0.008313226868631108 0.45607532714149451 0 0.003865451942241316 0.46645998822954698 0 0.008313226868631108 0.45607532714149451 0 0.028574015181654689 0.4690232106195813 0 0.02291044355975114 0.45518408156802159 0 0.042220943572860242 0.46291101936705359 0 0.028574015181654689 0.4690232106195813 0 0.008313226868631108 0.45607532714149451 0 0.02291044355975114 0.45518408156802159 0 0.01450260092375362 0.44162438189958669 0 0.02291044355975114 0.45518408156802159 0 0.030124268371240381 0.44208190799368707 0 0.030124268371240381 0.44208190799368707 0 0.045187335182337057 0.43956011453996952 0 0.042220943572860242 0.46291101936705359 0 0.02291044355975114 0.45518408156802159 0 0.042220943572860242 0.46291101936705359 0 0.02291044355975114 0.45518408156802159 0 0.030124268371240381 0.44208190799368707 0 0.042220943572860242 0.46291101936705359 0 0.061531443585969278 0.4706379571660857 0 0.042220943572860242 0.46291101936705359 0 0.061531443585969278 0.4706379571660857 0 0.042220943572860242 0.46291101936705359 0 0.05870052706015625 0.45210419241280109 0 0.062974917109199627 0.43809366858153809 0 0.045187335182337057 0.43956011453996952 0 0.05870052706015625 0.45210419241280109 0 0.045187335182337057 0.43956011453996952 0 0.042220943572860242 0.46291101936705359 0 0.05870052706015625 0.45210419241280109 0 0.062974917109199627 0.43809366858153809 0 0.045187335182337057 0.43956011453996952 0 0.055223127520317272 0.42076457898414849 0 0.055223127520317272 0.42076457898414849 0 0.049910497270125469 0.40389767255475639 0 0.067911466746526983 0.40406965793341709 0 0.055223127520317272 0.42076457898414849 0 0.033562210441961171 0.41154978258243019 0 0.036464791502065712 0.42760094980250563 0 0.055223127520317272 0.42076457898414849 0 0.033562210441961171 0.41154978258243019 0 0.055223127520317272 0.42076457898414849 0 0.033562210441961171 0.41154978258243019 0 0.049910497270125469 0.40389767255475639 0 0.045187335182337057 0.43956011453996952 0 0.055223127520317272 0.42076457898414849 0 0.036464791502065712 0.42760094980250563 0 0.030124268371240381 0.44208190799368707 0 0.045187335182337057 0.43956011453996952 0 0.036464791502065712 0.42760094980250563 0 0.030124268371240381 0.44208190799368707 0 0.036464791502065712 0.42760094980250563 0 0.02069197497887635 0.42717343665767898 0 0.033562210441961171 0.41154978258243019 0 0.036464791502065712 0.42760094980250563 0 0.02069197497887635 0.42717343665767898 0 0.01450260092375362 0.44162438189958669 0 0.030124268371240381 0.44208190799368707 0 0.02069197497887635 0.42717343665767898 0 0.01450260092375362 0.44162438189958669 0 0.02069197497887635 0.42717343665767898 0 0.02069197497887635 0.42717343665767898 0 0.016452618500034839 0.41568247403494252 0 0.0097656019727410948 0.42762994459337322 0 0.033562210441961171 0.41154978258243019 0 0.01190129336360431 0.40233498618071378 0 0.033562210441961171 0.41154978258243019 0 0.016452618500034839 0.41568247403494252 0 0.01190129336360431 0.40233498618071378 0 0.033562210441961171 0.41154978258243019 0 0.02069197497887635 0.42717343665767898 0 0.016452618500034839 0.41568247403494252 0 0.016452618500034839 0.41568247403494252 0 0.0038792896312541398 0.41675659485323269 0 0.0097656019727410948 0.42762994459337322 0 0.016452618500034839 0.41568247403494252 0 0.0038792896312541398 0.41675659485323269 0 0.01190129336360431 0.40233498618071378 0 0.0038792896312541398 0.41675659485323269 0 0.01190129336360431 0.40233498618071378 0 -0.00178812290019577 0.40542848477950227 0 0.0038792896312541398 0.41675659485323269 0 0.01190129336360431 0.40233498618071378 0 -0.0041427141010954563 0.43117820352575181 0 0.0038792896312541398 0.41675659485323269 0 0.0097656019727410948 0.42762994459337322 0 -0.0041427141010954563 0.43117820352575181 0 0.01450260092375362 0.44162438189958669 0 0.0097656019727410948 0.42762994459337322 0 0.01450260092375362 0.44162438189958669 0 0.02069197497887635 0.42717343665767898 0 0.0097656019727410948 0.42762994459337322 0 -0.0069068780647111904 0.38028717016417002 0 0.0074705024925483098 0.38588226540941539 0 0.0013503109674801231 0.36998046726524803 0 0.011653707624183249 0.37529245869211608 0 0.0074705024925483098 0.38588226540941539 0 0.023926970176385939 0.38071574854352269 0 0.0074705024925483098 0.38588226540941539 0 0.01190129336360431 0.40233498618071378 0 0.023926970176385939 0.38071574854352269 0 0.011653707624183249 0.37529245869211608 0 0.0074705024925483098 0.38588226540941539 0 0.0013503109674801231 0.36998046726524803 0 -0.0074555354316463863 0.39410037470577192 0 0.0074705024925483098 0.38588226540941539 0 0.01190129336360431 0.40233498618071378 0 -0.0074555354316463863 0.39410037470577192 0 0.01190129336360431 0.40233498618071378 0 -0.00178812290019577 0.40542848477950227 0 -0.0074555354316463863 0.39410037470577192 0 0.01190129336360431 0.40233498618071378 0 0.01190129336360431 0.40233498618071378 0 0.023926970176385939 0.38071574854352269 0 0.01190129336360431 0.40233498618071378 0 0.023926970176385939 0.38071574854352269 0 0.037088745271515143 0.39368427658428912 0 0.033562210441961171 0.41154978258243019 0 0.01190129336360431 0.40233498618071378 0 0.037088745271515143 0.39368427658428912 0 0.023926970176385939 0.38071574854352269 0 0.043297479824803801 0.37723406192464248 0 0.037088745271515143 0.39368427658428912 0 0.043297479824803801 0.37723406192464248 0 0.037088745271515143 0.39368427658428912 0 0.055766936370306767 0.38942006668949702 0 0.033562210441961171 0.41154978258243019 0 0.037088745271515143 0.39368427658428912 0 0.049910497270125469 0.40389767255475639 0 0.037088745271515143 0.39368427658428912 0 0.049910497270125469 0.40389767255475639 0 0.055766936370306767 0.38942006668949702 0 0.049910497270125469 0.40389767255475639 0 0.055766936370306767 0.38942006668949702 0 0.067911466746526983 0.40406965793341709 0 0.043297479824803801 0.37723406192464248 0 0.055766936370306767 0.38942006668949702 0 0.063727723451410534 0.36587260418476641 0 0.070103944511574992 0.38306294696849191 0 0.084482970460401235 0.37662932842237501 0 0.063727723451410534 0.36587260418476641 0 0.055766936370306767 0.38942006668949702 0 0.070103944511574992 0.38306294696849191 0 0.063727723451410534 0.36587260418476641 0 0.070103944511574992 0.38306294696849191 0 0.084482970460401235 0.37662932842237501 0 0.080899831379304399 0.39408803446327711 0 0.084482970460401235 0.37662932842237501 0 0.080899831379304399 0.39408803446327711 0 0.095821715359335022 0.39053482388000338 0 0.080899831379304399 0.39408803446327711 0 0.089658311173945238 0.40989458011397512 0 0.095821715359335022 0.39053482388000338 0 0.080899831379304399 0.39408803446327711 0 0.067911466746526983 0.40406965793341709 0 0.089658311173945238 0.40989458011397512 0 0.070103944511574992 0.38306294696849191 0 0.080899831379304399 0.39408803446327711 0 0.067911466746526983 0.40406965793341709 0 0.055766936370306767 0.38942006668949702 0 0.070103944511574992 0.38306294696849191 0 0.067911466746526983 0.40406965793341709 0 0.055223127520317272 0.42076457898414849 0 0.067911466746526983 0.40406965793341709 0 0.075166231665628802 0.42512195364195582 0 0.067911466746526983 0.40406965793341709 0 0.075166231665628802 0.42512195364195582 0 0.089658311173945238 0.40989458011397512 0 0.062974917109199627 0.43809366858153809 0 0.055223127520317272 0.42076457898414849 0 0.075166231665628802 0.42512195364195582 0 0.080597364117558731 0.45291750332881547 0 0.075166231665628802 0.42512195364195582 0 0.089358511469130153 0.42839270578543281 0 0.089358511469130153 0.42839270578543281 0 0.089658311173945238 0.40989458011397512 0 0.10170736573936991 0.41883244235087203 0 0.075166231665628802 0.42512195364195582 0 0.089358511469130153 0.42839270578543281 0 0.089658311173945238 0.40989458011397512 0 0.10170736573936991 0.41883244235087203 0 0.1187292051807374 0.41747659565427558 0 0.1069451111670128 0.40486183517343483 0 0.089658311173945238 0.40989458011397512 0 0.10170736573936991 0.41883244235087203 0 0.1069451111670128 0.40486183517343483 0 0.089358511469130153 0.42839270578543281 0 0.10170736573936991 0.41883244235087203 0 0.099663284649148115 0.43519704949154547 0 0.10170736573936991 0.41883244235087203 0 0.099663284649148115 0.43519704949154547 0 0.1187292051807374 0.41747659565427558 0 0.099663284649148115 0.43519704949154547 0 0.1187292051807374 0.41747659565427558 0 0.10766282546792021 0.442928671482474 0 0.099663284649148115 0.43519704949154547 0 0.10987236013042601 0.43083481362690912 0 0.10987236013042601 0.43083481362690912 0 0.1187292051807374 0.41747659565427558 0 0.12620233195429839 0.42416344974828118 0 0.10987236013042601 0.43083481362690912 0 0.13267226055322601 0.44059772862736118 0 0.10987236013042601 0.43083481362690912 0 0.1239057842265244 0.43392498190170392 0 0.12620233195429839 0.42416344974828118 0 0.099663284649148115 0.43519704949154547 0 0.10987236013042601 0.43083481362690912 0 0.1187292051807374 0.41747659565427558 0 0.10987236013042601 0.43083481362690912 0 0.1239057842265244 0.43392498190170392 0 0.13267226055322601 0.44059772862736118 0 0.1187292051807374 0.41747659565427558 0 0.1200615964809767 0.39904280466233172 0 0.1069451111670128 0.40486183517343483 0 0.1200615964809767 0.39904280466233172 0 0.1123840315637407 0.3906630216550917 0 0.1244545087810657 0.3824564290118504 0 0.1200615964809767 0.39904280466233172 0 0.1123840315637407 0.3906630216550917 0 0.1069451111670128 0.40486183517343483 0 0.1123840315637407 0.3906630216550917 0 0.1244545087810657 0.3824564290118504 0 0.1053125312081498 0.37090542153649281 0 0.084482970460401235 0.37662932842237501 0 0.095821715359335022 0.39053482388000338 0 0.1053125312081498 0.37090542153649281 0 0.1123840315637407 0.3906630216550917 0 0.095821715359335022 0.39053482388000338 0 0.1053125312081498 0.37090542153649281 0 0.1123840315637407 0.3906630216550917 0 0.095821715359335022 0.39053482388000338 0 0.1069451111670128 0.40486183517343483 0 0.089658311173945238 0.40989458011397512 0 0.095821715359335022 0.39053482388000338 0 0.1069451111670128 0.40486183517343483 0 0.10461488998583079 0.34562470556563601 0 0.1053125312081498 0.37090542153649281 0 0.089912257837138784 0.35854141768190401 0 0.1244545087810657 0.3824564290118504 0 0.1053125312081498 0.37090542153649281 0 0.12700131613561219 0.35737421663998448 0 0.10461488998583079 0.34562470556563601 0 0.1053125312081498 0.37090542153649281 0 0.12700131613561219 0.35737421663998448 0 0.10461488998583079 0.34562470556563601 0 0.12702778418690511 0.32652750820722171 0 0.12700131613561219 0.35737421663998448 0 0.10461488998583079 0.34562470556563601 0 0.10109267685702419 0.32014056617718828 0 0.12702778418690511 0.32652750820722171 0 0.10109267685702419 0.32014056617718828 0 0.12705354576683239 0.30221262907165608 0 0.12702778418690511 0.32652750820722171 0 0.10461488998583079 0.34562470556563601 0 0.10109267685702419 0.32014056617718828 0 0.076774486125402955 0.33944209071881593 0 0.10109267685702419 0.32014056617718828 0 0.076774486125402955 0.33944209071881593 0 0.073839086005423896 0.31164599072861149 0 0.076774486125402955 0.33944209071881593 0 0.050207412723741067 0.32423963029641079 0 0.073839086005423896 0.31164599072861149 0 0.076774486125402955 0.33944209071881593 0 0.063727723451410534 0.36587260418476641 0 0.047544852796509482 0.34479228161216829 0 0.076774486125402955 0.33944209071881593 0 0.089912257837138784 0.35854141768190401 0 0.063727723451410534 0.36587260418476641 0 0.10461488998583079 0.34562470556563601 0 0.076774486125402955 0.33944209071881593 0 0.089912257837138784 0.35854141768190401 0 0.084482970460401235 0.37662932842237501 0 0.089912257837138784 0.35854141768190401 0 0.063727723451410534 0.36587260418476641 0 0.084482970460401235 0.37662932842237501 0 0.1053125312081498 0.37090542153649281 0 0.089912257837138784 0.35854141768190401 0 0.043297479824803801 0.37723406192464248 0 0.063727723451410534 0.36587260418476641 0 0.035952646989167461 0.35909651090633138 0 0.063727723451410534 0.36587260418476641 0 0.047544852796509482 0.34479228161216829 0 0.035952646989167461 0.35909651090633138 0 0.047544852796509482 0.34479228161216829 0 0.035952646989167461 0.35909651090633138 0 0.02938118465938002 0.34661180636478528 0 0.023926970176385939 0.38071574854352269 0 0.043297479824803801 0.37723406192464248 0 0.035952646989167461 0.35909651090633138 0 0.023926970176385939 0.38071574854352269 0 0.035952646989167461 0.35909651090633138 0 0.01386704686031863 0.36459135355027861 0 0.023926970176385939 0.38071574854352269 0 0.035952646989167461 0.35909651090633138 0 0.011653707624183249 0.37529245869211608 0 0.023926970176385939 0.38071574854352269 0 0.01386704686031863 0.36459135355027861 0 0.035952646989167461 0.35909651090633138 0 0.02938118465938002 0.34661180636478528 0 0.0167041027488764 0.35257988687610592 0 0.035952646989167461 0.35909651090633138 0 0.0167041027488764 0.35257988687610592 0 0.01386704686031863 0.36459135355027861 0 0.02938118465938002 0.34661180636478528 0 0.0167041027488764 0.35257988687610592 0 0.01553113159280259 0.34283164649007852 0 0.0167041027488764 0.35257988687610592 0 0.0078882559829680076 0.35435436720602709 0 0.0094437707158385644 0.34907571828868778 0 0.0167041027488764 0.35257988687610592 0 0.0078882559829680076 0.35435436720602709 0 0.01386704686031863 0.36459135355027861 0 0.0094437707158385644 0.34907571828868778 0 0.007263683341510758 0.34471677154446689 0 0.01553113159280259 0.34283164649007852 0 0.0167041027488764 0.35257988687610592 0 0.0094437707158385644 0.34907571828868778 0 0.01553113159280259 0.34283164649007852 0 0.007263683341510758 0.34471677154446689 0 0.0048242844513376858 0.34816487854211992 0 0.0020375589431177251 0.34499087952597668 0 0.0094437707158385644 0.34907571828868778 0 0.007263683341510758 0.34471677154446689 0 0.0048242844513376858 0.34816487854211992 0 0.0078882559829680076 0.35435436720602709 0 0.0094437707158385644 0.34907571828868778 0 0.0048242844513376858 0.34816487854211992 0 0.0078882559829680076 0.35435436720602709 0 0.0048242844513376858 0.34816487854211992 0 0.00071743957548701129 0.35115971082290298 0 -0.0010140984898514009 0.34509349531049133 0 0.00071743957548701129 0.35115971082290298 0 0.001641296120022755 0.34735224105037271 0 0.0048242844513376858 0.34816487854211992 0 0.00071743957548701129 0.35115971082290298 0 0.001641296120022755 0.34735224105037271 0 0.0048242844513376858 0.34816487854211992 0 0.001641296120022755 0.34735224105037271 0 0.0020375589431177251 0.34499087952597668 0 -0.0010140984898514009 0.34509349531049133 0 0.001641296120022755 0.34735224105037271 0 0.0020375589431177251 0.34499087952597668 0 -0.0010140984898514009 0.34509349531049133 0 0.0020375589431177251 0.34499087952597668 0 0.0078882559829680076 0.35435436720602709 0 0.00071743957548701129 0.35115971082290298 0 0.0017728915459497561 0.36055465515606772 0 0.0017728915459497561 0.36055465515606772 0 0.0013503109674801231 0.36998046726524803 0 0.01386704686031863 0.36459135355027861 0 0.011653707624183249 0.37529245869211608 0 0.0013503109674801231 0.36998046726524803 0 0.01386704686031863 0.36459135355027861 0 0.0078882559829680076 0.35435436720602709 0 0.0017728915459497561 0.36055465515606772 0 0.01386704686031863 0.36459135355027861 0 0.009487388233964434 0.32521442177448112 0 0.014735594300994651 0.33208680250222972 0 0.021361200557316589 0.31967841036024908 0 0.009487388233964434 0.32521442177448112 0 0.0069627414015887646 0.31622612010653162 0 0.021361200557316589 0.31967841036024908 0 0.0069627414015887646 0.31622612010653162 0 0.021361200557316589 0.31967841036024908 0 0.01414227198185208 0.31047388526271458 0 -0.00089345811280322289 0.31281964192298528 0 0.0069627414015887646 0.31622612010653162 0 0.00039920024997303749 0.32204683334877421 0 0.009487388233964434 0.32521442177448112 0 0.00039920024997303749 0.32204683334877421 0 0.0042723060148418691 0.33151040961871148 0 0.009487388233964434 0.32521442177448112 0 0.0069627414015887646 0.31622612010653162 0 0.00039920024997303749 0.32204683334877421 0 -0.002362718422269084 0.33650576944850441 0 0.0042723060148418691 0.33151040961871148 0 0.0065883502374982778 0.33952722083061521 0 -0.002362718422269084 0.33650576944850441 0 -0.00187256140503479 0.34084480581969251 0 0.0065883502374982778 0.33952722083061521 0 -0.00187256140503479 0.34084480581969251 0 -0.0010140984898514009 0.34509349531049133 0 0.0065883502374982778 0.33952722083061521 0 -0.0010140984898514009 0.34509349531049133 0 0.0020375589431177251 0.34499087952597668 0 0.0065883502374982778 0.33952722083061521 0 -0.0010140984898514009 0.34509349531049133 0 0.0065883502374982778 0.33952722083061521 0 0.007263683341510758 0.34471677154446689 0 0.0020375589431177251 0.34499087952597668 0 0.0065883502374982778 0.33952722083061521 0 0.007263683341510758 0.34471677154446689 0 0.0065883502374982778 0.33952722083061521 0 0.01553113159280259 0.34283164649007852 0 0.0065883502374982778 0.33952722083061521 0 0.01553113159280259 0.34283164649007852 0 0.014735594300994651 0.33208680250222972 0 0.0042723060148418691 0.33151040961871148 0 0.0065883502374982778 0.33952722083061521 0 0.014735594300994651 0.33208680250222972 0 0.009487388233964434 0.32521442177448112 0 0.0042723060148418691 0.33151040961871148 0 0.014735594300994651 0.33208680250222972 0 0.014735594300994651 0.33208680250222972 0 0.031173189169544171 0.33375870593924262 0 0.021361200557316589 0.31967841036024908 0 0.02938118465938002 0.34661180636478528 0 0.01553113159280259 0.34283164649007852 0 0.031173189169544171 0.33375870593924262 0 0.01553113159280259 0.34283164649007852 0 0.014735594300994651 0.33208680250222972 0 0.031173189169544171 0.33375870593924262 0 0.031173189169544171 0.33375870593924262 0 0.021361200557316589 0.31967841036024908 0 0.034531028706290358 0.32201534941784621 0 0.021361200557316589 0.31967841036024908 0 0.034531028706290358 0.32201534941784621 0 0.035382312374559619 0.31038465107548202 0 0.034531028706290358 0.32201534941784621 0 0.050207412723741067 0.32423963029641079 0 0.035382312374559619 0.31038465107548202 0 0.031173189169544171 0.33375870593924262 0 0.034531028706290358 0.32201534941784621 0 0.050207412723741067 0.32423963029641079 0 0.047544852796509482 0.34479228161216829 0 0.02938118465938002 0.34661180636478528 0 0.031173189169544171 0.33375870593924262 0 0.047544852796509482 0.34479228161216829 0 0.031173189169544171 0.33375870593924262 0 0.050207412723741067 0.32423963029641079 0 0.076774486125402955 0.33944209071881593 0 0.047544852796509482 0.34479228161216829 0 0.050207412723741067 0.32423963029641079 0 0.050207412723741067 0.32423963029641079 0 0.051330564964894278 0.30054801303897127 0 0.073839086005423896 0.31164599072861149 0 0.051330564964894278 0.30054801303897127 0 0.047322618103323277 0.27745687893597332 0 0.068072554241300043 0.2905043820852084 0 0.051330564964894278 0.30054801303897127 0 0.033159406341017869 0.28905654511214213 0 0.047322618103323277 0.27745687893597332 0 0.050207412723741067 0.32423963029641079 0 0.051330564964894278 0.30054801303897127 0 0.035382312374559619 0.31038465107548202 0 0.051330564964894278 0.30054801303897127 0 0.033159406341017869 0.28905654511214213 0 0.035382312374559619 0.31038465107548202 0 0.021361200557316589 0.31967841036024908 0 0.035382312374559619 0.31038465107548202 0 0.023169372159057209 0.30562841904324911 0 0.033159406341017869 0.28905654511214213 0 0.035382312374559619 0.31038465107548202 0 0.023169372159057209 0.30562841904324911 0 0.021361200557316589 0.31967841036024908 0 0.023169372159057209 0.30562841904324911 0 0.01414227198185208 0.31047388526271458 0 0.023169372159057209 0.30562841904324911 0 0.01602890696596011 0.29576189583594042 0 0.01414227198185208 0.31047388526271458 0 0.033159406341017869 0.28905654511214213 0 0.02123753907833309 0.28378308311488593 0 0.01602890696596011 0.29576189583594042 0 0.033159406341017869 0.28905654511214213 0 0.023169372159057209 0.30562841904324911 0 0.01602890696596011 0.29576189583594042 0 0.033159406341017869 0.28905654511214213 0 0.029337055324776921 0.27402521758703691 0 0.033159406341017869 0.28905654511214213 0 0.02123753907833309 0.28378308311488593 0 0.029337055324776921 0.27402521758703691 0 0.02123753907833309 0.28378308311488593 0 0.01602890696596011 0.29576189583594042 0 0.01129882064794634 0.2854446769742261 0 0.01602890696596011 0.29576189583594042 0 0.01129882064794634 0.2854446769742261 0 0.0029653021229256679 0.29229565189105722 0 0.01129882064794634 0.2854446769742261 0 0.0029653021229256679 0.29229565189105722 0 0.002795744170032055 0.27876245576157882 0 -0.0044395502485222883 0.30354347077297689 0 0.0029653021229256679 0.29229565189105722 0 0.0056490177755969826 0.30431772026844278 0 -0.00089345811280322289 0.31281964192298528 0 0.0069627414015887646 0.31622612010653162 0 0.0056490177755969826 0.30431772026844278 0 -0.0044395502485222883 0.30354347077297689 0 -0.00089345811280322289 0.31281964192298528 0 0.0056490177755969826 0.30431772026844278 0 0.0069627414015887646 0.31622612010653162 0 0.0056490177755969826 0.30431772026844278 0 0.01414227198185208 0.31047388526271458 0 0.01602890696596011 0.29576189583594042 0 0.0029653021229256679 0.29229565189105722 0 0.0056490177755969826 0.30431772026844278 0 0.01602890696596011 0.29576189583594042 0 0.0056490177755969826 0.30431772026844278 0 0.01414227198185208 0.31047388526271458 0 0.0098196489738565339 0.24907858526724799 0 0.01025151234772265 0.26209185674429819 0 0.025514704308534739 0.25899389006193202 0 -0.0053765651385902042 0.25470293159257312 0 0.0098196489738565339 0.24907858526724799 0 0.01025151234772265 0.26209185674429819 0 -0.0050120886927738752 0.26825511850815892 0 0.01025151234772265 0.26209185674429819 0 0.002795744170032055 0.27876245576157882 0 0.01025151234772265 0.26209185674429819 0 0.002795744170032055 0.27876245576157882 0 0.01484775156357063 0.27410833785352989 0 0.01129882064794634 0.2854446769742261 0 0.002795744170032055 0.27876245576157882 0 0.01484775156357063 0.27410833785352989 0 0.01484775156357063 0.27410833785352989 0 0.025514704308534739 0.25899389006193202 0 0.01484775156357063 0.27410833785352989 0 0.029337055324776921 0.27402521758703691 0 0.025514704308534739 0.25899389006193202 0 0.02123753907833309 0.28378308311488593 0 0.01129882064794634 0.2854446769742261 0 0.01484775156357063 0.27410833785352989 0 0.02123753907833309 0.28378308311488593 0 0.01484775156357063 0.27410833785352989 0 0.029337055324776921 0.27402521758703691 0 0.029337055324776921 0.27402521758703691 0 0.025514704308534739 0.25899389006193202 0 0.01025151234772265 0.26209185674429819 0 0.01484775156357063 0.27410833785352989 0 0.025514704308534739 0.25899389006193202 0 0.041198497273589277 0.23677087327239019 0 0.03960108044111324 0.26066799209744951 0 0.054632527195341951 0.25609310062991503 0 0.041198497273589277 0.23677087327239019 0 0.025514704308534739 0.25899389006193202 0 0.03960108044111324 0.26066799209744951 0 0.029337055324776921 0.27402521758703691 0 0.025514704308534739 0.25899389006193202 0 0.03960108044111324 0.26066799209744951 0 0.033159406341017869 0.28905654511214213 0 0.029337055324776921 0.27402521758703691 0 0.047322618103323277 0.27745687893597332 0 0.029337055324776921 0.27402521758703691 0 0.03960108044111324 0.26066799209744951 0 0.047322618103323277 0.27745687893597332 0 0.047322618103323277 0.27745687893597332 0 0.054632527195341951 0.25609310062991503 0 0.070173924640782148 0.26696377707019958 0 0.047322618103323277 0.27745687893597332 0 0.070173924640782148 0.26696377707019958 0 0.068072554241300043 0.2905043820852084 0 0.03960108044111324 0.26066799209744951 0 0.047322618103323277 0.27745687893597332 0 0.054632527195341951 0.25609310062991503 0 0.071955590129945443 0.25108389837817918 0 0.086231138119857415 0.25636820749620531 0 0.070173924640782148 0.26696377707019958 0 0.054632527195341951 0.25609310062991503 0 0.071955590129945443 0.25108389837817918 0 0.070173924640782148 0.26696377707019958 0 0.086231138119857415 0.25636820749620531 0 0.092118934599372732 0.27366999629543448 0 0.098420879217757856 0.26063371267202651 0 0.086231138119857415 0.25636820749620531 0 0.092118934599372732 0.27366999629543448 0 0.070173924640782148 0.26696377707019958 0 0.092118934599372732 0.27366999629543448 0 0.070173924640782148 0.26696377707019958 0 0.068072554241300043 0.2905043820852084 0 0.051330564964894278 0.30054801303897127 0 0.068072554241300043 0.2905043820852084 0 0.073839086005423896 0.31164599072861149 0 0.10109267685702419 0.32014056617718828 0 0.073839086005423896 0.31164599072861149 0 0.097563050004066176 0.29635850557843219 0 0.068072554241300043 0.2905043820852084 0 0.073839086005423896 0.31164599072861149 0 0.097563050004066176 0.29635850557843219 0 0.068072554241300043 0.2905043820852084 0 0.097563050004066176 0.29635850557843219 0 0.092118934599372732 0.27366999629543448 0 0.068072554241300043 0.2905043820852084 0 0.097563050004066176 0.29635850557843219 0 0.092118934599372732 0.27366999629543448 0 0.097563050004066176 0.29635850557843219 0 0.1098312068304845 0.28394858271410878 0 0.10109267685702419 0.32014056617718828 0 0.097563050004066176 0.29635850557843219 0 0.12705354576683239 0.30221262907165608 0 0.097563050004066176 0.29635850557843219 0 0.12705354576683239 0.30221262907165608 0 0.097563050004066176 0.29635850557843219 0 0.1098312068304845 0.28394858271410878 0 0.12705354576683239 0.30221262907165608 0 0.1098312068304845 0.28394858271410878 0 0.12369611862993531 0.27696634453023949 0 0.12705354576683239 0.30221262907165608 0 0.1098312068304845 0.28394858271410878 0 0.12369611862993531 0.27696634453023949 0 0.1093336576381654 0.2685807032493468 0 0.12369611862993531 0.27696634453023949 0 0.1199267883608896 0.26513137375234619 0 0.1093336576381654 0.2685807032493468 0 0.10148749821634501 0.24791079639650351 0 0.1185225418219875 0.25528320561733031 0 0.1199267883608896 0.26513137375234619 0 0.1185225418219875 0.25528320561733031 0 0.11441767348333701 0.26034132664551002 0 0.10148749821634501 0.24791079639650351 0 0.1185225418219875 0.25528320561733031 0 0.116113460488704 0.25594350922913978 0 0.1185225418219875 0.25528320561733031 0 0.116113460488704 0.25594350922913978 0 0.1185225418219875 0.25528320561733031 0 0.116113460488704 0.25594350922913978 0 0.11441767348333701 0.26034132664551002 0 0.116113460488704 0.25594350922913978 0 0.11441767348333701 0.26034132664551002 0 0.10784204487850731 0.25863619910675961 0 0.11441767348333701 0.26034132664551002 0 0.10784204487850731 0.25863619910675961 0 0.1093336576381654 0.2685807032493468 0 0.1199267883608896 0.26513137375234619 0 0.11441767348333701 0.26034132664551002 0 0.1093336576381654 0.2685807032493468 0 0.10784204487850731 0.25863619910675961 0 0.098420879217757856 0.26063371267202651 0 0.1093336576381654 0.2685807032493468 0 0.10148749821634501 0.24791079639650351 0 0.10784204487850731 0.25863619910675961 0 0.098420879217757856 0.26063371267202651 0 0.10148749821634501 0.24791079639650351 0 0.116113460488704 0.25594350922913978 0 0.10784204487850731 0.25863619910675961 0 0.10148749821634501 0.24791079639650351 0 0.086231138119857415 0.25636820749620531 0 0.098420879217757856 0.26063371267202651 0 0.092118934599372732 0.27366999629543448 0 0.098420879217757856 0.26063371267202651 0 0.1093336576381654 0.2685807032493468 0 0.092118934599372732 0.27366999629543448 0 0.1098312068304845 0.28394858271410878 0 0.1093336576381654 0.2685807032493468 0 0.13949112505664091 0.26435796820471119 0 0.14098986175964101 0.2858209796791692 0 0.16045970829129491 0.27343273079209091 0 0.13949112505664091 0.26435796820471119 0 0.16045970829129491 0.27343273079209091 0 0.1517832348584128 0.25713178010324278 0 0.13949112505664091 0.26435796820471119 0 0.16045970829129491 0.27343273079209091 0 0.13836745630598729 0.2498439252871798 0 0.1582123707899874 0.2444046449570304 0 0.1517832348584128 0.25713178010324278 0 0.13836745630598729 0.2498439252871798 0 0.1517832348584128 0.25713178010324278 0 0.13949112505664091 0.26435796820471119 0 0.1185225418219875 0.25528320561733031 0 0.13949112505664091 0.26435796820471119 0 0.13836745630598729 0.2498439252871798 0 0.1185225418219875 0.25528320561733031 0 0.13949112505664091 0.26435796820471119 0 0.13836745630598729 0.2498439252871798 0 0.1185225418219875 0.25528320561733031 0 0.1238176916648828 0.24490491638607981 0 0.13836745630598729 0.2498439252871798 0 0.1185225418219875 0.25528320561733031 0 0.1199267883608896 0.26513137375234619 0 0.1185225418219875 0.25528320561733031 0 0.13949112505664091 0.26435796820471119 0 0.12369611862993531 0.27696634453023949 0 0.13949112505664091 0.26435796820471119 0 0.14098986175964101 0.2858209796791692 0 0.12369611862993531 0.27696634453023949 0 0.1199267883608896 0.26513137375234619 0 0.13949112505664091 0.26435796820471119 0 0.12369611862993531 0.27696634453023949 0 0.12705354576683239 0.30221262907165608 0 0.14098986175964101 0.2858209796791692 0 0.12705354576683239 0.30221262907165608 0 0.15654404152959869 0.30806675256487998 0 0.12702778418690511 0.32652750820722171 0 0.12705354576683239 0.30221262907165608 0 0.14098986175964101 0.2858209796791692 0 0.15654404152959869 0.30806675256487998 0 0.12705354576683239 0.30221262907165608 0 0.15654404152959869 0.30806675256487998 0 0.14098986175964101 0.2858209796791692 0 0.16252920546865851 0.29065529654857708 0 0.15654404152959869 0.30806675256487998 0 0.14098986175964101 0.2858209796791692 0 0.16252920546865851 0.29065529654857708 0 0.16045970829129491 0.27343273079209091 0 0.16252920546865851 0.29065529654857708 0 0.1752763338385819 0.2878440320708936 0 0.16045970829129491 0.27343273079209091 0 0.16252920546865851 0.29065529654857708 0 0.17770028629595469 0.29825301028137452 0 0.1752763338385819 0.2878440320708936 0 0.16252920546865851 0.29065529654857708 0 0.15654404152959869 0.30806675256487998 0 0.17770028629595469 0.29825301028137452 0 0.15654404152959869 0.30806675256487998 0 0.18603453729236491 0.31392087605810393 0 0.15654404152959869 0.30806675256487998 0 0.17770028629595469 0.29825301028137452 0 0.18603453729236491 0.31392087605810393 0 0.17770028629595469 0.29825301028137452 0 0.18924861644758709 0.30308912616449751 0 0.18603453729236491 0.31392087605810393 0 0.17770028629595469 0.29825301028137452 0 0.18823788355808571 0.29321411680437559 0 0.18924861644758709 0.30308912616449751 0 0.1752763338385819 0.2878440320708936 0 0.1814282915259495 0.28250749337946929 0 0.16045970829129491 0.27343273079209091 0 0.1752763338385819 0.2878440320708936 0 0.18085454433982689 0.29071782657166523 0 0.1814282915259495 0.28250749337946929 0 0.1752763338385819 0.2878440320708936 0 0.1814282915259495 0.28250749337946929 0 0.17770028629595469 0.29825301028137452 0 0.1752763338385819 0.2878440320708936 0 0.18085454433982689 0.29071782657166523 0 0.17770028629595469 0.29825301028137452 0 0.18085454433982689 0.29071782657166523 0 0.18823788355808571 0.29321411680437559 0 0.18085454433982689 0.29071782657166523 0 0.1814282915259495 0.28250749337946929 0 0.18823788355808571 0.29321411680437559 0 0.1814282915259495 0.28250749337946929 0 0.17984783184040529 0.26924034007635822 0 0.16045970829129491 0.27343273079209091 0 0.1814282915259495 0.28250749337946929 0 0.17984783184040529 0.26924034007635822 0 0.19812660274805019 0.26802248089292602 0 0.1814282915259495 0.28250749337946929 0 0.16045970829129491 0.27343273079209091 0 0.17984783184040529 0.26924034007635822 0 0.16045970829129491 0.27343273079209091 0 0.16912841458642619 0.263886776964945 0 0.16045970829129491 0.27343273079209091 0 0.16176544961631381 0.2621090259786043 0 0.16912841458642619 0.263886776964945 0 0.1517832348584128 0.25713178010324278 0 0.16045970829129491 0.27343273079209091 0 0.16176544961631381 0.2621090259786043 0 0.1517832348584128 0.25713178010324278 0 0.16176544961631381 0.2621090259786043 0 0.1656904407291214 0.25398481605413842 0 0.1582123707899874 0.2444046449570304 0 0.1517832348584128 0.25713178010324278 0 0.1656904407291214 0.25398481605413842 0 0.16176544961631381 0.2621090259786043 0 0.16912841458642619 0.263886776964945 0 0.1656904407291214 0.25398481605413842 0 0.16912841458642619 0.263886776964945 0 0.1656904407291214 0.25398481605413842 0 0.1795440413456616 0.25911486942791973 0 0.17660249971292161 0.24881918903895031 0 0.1656904407291214 0.25398481605413842 0 0.1795440413456616 0.25911486942791973 0 0.17984783184040529 0.26924034007635822 0 0.16912841458642619 0.263886776964945 0 0.1795440413456616 0.25911486942791973 0 0.17984783184040529 0.26924034007635822 0 0.1795440413456616 0.25911486942791973 0 0.18943633946185581 0.25938032594548383 0 0.188788352349437 0.2486923718105859 0 0.1795440413456616 0.25911486942791973 0 0.18943633946185581 0.25938032594548383 0 0.188788352349437 0.2486923718105859 0 0.18943633946185581 0.25938032594548383 0 0.2004570248863248 0.25152357100306377 0 0.18943633946185581 0.25938032594548383 0 0.2004570248863248 0.25152357100306377 0 0.19812660274805019 0.26802248089292602 0 0.17984783184040529 0.26924034007635822 0 0.18943633946185581 0.25938032594548383 0 0.19812660274805019 0.26802248089292602 0 0.1814282915259495 0.28250749337946929 0 0.19812660274805019 0.26802248089292602 0 0.1814282915259495 0.28250749337946929 0 0.1952423082753531 0.28044183085217789 0 0.19812660274805019 0.26802248089292602 0 0.1952423082753531 0.28044183085217789 0 0.19812660274805019 0.26802248089292602 0 0.20763121053427569 0.28311150957917203 0 0.19812660274805019 0.26802248089292602 0 0.21128766125858089 0.2712135142474959 0 0.20763121053427569 0.28311150957917203 0 0.21128766125858089 0.2712135142474959 0 0.21880519535621709 0.2816244859603359 0 0.20763121053427569 0.28311150957917203 0 0.21128766125858089 0.2712135142474959 0 0.2148249139701513 0.25353746840638303 0 0.2004570248863248 0.25152357100306377 0 0.19812660274805019 0.26802248089292602 0 0.2148249139701513 0.25353746840638303 0 0.19812660274805019 0.26802248089292602 0 0.2148249139701513 0.25353746840638303 0 0.19812660274805019 0.26802248089292602 0 0.21128766125858089 0.2712135142474959 0 0.2148249139701513 0.25353746840638303 0 0.21128766125858089 0.2712135142474959 0 0.2148249139701513 0.25353746840638303 0 0.23192837431552499 0.2689776739335572 0 0.2148249139701513 0.25353746840638303 0 0.23192837431552499 0.2689776739335572 0 0.24146168562089759 0.25309978414275958 0 0.23192837431552499 0.2689776739335572 0 0.229349968338392 0.28614678861265991 0 0.21880519535621709 0.2816244859603359 0 0.21128766125858089 0.2712135142474959 0 0.23192837431552499 0.2689776739335572 0 0.21880519535621709 0.2816244859603359 0 0.23192837431552499 0.2689776739335572 0 0.25683963026327877 0.27532887118353699 0 0.23192837431552499 0.2689776739335572 0 0.2431977174998369 0.29118369766733282 0 0.25683963026327877 0.27532887118353699 0 0.23192837431552499 0.2689776739335572 0 0.24146168562089759 0.25309978414275958 0 0.25683963026327877 0.27532887118353699 0 0.23928814523458961 0.30754802329370362 0 0.2431977174998369 0.29118369766733282 0 0.23050459158720629 0.29483488744162573 0 0.23928814523458961 0.30754802329370362 0 0.2431977174998369 0.29118369766733282 0 0.25747878611072272 0.29615876460580609 0 0.23928814523458961 0.30754802329370362 0 0.26049258889270799 0.31672486132045591 0 0.23192837431552499 0.2689776739335572 0 0.2431977174998369 0.29118369766733282 0 0.229349968338392 0.28614678861265991 0 0.23050459158720629 0.29483488744162573 0 0.229349968338392 0.28614678861265991 0 0.22260342528674171 0.29092474236748112 0 0.2431977174998369 0.29118369766733282 0 0.23050459158720629 0.29483488744162573 0 0.229349968338392 0.28614678861265991 0 0.229349968338392 0.28614678861265991 0 0.21880519535621709 0.2816244859603359 0 0.22260342528674171 0.29092474236748112 0 0.23050459158720629 0.29483488744162573 0 0.22260342528674171 0.29092474236748112 0 0.21808370157647111 0.2983711852669515 0 0.21808370157647111 0.2983711852669515 0 0.21855078456939189 0.3126447803939526 0 0.2318437681554241 0.31780623030634908 0 0.23928814523458961 0.30754802329370362 0 0.21808370157647111 0.2983711852669515 0 0.23928814523458961 0.30754802329370362 0 0.21808370157647111 0.2983711852669515 0 0.2318437681554241 0.31780623030634908 0 0.23928814523458961 0.30754802329370362 0 0.23050459158720629 0.29483488744162573 0 0.21808370157647111 0.2983711852669515 0 0.21808370157647111 0.2983711852669515 0 0.2318437681554241 0.31780623030634908 0 0.2121210674326286 0.30628747872351542 0 0.2059409368141959 0.31277132010884551 0 0.21855078456939189 0.3126447803939526 0 0.2121210674326286 0.30628747872351542 0 0.21808370157647111 0.2983711852669515 0 0.21855078456939189 0.3126447803939526 0 0.2121210674326286 0.30628747872351542 0 0.21808370157647111 0.2983711852669515 0 0.20590884677045559 0.30136262912431172 0 0.20590884677045559 0.30136262912431172 0 0.1975989398157241 0.30254585756738722 0 0.2059409368141959 0.31277132010884551 0 0.2121210674326286 0.30628747872351542 0 0.20590884677045559 0.30136262912431172 0 0.2059409368141959 0.31277132010884551 0 0.21808370157647111 0.2983711852669515 0 0.21407840770159389 0.2927140130136342 0 0.1997559965512101 0.29043933932321092 0 0.21808370157647111 0.2983711852669515 0 0.1997559965512101 0.29043933932321092 0 0.21808370157647111 0.2983711852669515 0 0.20590884677045559 0.30136262912431172 0 0.1997559965512101 0.29043933932321092 0 0.21880519535621709 0.2816244859603359 0 0.22260342528674171 0.29092474236748112 0 0.21407840770159389 0.2927140130136342 0 0.21880519535621709 0.2816244859603359 0 0.21407840770159389 0.2927140130136342 0 0.20763121053427569 0.28311150957917203 0 0.22260342528674171 0.29092474236748112 0 0.21808370157647111 0.2983711852669515 0 0.21407840770159389 0.2927140130136342 0 0.21808370157647111 0.2983711852669515 0 0.21407840770159389 0.2927140130136342 0 0.21407840770159389 0.2927140130136342 0 0.20763121053427569 0.28311150957917203 0 0.1997559965512101 0.29043933932321092 0 0.1814282915259495 0.28250749337946929 0 0.1997559965512101 0.29043933932321092 0 0.18823788355808571 0.29321411680437559 0 0.1814282915259495 0.28250749337946929 0 0.1952423082753531 0.28044183085217789 0 0.1997559965512101 0.29043933932321092 0 0.1814282915259495 0.28250749337946929 0 0.1997559965512101 0.29043933932321092 0 0.1952423082753531 0.28044183085217789 0 0.20763121053427569 0.28311150957917203 0 0.1997559965512101 0.29043933932321092 0 0.1997559965512101 0.29043933932321092 0 0.18823788355808571 0.29321411680437559 0 0.1975989398157241 0.30254585756738722 0 0.19592448892505249 0.31096276973061449 0 0.1975989398157241 0.30254585756738722 0 0.2059409368141959 0.31277132010884551 0 0.20590884677045559 0.30136262912431172 0 0.1997559965512101 0.29043933932321092 0 0.1975989398157241 0.30254585756738722 0 0.18823788355808571 0.29321411680437559 0 0.1975989398157241 0.30254585756738722 0 0.18924861644758709 0.30308912616449751 0 0.19592448892505249 0.31096276973061449 0 0.18924861644758709 0.30308912616449751 0 0.18603453729236491 0.31392087605810393 0 0.18924861644758709 0.30308912616449751 0 0.18603453729236491 0.31392087605810393 0 0.19592448892505249 0.31096276973061449 0 0.1975989398157241 0.30254585756738722 0 0.18924861644758709 0.30308912616449751 0 0.1975957539468052 0.32487893996751488 0 0.17898454433871711 0.33675043909229191 0 0.18603453729236491 0.31392087605810393 0 0.19592448892505249 0.31096276973061449 0 0.1975957539468052 0.32487893996751488 0 0.18603453729236491 0.31392087605810393 0 0.19592448892505249 0.31096276973061449 0 0.1975957539468052 0.32487893996751488 0 0.2059409368141959 0.31277132010884551 0 0.1975957539468052 0.32487893996751488 0 0.1919636474369403 0.34571772640767229 0 0.17898454433871711 0.33675043909229191 0 0.1975957539468052 0.32487893996751488 0 0.20902784641329 0.33672040181370738 0 0.1919636474369403 0.34571772640767229 0 0.20902784641329 0.33672040181370738 0 0.22780950799919561 0.33249528033859638 0 0.21882194258488261 0.34631905448938738 0 0.1975957539468052 0.32487893996751488 0 0.20902784641329 0.33672040181370738 0 0.21414774380778689 0.32406406632652057 0 0.20902784641329 0.33672040181370738 0 0.21414774380778689 0.32406406632652057 0 0.22780950799919561 0.33249528033859638 0 0.1975957539468052 0.32487893996751488 0 0.2059409368141959 0.31277132010884551 0 0.21414774380778689 0.32406406632652057 0 0.2059409368141959 0.31277132010884551 0 0.21414774380778689 0.32406406632652057 0 0.21855078456939189 0.3126447803939526 0 0.21414774380778689 0.32406406632652057 0 0.21855078456939189 0.3126447803939526 0 0.22292226252044481 0.32072732214874711 0 0.2318437681554241 0.31780623030634908 0 0.22780950799919561 0.33249528033859638 0 0.24316159043831209 0.33379179146288218 0 0.21855078456939189 0.3126447803939526 0 0.2318437681554241 0.31780623030634908 0 0.22292226252044481 0.32072732214874711 0 0.2318437681554241 0.31780623030634908 0 0.22292226252044481 0.32072732214874711 0 0.22780950799919561 0.33249528033859638 0 0.21414774380778689 0.32406406632652057 0 0.22292226252044481 0.32072732214874711 0 0.22780950799919561 0.33249528033859638 0 0.22780950799919561 0.33249528033859638 0 0.24235229286592139 0.33702858533364372 0 0.2305787102446317 0.35787982773529642 0 0.22780950799919561 0.33249528033859638 0 0.24235229286592139 0.33702858533364372 0 0.24316159043831209 0.33379179146288218 0 0.24560383473437741 0.33724127534574661 0 0.24316159043831209 0.33379179146288218 0 0.25204442643060948 0.35409227297074669 0 0.24235229286592139 0.33702858533364372 0 0.24316159043831209 0.33379179146288218 0 0.2452763342502926 0.34665213495858632 0 0.24560383473437741 0.33724127534574661 0 0.24316159043831209 0.33379179146288218 0 0.24601747154800041 0.3276264900319264 0 0.24560383473437741 0.33724127534574661 0 0.24601747154800041 0.3276264900319264 0 0.25262878158049362 0.33438613234917652 0 0.24560383473437741 0.33724127534574661 0 0.24316159043831209 0.33379179146288218 0 0.23928814523458961 0.30754802329370362 0 0.24618121520090841 0.32036120452743461 0 0.26049258889270799 0.31672486132045591 0 0.2318437681554241 0.31780623030634908 0 0.24316159043831209 0.33379179146288218 0 0.2318437681554241 0.31780623030634908 0 0.24316159043831209 0.33379179146288218 0 0.24601747154800041 0.3276264900319264 0 0.24601747154800041 0.3276264900319264 0 0.24618121520090841 0.32036120452743461 0 0.25521641233417602 0.32719746098940711 0 0.23928814523458961 0.30754802329370362 0 0.2318437681554241 0.31780623030634908 0 0.24618121520090841 0.32036120452743461 0 0.2318437681554241 0.31780623030634908 0 0.24601747154800041 0.3276264900319264 0 0.24618121520090841 0.32036120452743461 0 0.2375727197824804 0.36832598963851559 0 0.2431225076945859 0.35962908690671008 0 0.2305787102446317 0.35787982773529642 0 0.2375727197824804 0.36832598963851559 0 0.24399187031233091 0.36674843365178478 0 0.2431225076945859 0.35962908690671008 0 0.2375727197824804 0.36832598963851559 0 0.24235292899354871 0.3701465403533527 0 0.2456043612611116 0.37589955046931212 0 0.2375727197824804 0.36832598963851559 0 0.24235292899354871 0.3701465403533527 0 0.24399187031233091 0.36674843365178478 0 0.2452535022616707 0.37091754916647501 0 0.24831175303979541 0.3703449503069145 0 0.24399187031233091 0.36674843365178478 0 0.24235292899354871 0.3701465403533527 0 0.2452535022616707 0.37091754916647501 0 0.24399187031233091 0.36674843365178478 0 0.2452535022616707 0.37091754916647501 0 0.24645855413557 0.37275820652443592 0 0.2456043612611116 0.37589955046931212 0 0.24235292899354871 0.3701465403533527 0 0.2452535022616707 0.37091754916647501 0 0.2456043612611116 0.37589955046931212 0 0.24645855413557 0.37275820652443592 0 0.24831175303979541 0.3703449503069145 0 0.2472339691351505 0.37510559615395539 0 0.24645855413557 0.37275820652443592 0 0.2472339691351505 0.37510559615395539 0 0.2456043612611116 0.37589955046931212 0 0.2452535022616707 0.37091754916647501 0 0.24645855413557 0.37275820652443592 0 0.24831175303979541 0.3703449503069145 0 0.24831175303979541 0.3703449503069145 0 0.24927098514717019 0.36407586248533119 0 0.24399187031233091 0.36674843365178478 0 0.24927098514717019 0.36407586248533119 0 0.24399187031233091 0.36674843365178478 0 0.2431225076945859 0.35962908690671008 0 0.2431225076945859 0.35962908690671008 0 0.2452763342502926 0.34665213495858632 0 0.25204442643060948 0.35409227297074669 0 0.24927098514717019 0.36407586248533119 0 0.2431225076945859 0.35962908690671008 0 0.25204442643060948 0.35409227297074669 0 0.24235229286592139 0.33702858533364372 0 0.2305787102446317 0.35787982773529642 0 0.24316159043831209 0.33379179146288218 0 0.25204442643060948 0.35409227297074669 0 0.24235229286592139 0.33702858533364372 0 0.2452763342502926 0.34665213495858632 0 0.2305787102446317 0.35787982773529642 0 0.24316159043831209 0.33379179146288218 0 0.2452763342502926 0.34665213495858632 0 0.25204442643060948 0.35409227297074669 0 0.2431225076945859 0.35962908690671008 0 0.2452763342502926 0.34665213495858632 0 0.2305787102446317 0.35787982773529642 0 0.22780950799919561 0.33249528033859638 0 0.2305787102446317 0.35787982773529642 0 0.21882194258488261 0.34631905448938738 0 0.2305787102446317 0.35787982773529642 0 0.21882194258488261 0.34631905448938738 0 0.21516698347331609 0.3610057411293765 0 0.2375727197824804 0.36832598963851559 0 0.21880512762334151 0.37873107013694879 0 0.2456043612611116 0.37589955046931212 0 0.2305787102446317 0.35787982773529642 0 0.21516698347331609 0.3610057411293765 0 0.21880512762334151 0.37873107013694879 0 0.2375727197824804 0.36832598963851559 0 0.2305787102446317 0.35787982773529642 0 0.21880512762334151 0.37873107013694879 0 0.2305787102446317 0.35787982773529642 0 0.21880512762334151 0.37873107013694879 0 0.21516698347331609 0.3610057411293765 0 0.2032911725275045 0.36856511835250472 0 0.21880512762334151 0.37873107013694879 0 0.21516698347331609 0.3610057411293765 0 0.2032911725275045 0.36856511835250472 0 0.2043379643862199 0.35353363493274498 0 0.20902784641329 0.33672040181370738 0 0.21882194258488261 0.34631905448938738 0 0.2043379643862199 0.35353363493274498 0 0.21882194258488261 0.34631905448938738 0 0.21516698347331609 0.3610057411293765 0 0.2043379643862199 0.35353363493274498 0 0.2043379643862199 0.35353363493274498 0 0.1919636474369403 0.34571772640767229 0 0.189820015882909 0.362818178332246 0 0.20902784641329 0.33672040181370738 0 0.2043379643862199 0.35353363493274498 0 0.1919636474369403 0.34571772640767229 0 0.2032911725275045 0.36856511835250472 0 0.189820015882909 0.362818178332246 0 0.18922347414808019 0.38185657121465172 0 0.2032911725275045 0.36856511835250472 0 0.2043379643862199 0.35353363493274498 0 0.189820015882909 0.362818178332246 0 0.17201575965370061 0.35960476430752908 0 0.16504697496868409 0.3824590895227663 0 0.18056686246995571 0.37530787544336491 0 0.189820015882909 0.362818178332246 0 0.18056686246995571 0.37530787544336491 0 0.18922347414808019 0.38185657121465172 0 0.189820015882909 0.362818178332246 0 0.17201575965370061 0.35960476430752908 0 0.18056686246995571 0.37530787544336491 0 0.17201575965370061 0.35960476430752908 0 0.16504697496868409 0.3824590895227663 0 0.17201575965370061 0.35960476430752908 0 0.15285108947088599 0.3589918419995799 0 0.16504697496868409 0.3824590895227663 0 0.17201575965370061 0.35960476430752908 0 0.16361418012682749 0.34375213348202333 0 0.15285108947088599 0.3589918419995799 0 0.17201575965370061 0.35960476430752908 0 0.16361418012682749 0.34375213348202333 0 0.17898454433871711 0.33675043909229191 0 0.17201575965370061 0.35960476430752908 0 0.17898454433871711 0.33675043909229191 0 0.1919636474369403 0.34571772640767229 0 0.17201575965370061 0.35960476430752908 0 0.17898454433871711 0.33675043909229191 0 0.1919636474369403 0.34571772640767229 0 0.189820015882909 0.362818178332246 0 0.17201575965370061 0.35960476430752908 0 0.17898454433871711 0.33675043909229191 0 0.18603453729236491 0.31392087605810393 0 0.17898454433871711 0.33675043909229191 0 0.18603453729236491 0.31392087605810393 0 0.16797600303291019 0.32458619473944872 0 0.15654404152959869 0.30806675256487998 0 0.16797600303291019 0.32458619473944872 0 0.1491750305222842 0.33587567451897937 0 0.15654404152959869 0.30806675256487998 0 0.18603453729236491 0.31392087605810393 0 0.16797600303291019 0.32458619473944872 0 0.16361418012682749 0.34375213348202333 0 0.17898454433871711 0.33675043909229191 0 0.16797600303291019 0.32458619473944872 0 0.16361418012682749 0.34375213348202333 0 0.16797600303291019 0.32458619473944872 0 0.1491750305222842 0.33587567451897937 0 0.15654404152959869 0.30806675256487998 0 0.1491750305222842 0.33587567451897937 0 0.12702778418690511 0.32652750820722171 0 0.1491750305222842 0.33587567451897937 0 0.12702778418690511 0.32652750820722171 0 0.12700131613561219 0.35737421663998448 0 0.1244545087810657 0.3824564290118504 0 0.12700131613561219 0.35737421663998448 0 0.14086401008161559 0.37427022503613672 0 0.12700131613561219 0.35737421663998448 0 0.14086401008161559 0.37427022503613672 0 0.15285108947088599 0.3589918419995799 0 0.14086401008161559 0.37427022503613672 0 0.15285108947088599 0.3589918419995799 0 0.16504697496868409 0.3824590895227663 0 0.16361418012682749 0.34375213348202333 0 0.1491750305222842 0.33587567451897937 0 0.15285108947088599 0.3589918419995799 0 0.1491750305222842 0.33587567451897937 0 0.12700131613561219 0.35737421663998448 0 0.15285108947088599 0.3589918419995799 0 0.15172747283927959 0.39159039039955029 0 0.13779512571232669 0.39975614181700558 0 0.15768589645474851 0.40659995337440702 0 0.14086401008161559 0.37427022503613672 0 0.15172747283927959 0.39159039039955029 0 0.16504697496868409 0.3824590895227663 0 0.14086401008161559 0.37427022503613672 0 0.15172747283927959 0.39159039039955029 0 0.13779512571232669 0.39975614181700558 0 0.14086401008161559 0.37427022503613672 0 0.16504697496868409 0.3824590895227663 0 0.1244545087810657 0.3824564290118504 0 0.14086401008161559 0.37427022503613672 0 0.13779512571232669 0.39975614181700558 0 0.1187292051807374 0.41747659565427558 0 0.1200615964809767 0.39904280466233172 0 0.13779512571232669 0.39975614181700558 0 0.1200615964809767 0.39904280466233172 0 0.1244545087810657 0.3824564290118504 0 0.13779512571232669 0.39975614181700558 0 0.1187292051807374 0.41747659565427558 0 0.13779512571232669 0.39975614181700558 0 0.13437645580056179 0.41931617066670868 0 0.1187292051807374 0.41747659565427558 0 0.13779512571232669 0.39975614181700558 0 0.1187292051807374 0.41747659565427558 0 0.13437645580056179 0.41931617066670868 0 0.12620233195429839 0.42416344974828118 0 0.13779512571232669 0.39975614181700558 0 0.13437645580056179 0.41931617066670868 0 0.14630902668041729 0.4162566645279987 0 0.1239057842265244 0.43392498190170392 0 0.13468874474675621 0.42966029122609189 0 0.1491619002948322 0.44042938433399459 0 0.1239057842265244 0.43392498190170392 0 0.1491619002948322 0.44042938433399459 0 0.13437645580056179 0.41931617066670868 0 0.12620233195429839 0.42416344974828118 0 0.13468874474675621 0.42966029122609189 0 0.1239057842265244 0.43392498190170392 0 0.12620233195429839 0.42416344974828118 0 0.13468874474675621 0.42966029122609189 0 0.13437645580056179 0.41931617066670868 0 0.13468874474675621 0.42966029122609189 0 0.14330781502871451 0.42718424855455472 0 0.13468874474675621 0.42966029122609189 0 0.14330781502871451 0.42718424855455472 0 0.1491619002948322 0.44042938433399459 0 0.14330781502871451 0.42718424855455472 0 0.1503248179408127 0.43074081722604779 0 0.1491619002948322 0.44042938433399459 0 0.14330781502871451 0.42718424855455472 0 0.1503248179408127 0.43074081722604779 0 0.14630902668041729 0.4162566645279987 0 0.1503248179408127 0.43074081722604779 0 0.16239572878931879 0.43538541344363912 0 0.1491619002948322 0.44042938433399459 0 0.13779512571232669 0.39975614181700558 0 0.14630902668041729 0.4162566645279987 0 0.15768589645474851 0.40659995337440702 0 0.1503248179408127 0.43074081722604779 0 0.14630902668041729 0.4162566645279987 0 0.15768589645474851 0.40659995337440702 0 0.1503248179408127 0.43074081722604779 0 0.15768589645474851 0.40659995337440702 0 0.13437645580056179 0.41931617066670868 0 0.14330781502871451 0.42718424855455472 0 0.14630902668041729 0.4162566645279987 0 0.1503248179408127 0.43074081722604779 0 0.15768589645474851 0.40659995337440702 0 0.16284294758754031 0.42328403364422368 0 0.15768589645474851 0.40659995337440702 0 0.16284294758754031 0.42328403364422368 0 0.17191836609118319 0.41501045321696528 0 0.15768589645474851 0.40659995337440702 0 0.17191836609118319 0.41501045321696528 0 0.1719906612722035 0.39763798288811752 0 0.1503248179408127 0.43074081722604779 0 0.16239572878931879 0.43538541344363912 0 0.16284294758754031 0.42328403364422368 0 0.16239572878931879 0.43538541344363912 0 0.16284294758754031 0.42328403364422368 0 0.170718842599724 0.42759074655360058 0 0.16284294758754031 0.42328403364422368 0 0.170718842599724 0.42759074655360058 0 0.17191836609118319 0.41501045321696528 0 0.16239572878931879 0.43538541344363912 0 0.170718842599724 0.42759074655360058 0 0.17185548502663919 0.43600322700639932 0 0.170718842599724 0.42759074655360058 0 0.17185548502663919 0.43600322700639932 0 0.17988935235437389 0.43410296126207187 0 0.170718842599724 0.42759074655360058 0 0.18217040925280381 0.42249309232198862 0 0.17988935235437389 0.43410296126207187 0 0.18217040925280381 0.42249309232198862 0 0.17988935235437389 0.43410296126207187 0 0.19166389383944141 0.430764650732959 0 0.17988935235437389 0.43410296126207187 0 0.19166389383944141 0.430764650732959 0 0.1895468394264419 0.44102587629222129 0 0.17191836609118319 0.41501045321696528 0 0.18329083283148581 0.40983422794395441 0 0.1719906612722035 0.39763798288811752 0 0.170718842599724 0.42759074655360058 0 0.18217040925280381 0.42249309232198862 0 0.17191836609118319 0.41501045321696528 0 0.18217040925280381 0.42249309232198862 0 0.17191836609118319 0.41501045321696528 0 0.18329083283148581 0.40983422794395441 0 0.18217040925280381 0.42249309232198862 0 0.18329083283148581 0.40983422794395441 0 0.19458239635693489 0.41611074208273918 0 0.18329083283148581 0.40983422794395441 0 0.1836036757837067 0.39971056535486588 0 0.19240512133473331 0.4015692767477605 0 0.1836036757837067 0.39971056535486588 0 0.1719906612722035 0.39763798288811752 0 0.18672808769640431 0.38980077383963152 0 0.18329083283148581 0.40983422794395441 0 0.1836036757837067 0.39971056535486588 0 0.1719906612722035 0.39763798288811752 0 0.15172747283927959 0.39159039039955029 0 0.15768589645474851 0.40659995337440702 0 0.16504697496868409 0.3824590895227663 0 0.15768589645474851 0.40659995337440702 0 0.16504697496868409 0.3824590895227663 0 0.15768589645474851 0.40659995337440702 0 0.1719906612722035 0.39763798288811752 0 0.16504697496868409 0.3824590895227663 0 0.16504697496868409 0.3824590895227663 0 0.18672808769640431 0.38980077383963152 0 0.18056686246995571 0.37530787544336491 0 0.1719906612722035 0.39763798288811752 0 0.16504697496868409 0.3824590895227663 0 0.18672808769640431 0.38980077383963152 0 0.16504697496868409 0.3824590895227663 0 0.18672808769640431 0.38980077383963152 0 0.18672808769640431 0.38980077383963152 0 0.18056686246995571 0.37530787544336491 0 0.18922347414808019 0.38185657121465172 0 0.18922347414808019 0.38185657121465172 0 0.19945570983456221 0.38866116328700617 0 0.21880512762334151 0.37873107013694879 0 0.18672808769640431 0.38980077383963152 0 0.18922347414808019 0.38185657121465172 0 0.19945570983456221 0.38866116328700617 0 0.18672808769640431 0.38980077383963152 0 0.2084092004241245 0.39714245815649613 0 0.19240512133473331 0.4015692767477605 0 0.2032922660027435 0.40620464792536909 0 0.2084092004241245 0.39714245815649613 0 0.18672808769640431 0.38980077383963152 0 0.19240512133473331 0.4015692767477605 0 0.2084092004241245 0.39714245815649613 0 0.18672808769640431 0.38980077383963152 0 0.19945570983456221 0.38866116328700617 0 0.2084092004241245 0.39714245815649613 0 0.1836036757837067 0.39971056535486588 0 0.18672808769640431 0.38980077383963152 0 0.19240512133473331 0.4015692767477605 0 0.19240512133473331 0.4015692767477605 0 0.2032922660027435 0.40620464792536909 0 0.19449802948089481 0.40834995237494542 0 0.2084092004241245 0.39714245815649613 0 0.22710609432807541 0.4034736227269009 0 0.2084092004241245 0.39714245815649613 0 0.22710609432807541 0.4034736227269009 0 0.21445444258453289 0.40950244698045568 0 0.2032922660027435 0.40620464792536909 0 0.2084092004241245 0.39714245815649613 0 0.21445444258453289 0.40950244698045568 0 0.2032922660027435 0.40620464792536909 0 0.2084092004241245 0.39714245815649613 0 0.19945570983456221 0.38866116328700617 0 0.2084092004241245 0.39714245815649613 0 0.21880512762334151 0.37873107013694879 0 0.2084092004241245 0.39714245815649613 0 0.21880512762334151 0.37873107013694879 0 0.22454275865739831 0.39298313207149932 0 0.2084092004241245 0.39714245815649613 0 0.21880512762334151 0.37873107013694879 0 0.18922347414808019 0.38185657121465172 0 0.21880512762334151 0.37873107013694879 0 0.2032911725275045 0.36856511835250472 0 0.18922347414808019 0.38185657121465172 0 0.21880512762334151 0.37873107013694879 0 0.21880512762334151 0.37873107013694879 0 0.23377010159963499 0.38395323365699202 0 0.2456043612611116 0.37589955046931212 0 0.21880512762334151 0.37873107013694879 0 0.2456043612611116 0.37589955046931212 0 0.21880512762334151 0.37873107013694879 0 0.23377010159963499 0.38395323365699202 0 0.22454275865739831 0.39298313207149932 0 0.23377010159963499 0.38395323365699202 0 0.22454275865739831 0.39298313207149932 0 0.23462326931181501 0.40161527568015831 0 0.2084092004241245 0.39714245815649613 0 0.22454275865739831 0.39298313207149932 0 0.22710609432807541 0.4034736227269009 0 0.22454275865739831 0.39298313207149932 0 0.22710609432807541 0.4034736227269009 0 0.23462326931181501 0.40161527568015831 0 0.23462326931181501 0.40161527568015831 0 0.24370651671509169 0.40169923908266608 0 0.24003850449770289 0.41268601974146718 0 0.23462326931181501 0.40161527568015831 0 0.24370651671509169 0.40169923908266608 0 0.2459307893800913 0.3922170948863688 0 0.24370651671509169 0.40169923908266608 0 0.25586600153134698 0.3981544943947164 0 0.24370651671509169 0.40169923908266608 0 0.2459307893800913 0.3922170948863688 0 0.25586600153134698 0.3981544943947164 0 0.23377010159963499 0.38395323365699202 0 0.23462326931181501 0.40161527568015831 0 0.2456043612611116 0.37589955046931212 0 0.23462326931181501 0.40161527568015831 0 0.2456043612611116 0.37589955046931212 0 0.2459307893800913 0.3922170948863688 0 0.2456043612611116 0.37589955046931212 0 0.25586600153134698 0.3981544943947164 0 0.23462326931181501 0.40161527568015831 0 0.2459307893800913 0.3922170948863688 0 0.2456043612611116 0.37589955046931212 0 0.2472339691351505 0.37510559615395539 0 0.2456043612611116 0.37589955046931212 0 0.24220862712640939 0.43592070532609167 0 0.2457040788757604 0.42271492109293152 0 0.2230259763352179 0.42599461421711832 0 0.24220862712640939 0.43592070532609167 0 0.2457040788757604 0.42271492109293152 0 0.25473136155793918 0.42889463263846489 0 0.2457040788757604 0.42271492109293152 0 0.24003850449770289 0.41268601974146718 0 0.2230259763352179 0.42599461421711832 0 0.2457040788757604 0.42271492109293152 0 0.24003850449770289 0.41268601974146718 0 0.25144155790552458 0.41441386039409911 0 0.24370651671509169 0.40169923908266608 0 0.24003850449770289 0.41268601974146718 0 0.25144155790552458 0.41441386039409911 0 0.22710609432807541 0.4034736227269009 0 0.23462326931181501 0.40161527568015831 0 0.2230259763352179 0.42599461421711832 0 0.23462326931181501 0.40161527568015831 0 0.2230259763352179 0.42599461421711832 0 0.23462326931181501 0.40161527568015831 0 0.24003850449770289 0.41268601974146718 0 0.2230259763352179 0.42599461421711832 0 0.22710609432807541 0.4034736227269009 0 0.2230259763352179 0.42599461421711832 0 0.21445444258453289 0.40950244698045568 0 0.24220862712640939 0.43592070532609167 0 0.2230259763352179 0.42599461421711832 0 0.23012583835517439 0.44604945478757169 0 0.2230259763352179 0.42599461421711832 0 0.20370328675006191 0.4268964619115303 0 0.20230111676204021 0.43943780576803171 0 0.2230259763352179 0.42599461421711832 0 0.20370328675006191 0.4268964619115303 0 0.2080581256778557 0.4183902801666356 0 0.2230259763352179 0.42599461421711832 0 0.21445444258453289 0.40950244698045568 0 0.2080581256778557 0.4183902801666356 0 0.2032922660027435 0.40620464792536909 0 0.21445444258453289 0.40950244698045568 0 0.2080581256778557 0.4183902801666356 0 0.2032922660027435 0.40620464792536909 0 0.2080581256778557 0.4183902801666356 0 0.19458239635693489 0.41611074208273918 0 0.2032922660027435 0.40620464792536909 0 0.19458239635693489 0.41611074208273918 0 0.19449802948089481 0.40834995237494542 0 0.20370328675006191 0.4268964619115303 0 0.2080581256778557 0.4183902801666356 0 0.19458239635693489 0.41611074208273918 0 0.18329083283148581 0.40983422794395441 0 0.19240512133473331 0.4015692767477605 0 0.19449802948089481 0.40834995237494542 0 0.18329083283148581 0.40983422794395441 0 0.19458239635693489 0.41611074208273918 0 0.19449802948089481 0.40834995237494542 0 0.20370328675006191 0.4268964619115303 0 0.19166389383944141 0.430764650732959 0 0.20230111676204021 0.43943780576803171 0 0.20370328675006191 0.4268964619115303 0 0.19458239635693489 0.41611074208273918 0 0.19166389383944141 0.430764650732959 0 0.18217040925280381 0.42249309232198862 0 0.19458239635693489 0.41611074208273918 0 0.19166389383944141 0.430764650732959 0 0.19166389383944141 0.430764650732959 0 0.1895468394264419 0.44102587629222129 0 0.20230111676204021 0.43943780576803171 0 0.1895468394264419 0.44102587629222129 0 0.1996741324314478 0.4534381891985762 0 0.17441801636314011 0.44693378676628542 0 0.1895468394264419 0.44102587629222129 0 0.20230111676204021 0.43943780576803171 0 0.1996741324314478 0.4534381891985762 0 0.20107196182162579 0.46988647362871738 0 0.17827206139882601 0.46012355862826543 0 0.1996741324314478 0.4534381891985762 0 0.20107196182162579 0.46988647362871738 0 0.17827206139882601 0.46012355862826543 0 0.1996741324314478 0.4534381891985762 0 0.21272996443106129 0.46354858737987831 0 0.20107196182162579 0.46988647362871738 0 0.1996741324314478 0.4534381891985762 0 0.21272996443106129 0.46354858737987831 0 0.21142868335862069 0.45037395275407838 0 0.21272996443106129 0.46354858737987831 0 0.21142868335862069 0.45037395275407838 0 0.2225869794983123 0.45730267011297421 0 0.2230259763352179 0.42599461421711832 0 0.21142868335862069 0.45037395275407838 0 0.2230259763352179 0.42599461421711832 0 0.20230111676204021 0.43943780576803171 0 0.21142868335862069 0.45037395275407838 0 0.20230111676204021 0.43943780576803171 0 0.1996741324314478 0.4534381891985762 0 0.21142868335862069 0.45037395275407838 0 0.2230259763352179 0.42599461421711832 0 0.21142868335862069 0.45037395275407838 0 0.23012583835517439 0.44604945478757169 0 0.21142868335862069 0.45037395275407838 0 0.23012583835517439 0.44604945478757169 0 0.2225869794983123 0.45730267011297421 0 0.21272996443106129 0.46354858737987831 0 0.2225869794983123 0.45730267011297421 0 0.22375488857108419 0.46942116624946201 0 0.2225869794983123 0.45730267011297421 0 0.23528682559011829 0.45912369047648299 0 0.22375488857108419 0.46942116624946201 0 0.23012583835517439 0.44604945478757169 0 0.2225869794983123 0.45730267011297421 0 0.23528682559011829 0.45912369047648299 0 0.23528682559011829 0.45912369047648299 0 0.23769973714333609 0.47880803313209619 0 0.25111179165112713 0.46423301617356483 0 0.23528682559011829 0.45912369047648299 0 0.24612545309085471 0.44922386194281078 0 0.25111179165112713 0.46423301617356483 0 0.23012583835517439 0.44604945478757169 0 0.23528682559011829 0.45912369047648299 0 0.24612545309085471 0.44922386194281078 0 0.24220862712640939 0.43592070532609167 0 0.23012583835517439 0.44604945478757169 0 0.24612545309085471 0.44922386194281078 0 0.24220862712640939 0.43592070532609167 0 0.24612545309085471 0.44922386194281078 0 0.255153358612633 0.44092426237572158 0 0.23933510844593281 0.5 0 0.23769973714333609 0.47880803313209619 0 0.25620719767324801 0.48193597332687321 0 0.23769973714333609 0.47880803313209619 0 0.25620719767324801 0.48193597332687321 0 0.25111179165112713 0.46423301617356483 0 0.23769973714333609 0.47880803313209619 0 0.22375488857108419 0.46942116624946201 0 0.21786314090527709 0.48086907233546128 0 0.23528682559011829 0.45912369047648299 0 0.23769973714333609 0.47880803313209619 0 0.22375488857108419 0.46942116624946201 0 0.23933510844593281 0.5 0 0.2132289668129333 0.5 0 0.21786314090527709 0.48086907233546128 0 0.23933510844593281 0.5 0 0.23769973714333609 0.47880803313209619 0 0.21786314090527709 0.48086907233546128 0 0.2132289668129333 0.5 0 0.21786314090527709 0.48086907233546128 0 0.19982157977646839 0.48556064731593751 0 0.21786314090527709 0.48086907233546128 0 0.20107196182162579 0.46988647362871738 0 0.19982157977646839 0.48556064731593751 0 0.21272996443106129 0.46354858737987831 0 0.22375488857108419 0.46942116624946201 0 0.21786314090527709 0.48086907233546128 0 0.21272996443106129 0.46354858737987831 0 0.21786314090527709 0.48086907233546128 0 0.20107196182162579 0.46988647362871738 0 0.20107196182162579 0.46988647362871738 0 0.1841290255483248 0.47889851183949361 0 0.17827206139882601 0.46012355862826543 0 0.20107196182162579 0.46988647362871738 0 0.19982157977646839 0.48556064731593751 0 0.1841290255483248 0.47889851183949361 0 0.2132289668129333 0.5 0 0.19982157977646839 0.48556064731593751 0 0.18712282517993381 0.5 0 0.19982157977646839 0.48556064731593751 0 0.18712282517993381 0.5 0 0.1841290255483248 0.47889851183949361 0 0.18712282517993381 0.5 0 0.16101668354693419 0.5 0 0.17119505422004661 0.48567403870751369 0 0.18712282517993381 0.5 0 0.17119505422004661 0.48567403870751369 0 0.1841290255483248 0.47889851183949361 0 0.16101668354693419 0.5 0 0.17119505422004661 0.48567403870751369 0 0.1584061180962861 0.47501322475752511 0 0.17119505422004661 0.48567403870751369 0 0.1584061180962861 0.47501322475752511 0 0.17141899139406619 0.47255365061434079 0 0.1584061180962861 0.47501322475752511 0 0.17141899139406619 0.47255365061434079 0 0.16294447672183271 0.46419110993864487 0 0.17141899139406619 0.47255365061434079 0 0.1841290255483248 0.47889851183949361 0 0.17827206139882601 0.46012355862826543 0 0.17119505422004661 0.48567403870751369 0 0.17141899139406619 0.47255365061434079 0 0.1841290255483248 0.47889851183949361 0 0.1996741324314478 0.4534381891985762 0 0.17827206139882601 0.46012355862826543 0 0.17441801636314011 0.44693378676628542 0 0.1996741324314478 0.4534381891985762 0 0.17441801636314011 0.44693378676628542 0 0.17988935235437389 0.43410296126207187 0 0.1895468394264419 0.44102587629222129 0 0.17441801636314011 0.44693378676628542 0 0.17185548502663919 0.43600322700639932 0 0.17988935235437389 0.43410296126207187 0 0.17441801636314011 0.44693378676628542 0 0.17441801636314011 0.44693378676628542 0 0.1491619002948322 0.44042938433399459 0 0.17441801636314011 0.44693378676628542 0 0.1491619002948322 0.44042938433399459 0 0.15547216097602609 0.45036064362781331 0 0.16239572878931879 0.43538541344363912 0 0.17441801636314011 0.44693378676628542 0 0.1491619002948322 0.44042938433399459 0 0.17827206139882601 0.46012355862826543 0 0.17441801636314011 0.44693378676628542 0 0.15547216097602609 0.45036064362781331 0 0.16239572878931879 0.43538541344363912 0 0.17185548502663919 0.43600322700639932 0 0.17441801636314011 0.44693378676628542 0 0.17827206139882601 0.46012355862826543 0 0.15547216097602609 0.45036064362781331 0 0.17827206139882601 0.46012355862826543 0 0.16294447672183271 0.46419110993864487 0 0.15547216097602609 0.45036064362781331 0 0.17141899139406619 0.47255365061434079 0 0.17827206139882601 0.46012355862826543 0 0.16294447672183271 0.46419110993864487 0 0.1584061180962861 0.47501322475752511 0 0.16294447672183271 0.46419110993864487 0 0.1490065383749247 0.46457332632096071 0 0.1490065383749247 0.46457332632096071 0 0.1411347858600662 0.4535611886905867 0 0.15547216097602609 0.45036064362781331 0 0.16294447672183271 0.46419110993864487 0 0.1490065383749247 0.46457332632096071 0 0.15547216097602609 0.45036064362781331 0 0.1490065383749247 0.46457332632096071 0 0.1411347858600662 0.4535611886905867 0 0.13342412756957889 0.46395874791975511 0 0.15547216097602609 0.45036064362781331 0 0.13267226055322601 0.44059772862736118 0 0.1411347858600662 0.4535611886905867 0 0.15547216097602609 0.45036064362781331 0 0.13267226055322601 0.44059772862736118 0 0.1491619002948322 0.44042938433399459 0 0.15547216097602609 0.45036064362781331 0 0.13267226055322601 0.44059772862736118 0 0.1239057842265244 0.43392498190170392 0 0.1491619002948322 0.44042938433399459 0 0.13267226055322601 0.44059772862736118 0 0.1411347858600662 0.4535611886905867 0 0.13093450768456341 0.45171154941277442 0 0.13267226055322601 0.44059772862736118 0 0.1239128792744965 0.4450890007155488 0 0.13093450768456341 0.45171154941277442 0 0.13267226055322601 0.44059772862736118 0 0.1217963043948825 0.45489592595541439 0 0.1239128792744965 0.4450890007155488 0 0.13093450768456341 0.45171154941277442 0 0.1411347858600662 0.4535611886905867 0 0.13093450768456341 0.45171154941277442 0 0.13342412756957889 0.46395874791975511 0 0.1217963043948825 0.45489592595541439 0 0.13093450768456341 0.45171154941277442 0 0.13342412756957889 0.46395874791975511 0 0.1214684810538849 0.46526649887380112 0 0.1217963043948825 0.45489592595541439 0 0.13342412756957889 0.46395874791975511 0 0.1214684810538849 0.46526649887380112 0 0.13342412756957889 0.46395874791975511 0 0.12633670454979751 0.4773000659454385 0 0.13342412756957889 0.46395874791975511 0 0.12633670454979751 0.4773000659454385 0 0.1414639444210154 0.48141439702564148 0 0.1172784241851602 0.48239011809730559 0 0.12633670454979751 0.4773000659454385 0 0.1349105419139347 0.50000000000000089 0 0.12633670454979751 0.4773000659454385 0 0.1349105419139347 0.50000000000000089 0 0.1414639444210154 0.48141439702564148 0 0.16101668354693419 0.5 0 0.1584061180962861 0.47501322475752511 0 0.1414639444210154 0.48141439702564148 0 0.16101668354693419 0.5 0 0.1349105419139347 0.50000000000000089 0 0.1414639444210154 0.48141439702564148 0 0.1584061180962861 0.47501322475752511 0 0.1490065383749247 0.46457332632096071 0 0.1414639444210154 0.48141439702564148 0 0.1490065383749247 0.46457332632096071 0 0.13342412756957889 0.46395874791975511 0 0.1414639444210154 0.48141439702564148 0 0.34810578050253532 0.50000000000000067 0 0.36463877156363228 0.4836246364240171 0 0.38301867432905418 0.5 0 0.36463877156363228 0.4836246364240171 0 0.35578269285411568 0.45775213458291869 0 0.34137637975710039 0.47887606729145898 0 0.34810578050253532 0.50000000000000067 0 0.36463877156363228 0.4836246364240171 0 0.34810578050253532 0.50000000000000067 0 0.36463877156363228 0.4836246364240171 0 0.34137637975710039 0.47887606729145898 0 0.36463877156363228 0.4836246364240171 0 0.35578269285411568 0.45775213458291869 0 0.38117176262472902 0.4672492728480333 0 0.36463877156363228 0.4836246364240171 0 0.38117176262472902 0.4672492728480333 0 0.35578269285411568 0.45775213458291869 0 0.37018900595113091 0.4366282018743784 0 0.38117176262472902 0.4672492728480333 0 0.35578269285411568 0.45775213458291869 0 0.37018900595113091 0.4366282018743784 0 0.34393554113606889 0.44359681727725891 0 0.35578269285411568 0.45775213458291869 0 0.37018900595113091 0.4366282018743784 0 0.35578269285411568 0.45775213458291869 0 0.33773008743049898 0.45926967004700447 0 0.34137637975710039 0.47887606729145898 0 0.35578269285411568 0.45775213458291869 0 0.34137637975710039 0.47887606729145898 0 0.34393554113606889 0.44359681727725891 0 0.35578269285411568 0.45775213458291869 0 0.33773008743049898 0.45926967004700447 0 0.33773008743049898 0.45926967004700447 0 0.32375671664080491 0.46668030852027581 0 0.34137637975710039 0.47887606729145898 0 0.33773008743049898 0.45926967004700447 0 0.32432036003384962 0.44959017265390672 0 0.32375671664080491 0.46668030852027581 0 0.34393554113606889 0.44359681727725891 0 0.32432036003384962 0.44959017265390672 0 0.32784920004130852 0.43209170315001882 0 0.34393554113606889 0.44359681727725891 0 0.33773008743049898 0.45926967004700447 0 0.32432036003384962 0.44959017265390672 0 0.32432036003384962 0.44959017265390672 0 0.31081376471187488 0.45533989494023869 0 0.31035208231649192 0.43940921297461061 0 0.32432036003384962 0.44959017265390672 0 0.31035208231649192 0.43940921297461061 0 0.32784920004130852 0.43209170315001882 0 0.32375671664080491 0.46668030852027581 0 0.30574120000227578 0.47350822830263561 0 0.31081376471187488 0.45533989494023869 0 0.32432036003384962 0.44959017265390672 0 0.32375671664080491 0.46668030852027581 0 0.31081376471187488 0.45533989494023869 0 0.32375671664080491 0.46668030852027581 0 0.32281913454395189 0.48357139293180812 0 0.30574120000227578 0.47350822830263561 0 0.32375671664080491 0.46668030852027581 0 0.32281913454395189 0.48357139293180812 0 0.34137637975710039 0.47887606729145898 0 0.34810578050253532 0.50000000000000067 0 0.34137637975710039 0.47887606729145898 0 0.32697006666008532 0.49999999999999961 0 0.34137637975710039 0.47887606729145898 0 0.32697006666008532 0.49999999999999961 0 0.32281913454395189 0.48357139293180812 0 0.34137637975710039 0.47887606729145898 0 0.32697006666008532 0.49999999999999961 0 0.32281913454395189 0.48357139293180812 0 0.31765353334493168 0.49999999999999539 0 0.30574120000227578 0.47350822830263561 0 0.32281913454395189 0.48357139293180812 0 0.31765353334493168 0.49999999999999539 0 0.32697006666008532 0.49999999999999961 0 0.31765353334493168 0.49999999999999539 0 0.30126365738009492 0.48953632552243592 0 0.29154739171193211 0.5 0 0.31765353334493168 0.49999999999999539 0 0.30126365738009492 0.48953632552243592 0 0.30574120000227578 0.47350822830263561 0 0.31765353334493168 0.49999999999999539 0 0.30574120000227578 0.47350822830263561 0 0.30126365738009492 0.48953632552243592 0 0.30574120000227578 0.47350822830263561 0 0.29073342250680001 0.48420309605937012 0 0.30574120000227578 0.47350822830263561 0 0.29073342250680001 0.48420309605937012 0 0.28865968523636598 0.46927583296662723 0 0.29073342250680001 0.48420309605937012 0 0.28865968523636598 0.46927583296662723 0 0.27527718179464611 0.48252913794944807 0 0.29073342250680001 0.48420309605937012 0 0.29154739171193211 0.5 0 0.27527718179464611 0.48252913794944807 0 0.30126365738009492 0.48953632552243592 0 0.29073342250680001 0.48420309605937012 0 0.29154739171193211 0.5 0 0.29154739171193211 0.5 0 0.27527718179464611 0.48252913794944807 0 0.26544125007893238 0.5 0 0.27527718179464611 0.48252913794944807 0 0.25620719767324801 0.48193597332687321 0 0.26544125007893238 0.5 0 0.27527718179464611 0.48252913794944807 0 0.25620719767324801 0.48193597332687321 0 0.26843522825610439 0.46539194568290121 0 0.28865968523636598 0.46927583296662723 0 0.27527718179464611 0.48252913794944807 0 0.26843522825610439 0.46539194568290121 0 0.25620719767324801 0.48193597332687321 0 0.25111179165112713 0.46423301617356483 0 0.26843522825610439 0.46539194568290121 0 0.23933510844593281 0.5 0 0.25620719767324801 0.48193597332687321 0 0.26544125007893238 0.5 0 0.24612545309085471 0.44922386194281078 0 0.26281137005153771 0.45087955285416509 0 0.255153358612633 0.44092426237572158 0 0.26281137005153771 0.45087955285416509 0 0.26344435539796462 0.43762575504593898 0 0.255153358612633 0.44092426237572158 0 0.24612545309085471 0.44922386194281078 0 0.26281137005153771 0.45087955285416509 0 0.25111179165112713 0.46423301617356483 0 0.26281137005153771 0.45087955285416509 0 0.25111179165112713 0.46423301617356483 0 0.26843522825610439 0.46539194568290121 0 0.28865968523636598 0.46927583296662723 0 0.26843522825610439 0.46539194568290121 0 0.27772845733469309 0.44556872010932358 0 0.26281137005153771 0.45087955285416509 0 0.26843522825610439 0.46539194568290121 0 0.27772845733469309 0.44556872010932358 0 0.26281137005153771 0.45087955285416509 0 0.26344435539796462 0.43762575504593898 0 0.27772845733469309 0.44556872010932358 0 0.27772845733469309 0.44556872010932358 0 0.29382886665961822 0.44701645660527661 0 0.28191653331696059 0.42052468490791739 0 0.28865968523636598 0.46927583296662723 0 0.27772845733469309 0.44556872010932358 0 0.29382886665961822 0.44701645660527661 0 0.30574120000227578 0.47350822830263561 0 0.28865968523636598 0.46927583296662723 0 0.29382886665961822 0.44701645660527661 0 0.28865968523636598 0.46927583296662723 0 0.27772845733469309 0.44556872010932358 0 0.30574120000227578 0.47350822830263561 0 0.29382886665961822 0.44701645660527661 0 0.30574120000227578 0.47350822830263561 0 0.29382886665961822 0.44701645660527661 0 0.31081376471187488 0.45533989494023869 0 0.29382886665961822 0.44701645660527661 0 0.31035208231649192 0.43940921297461061 0 0.29892963847742932 0.42879868973117552 0 0.29382886665961822 0.44701645660527661 0 0.31081376471187488 0.45533989494023869 0 0.31035208231649192 0.43940921297461061 0 0.31035208231649192 0.43940921297461061 0 0.29892963847742932 0.42879868973117552 0 0.31259643551545241 0.41959502466936299 0 0.29892963847742932 0.42879868973117552 0 0.29645616171725142 0.41237967437092382 0 0.31259643551545241 0.41959502466936299 0 0.29645616171725142 0.41237967437092382 0 0.30682842024847612 0.40553206182203072 0 0.31259643551545241 0.41959502466936299 0 0.29645616171725142 0.41237967437092382 0 0.29449896911762791 0.4013870427550057 0 0.30682842024847612 0.40553206182203072 0 0.28191653331696059 0.42052468490791739 0 0.29645616171725142 0.41237967437092382 0 0.28432157324280483 0.40386539822084871 0 0.29892963847742932 0.42879868973117552 0 0.28191653331696059 0.42052468490791739 0 0.29645616171725142 0.41237967437092382 0 0.29382886665961822 0.44701645660527661 0 0.28191653331696059 0.42052468490791739 0 0.29382886665961822 0.44701645660527661 0 0.29892963847742932 0.42879868973117552 0 0.28191653331696059 0.42052468490791739 0 0.27772845733469309 0.44556872010932358 0 0.2667972294330202 0.42186160725201988 0 0.27772845733469309 0.44556872010932358 0 0.28191653331696059 0.42052468490791739 0 0.2667972294330202 0.42186160725201988 0 0.26344435539796462 0.43762575504593898 0 0.27772845733469309 0.44556872010932358 0 0.2667972294330202 0.42186160725201988 0 0.28191653331696059 0.42052468490791739 0 0.27000419997430358 0.39403291321055789 0 0.28191653331696059 0.42052468490791739 0 0.2667972294330202 0.42186160725201988 0 0.27000419997430358 0.39403291321055789 0 0.2667972294330202 0.42186160725201988 0 0.25586600153134698 0.3981544943947164 0 0.2667972294330202 0.42186160725201988 0 0.25144155790552458 0.41441386039409911 0 0.25586600153134698 0.3981544943947164 0 0.2667972294330202 0.42186160725201988 0 0.25144155790552458 0.41441386039409911 0 0.25473136155793918 0.42889463263846489 0 0.26344435539796462 0.43762575504593898 0 0.2667972294330202 0.42186160725201988 0 0.25473136155793918 0.42889463263846489 0 0.2457040788757604 0.42271492109293152 0 0.25144155790552458 0.41441386039409911 0 0.25473136155793918 0.42889463263846489 0 0.24220862712640939 0.43592070532609167 0 0.255153358612633 0.44092426237572158 0 0.25473136155793918 0.42889463263846489 0 0.26344435539796462 0.43762575504593898 0 0.255153358612633 0.44092426237572158 0 0.25473136155793918 0.42889463263846489 0 0.2456043612611116 0.37589955046931212 0 0.25586600153134698 0.3981544943947164 0 0.27000419997430358 0.39403291321055789 0 0.26111348725655908 0.37426090677234042 0 0.26033035741106819 0.38666020291147529 0 0.27000419997430358 0.39403291321055789 0 0.26111348725655908 0.37426090677234042 0 0.26033035741106819 0.38666020291147529 0 0.25433774088206251 0.38019249726829057 0 0.25586600153134698 0.3981544943947164 0 0.2456043612611116 0.37589955046931212 0 0.25433774088206251 0.38019249726829057 0 0.25586600153134698 0.3981544943947164 0 0.26033035741106819 0.38666020291147529 0 0.25433774088206251 0.38019249726829057 0 0.26111348725655908 0.37426090677234042 0 0.2456043612611116 0.37589955046931212 0 0.26111348725655908 0.37426090677234042 0 0.2472339691351505 0.37510559615395539 0 0.2456043612611116 0.37589955046931212 0 0.26111348725655908 0.37426090677234042 0 0.2456043612611116 0.37589955046931212 0 0.25433774088206251 0.38019249726829057 0 0.26111348725655908 0.37426090677234042 0 0.2667972294330202 0.42186160725201988 0 0.25586600153134698 0.3981544943947164 0 0.27000419997430358 0.39403291321055789 0 0.24370651671509169 0.40169923908266608 0 0.25144155790552458 0.41441386039409911 0 0.25586600153134698 0.3981544943947164 0 0.26033035741106819 0.38666020291147529 0 0.25586600153134698 0.3981544943947164 0 0.27000419997430358 0.39403291321055789 0 0.25586600153134698 0.3981544943947164 0 0.27000419997430358 0.39403291321055789 0 0.28191653331696059 0.42052468490791739 0 0.27000419997430358 0.39403291321055789 0 0.28432157324280483 0.40386539822084871 0 0.27000419997430358 0.39403291321055789 0 0.28967223353073429 0.3882992691849162 0 0.27000419997430358 0.39403291321055789 0 0.27676894534090268 0.38204859125696539 0 0.26111348725655908 0.37426090677234042 0 0.27676894534090268 0.38204859125696539 0 0.28628586060201322 0.37160127586005282 0 0.26111348725655908 0.37426090677234042 0 0.27000419997430358 0.39403291321055789 0 0.27676894534090268 0.38204859125696539 0 0.28967223353073429 0.3882992691849162 0 0.28967223353073429 0.3882992691849162 0 0.29918914879184511 0.37785195378800179 0 0.28628586060201322 0.37160127586005282 0 0.27676894534090268 0.38204859125696539 0 0.28967223353073429 0.3882992691849162 0 0.28628586060201322 0.37160127586005282 0 0.27000419997430358 0.39403291321055789 0 0.28967223353073429 0.3882992691849162 0 0.28432157324280483 0.40386539822084871 0 0.28967223353073429 0.3882992691849162 0 0.28432157324280483 0.40386539822084871 0 0.29449896911762791 0.4013870427550057 0 0.28967223353073429 0.3882992691849162 0 0.29449896911762791 0.4013870427550057 0 0.30237151167445703 0.39629918468048259 0 0.29645616171725142 0.41237967437092382 0 0.28432157324280483 0.40386539822084871 0 0.29449896911762791 0.4013870427550057 0 0.28967223353073429 0.3882992691849162 0 0.30237151167445703 0.39629918468048259 0 0.30728441860180628 0.38995240430765471 0 0.29449896911762791 0.4013870427550057 0 0.30237151167445703 0.39629918468048259 0 0.30682842024847612 0.40553206182203072 0 0.30237151167445703 0.39629918468048259 0 0.30728441860180628 0.38995240430765471 0 0.31535942264012062 0.39705976255101788 0 0.30728441860180628 0.38995240430765471 0 0.31391941064639373 0.38610950179134013 0 0.31535942264012062 0.39705976255101788 0 0.30237151167445703 0.39629918468048259 0 0.30682842024847612 0.40553206182203072 0 0.31535942264012062 0.39705976255101788 0 0.28967223353073429 0.3882992691849162 0 0.30934026708716639 0.38256562515927928 0 0.28967223353073429 0.3882992691849162 0 0.30728441860180628 0.38995240430765471 0 0.30934026708716639 0.38256562515927928 0 0.28967223353073429 0.3882992691849162 0 0.29918914879184511 0.37785195378800179 0 0.30934026708716639 0.38256562515927928 0 0.30728441860180628 0.38995240430765471 0 0.30934026708716639 0.38256562515927928 0 0.31391941064639373 0.38610950179134013 0 0.29918914879184511 0.37785195378800179 0 0.30934026708716639 0.38256562515927928 0 0.31145823394746658 0.36894164494775922 0 0.30934026708716639 0.38256562515927928 0 0.31391941064639373 0.38610950179134013 0 0.32900830064359848 0.37683198113364252 0 0.31391941064639373 0.38610950179134013 0 0.32900830064359848 0.37683198113364252 0 0.34006339732316848 0.3967552497145076 0 0.30934026708716639 0.38256562515927928 0 0.32900830064359848 0.37683198113364252 0 0.30934026708716639 0.38256562515927928 0 0.32900830064359848 0.37683198113364252 0 0.31145823394746658 0.36894164494775922 0 0.32900830064359848 0.37683198113364252 0 0.34056193590332212 0.37811848061452119 0 0.34006339732316848 0.3967552497145076 0 0.34006339732316848 0.3967552497145076 0 0.32117865724794392 0.40635509326042729 0 0.33257931552342851 0.41525886417556951 0 0.31391941064639373 0.38610950179134013 0 0.34006339732316848 0.3967552497145076 0 0.31535942264012062 0.39705976255101788 0 0.34006339732316848 0.3967552497145076 0 0.31535942264012062 0.39705976255101788 0 0.32117865724794392 0.40635509326042729 0 0.31391941064639373 0.38610950179134013 0 0.34006339732316848 0.3967552497145076 0 0.30682842024847612 0.40553206182203072 0 0.31535942264012062 0.39705976255101788 0 0.32117865724794392 0.40635509326042729 0 0.30682842024847612 0.40553206182203072 0 0.31259643551545241 0.41959502466936299 0 0.32117865724794392 0.40635509326042729 0 0.31259643551545241 0.41959502466936299 0 0.32117865724794392 0.40635509326042729 0 0.33257931552342851 0.41525886417556951 0 0.31035208231649192 0.43940921297461061 0 0.31259643551545241 0.41959502466936299 0 0.32784920004130852 0.43209170315001882 0 0.31259643551545241 0.41959502466936299 0 0.32784920004130852 0.43209170315001882 0 0.33257931552342851 0.41525886417556951 0 0.34393554113606889 0.44359681727725891 0 0.32784920004130852 0.43209170315001882 0 0.34800252714023228 0.42632259640072451 0 0.32784920004130852 0.43209170315001882 0 0.33257931552342851 0.41525886417556951 0 0.34800252714023228 0.42632259640072451 0 0.34006339732316848 0.3967552497145076 0 0.33257931552342851 0.41525886417556951 0 0.34914161578079128 0.41238289081021762 0 0.33257931552342851 0.41525886417556951 0 0.34914161578079128 0.41238289081021762 0 0.34800252714023228 0.42632259640072451 0 0.34914161578079128 0.41238289081021762 0 0.34800252714023228 0.42632259640072451 0 0.36525104801216218 0.41994903574253212 0 0.34393554113606889 0.44359681727725891 0 0.34800252714023228 0.42632259640072451 0 0.37018900595113091 0.4366282018743784 0 0.34800252714023228 0.42632259640072451 0 0.37018900595113091 0.4366282018743784 0 0.36525104801216218 0.41994903574253212 0 0.37018900595113091 0.4366282018743784 0 0.36525104801216218 0.41994903574253212 0 0.38481039433510339 0.41497608406533631 0 0.36525104801216218 0.41994903574253212 0 0.36620738399994329 0.40740099763767501 0 0.38481039433510339 0.41497608406533631 0 0.34914161578079128 0.41238289081021762 0 0.36525104801216218 0.41994903574253212 0 0.36620738399994329 0.40740099763767501 0 0.36620738399994329 0.40740099763767501 0 0.37354152881041319 0.39389272245229301 0 0.38470754091949289 0.39939330644127469 0 0.36620738399994329 0.40740099763767501 0 0.37354152881041319 0.39389272245229301 0 0.35690372564684769 0.39308549713775093 0 0.37354152881041319 0.39389272245229301 0 0.36656705542153389 0.38238157201374651 0 0.38425082867153071 0.38037876704496631 0 0.37354152881041319 0.39389272245229301 0 0.36656705542153389 0.38238157201374651 0 0.35690372564684769 0.39308549713775093 0 0.36656705542153389 0.38238157201374651 0 0.36946271990026192 0.36921549307873242 0 0.38425082867153071 0.38037876704496631 0 0.34056193590332212 0.37811848061452119 0 0.34006339732316848 0.3967552497145076 0 0.35114339574303849 0.38165965101722749 0 0.36656705542153389 0.38238157201374651 0 0.35114339574303849 0.38165965101722749 0 0.35690372564684769 0.39308549713775093 0 0.34006339732316848 0.3967552497145076 0 0.35114339574303849 0.38165965101722749 0 0.35690372564684769 0.39308549713775093 0 0.36656705542153389 0.38238157201374651 0 0.35114339574303849 0.38165965101722749 0 0.35842726527558949 0.37229744507208212 0 0.34056193590332212 0.37811848061452119 0 0.35114339574303849 0.38165965101722749 0 0.34596397851388461 0.36906350717176312 0 0.34006339732316848 0.3967552497145076 0 0.36620738399994329 0.40740099763767501 0 0.34006339732316848 0.3967552497145076 0 0.36620738399994329 0.40740099763767501 0 0.35690372564684769 0.39308549713775093 0 0.34006339732316848 0.3967552497145076 0 0.34914161578079128 0.41238289081021762 0 0.36620738399994329 0.40740099763767501 0 0.358585794436656 0.35165942171365933 0 0.35032132132435417 0.35314447179751079 0 0.35661819603384942 0.36098735102351048 0 0.358585794436656 0.35165942171365933 0 0.35192935493935418 0.34525783987728681 0 0.35032132132435417 0.35314447179751079 0 0.358585794436656 0.35165942171365933 0 0.35192935493935418 0.34525783987728681 0 0.36415500371687731 0.34292879528554399 0 0.35192935493935418 0.34525783987728681 0 0.34503032617071439 0.34768956292058301 0 0.35032132132435417 0.35314447179751079 0 0.35192935493935418 0.34525783987728681 0 0.34503032617071439 0.34768956292058301 0 0.34599995651418902 0.34097249865618889 0 0.35032132132435417 0.35314447179751079 0 0.34669993128915338 0.35935233340500372 0 0.35661819603384942 0.36098735102351048 0 0.34503032617071439 0.34768956292058301 0 0.35032132132435417 0.35314447179751079 0 0.3430643250763975 0.35392032184502181 0 0.35032132132435417 0.35314447179751079 0 0.34669993128915338 0.35935233340500372 0 0.3430643250763975 0.35392032184502181 0 0.34669993128915338 0.35935233340500372 0 0.34596397851388461 0.36906350717176312 0 0.33955095286634279 0.35979328502601893 0 0.34669993128915338 0.35935233340500372 0 0.34596397851388461 0.36906350717176312 0 0.35661819603384942 0.36098735102351048 0 0.34596397851388461 0.36906350717176312 0 0.35842726527558949 0.37229744507208212 0 0.35661819603384942 0.36098735102351048 0 0.35114339574303849 0.38165965101722749 0 0.34596397851388461 0.36906350717176312 0 0.35842726527558949 0.37229744507208212 0 0.35661819603384942 0.36098735102351048 0 0.36946271990026192 0.36921549307873242 0 0.36831937363042938 0.35601155238520749 0 0.36656705542153389 0.38238157201374651 0 0.35842726527558949 0.37229744507208212 0 0.36946271990026192 0.36921549307873242 0 0.35842726527558949 0.37229744507208212 0 0.35661819603384942 0.36098735102351048 0 0.36946271990026192 0.36921549307873242 0 0.36946271990026192 0.36921549307873242 0 0.36831937363042938 0.35601155238520749 0 0.38209756270918421 0.3636155102963331 0 0.358585794436656 0.35165942171365933 0 0.35661819603384942 0.36098735102351048 0 0.36831937363042938 0.35601155238520749 0 0.358585794436656 0.35165942171365933 0 0.36831937363042938 0.35601155238520749 0 0.36415500371687731 0.34292879528554399 0 0.36831937363042938 0.35601155238520749 0 0.36415500371687731 0.34292879528554399 0 0.37928183756442191 0.34765713674703952 0 0.36415500371687731 0.34292879528554399 0 0.37590371760048852 0.33667535164759199 0 0.37928183756442191 0.34765713674703952 0 0.36317525763150299 0.33152652559339679 0 0.36415500371687731 0.34292879528554399 0 0.37590371760048852 0.33667535164759199 0 0.36317525763150299 0.33152652559339679 0 0.37316531528199609 0.32471254124834659 0 0.37590371760048852 0.33667535164759199 0 0.36317525763150299 0.33152652559339679 0 0.36415500371687731 0.34292879528554399 0 0.35243082816056331 0.33414003055035119 0 0.36317525763150299 0.33152652559339679 0 0.37316531528199609 0.32471254124834659 0 0.35684318722945541 0.32022575812212861 0 0.37316531528199609 0.32471254124834659 0 0.35684318722945541 0.32022575812212861 0 0.37634715262627072 0.30579766203758357 0 0.35684318722945541 0.32022575812212861 0 0.35243082816056331 0.33414003055035119 0 0.3421593000997053 0.32456425978236758 0 0.35684318722945541 0.32022575812212861 0 0.3421593000997053 0.32456425978236758 0 0.34276743093903428 0.31161638272446268 0 0.35192935493935418 0.34525783987728681 0 0.36415500371687731 0.34292879528554399 0 0.35243082816056331 0.33414003055035119 0 0.36317525763150299 0.33152652559339679 0 0.35684318722945541 0.32022575812212861 0 0.35243082816056331 0.33414003055035119 0 0.35243082816056331 0.33414003055035119 0 0.34087405406434701 0.33543626742366872 0 0.3421593000997053 0.32456425978236758 0 0.35243082816056331 0.33414003055035119 0 0.34599995651418902 0.34097249865618889 0 0.34087405406434701 0.33543626742366872 0 0.35192935493935418 0.34525783987728681 0 0.35243082816056331 0.33414003055035119 0 0.34599995651418902 0.34097249865618889 0 0.34087405406434701 0.33543626742366872 0 0.3350871897982251 0.33923621218606942 0 0.33955663429170357 0.34393264367552379 0 0.34599995651418902 0.34097249865618889 0 0.34087405406434701 0.33543626742366872 0 0.33955663429170357 0.34393264367552379 0 0.33458795500648703 0.34280832610445622 0 0.3350871897982251 0.33923621218606942 0 0.33955663429170357 0.34393264367552379 0 0.34087405406434701 0.33543626742366872 0 0.33363321755750258 0.33064984576484391 0 0.3421593000997053 0.32456425978236758 0 0.34087405406434701 0.33543626742366872 0 0.33363321755750258 0.33064984576484391 0 0.3350871897982251 0.33923621218606942 0 0.33363321755750258 0.33064984576484391 0 0.32713635034118888 0.33841416877915093 0 0.32496058460092869 0.32914787643712751 0 0.33458795500648703 0.34280832610445622 0 0.3350871897982251 0.33923621218606942 0 0.32713635034118888 0.33841416877915093 0 0.33363321755750258 0.33064984576484391 0 0.3350871897982251 0.33923621218606942 0 0.32713635034118888 0.33841416877915093 0 0.33458795500648703 0.34280832610445622 0 0.32713635034118888 0.33841416877915093 0 0.33657164559483038 0.34965027977708107 0 0.3421593000997053 0.32456425978236758 0 0.329300993893065 0.31881937029881358 0 0.34276743093903428 0.31161638272446268 0 0.33363321755750258 0.33064984576484391 0 0.3421593000997053 0.32456425978236758 0 0.329300993893065 0.31881937029881358 0 0.33363321755750258 0.33064984576484391 0 0.329300993893065 0.31881937029881358 0 0.32496058460092869 0.32914787643712751 0 0.329300993893065 0.31881937029881358 0 0.31708527369170331 0.32440065303158899 0 0.30663521532868337 0.31014208114034081 0 0.329300993893065 0.31881937029881358 0 0.31708527369170331 0.32440065303158899 0 0.32496058460092869 0.32914787643712751 0 0.31708527369170331 0.32440065303158899 0 0.31721799908314668 0.33155127410213209 0 0.30777344770908382 0.32801768270064868 0 0.32713635034118888 0.33841416877915093 0 0.31721799908314668 0.33155127410213209 0 0.3091343390728285 0.33777598956214472 0 0.33657164559483038 0.34965027977708107 0 0.3091343390728285 0.33777598956214472 0 0.32713635034118888 0.33841416877915093 0 0.33657164559483038 0.34965027977708107 0 0.3091343390728285 0.33777598956214472 0 0.32713635034118888 0.33841416877915093 0 0.32496058460092869 0.32914787643712751 0 0.31721799908314668 0.33155127410213209 0 0.31708527369170331 0.32440065303158899 0 0.32496058460092869 0.32914787643712751 0 0.31721799908314668 0.33155127410213209 0 0.3127691664496644 0.34705482569572438 0 0.32953244035097251 0.35712274732660199 0 0.32089093564508392 0.35954047211389728 0 0.3127691664496644 0.34705482569572438 0 0.33782053950085161 0.3529431397619035 0 0.3127691664496644 0.34705482569572438 0 0.33657164559483038 0.34965027977708107 0 0.3091343390728285 0.33777598956214472 0 0.3127691664496644 0.34705482569572438 0 0.32953244035097251 0.35712274732660199 0 0.33782053950085161 0.3529431397619035 0 0.3127691664496644 0.34705482569572438 0 0.32089093564508392 0.35954047211389728 0 0.31165845941986869 0.35778472876969308 0 0.3127691664496644 0.34705482569572438 0 0.33782053950085161 0.3529431397619035 0 0.33657164559483038 0.34965027977708107 0 0.32953244035097251 0.35712274732660199 0 0.33782053950085161 0.3529431397619035 0 0.33955095286634279 0.35979328502601893 0 0.33782053950085161 0.3529431397619035 0 0.3430643250763975 0.35392032184502181 0 0.33955095286634279 0.35979328502601893 0 0.34669993128915338 0.35935233340500372 0 0.3430643250763975 0.35392032184502181 0 0.33955095286634279 0.35979328502601893 0 0.33782053950085161 0.3529431397619035 0 0.3430643250763975 0.35392032184502181 0 0.3404086941268995 0.34962718959602263 0 0.34503032617071439 0.34768956292058301 0 0.3430643250763975 0.35392032184502181 0 0.3404086941268995 0.34962718959602263 0 0.34503032617071439 0.34768956292058301 0 0.34599995651418902 0.34097249865618889 0 0.33955663429170357 0.34393264367552379 0 0.34503032617071439 0.34768956292058301 0 0.3404086941268995 0.34962718959602263 0 0.33955663429170357 0.34393264367552379 0 0.33458795500648703 0.34280832610445622 0 0.33955663429170357 0.34393264367552379 0 0.33657164559483038 0.34965027977708107 0 0.3404086941268995 0.34962718959602263 0 0.33955663429170357 0.34393264367552379 0 0.33657164559483038 0.34965027977708107 0 0.33782053950085161 0.3529431397619035 0 0.3404086941268995 0.34962718959602263 0 0.33657164559483038 0.34965027977708107 0 0.32953244035097251 0.35712274732660199 0 0.33663060729291999 0.36628201403546568 0 0.32089093564508392 0.35954047211389728 0 0.34056193590332212 0.37811848061452119 0 0.34596397851388461 0.36906350717176312 0 0.33663060729291999 0.36628201403546568 0 0.34596397851388461 0.36906350717176312 0 0.33663060729291999 0.36628201403546568 0 0.33955095286634279 0.35979328502601893 0 0.32953244035097251 0.35712274732660199 0 0.33663060729291999 0.36628201403546568 0 0.33955095286634279 0.35979328502601893 0 0.32900830064359848 0.37683198113364252 0 0.34056193590332212 0.37811848061452119 0 0.33663060729291999 0.36628201403546568 0 0.32900830064359848 0.37683198113364252 0 0.33663060729291999 0.36628201403546568 0 0.31145823394746658 0.36894164494775922 0 0.33663060729291999 0.36628201403546568 0 0.31145823394746658 0.36894164494775922 0 0.33663060729291999 0.36628201403546568 0 0.32089093564508392 0.35954047211389728 0 0.31145823394746658 0.36894164494775922 0 0.32089093564508392 0.35954047211389728 0 0.31145823394746658 0.36894164494775922 0 0.31165845941986869 0.35778472876969308 0 0.31145823394746658 0.36894164494775922 0 0.28628586060201322 0.37160127586005282 0 0.29918914879184511 0.37785195378800179 0 0.31145823394746658 0.36894164494775922 0 0.28628586060201322 0.37160127586005282 0 0.31145823394746658 0.36894164494775922 0 0.29787104506355239 0.35787305073377051 0 0.28628586060201322 0.37160127586005282 0 0.31145823394746658 0.36894164494775922 0 0.31165845941986869 0.35778472876969308 0 0.29787104506355239 0.35787305073377051 0 0.3127691664496644 0.34705482569572438 0 0.30250411608289068 0.35096977920718342 0 0.2877177933984772 0.34116651162954542 0 0.3127691664496644 0.34705482569572438 0 0.2877177933984772 0.34116651162954542 0 0.3127691664496644 0.34705482569572438 0 0.31165845941986869 0.35778472876969308 0 0.30250411608289068 0.35096977920718342 0 0.31165845941986869 0.35778472876969308 0 0.29787104506355239 0.35787305073377051 0 0.30250411608289068 0.35096977920718342 0 0.29787104506355239 0.35787305073377051 0 0.28099678836962477 0.35634505230004759 0 0.2877177933984772 0.34116651162954542 0 0.29787104506355239 0.35787305073377051 0 0.30250411608289068 0.35096977920718342 0 0.2877177933984772 0.34116651162954542 0 0.29787104506355239 0.35787305073377051 0 0.28628586060201322 0.37160127586005282 0 0.28099678836962477 0.35634505230004759 0 0.28628586060201322 0.37160127586005282 0 0.27277016658824271 0.36437232493354238 0 0.26111348725655908 0.37426090677234042 0 0.28628586060201322 0.37160127586005282 0 0.26111348725655908 0.37426090677234042 0 0.27277016658824271 0.36437232493354238 0 0.26111348725655908 0.37426090677234042 0 0.26351701638418379 0.36363510529411708 0 0.27277016658824271 0.36437232493354238 0 0.26872615008587047 0.35598467708468212 0 0.26351701638418379 0.36363510529411708 0 0.28628586060201322 0.37160127586005282 0 0.27277016658824271 0.36437232493354238 0 0.28099678836962477 0.35634505230004759 0 0.27277016658824271 0.36437232493354238 0 0.28099678836962477 0.35634505230004759 0 0.26872615008587047 0.35598467708468212 0 0.28099678836962477 0.35634505230004759 0 0.27296603175378309 0.34740997039464189 0 0.26872615008587047 0.35598467708468212 0 0.28099678836962477 0.35634505230004759 0 0.27296603175378309 0.34740997039464189 0 0.2877177933984772 0.34116651162954542 0 0.27296603175378309 0.34740997039464189 0 0.26872615008587047 0.35598467708468212 0 0.26318910363678499 0.34681265037704567 0 0.26872615008587047 0.35598467708468212 0 0.25936390131333081 0.35667632038514407 0 0.26351701638418379 0.36363510529411708 0 0.25936390131333081 0.35667632038514407 0 0.25204442643060948 0.35409227297074669 0 0.26351701638418379 0.36363510529411708 0 0.24560383473437741 0.33724127534574661 0 0.25936390131333081 0.35667632038514407 0 0.2564130774693798 0.34230694453239952 0 0.24560383473437741 0.33724127534574661 0 0.25936390131333081 0.35667632038514407 0 0.25204442643060948 0.35409227297074669 0 0.26872615008587047 0.35598467708468212 0 0.25936390131333081 0.35667632038514407 0 0.26318910363678499 0.34681265037704567 0 0.24560383473437741 0.33724127534574661 0 0.25936390131333081 0.35667632038514407 0 0.25936390131333081 0.35667632038514407 0 0.26318910363678499 0.34681265037704567 0 0.2564130774693798 0.34230694453239952 0 0.25204442643060948 0.35409227297074669 0 0.26111348725655908 0.37426090677234042 0 0.24927098514717019 0.36407586248533119 0 0.25204442643060948 0.35409227297074669 0 0.26111348725655908 0.37426090677234042 0 0.25204442643060948 0.35409227297074669 0 0.26111348725655908 0.37426090677234042 0 0.26351701638418379 0.36363510529411708 0 0.24831175303979541 0.3703449503069145 0 0.2472339691351505 0.37510559615395539 0 0.26111348725655908 0.37426090677234042 0 0.24831175303979541 0.3703449503069145 0 0.24927098514717019 0.36407586248533119 0 0.26111348725655908 0.37426090677234042 0 0.26049258889270799 0.31672486132045591 0 0.25521641233417602 0.32719746098940711 0 0.26657713071458689 0.32732360664864218 0 0.24618121520090841 0.32036120452743461 0 0.26049258889270799 0.31672486132045591 0 0.25521641233417602 0.32719746098940711 0 0.25521641233417602 0.32719746098940711 0 0.25262878158049362 0.33438613234917652 0 0.26266642034729021 0.33527819756336641 0 0.24601747154800041 0.3276264900319264 0 0.25521641233417602 0.32719746098940711 0 0.25262878158049362 0.33438613234917652 0 0.24560383473437741 0.33724127534574661 0 0.25262878158049362 0.33438613234917652 0 0.2564130774693798 0.34230694453239952 0 0.25262878158049362 0.33438613234917652 0 0.2564130774693798 0.34230694453239952 0 0.26266642034729021 0.33527819756336641 0 0.26318910363678499 0.34681265037704567 0 0.2564130774693798 0.34230694453239952 0 0.26266642034729021 0.33527819756336641 0 0.25521641233417602 0.32719746098940711 0 0.26266642034729021 0.33527819756336641 0 0.26657713071458689 0.32732360664864218 0 0.26266642034729021 0.33527819756336641 0 0.2877177933984772 0.34116651162954542 0 0.27296603175378309 0.34740997039464189 0 0.26266642034729021 0.33527819756336641 0 0.2877177933984772 0.34116651162954542 0 0.26266642034729021 0.33527819756336641 0 0.27281319944793392 0.33151581402277369 0 0.2877177933984772 0.34116651162954542 0 0.26266642034729021 0.33527819756336641 0 0.27281319944793392 0.33151581402277369 0 0.26657713071458689 0.32732360664864218 0 0.27296603175378309 0.34740997039464189 0 0.26318910363678499 0.34681265037704567 0 0.26266642034729021 0.33527819756336641 0 0.27281319944793392 0.33151581402277369 0 0.26657713071458689 0.32732360664864218 0 0.28169703255082662 0.32590169934720792 0 0.27281319944793392 0.33151581402277369 0 0.28169703255082662 0.32590169934720792 0 0.27281319944793392 0.33151581402277369 0 0.28169703255082662 0.32590169934720792 0 0.2877177933984772 0.34116651162954542 0 0.26049258889270799 0.31672486132045591 0 0.28169703255082662 0.32590169934720792 0 0.27503656515490871 0.30391416311737879 0 0.26049258889270799 0.31672486132045591 0 0.26657713071458689 0.32732360664864218 0 0.28169703255082662 0.32590169934720792 0 0.26049258889270799 0.31672486132045591 0 0.28169703255082662 0.32590169934720792 0 0.28169703255082662 0.32590169934720792 0 0.30663521532868337 0.31014208114034081 0 0.28169703255082662 0.32590169934720792 0 0.2984569025497702 0.3248116626755233 0 0.30663521532868337 0.31014208114034081 0 0.28169703255082662 0.32590169934720792 0 0.30663521532868337 0.31014208114034081 0 0.2903563682808476 0.30193385554438817 0 0.28169703255082662 0.32590169934720792 0 0.3091343390728285 0.33777598956214472 0 0.2984569025497702 0.3248116626755233 0 0.28169703255082662 0.32590169934720792 0 0.2877177933984772 0.34116651162954542 0 0.3091343390728285 0.33777598956214472 0 0.28169703255082662 0.32590169934720792 0 0.3091343390728285 0.33777598956214472 0 0.3127691664496644 0.34705482569572438 0 0.2877177933984772 0.34116651162954542 0 0.3091343390728285 0.33777598956214472 0 0.31721799908314668 0.33155127410213209 0 0.3091343390728285 0.33777598956214472 0 0.30777344770908382 0.32801768270064868 0 0.3091343390728285 0.33777598956214472 0 0.2984569025497702 0.3248116626755233 0 0.30777344770908382 0.32801768270064868 0 0.2984569025497702 0.3248116626755233 0 0.30777344770908382 0.32801768270064868 0 0.30663521532868337 0.31014208114034081 0 0.31708527369170331 0.32440065303158899 0 0.30777344770908382 0.32801768270064868 0 0.30663521532868337 0.31014208114034081 0 0.30663521532868337 0.31014208114034081 0 0.30666214215878651 0.28803126568349668 0 0.2903563682808476 0.30193385554438817 0 0.28175088621103261 0.28168006843351678 0 0.2903563682808476 0.30193385554438817 0 0.27503656515490871 0.30391416311737879 0 0.30666214215878651 0.28803126568349668 0 0.28175088621103261 0.28168006843351678 0 0.30666214215878651 0.28803126568349668 0 0.28175088621103261 0.28168006843351678 0 0.2903563682808476 0.30193385554438817 0 0.28169703255082662 0.32590169934720792 0 0.2903563682808476 0.30193385554438817 0 0.27503656515490871 0.30391416311737879 0 0.28175088621103261 0.28168006843351678 0 0.27503656515490871 0.30391416311737879 0 0.25747878611072272 0.29615876460580609 0 0.2431977174998369 0.29118369766733282 0 0.25747878611072272 0.29615876460580609 0 0.25683963026327877 0.27532887118353699 0 0.28175088621103261 0.28168006843351678 0 0.25747878611072272 0.29615876460580609 0 0.25683963026327877 0.27532887118353699 0 0.26049258889270799 0.31672486132045591 0 0.27503656515490871 0.30391416311737879 0 0.25747878611072272 0.29615876460580609 0 0.23928814523458961 0.30754802329370362 0 0.26049258889270799 0.31672486132045591 0 0.25747878611072272 0.29615876460580609 0 0.24146168562089759 0.25309978414275958 0 0.25683963026327877 0.27532887118353699 0 0.26007206654130183 0.24598283735499671 0 0.25683963026327877 0.27532887118353699 0 0.27389458339419342 0.25786475014875337 0 0.26007206654130183 0.24598283735499671 0 0.28175088621103261 0.28168006843351678 0 0.25683963026327877 0.27532887118353699 0 0.27389458339419342 0.25786475014875337 0 0.28175088621103261 0.28168006843351678 0 0.25683963026327877 0.27532887118353699 0 0.28175088621103261 0.28168006843351678 0 0.27389458339419342 0.25786475014875337 0 0.29124522116601248 0.25035399812975961 0 0.28175088621103261 0.28168006843351678 0 0.29124522116601248 0.25035399812975961 0 0.30848474276947119 0.26298195610867708 0 0.30666214215878651 0.28803126568349668 0 0.28175088621103261 0.28168006843351678 0 0.30848474276947119 0.26298195610867708 0 0.30848474276947119 0.26298195610867708 0 0.33145970424070098 0.26090085441963562 0 0.32147440974595892 0.24742096830902921 0 0.33145970424070098 0.26090085441963562 0 0.33578124644895652 0.24683856264327361 0 0.32147440974595892 0.24742096830902921 0 0.33145970424070098 0.26090085441963562 0 0.34541988725501049 0.25334391406492363 0 0.34923803646847112 0.26605358987936528 0 0.33145970424070098 0.26090085441963562 0 0.34541988725501049 0.25334391406492363 0 0.33578124644895652 0.24683856264327361 0 0.33145970424070098 0.26090085441963562 0 0.33711351034497 0.27625510517867541 0 0.34923803646847112 0.26605358987936528 0 0.33145970424070098 0.26090085441963562 0 0.33711351034497 0.27625510517867541 0 0.32257193145005841 0.27765863186100981 0 0.30848474276947119 0.26298195610867708 0 0.33145970424070098 0.26090085441963562 0 0.32257193145005841 0.27765863186100981 0 0.30666214215878651 0.28803126568349668 0 0.30848474276947119 0.26298195610867708 0 0.32257193145005841 0.27765863186100981 0 0.30666214215878651 0.28803126568349668 0 0.32257193145005841 0.27765863186100981 0 0.33157339810654102 0.29438246293347481 0 0.30666214215878651 0.28803126568349668 0 0.33157339810654102 0.29438246293347481 0 0.30663521532868337 0.31014208114034081 0 0.33157339810654102 0.29438246293347481 0 0.30663521532868337 0.31014208114034081 0 0.30666214215878651 0.28803126568349668 0 0.33157339810654102 0.29438246293347481 0 0.329300993893065 0.31881937029881358 0 0.30663521532868337 0.31014208114034081 0 0.33157339810654102 0.29438246293347481 0 0.329300993893065 0.31881937029881358 0 0.34276743093903428 0.31161638272446268 0 0.33157339810654102 0.29438246293347481 0 0.34276743093903428 0.31161638272446268 0 0.33157339810654102 0.29438246293347481 0 0.35396027536640562 0.30009006248553011 0 0.33157339810654102 0.29438246293347481 0 0.35396027536640562 0.30009006248553011 0 0.33157339810654102 0.29438246293347481 0 0.35072448145907897 0.28227998679989269 0 0.33711351034497 0.27625510517867541 0 0.32257193145005841 0.27765863186100981 0 0.33157339810654102 0.29438246293347481 0 0.33711351034497 0.27625510517867541 0 0.33157339810654102 0.29438246293347481 0 0.35072448145907897 0.28227998679989269 0 0.35072448145907897 0.28227998679989269 0 0.35396027536640562 0.30009006248553011 0 0.36643908743052978 0.28905124819054862 0 0.33157339810654102 0.29438246293347481 0 0.35072448145907897 0.28227998679989269 0 0.35396027536640562 0.30009006248553011 0 0.35684318722945541 0.32022575812212861 0 0.34276743093903428 0.31161638272446268 0 0.35396027536640562 0.30009006248553011 0 0.35684318722945541 0.32022575812212861 0 0.35396027536640562 0.30009006248553011 0 0.37634715262627072 0.30579766203758357 0 0.35396027536640562 0.30009006248553011 0 0.36643908743052978 0.28905124819054862 0 0.37634715262627072 0.30579766203758357 0 0.35396027536640562 0.30009006248553011 0 0.37634715262627072 0.30579766203758357 0 0.36643908743052978 0.28905124819054862 0 0.3698755648116176 0.27017751066631179 0 0.38280077355837161 0.2886874974704815 0 0.35072448145907897 0.28227998679989269 0 0.36643908743052978 0.28905124819054862 0 0.3698755648116176 0.27017751066631179 0 0.35072448145907897 0.28227998679989269 0 0.3698755648116176 0.27017751066631179 0 0.3698755648116176 0.27017751066631179 0 0.35919760034078768 0.25488576680956188 0 0.34923803646847112 0.26605358987936528 0 0.37198758451827663 0.25732873089728292 0 0.37390972291710922 0.2473738802106851 0 0.3637720744356403 0.24722639637122271 0 0.37198758451827663 0.25732873089728292 0 0.35919760034078768 0.25488576680956188 0 0.3637720744356403 0.24722639637122271 0 0.3698755648116176 0.27017751066631179 0 0.37198758451827663 0.25732873089728292 0 0.35919760034078768 0.25488576680956188 0 0.3698755648116176 0.27017751066631179 0 0.35919760034078768 0.25488576680956188 0 0.35919760034078768 0.25488576680956188 0 0.34541988725501049 0.25334391406492363 0 0.34923803646847112 0.26605358987936528 0 0.35072448145907897 0.28227998679989269 0 0.3698755648116176 0.27017751066631179 0 0.34923803646847112 0.26605358987936528 0 0.33711351034497 0.27625510517867541 0 0.35072448145907897 0.28227998679989269 0 0.34923803646847112 0.26605358987936528 0 0.40216079645999669 0.27446287008575809 0 0.39116114858523071 0.25672614267488458 0 0.38713741905510468 0.27367917621050902 0 0.40216079645999669 0.27446287008575809 0 0.38713741905510468 0.27367917621050902 0 0.39746685781141478 0.28849849449833082 0 0.39116114858523071 0.25672614267488458 0 0.41231046404048433 0.26100343730929643 0 0.41244673235884372 0.24327477468345751 0 0.40216079645999669 0.27446287008575809 0 0.39116114858523071 0.25672614267488458 0 0.41231046404048433 0.26100343730929643 0 0.39116114858523071 0.25672614267488458 0 0.41244673235884372 0.24327477468345751 0 0.37198758451827663 0.25732873089728292 0 0.39116114858523071 0.25672614267488458 0 0.37390972291710922 0.2473738802106851 0 0.3698755648116176 0.27017751066631179 0 0.37198758451827663 0.25732873089728292 0 0.39116114858523071 0.25672614267488458 0 0.3698755648116176 0.27017751066631179 0 0.39116114858523071 0.25672614267488458 0 0.3698755648116176 0.27017751066631179 0 0.38280077355837161 0.2886874974704815 0 0.3698755648116176 0.27017751066631179 0 0.38713741905510468 0.27367917621050902 0 0.38280077355837161 0.2886874974704815 0 0.3698755648116176 0.27017751066631179 0 0.39116114858523071 0.25672614267488458 0 0.38713741905510468 0.27367917621050902 0 0.36643908743052978 0.28905124819054862 0 0.38280077355837161 0.2886874974704815 0 0.37634715262627072 0.30579766203758357 0 0.38713741905510468 0.27367917621050902 0 0.38280077355837161 0.2886874974704815 0 0.39746685781141478 0.28849849449833082 0 0.37634715262627072 0.30579766203758357 0 0.39258927900634188 0.30491271860646979 0 0.39873402988613538 0.31150526158963832 0 0.38280077355837161 0.2886874974704815 0 0.39258927900634188 0.30491271860646979 0 0.39572598230512751 0.30719748427464988 0 0.38280077355837161 0.2886874974704815 0 0.37634715262627072 0.30579766203758357 0 0.39258927900634188 0.30491271860646979 0 0.37634715262627072 0.30579766203758357 0 0.39873402988613538 0.31150526158963832 0 0.38507297807623331 0.31840608276307192 0 0.38280077355837161 0.2886874974704815 0 0.39572598230512751 0.30719748427464988 0 0.37634715262627072 0.30579766203758357 0 0.39873402988613538 0.31150526158963832 0 0.39572598230512751 0.30719748427464988 0 0.39746685781141478 0.28849849449833082 0 0.40637306872626078 0.30043800576921331 0 0.39572598230512751 0.30719748427464988 0 0.39873402988613538 0.31150526158963832 0 0.39258927900634188 0.30491271860646979 0 0.39572598230512751 0.30719748427464988 0 0.39258927900634188 0.30491271860646979 0 0.39572598230512751 0.30719748427464988 0 0.39873402988613538 0.31150526158963832 0 0.39572598230512751 0.30719748427464988 0 0.40670151030260743 0.30703792501934929 0 0.40320493488356618 0.31264513183881981 0 0.39572598230512751 0.30719748427464988 0 0.40670151030260743 0.30703792501934929 0 0.40637306872626078 0.30043800576921331 0 0.39873402988613538 0.31150526158963832 0 0.40320493488356618 0.31264513183881981 0 0.39572598230512751 0.30719748427464988 0 0.39873402988613538 0.31150526158963832 0 0.40320493488356618 0.31264513183881981 0 0.39572598230512751 0.30719748427464988 0 0.40320493488356618 0.31264513183881981 0 0.38280077355837161 0.2886874974704815 0 0.39572598230512751 0.30719748427464988 0 0.39746685781141478 0.28849849449833082 0 0.39746685781141478 0.28849849449833082 0 0.41149508451031408 0.2876906848242386 0 0.40637306872626078 0.30043800576921331 0 0.40216079645999669 0.27446287008575809 0 0.39746685781141478 0.28849849449833082 0 0.41149508451031408 0.2876906848242386 0 0.41149508451031408 0.2876906848242386 0 0.40637306872626078 0.30043800576921331 0 0.41757274045054588 0.29986173067065292 0 0.41149508451031408 0.2876906848242386 0 0.42076514334985021 0.29091826307627983 0 0.41757274045054588 0.29986173067065292 0 0.41149508451031408 0.2876906848242386 0 0.4240310497968961 0.28194951842711252 0 0.41336233492461733 0.27487851527621848 0 0.41149508451031408 0.2876906848242386 0 0.42076514334985021 0.29091826307627983 0 0.4240310497968961 0.28194951842711252 0 0.40670151030260743 0.30703792501934929 0 0.41396401211904538 0.3079405109651302 0 0.40320493488356618 0.31264513183881981 0 0.40670151030260743 0.30703792501934929 0 0.41396401211904538 0.3079405109651302 0 0.40637306872626078 0.30043800576921331 0 0.41396401211904538 0.3079405109651302 0 0.40637306872626078 0.30043800576921331 0 0.41757274045054588 0.29986173067065292 0 0.42076514334985021 0.29091826307627983 0 0.41757274045054588 0.29986173067065292 0 0.42594828664500262 0.29994410844370251 0 0.41396401211904538 0.3079405109651302 0 0.42464901860716958 0.30847571837452997 0 0.42666413196968273 0.31862612245336541 0 0.41396401211904538 0.3079405109651302 0 0.41757274045054588 0.29986173067065292 0 0.42464901860716958 0.30847571837452997 0 0.41757274045054588 0.29986173067065292 0 0.42464901860716958 0.30847571837452997 0 0.42594828664500262 0.29994410844370251 0 0.42464901860716958 0.30847571837452997 0 0.42594828664500262 0.29994410844370251 0 0.43430094465162072 0.30422101474976571 0 0.42594828664500262 0.29994410844370251 0 0.43430094465162072 0.30422101474976571 0 0.43135071364090932 0.29230302483058612 0 0.42464901860716958 0.30847571837452997 0 0.43430094465162072 0.30422101474976571 0 0.43649357132488548 0.31333569439221992 0 0.42076514334985021 0.29091826307627983 0 0.4240310497968961 0.28194951842711252 0 0.43135071364090932 0.29230302483058612 0 0.42076514334985021 0.29091826307627983 0 0.42594828664500262 0.29994410844370251 0 0.43135071364090932 0.29230302483058612 0 0.43430094465162072 0.30422101474976571 0 0.43135071364090932 0.29230302483058612 0 0.44561158832178038 0.29355620395833593 0 0.4240310497968961 0.28194951842711252 0 0.43135071364090932 0.29230302483058612 0 0.43664601734775632 0.28107069004060281 0 0.4240310497968961 0.28194951842711252 0 0.43664601734775632 0.28107069004060281 0 0.43131726972202999 0.26427852587506689 0 0.4240310497968961 0.28194951842711252 0 0.41336233492461733 0.27487851527621848 0 0.43131726972202999 0.26427852587506689 0 0.41336233492461733 0.27487851527621848 0 0.41231046404048433 0.26100343730929643 0 0.43131726972202999 0.26427852587506689 0 0.40216079645999669 0.27446287008575809 0 0.41336233492461733 0.27487851527621848 0 0.41231046404048433 0.26100343730929643 0 0.40216079645999669 0.27446287008575809 0 0.41149508451031408 0.2876906848242386 0 0.41336233492461733 0.27487851527621848 0 0.41231046404048433 0.26100343730929643 0 0.42365365707085328 0.24969033119948791 0 0.41244673235884372 0.24327477468345751 0 0.43131726972202999 0.26427852587506689 0 0.42365365707085328 0.24969033119948791 0 0.44226130196693519 0.24367528627527099 0 0.41231046404048433 0.26100343730929643 0 0.43131726972202999 0.26427852587506689 0 0.42365365707085328 0.24969033119948791 0 0.485962251854198 0.2694244513607385 0 0.5 0.33138375687244159 0 0.49999999999999972 0.24593054840038461 0 0.44737008705812131 0.27059571205464511 0 0.4641117769105666 0.25654986881800468 0 0.44226130196693519 0.24367528627527099 0 0.43131726972202999 0.26427852587506689 0 0.44737008705812131 0.27059571205464511 0 0.44226130196693519 0.24367528627527099 0 0.43664601734775632 0.28107069004060281 0 0.43131726972202999 0.26427852587506689 0 0.44737008705812131 0.27059571205464511 0 0.44737008705812131 0.27059571205464511 0 0.4641117769105666 0.25654986881800468 0 0.46402275260956849 0.28425574233122047 0 0.4641117769105666 0.25654986881800468 0 0.44226130196693519 0.24367528627527099 0 0.4641117769105666 0.25654986881800468 0 0.485962251854198 0.2694244513607385 0 0.4641117769105666 0.25654986881800468 0 0.485962251854198 0.2694244513607385 0 0.49999999999999972 0.24593054840038461 0 0.4641117769105666 0.25654986881800468 0 0.485962251854198 0.2694244513607385 0 0.46402275260956849 0.28425574233122047 0 0.485962251854198 0.2694244513607385 0 0.47700683408915928 0.30495924093921922 0 0.46402275260956849 0.28425574233122047 0 0.485962251854198 0.2694244513607385 0 0.47700683408915928 0.30495924093921922 0 0.5 0.33138375687244159 0 0.47700683408915928 0.30495924093921922 0 0.45951291042639619 0.30811915121577871 0 0.46402275260956849 0.28425574233122047 0 0.45951291042639619 0.30811915121577871 0 0.46402275260956849 0.28425574233122047 0 0.44561158832178038 0.29355620395833593 0 0.44737008705812131 0.27059571205464511 0 0.46402275260956849 0.28425574233122047 0 0.44561158832178038 0.29355620395833593 0 0.43664601734775632 0.28107069004060281 0 0.44737008705812131 0.27059571205464511 0 0.44561158832178038 0.29355620395833593 0 0.43135071364090932 0.29230302483058612 0 0.43664601734775632 0.28107069004060281 0 0.44561158832178038 0.29355620395833593 0 0.43430094465162072 0.30422101474976571 0 0.44561158832178038 0.29355620395833593 0 0.44673043234015508 0.31074850331552689 0 0.45951291042639619 0.30811915121577871 0 0.44561158832178038 0.29355620395833593 0 0.44673043234015508 0.31074850331552689 0 0.43430094465162072 0.30422101474976571 0 0.44673043234015508 0.31074850331552689 0 0.43649357132488548 0.31333569439221992 0 0.45012332905579899 0.32460711306791168 0 0.42666413196968273 0.31862612245336541 0 0.45012332905579899 0.32460711306791168 0 0.43649357132488548 0.31333569439221992 0 0.42666413196968273 0.31862612245336541 0 0.45012332905579899 0.32460711306791168 0 0.43821624881474452 0.33814727228633229 0 0.42666413196968273 0.31862612245336541 0 0.5 0.33138375687244159 0 0.46788289185352178 0.36938795189681328 0 0.5 0.40150451236833901 0 0.44673043234015508 0.31074850331552689 0 0.45012332905579899 0.32460711306791168 0 0.43649357132488548 0.31333569439221992 0 0.45951291042639619 0.30811915121577871 0 0.44673043234015508 0.31074850331552689 0 0.45012332905579899 0.32460711306791168 0 0.45012332905579899 0.32460711306791168 0 0.43821624881474452 0.33814727228633229 0 0.45572190578033389 0.35089834251008839 0 0.45012332905579899 0.32460711306791168 0 0.47358252614191548 0.33058810368245811 0 0.45572190578033389 0.35089834251008839 0 0.45012332905579899 0.32460711306791168 0 0.47358252614191548 0.33058810368245811 0 0.45951291042639619 0.30811915121577871 0 0.45012332905579899 0.32460711306791168 0 0.47358252614191548 0.33058810368245811 0 0.47700683408915928 0.30495924093921922 0 0.45951291042639619 0.30811915121577871 0 0.47358252614191548 0.33058810368245811 0 0.47700683408915928 0.30495924093921922 0 0.47358252614191548 0.33058810368245811 0 0.5 0.33138375687244159 0 0.47358252614191548 0.33058810368245811 0 0.5 0.33138375687244159 0 0.46788289185352178 0.36938795189681328 0 0.47358252614191548 0.33058810368245811 0 0.46788289185352178 0.36938795189681328 0 0.45572190578033389 0.35089834251008839 0 0.46788289185352178 0.36938795189681328 0 0.45572190578033389 0.35089834251008839 0 0.43498458726088479 0.37183845300651291 0 0.45572190578033389 0.35089834251008839 0 0.43498458726088479 0.37183845300651291 0 0.43221615339540143 0.35275508708138048 0 0.43821624881474452 0.33814727228633229 0 0.45572190578033389 0.35089834251008839 0 0.43821624881474452 0.33814727228633229 0 0.45572190578033389 0.35089834251008839 0 0.43221615339540143 0.35275508708138048 0 0.43498458726088479 0.37183845300651291 0 0.41404806236123448 0.35688531603418833 0 0.43221615339540143 0.35275508708138048 0 0.41465543442846098 0.37497362971156017 0 0.41404806236123448 0.35688531603418833 0 0.39916594672918593 0.37005327392929488 0 0.43498458726088479 0.37183845300651291 0 0.41465543442846098 0.37497362971156017 0 0.41404806236123448 0.35688531603418833 0 0.41404806236123448 0.35688531603418833 0 0.42198773380699789 0.34435699376733458 0 0.41075370280405299 0.34075878841287111 0 0.41404806236123448 0.35688531603418833 0 0.41075370280405299 0.34075878841287111 0 0.40135048032493381 0.34768257781570089 0 0.41404806236123448 0.35688531603418833 0 0.42198773380699789 0.34435699376733458 0 0.43221615339540143 0.35275508708138048 0 0.43821624881474452 0.33814727228633229 0 0.42198773380699789 0.34435699376733458 0 0.43221615339540143 0.35275508708138048 0 0.43821624881474452 0.33814727228633229 0 0.42071059184915521 0.32539620206257641 0 0.42006603849490842 0.33508421638002678 0 0.43821624881474452 0.33814727228633229 0 0.42071059184915521 0.32539620206257641 0 0.43821624881474452 0.33814727228633229 0 0.42198773380699789 0.34435699376733458 0 0.42006603849490842 0.33508421638002678 0 0.43821624881474452 0.33814727228633229 0 0.42666413196968273 0.31862612245336541 0 0.42071059184915521 0.32539620206257641 0 0.42464901860716958 0.30847571837452997 0 0.43649357132488548 0.31333569439221992 0 0.42666413196968273 0.31862612245336541 0 0.42071059184915521 0.32539620206257641 0 0.4099682122424127 0.32759355627366338 0 0.40320493488356618 0.31264513183881981 0 0.42666413196968273 0.31862612245336541 0 0.40320493488356618 0.31264513183881981 0 0.42071059184915521 0.32539620206257641 0 0.40320493488356618 0.31264513183881981 0 0.42666413196968273 0.31862612245336541 0 0.42071059184915521 0.32539620206257641 0 0.40320493488356618 0.31264513183881981 0 0.41396401211904538 0.3079405109651302 0 0.42666413196968273 0.31862612245336541 0 0.40320493488356618 0.31264513183881981 0 0.42198773380699789 0.34435699376733458 0 0.42006603849490842 0.33508421638002678 0 0.41075370280405299 0.34075878841287111 0 0.42071059184915521 0.32539620206257641 0 0.4099682122424127 0.32759355627366338 0 0.42006603849490842 0.33508421638002678 0 0.4099682122424127 0.32759355627366338 0 0.41075370280405299 0.34075878841287111 0 0.40023680249660132 0.3349462243726572 0 0.4099682122424127 0.32759355627366338 0 0.42006603849490842 0.33508421638002678 0 0.41075370280405299 0.34075878841287111 0 0.41075370280405299 0.34075878841287111 0 0.40023680249660132 0.3349462243726572 0 0.40135048032493381 0.34768257781570089 0 0.4099682122424127 0.32759355627366338 0 0.40023680249660132 0.3349462243726572 0 0.39627839280366017 0.32443237798817609 0 0.40023680249660132 0.3349462243726572 0 0.39627839280366017 0.32443237798817609 0 0.38666309909498747 0.33096242694260258 0 0.40023680249660132 0.3349462243726572 0 0.38944785114140118 0.34233857545987939 0 0.38666309909498747 0.33096242694260258 0 0.40023680249660132 0.3349462243726572 0 0.38944785114140118 0.34233857545987939 0 0.40135048032493381 0.34768257781570089 0 0.39873402988613538 0.31150526158963832 0 0.4099682122424127 0.32759355627366338 0 0.40320493488356618 0.31264513183881981 0 0.39873402988613538 0.31150526158963832 0 0.4099682122424127 0.32759355627366338 0 0.39627839280366017 0.32443237798817609 0 0.39873402988613538 0.31150526158963832 0 0.4099682122424127 0.32759355627366338 0 0.39873402988613538 0.31150526158963832 0 0.39627839280366017 0.32443237798817609 0 0.38507297807623331 0.31840608276307192 0 0.37316531528199609 0.32471254124834659 0 0.37634715262627072 0.30579766203758357 0 0.38507297807623331 0.31840608276307192 0 0.39627839280366017 0.32443237798817609 0 0.38507297807623331 0.31840608276307192 0 0.38666309909498747 0.33096242694260258 0 0.37316531528199609 0.32471254124834659 0 0.38507297807623331 0.31840608276307192 0 0.38666309909498747 0.33096242694260258 0 0.38944785114140118 0.34233857545987939 0 0.38666309909498747 0.33096242694260258 0 0.37590371760048852 0.33667535164759199 0 0.37316531528199609 0.32471254124834659 0 0.38666309909498747 0.33096242694260258 0 0.37590371760048852 0.33667535164759199 0 0.38944785114140118 0.34233857545987939 0 0.37590371760048852 0.33667535164759199 0 0.37928183756442191 0.34765713674703952 0 0.36831937363042938 0.35601155238520749 0 0.37928183756442191 0.34765713674703952 0 0.38209756270918421 0.3636155102963331 0 0.37928183756442191 0.34765713674703952 0 0.38209756270918421 0.3636155102963331 0 0.39108576845351678 0.35380612204553052 0 0.38944785114140118 0.34233857545987939 0 0.37928183756442191 0.34765713674703952 0 0.39108576845351678 0.35380612204553052 0 0.38209756270918421 0.3636155102963331 0 0.39916594672918593 0.37005327392929488 0 0.38425082867153071 0.38037876704496631 0 0.36946271990026192 0.36921549307873242 0 0.38209756270918421 0.3636155102963331 0 0.38425082867153071 0.38037876704496631 0 0.38209756270918421 0.3636155102963331 0 0.39916594672918593 0.37005327392929488 0 0.39108576845351678 0.35380612204553052 0 0.39916594672918593 0.37005327392929488 0 0.40162681787781229 0.35748492932094211 0 0.39108576845351678 0.35380612204553052 0 0.41404806236123448 0.35688531603418833 0 0.39916594672918593 0.37005327392929488 0 0.40162681787781229 0.35748492932094211 0 0.41404806236123448 0.35688531603418833 0 0.40162681787781229 0.35748492932094211 0 0.40135048032493381 0.34768257781570089 0 0.38944785114140118 0.34233857545987939 0 0.40135048032493381 0.34768257781570089 0 0.39108576845351678 0.35380612204553052 0 0.40162681787781229 0.35748492932094211 0 0.40135048032493381 0.34768257781570089 0 0.39108576845351678 0.35380612204553052 0 0.39740448491362051 0.4031908960490273 0 0.40226908346032297 0.38725842693814749 0 0.39018870189375332 0.39102746054934689 0 0.39740448491362051 0.4031908960490273 0 0.40226908346032297 0.38725842693814749 0 0.41153800063530088 0.39809914524216622 0 0.39740448491362051 0.4031908960490273 0 0.39018870189375332 0.39102746054934689 0 0.38470754091949289 0.39939330644127469 0 0.40226908346032297 0.38725842693814749 0 0.38425082867153071 0.38037876704496631 0 0.39018870189375332 0.39102746054934689 0 0.39916594672918593 0.37005327392929488 0 0.40226908346032297 0.38725842693814749 0 0.38425082867153071 0.38037876704496631 0 0.41465543442846098 0.37497362971156017 0 0.39916594672918593 0.37005327392929488 0 0.40226908346032297 0.38725842693814749 0 0.37354152881041319 0.39389272245229301 0 0.38425082867153071 0.38037876704496631 0 0.39018870189375332 0.39102746054934689 0 0.37354152881041319 0.39389272245229301 0 0.39018870189375332 0.39102746054934689 0 0.38470754091949289 0.39939330644127469 0 0.36620738399994329 0.40740099763767501 0 0.38470754091949289 0.39939330644127469 0 0.38516769512744359 0.40700798642220493 0 0.39740448491362051 0.4031908960490273 0 0.38470754091949289 0.39939330644127469 0 0.38516769512744359 0.40700798642220493 0 0.36620738399994329 0.40740099763767501 0 0.38481039433510339 0.41497608406533631 0 0.38516769512744359 0.40700798642220493 0 0.36620738399994329 0.40740099763767501 0 0.38481039433510339 0.41497608406533631 0 0.38481039433510339 0.41497608406533631 0 0.38663274315496071 0.42936927403291453 0 0.39235137067671799 0.41804674556084243 0 0.38481039433510339 0.41497608406533631 0 0.39235137067671799 0.41804674556084243 0 0.38481039433510339 0.41497608406533631 0 0.38516769512744359 0.40700798642220493 0 0.39235137067671799 0.41804674556084243 0 0.37018900595113091 0.4366282018743784 0 0.38663274315496071 0.42936927403291453 0 0.38700666713982512 0.44264040870214483 0 0.37018900595113091 0.4366282018743784 0 0.38481039433510339 0.41497608406533631 0 0.38663274315496071 0.42936927403291453 0 0.37018900595113091 0.4366282018743784 0 0.38481039433510339 0.41497608406533631 0 0.399021352958983 0.43402674486136877 0 0.39235137067671799 0.41804674556084243 0 0.41849535735349269 0.42869249348400978 0 0.39235137067671799 0.41804674556084243 0 0.41849535735349269 0.42869249348400978 0 0.38663274315496071 0.42936927403291453 0 0.399021352958983 0.43402674486136877 0 0.39235137067671799 0.41804674556084243 0 0.38663274315496071 0.42936927403291453 0 0.399021352958983 0.43402674486136877 0 0.38700666713982512 0.44264040870214483 0 0.39235137067671799 0.41804674556084243 0 0.40351495834458467 0.41227554462260518 0 0.4130051495300664 0.41884942366280598 0 0.39740448491362051 0.4031908960490273 0 0.38516769512744359 0.40700798642220493 0 0.39235137067671799 0.41804674556084243 0 0.39740448491362051 0.4031908960490273 0 0.39235137067671799 0.41804674556084243 0 0.40351495834458467 0.41227554462260518 0 0.39740448491362051 0.4031908960490273 0 0.40351495834458467 0.41227554462260518 0 0.41129882825793412 0.40901511321774509 0 0.39235137067671799 0.41804674556084243 0 0.4130051495300664 0.41884942366280598 0 0.41849535735349269 0.42869249348400978 0 0.40351495834458467 0.41227554462260518 0 0.41129882825793412 0.40901511321774509 0 0.4130051495300664 0.41884942366280598 0 0.4130051495300664 0.41884942366280598 0 0.41976566386337322 0.42153126728691448 0 0.42374988820908899 0.41544663125523368 0 0.41129882825793412 0.40901511321774509 0 0.4130051495300664 0.41884942366280598 0 0.42374988820908899 0.41544663125523368 0 0.41129882825793412 0.40901511321774509 0 0.42374988820908899 0.41544663125523368 0 0.42390811421395008 0.4021986113562534 0 0.399021352958983 0.43402674486136877 0 0.41849535735349269 0.42869249348400978 0 0.4142377447469221 0.43449854569606572 0 0.4130051495300664 0.41884942366280598 0 0.41976566386337322 0.42153126728691448 0 0.41849535735349269 0.42869249348400978 0 0.41849535735349269 0.42869249348400978 0 0.4142377447469221 0.43449854569606572 0 0.4243685254016285 0.43978818133276082 0 0.42902597831165379 0.42466239009974588 0 0.43847963810204588 0.4183033170653947 0 0.44463934403026761 0.43933824140717742 0 0.41849535735349269 0.42869249348400978 0 0.42902597831165379 0.42466239009974588 0 0.44463934403026761 0.43933824140717742 0 0.41849535735349269 0.42869249348400978 0 0.44463934403026761 0.43933824140717742 0 0.41849535735349269 0.42869249348400978 0 0.44463934403026761 0.43933824140717742 0 0.4243685254016285 0.43978818133276082 0 0.41976566386337322 0.42153126728691448 0 0.41849535735349269 0.42869249348400978 0 0.42902597831165379 0.42466239009974588 0 0.42374988820908899 0.41544663125523368 0 0.43244073186800952 0.40837811317854072 0 0.42390811421395008 0.4021986113562534 0 0.41976566386337322 0.42153126728691448 0 0.42902597831165379 0.42466239009974588 0 0.42374988820908899 0.41544663125523368 0 0.42902597831165379 0.42466239009974588 0 0.42374988820908899 0.41544663125523368 0 0.43847963810204588 0.4183033170653947 0 0.42374988820908899 0.41544663125523368 0 0.43244073186800952 0.40837811317854072 0 0.43847963810204588 0.4183033170653947 0 0.42390811421395008 0.4021986113562534 0 0.42280949233067672 0.38883267864965743 0 0.4436252869469528 0.39756389303728101 0 0.43244073186800952 0.40837811317854072 0 0.42390811421395008 0.4021986113562534 0 0.4436252869469528 0.39756389303728101 0 0.40226908346032297 0.38725842693814749 0 0.41153800063530088 0.39809914524216622 0 0.42280949233067672 0.38883267864965743 0 0.41129882825793412 0.40901511321774509 0 0.42390811421395008 0.4021986113562534 0 0.41153800063530088 0.39809914524216622 0 0.42390811421395008 0.4021986113562534 0 0.41153800063530088 0.39809914524216622 0 0.42280949233067672 0.38883267864965743 0 0.39740448491362051 0.4031908960490273 0 0.41129882825793412 0.40901511321774509 0 0.41153800063530088 0.39809914524216622 0 0.41465543442846098 0.37497362971156017 0 0.40226908346032297 0.38725842693814749 0 0.42280949233067672 0.38883267864965743 0 0.43498458726088479 0.37183845300651291 0 0.42280949233067672 0.38883267864965743 0 0.4436252869469528 0.39756389303728101 0 0.43498458726088479 0.37183845300651291 0 0.41465543442846098 0.37497362971156017 0 0.42280949233067672 0.38883267864965743 0 0.46788289185352178 0.36938795189681328 0 0.43498458726088479 0.37183845300651291 0 0.4436252869469528 0.39756389303728101 0 0.46788289185352178 0.36938795189681328 0 0.4436252869469528 0.39756389303728101 0 0.46717812190686819 0.39805757462156138 0 0.46788289185352178 0.36938795189681328 0 0.46717812190686819 0.39805757462156138 0 0.5 0.40150451236833901 0 0.5 0.40150451236833901 0 0.45720430882699808 0.4237739411838124 0 0.47078333070704281 0.44998398933034428 0 0.5 0.40150451236833901 0 0.47078333070704281 0.44998398933034428 0 0.48776200479723669 0.45689765122393788 0 0.46717812190686819 0.39805757462156138 0 0.5 0.40150451236833901 0 0.45720430882699808 0.4237739411838124 0 0.45720430882699808 0.4237739411838124 0 0.47078333070704281 0.44998398933034428 0 0.4436252869469528 0.39756389303728101 0 0.46717812190686819 0.39805757462156138 0 0.45720430882699808 0.4237739411838124 0 0.4436252869469528 0.39756389303728101 0 0.45720430882699808 0.4237739411838124 0 0.4436252869469528 0.39756389303728101 0 0.45720430882699808 0.4237739411838124 0 0.43847963810204588 0.4183033170653947 0 0.43244073186800952 0.40837811317854072 0 0.4436252869469528 0.39756389303728101 0 0.43847963810204588 0.4183033170653947 0 0.45720430882699808 0.4237739411838124 0 0.43847963810204588 0.4183033170653947 0 0.44463934403026761 0.43933824140717742 0 0.44463934403026761 0.43933824140717742 0 0.45281186046574579 0.45696559401283249 0 0.42876577197716731 0.46300611282348503 0 0.5 0.5 0 0.49427026598358581 0.49531816066099549 0 0.43181017042130071 0.5 0 0.5 0.40150451236833901 0 0.48776200479723669 0.45689765122393788 0 0.5 0.5 0 0.45281186046574579 0.45696559401283249 0 0.44989084141085661 0.47394078535168788 0 0.42876577197716731 0.46300611282348503 0 0.45281186046574579 0.45696559401283249 0 0.46482104666423901 0.46775076015610922 0 0.47078333070704281 0.44998398933034428 0 0.45281186046574579 0.45696559401283249 0 0.46482104666423901 0.46775076015610922 0 0.44989084141085661 0.47394078535168788 0 0.44463934403026761 0.43933824140717742 0 0.47078333070704281 0.44998398933034428 0 0.45720430882699808 0.4237739411838124 0 0.44463934403026761 0.43933824140717742 0 0.47078333070704281 0.44998398933034428 0 0.44463934403026761 0.43933824140717742 0 0.45281186046574579 0.45696559401283249 0 0.47078333070704281 0.44998398933034428 0 0.47078333070704281 0.44998398933034428 0 0.48252679834531459 0.47265107499566972 0 0.46482104666423901 0.46775076015610922 0 0.47078333070704281 0.44998398933034428 0 0.48252679834531459 0.47265107499566972 0 0.47078333070704281 0.44998398933034428 0 0.48776200479723669 0.45689765122393788 0 0.48252679834531459 0.47265107499566972 0 0.47078333070704281 0.44998398933034428 0 0.48776200479723669 0.45689765122393788 0 0.48776200479723669 0.45689765122393788 0 0.49427026598358581 0.49531816066099549 0 0.48252679834531459 0.47265107499566972 0 0.48776200479723669 0.45689765122393788 0 0.5 0.5 0 0.49427026598358581 0.49531816066099549 0 0.49427026598358581 0.49531816066099549 0 0.48252679834531459 0.47265107499566972 0 0.49427026598358581 0.49531816066099549 0 0.48252679834531459 0.47265107499566972 0 0.46466382456505928 0.48193215623289237 0 0.46482104666423901 0.46775076015610922 0 0.48252679834531459 0.47265107499566972 0 0.46466382456505928 0.48193215623289237 0 0.49427026598358581 0.49531816066099549 0 0.46466382456505928 0.48193215623289237 0 0.43181017042130071 0.5 0 0.46466382456505928 0.48193215623289237 0 0.44989084141085661 0.47394078535168788 0 0.43181017042130071 0.5 0 0.46482104666423901 0.46775076015610922 0 0.46466382456505928 0.48193215623289237 0 0.44989084141085661 0.47394078535168788 0 0.43181017042130071 0.5 0 0.38301867432905418 0.5 0 0.40524824351025468 0.48231896792003992 0 0.44989084141085661 0.47394078535168788 0 0.43181017042130071 0.5 0 0.42876577197716731 0.46300611282348503 0 0.43181017042130071 0.5 0 0.42876577197716731 0.46300611282348503 0 0.40524824351025468 0.48231896792003992 0 0.42876577197716731 0.46300611282348503 0 0.40684828495903691 0.46379093326308291 0 0.40524824351025468 0.48231896792003992 0 0.42876577197716731 0.46300611282348503 0 0.4279982069753947 0.44701565137928889 0 0.41647197390206531 0.44939597469726228 0 0.44463934403026761 0.43933824140717742 0 0.4279982069753947 0.44701565137928889 0 0.4243685254016285 0.43978818133276082 0 0.44463934403026761 0.43933824140717742 0 0.42876577197716731 0.46300611282348503 0 0.4279982069753947 0.44701565137928889 0 0.4279982069753947 0.44701565137928889 0 0.4243685254016285 0.43978818133276082 0 0.41647197390206531 0.44939597469726228 0 0.4142377447469221 0.43449854569606572 0 0.41647197390206531 0.44939597469726228 0 0.39770475368582547 0.45087390927204951 0 0.4142377447469221 0.43449854569606572 0 0.4243685254016285 0.43978818133276082 0 0.41647197390206531 0.44939597469726228 0 0.41647197390206531 0.44939597469726228 0 0.40684828495903691 0.46379093326308291 0 0.39770475368582547 0.45087390927204951 0 0.42876577197716731 0.46300611282348503 0 0.41647197390206531 0.44939597469726228 0 0.40684828495903691 0.46379093326308291 0 0.40684828495903691 0.46379093326308291 0 0.39770475368582547 0.45087390927204951 0 0.38117176262472902 0.4672492728480333 0 0.399021352958983 0.43402674486136877 0 0.39770475368582547 0.45087390927204951 0 0.38700666713982512 0.44264040870214483 0 0.4142377447469221 0.43449854569606572 0 0.39770475368582547 0.45087390927204951 0 0.399021352958983 0.43402674486136877 0 0.4142377447469221 0.43449854569606572 0 0.39770475368582547 0.45087390927204951 0 0.37018900595113091 0.4366282018743784 0 0.38700666713982512 0.44264040870214483 0 0.38117176262472902 0.4672492728480333 0 0.39770475368582547 0.45087390927204951 0 0.38700666713982512 0.44264040870214483 0 0.38117176262472902 0.4672492728480333 0 0.39770475368582547 0.45087390927204951 0 0.38117176262472902 0.4672492728480333 0 0.38117176262472902 0.4672492728480333 0 0.38301867432905418 0.5 0 0.40524824351025468 0.48231896792003992 0 0.36463877156363228 0.4836246364240171 0 0.38117176262472902 0.4672492728480333 0 0.38301867432905418 0.5 0 0.40684828495903691 0.46379093326308291 0 0.38117176262472902 0.4672492728480333 0 0.40524824351025468 0.48231896792003992 0 0.33130764010268732 0.081102714688937483 0 0.34970737716794897 0.087374916851600593 0 0.34742318214483542 0.070751527892643648 0 0.33130764010268732 0.081102714688937483 0 0.33846854636869322 0.099679575940636395 0 0.34970737716794897 0.087374916851600593 0 0.33130764010268732 0.081102714688937483 0 0.32414047237551818 0.093074344299774792 0 0.33846854636869322 0.099679575940636395 0 0.33363934111646132 0.064426394771189638 0 0.34742318214483542 0.070751527892643648 0 0.3427998494356741 0.05371431744985522 0 0.33130764010268732 0.081102714688937483 0 0.33363934111646132 0.064426394771189638 0 0.34742318214483542 0.070751527892643648 0 0.33130764010268732 0.081102714688937483 0 0.31791616946304763 0.065873432435573281 0 0.31653443917005869 0.081134038689128773 0 0.33130764010268732 0.081102714688937483 0 0.33363934111646132 0.064426394771189638 0 0.31791616946304763 0.065873432435573281 0 0.33130764010268732 0.081102714688937483 0 0.31653443917005869 0.081134038689128773 0 0.32414047237551818 0.093074344299774792 0 0.31653443917005869 0.081134038689128773 0 0.32414047237551818 0.093074344299774792 0 0.30976515849892922 0.093499887985373134 0 0.32414047237551818 0.093074344299774792 0 0.32039246687030049 0.1063914000176491 0 0.33846854636869322 0.099679575940636395 0 0.32414047237551818 0.093074344299774792 0 0.32039246687030049 0.1063914000176491 0 0.30976515849892922 0.093499887985373134 0 0.32039246687030049 0.1063914000176491 0 0.31620906144234068 0.1208067496385241 0 0.332238289802742 0.1174346697997587 0 0.31620906144234068 0.1208067496385241 0 0.332238289802742 0.1174346697997587 0 0.33109727175376569 0.13483498039444691 0 0.32039246687030049 0.1063914000176491 0 0.31620906144234068 0.1208067496385241 0 0.30142126556343812 0.10961665829221071 0 0.32039246687030049 0.1063914000176491 0 0.332238289802742 0.1174346697997587 0 0.33846854636869322 0.099679575940636395 0 0.332238289802742 0.1174346697997587 0 0.33846854636869322 0.099679575940636395 0 0.35333642502566542 0.1102373084169587 0 0.35333642502566542 0.1102373084169587 0 0.36673073492479569 0.092792611858038471 0 0.34970737716794897 0.087374916851600593 0 0.33846854636869322 0.099679575940636395 0 0.35333642502566542 0.1102373084169587 0 0.34970737716794897 0.087374916851600593 0 0.35333642502566542 0.1102373084169587 0 0.34785110977579681 0.12869357301322859 0 0.36572929324651332 0.1320594642229149 0 0.332238289802742 0.1174346697997587 0 0.35333642502566542 0.1102373084169587 0 0.34785110977579681 0.12869357301322859 0 0.35333642502566542 0.1102373084169587 0 0.37457884466264257 0.11465160156173169 0 0.36572929324651332 0.1320594642229149 0 0.35333642502566542 0.1102373084169587 0 0.37457884466264257 0.11465160156173169 0 0.36673073492479569 0.092792611858038471 0 0.36673073492479569 0.092792611858038471 0 0.36565586428775732 0.072146372702464975 0 0.38277645965618912 0.079445547237405781 0 0.36673073492479569 0.092792611858038471 0 0.34970737716794897 0.087374916851600593 0 0.36565586428775732 0.072146372702464975 0 0.34970737716794897 0.087374916851600593 0 0.34742318214483542 0.070751527892643648 0 0.36565586428775732 0.072146372702464975 0 0.34742318214483542 0.070751527892643648 0 0.36565586428775732 0.072146372702464975 0 0.35764927811866332 0.056174424747782011 0 0.37409110470898571 0.053193543692808987 0 0.36494722897456872 0.04326856015503848 0 0.35764927811866332 0.056174424747782011 0 0.36565586428775732 0.072146372702464975 0 0.37409110470898571 0.053193543692808987 0 0.35764927811866332 0.056174424747782011 0 0.37409110470898571 0.053193543692808987 0 0.36494722897456872 0.04326856015503848 0 0.37808648580134668 0.037092345855213503 0 0.36494722897456872 0.04326856015503848 0 0.36301517619580592 0.03000435736854435 0 0.37808648580134668 0.037092345855213503 0 0.36494722897456872 0.04326856015503848 0 0.35177340743899249 0.041174274863552227 0 0.36301517619580592 0.03000435736854435 0 0.36494722897456872 0.04326856015503848 0 0.35177340743899249 0.041174274863552227 0 0.35764927811866332 0.056174424747782011 0 0.35177340743899249 0.041174274863552227 0 0.36301517619580592 0.03000435736854435 0 0.3464237312185382 0.026122192295984521 0 0.35177340743899249 0.041174274863552227 0 0.3464237312185382 0.026122192295984521 0 0.33689171266571338 0.039118364164351389 0 0.35177340743899249 0.041174274863552227 0 0.3427998494356741 0.05371431744985522 0 0.33689171266571338 0.039118364164351389 0 0.34742318214483542 0.070751527892643648 0 0.35764927811866332 0.056174424747782011 0 0.3427998494356741 0.05371431744985522 0 0.35177340743899249 0.041174274863552227 0 0.35764927811866332 0.056174424747782011 0 0.3427998494356741 0.05371431744985522 0 0.35988909281773518 0.012565476858028991 0 0.37756801179460708 0.0077458342357824856 0 0.36806179696710029 -0.00038801838553694109 0 0.35988909281773518 0.012565476858028991 0 0.37756801179460708 0.0077458342357824856 0 0.37786381651360662 0.021152962711322418 0 0.35988909281773518 0.012565476858028991 0 0.36806179696710029 -0.00038801838553694109 0 0.35260341344835128 -0.0038356075645182711 0 0.35988909281773518 0.012565476858028991 0 0.36301517619580592 0.03000435736854435 0 0.37786381651360662 0.021152962711322418 0 0.36301517619580592 0.03000435736854435 0 0.37786381651360662 0.021152962711322418 0 0.37808648580134668 0.037092345855213503 0 0.35988909281773518 0.012565476858028991 0 0.3464237312185382 0.026122192295984521 0 0.33550393927212518 0.010577043520956951 0 0.35988909281773518 0.012565476858028991 0 0.36301517619580592 0.03000435736854435 0 0.3464237312185382 0.026122192295984521 0 0.35988909281773518 0.012565476858028991 0 0.33550393927212518 0.010577043520956951 0 0.35260341344835128 -0.0038356075645182711 0 0.33550393927212518 0.010577043520956951 0 0.35260341344835128 -0.0038356075645182711 0 0.33498944517944268 -0.006235157252073421 0 0.33550393927212518 0.010577043520956951 0 0.32407528329665392 0.0092392975904939025 0 0.33498944517944268 -0.006235157252073421 0 0.3464237312185382 0.026122192295984521 0 0.33550393927212518 0.010577043520956951 0 0.33007227159598163 0.025917038067266761 0 0.3464237312185382 0.026122192295984521 0 0.33007227159598163 0.025917038067266761 0 0.33689171266571338 0.039118364164351389 0 0.33550393927212518 0.010577043520956951 0 0.33007227159598163 0.025917038067266761 0 0.32185473606834092 0.01829353813322138 0 0.33007227159598163 0.025917038067266761 0 0.3194882901944604 0.027403938412203819 0 0.32185473606834092 0.01829353813322138 0 0.33007227159598163 0.025917038067266761 0 0.3194882901944604 0.027403938412203819 0 0.32153115186903197 0.037092380920511113 0 0.3194882901944604 0.027403938412203819 0 0.31321913844641242 0.021209802561819209 0 0.30998363344643259 0.02930093885020376 0 0.3194882901944604 0.027403938412203819 0 0.31321913844641242 0.021209802561819209 0 0.32185473606834092 0.01829353813322138 0 0.31321913844641242 0.021209802561819209 0 0.32185473606834092 0.01829353813322138 0 0.31498790364983292 0.014977649378025549 0 0.32407528329665392 0.0092392975904939025 0 0.3130403923135277 0.0085834141723390503 0 0.33498944517944268 -0.006235157252073421 0 0.3130403923135277 0.0085834141723390503 0 0.33498944517944268 -0.006235157252073421 0 0.33550393927212518 0.010577043520956951 0 0.32185473606834092 0.01829353813322138 0 0.32407528329665392 0.0092392975904939025 0 0.32185473606834092 0.01829353813322138 0 0.32407528329665392 0.0092392975904939025 0 0.31498790364983292 0.014977649378025549 0 0.32407528329665392 0.0092392975904939025 0 0.31498790364983292 0.014977649378025549 0 0.3130403923135277 0.0085834141723390503 0 0.33363934111646132 0.064426394771189638 0 0.32874986443606219 0.050689981388938522 0 0.3427998494356741 0.05371431744985522 0 0.32874986443606219 0.050689981388938522 0 0.3427998494356741 0.05371431744985522 0 0.33689171266571338 0.039118364164351389 0 0.33007227159598163 0.025917038067266761 0 0.33689171266571338 0.039118364164351389 0 0.32153115186903197 0.037092380920511113 0 0.32874986443606219 0.050689981388938522 0 0.33689171266571338 0.039118364164351389 0 0.32153115186903197 0.037092380920511113 0 0.32874986443606219 0.050689981388938522 0 0.32153115186903197 0.037092380920511113 0 0.31622638493270572 0.051554668928202478 0 0.3194882901944604 0.027403938412203819 0 0.32153115186903197 0.037092380920511113 0 0.30998363344643259 0.02930093885020376 0 0.32153115186903197 0.037092380920511113 0 0.30753911336208128 0.041019106960371289 0 0.30998363344643259 0.02930093885020376 0 0.32153115186903197 0.037092380920511113 0 0.31622638493270572 0.051554668928202478 0 0.30753911336208128 0.041019106960371289 0 0.33363934111646132 0.064426394771189638 0 0.31791616946304763 0.065873432435573281 0 0.32874986443606219 0.050689981388938522 0 0.31791616946304763 0.065873432435573281 0 0.32874986443606219 0.050689981388938522 0 0.31622638493270572 0.051554668928202478 0 0.31622638493270572 0.051554668928202478 0 0.30753911336208128 0.041019106960371289 0 0.29606245815628429 0.059241440375754011 0 0.30753911336208128 0.041019106960371289 0 0.28850193234200699 0.042711084480433037 0 0.29606245815628429 0.059241440375754011 0 0.31791616946304763 0.065873432435573281 0 0.31622638493270572 0.051554668928202478 0 0.29606245815628429 0.059241440375754011 0 0.30753911336208128 0.041019106960371289 0 0.28850193234200699 0.042711084480433037 0 0.29562250261961631 0.027937772117173298 0 0.30753911336208128 0.041019106960371289 0 0.30998363344643259 0.02930093885020376 0 0.29562250261961631 0.027937772117173298 0 0.28850193234200699 0.042711084480433037 0 0.29562250261961631 0.027937772117173298 0 0.2697692789696311 0.02898070699747134 0 0.28850193234200699 0.042711084480433037 0 0.29606245815628429 0.059241440375754011 0 0.27351630860242221 0.056376395951395243 0 0.3083051088969424 0.01511656864027826 0 0.29536512458139053 0.0076741264440699708 0 0.29779921955959221 -0.007478193369837495 0 0.3130403923135277 0.0085834141723390503 0 0.3083051088969424 0.01511656864027826 0 0.29779921955959221 -0.007478193369837495 0 0.3083051088969424 0.01511656864027826 0 0.29779921955959221 -0.007478193369837495 0 0.31498790364983292 0.014977649378025549 0 0.3130403923135277 0.0085834141723390503 0 0.3083051088969424 0.01511656864027826 0 0.3083051088969424 0.01511656864027826 0 0.2977931049093942 0.01741840127409746 0 0.29536512458139053 0.0076741264440699708 0 0.3083051088969424 0.01511656864027826 0 0.2977931049093942 0.01741840127409746 0 0.30469515842246508 0.022166181956982469 0 0.2977931049093942 0.01741840127409746 0 0.30469515842246508 0.022166181956982469 0 0.29562250261961631 0.027937772117173298 0 0.31321913844641242 0.021209802561819209 0 0.3083051088969424 0.01511656864027826 0 0.30469515842246508 0.022166181956982469 0 0.31321913844641242 0.021209802561819209 0 0.31498790364983292 0.014977649378025549 0 0.3083051088969424 0.01511656864027826 0 0.31321913844641242 0.021209802561819209 0 0.30469515842246508 0.022166181956982469 0 0.30998363344643259 0.02930093885020376 0 0.30469515842246508 0.022166181956982469 0 0.30998363344643259 0.02930093885020376 0 0.29562250261961631 0.027937772117173298 0 0.29562250261961631 0.027937772117173298 0 0.28567388055396781 0.01369664312091733 0 0.2697692789696311 0.02898070699747134 0 0.2977931049093942 0.01741840127409746 0 0.29562250261961631 0.027937772117173298 0 0.28567388055396781 0.01369664312091733 0 0.2977931049093942 0.01741840127409746 0 0.28567388055396781 0.01369664312091733 0 0.29536512458139053 0.0076741264440699708 0 0.28567388055396781 0.01369664312091733 0 0.29536512458139053 0.0076741264440699708 0 0.28793788127773418 -0.00033153511801853059 0 0.26602224933683999 0.001585018043547347 0 0.2697692789696311 0.02898070699747134 0 0.28567388055396781 0.01369664312091733 0 0.26602224933683999 0.001585018043547347 0 0.2697692789696311 0.02898070699747134 0 0.28567388055396781 0.01369664312091733 0 0.26602224933683999 0.001585018043547347 0 0.28793788127773418 -0.00033153511801853059 0 0.26602224933683999 0.001585018043547347 0 0.2697692789696311 0.02898070699747134 0 0.25017114714460148 0.027935038219416852 0 0.2364155492444879 0.01524344595638903 0 0.26602224933683999 0.001585018043547347 0 0.25017114714460148 0.027935038219416852 0 0.2697692789696311 0.02898070699747134 0 0.27351630860242221 0.056376395951395243 0 0.28850193234200699 0.042711084480433037 0 0.2697692789696311 0.02898070699747134 0 0.27351630860242221 0.056376395951395243 0 0.2697692789696311 0.02898070699747134 0 0.27351630860242221 0.056376395951395243 0 0.25321812939551791 0.047923410168883913 0 0.2697692789696311 0.02898070699747134 0 0.25017114714460148 0.027935038219416852 0 0.25321812939551791 0.047923410168883913 0 0.27351630860242221 0.056376395951395243 0 0.25321812939551791 0.047923410168883913 0 0.2597230623993938 0.071244248960884382 0 0.24157985373237181 0.065308505426636604 0 0.25321812939551791 0.047923410168883913 0 0.2597230623993938 0.071244248960884382 0 0.24961943104058359 0.082745550991682973 0 0.24157985373237181 0.065308505426636604 0 0.2597230623993938 0.071244248960884382 0 0.24291795956137399 0.1022484570291577 0 0.24961943104058359 0.082745550991682973 0 0.26256401039768951 0.092290226504978173 0 0.24961943104058359 0.082745550991682973 0 0.2597230623993938 0.071244248960884382 0 0.26256401039768951 0.092290226504978173 0 0.2597230623993938 0.071244248960884382 0 0.26256401039768951 0.092290226504978173 0 0.27726333823521332 0.083772084905319066 0 0.27351630860242221 0.056376395951395243 0 0.27726333823521332 0.083772084905319066 0 0.27351630860242221 0.056376395951395243 0 0.2597230623993938 0.071244248960884382 0 0.27726333823521332 0.083772084905319066 0 0.29606245815628429 0.059241440375754011 0 0.27351630860242221 0.056376395951395243 0 0.27726333823521332 0.083772084905319066 0 0.29606245815628429 0.059241440375754011 0 0.27726333823521332 0.083772084905319066 0 0.30217005895881038 0.078455234603410418 0 0.27726333823521332 0.083772084905319066 0 0.30217005895881038 0.078455234603410418 0 0.29432603782487909 0.095302327929111239 0 0.30217005895881038 0.078455234603410418 0 0.30976515849892922 0.093499887985373134 0 0.29432603782487909 0.095302327929111239 0 0.31653443917005869 0.081134038689128773 0 0.30217005895881038 0.078455234603410418 0 0.30976515849892922 0.093499887985373134 0 0.31791616946304763 0.065873432435573281 0 0.29606245815628429 0.059241440375754011 0 0.30217005895881038 0.078455234603410418 0 0.31791616946304763 0.065873432435573281 0 0.31653443917005869 0.081134038689128773 0 0.30217005895881038 0.078455234603410418 0 0.30142126556343812 0.10961665829221071 0 0.30305135274880812 0.12356219707009899 0 0.29165241567210581 0.1213918845042056 0 0.31620906144234068 0.1208067496385241 0 0.30142126556343812 0.10961665829221071 0 0.30305135274880812 0.12356219707009899 0 0.30976515849892922 0.093499887985373134 0 0.30142126556343812 0.10961665829221071 0 0.29432603782487909 0.095302327929111239 0 0.32039246687030049 0.1063914000176491 0 0.30976515849892922 0.093499887985373134 0 0.30142126556343812 0.10961665829221071 0 0.27726333823521332 0.083772084905319066 0 0.29432603782487909 0.095302327929111239 0 0.28101036786800432 0.1111677738592429 0 0.30142126556343812 0.10961665829221071 0 0.29432603782487909 0.095302327929111239 0 0.28101036786800432 0.1111677738592429 0 0.29165241567210581 0.1213918845042056 0 0.28101036786800432 0.1111677738592429 0 0.27953702252087331 0.1279177717799545 0 0.30142126556343812 0.10961665829221071 0 0.29165241567210581 0.1213918845042056 0 0.28101036786800432 0.1111677738592429 0 0.28101036786800432 0.1111677738592429 0 0.26972383412301482 0.1186147972582859 0 0.27953702252087331 0.1279177717799545 0 0.28101036786800432 0.1111677738592429 0 0.26972383412301482 0.1186147972582859 0 0.2615246380443953 0.1080391611410584 0 0.26972383412301482 0.1186147972582859 0 0.2588486672835914 0.12665063870130761 0 0.27953702252087331 0.1279177717799545 0 0.26256401039768951 0.092290226504978173 0 0.27726333823521332 0.083772084905319066 0 0.28101036786800432 0.1111677738592429 0 0.27726333823521332 0.083772084905319066 0 0.28101036786800432 0.1111677738592429 0 0.26256401039768951 0.092290226504978173 0 0.28101036786800432 0.1111677738592429 0 0.2615246380443953 0.1080391611410584 0 0.24840820095022001 0.11440693261336581 0 0.24291795956137399 0.1022484570291577 0 0.2615246380443953 0.1080391611410584 0 0.24291795956137399 0.1022484570291577 0 0.26256401039768951 0.092290226504978173 0 0.2615246380443953 0.1080391611410584 0 0.26972383412301482 0.1186147972582859 0 0.26007931946365759 0.116939340448952 0 0.2588486672835914 0.12665063870130761 0 0.26972383412301482 0.1186147972582859 0 0.2615246380443953 0.1080391611410584 0 0.26007931946365759 0.116939340448952 0 0.24840820095022001 0.11440693261336581 0 0.2615246380443953 0.1080391611410584 0 0.26007931946365759 0.116939340448952 0 0.26007931946365759 0.116939340448952 0 0.25137412493594458 0.12084510434657129 0 0.2588486672835914 0.12665063870130761 0 0.24840820095022001 0.11440693261336581 0 0.26007931946365759 0.116939340448952 0 0.25137412493594458 0.12084510434657129 0 0.23816031204630961 0.1253835056226604 0 0.25334673813920622 0.128808389421004 0 0.2588486672835914 0.12665063870130761 0 0.2477059442553762 0.13254331619474599 0 0.25334673813920622 0.128808389421004 0 0.25214324428892337 0.13609380042926811 0 0.25214324428892337 0.13609380042926811 0 0.25952207357465201 0.1375155448908022 0 0.25389438544166032 0.14621631020051851 0 0.25334673813920622 0.128808389421004 0 0.25214324428892337 0.13609380042926811 0 0.25952207357465201 0.1375155448908022 0 0.245148776391031 0.13846087242486829 0 0.25214324428892337 0.13609380042926811 0 0.25389438544166032 0.14621631020051851 0 0.25952207357465201 0.1375155448908022 0 0.26853316423210277 0.13223327321934791 0 0.2683631416569216 0.1433585597360171 0 0.25334673813920622 0.128808389421004 0 0.25952207357465201 0.1375155448908022 0 0.26853316423210277 0.13223327321934791 0 0.25334673813920622 0.128808389421004 0 0.2588486672835914 0.12665063870130761 0 0.26853316423210277 0.13223327321934791 0 0.25334673813920622 0.128808389421004 0 0.26853316423210277 0.13223327321934791 0 0.2588486672835914 0.12665063870130761 0 0.26853316423210277 0.13223327321934791 0 0.27953702252087331 0.1279177717799545 0 0.2588486672835914 0.12665063870130761 0 0.27953702252087331 0.1279177717799545 0 0.26853316423210277 0.13223327321934791 0 0.27688776081229849 0.1373493813198815 0 0.2683631416569216 0.1433585597360171 0 0.27688776081229849 0.1373493813198815 0 0.27953702252087331 0.1279177717799545 0 0.28697265377983089 0.1371647178409881 0 0.26853316423210277 0.13223327321934791 0 0.27688776081229849 0.1373493813198815 0 0.27953702252087331 0.1279177717799545 0 0.28110271231692652 0.14809685289469929 0 0.2683631416569216 0.1433585597360171 0 0.26500009092015658 0.15700177639279919 0 0.27688776081229849 0.1373493813198815 0 0.28110271231692652 0.14809685289469929 0 0.2683631416569216 0.1433585597360171 0 0.2683631416569216 0.1433585597360171 0 0.25389438544166032 0.14621631020051851 0 0.26500009092015658 0.15700177639279919 0 0.24799445479753701 0.16393354422487799 0 0.25389438544166032 0.14621631020051851 0 0.26500009092015658 0.15700177639279919 0 0.25952207357465201 0.1375155448908022 0 0.2683631416569216 0.1433585597360171 0 0.25389438544166032 0.14621631020051851 0 0.24799445479753701 0.16393354422487799 0 0.26500009092015658 0.15700177639279919 0 0.26197069337401652 0.17449561494221569 0 0.24865668826696641 0.1784961764540462 0 0.26197069337401652 0.17449561494221569 0 0.25327692367436438 0.19184118522532931 0 0.26197069337401652 0.17449561494221569 0 0.25327692367436438 0.19184118522532931 0 0.2707388870247604 0.18993419681884591 0 0.24865668826696641 0.1784961764540462 0 0.24799445479753701 0.16393354422487799 0 0.26197069337401652 0.17449561494221569 0 0.26197069337401652 0.17449561494221569 0 0.27404023302701291 0.1780197720593536 0 0.2707388870247604 0.18993419681884591 0 0.26197069337401652 0.17449561494221569 0 0.27404023302701291 0.1780197720593536 0 0.27667515793387781 0.16590977635846649 0 0.27404023302701291 0.1780197720593536 0 0.27667515793387781 0.16590977635846649 0 0.28609485047613648 0.1810555946227714 0 0.27404023302701291 0.1780197720593536 0 0.28609485047613648 0.1810555946227714 0 0.2707388870247604 0.18993419681884591 0 0.26500009092015658 0.15700177639279919 0 0.26197069337401652 0.17449561494221569 0 0.27667515793387781 0.16590977635846649 0 0.28110271231692652 0.14809685289469929 0 0.26500009092015658 0.15700177639279919 0 0.27667515793387781 0.16590977635846649 0 0.28808068641212109 0.15760724093592929 0 0.29491923247115681 0.16738313191354259 0 0.29962564292652349 0.14903920257700889 0 0.27667515793387781 0.16590977635846649 0 0.29491923247115681 0.16738313191354259 0 0.28609485047613648 0.1810555946227714 0 0.27667515793387781 0.16590977635846649 0 0.28808068641212109 0.15760724093592929 0 0.29491923247115681 0.16738313191354259 0 0.28110271231692652 0.14809685289469929 0 0.27667515793387781 0.16590977635846649 0 0.28808068641212109 0.15760724093592929 0 0.29491923247115681 0.16738313191354259 0 0.28609485047613648 0.1810555946227714 0 0.29872926759360269 0.18052558796777041 0 0.28609485047613648 0.1810555946227714 0 0.29872926759360269 0.18052558796777041 0 0.29782411653472179 0.19338927701948189 0 0.29491923247115681 0.16738313191354259 0 0.29872926759360269 0.18052558796777041 0 0.31068923881431482 0.1750297450973764 0 0.29872926759360269 0.18052558796777041 0 0.30870614132288632 0.18719904488028721 0 0.29782411653472179 0.19338927701948189 0 0.29872926759360269 0.18052558796777041 0 0.31068923881431482 0.1750297450973764 0 0.30870614132288632 0.18719904488028721 0 0.29491923247115681 0.16738313191354259 0 0.31068923881431482 0.1750297450973764 0 0.31510810510818171 0.16007082843444051 0 0.29491923247115681 0.16738313191354259 0 0.29962564292652349 0.14903920257700889 0 0.31510810510818171 0.16007082843444051 0 0.29962564292652349 0.14903920257700889 0 0.31874595690188778 0.14580740351808091 0 0.31510810510818171 0.16007082843444051 0 0.29962564292652349 0.14903920257700889 0 0.31049869669876812 0.13448771667188339 0 0.31874595690188778 0.14580740351808091 0 0.29962564292652349 0.14903920257700889 0 0.31049869669876812 0.13448771667188339 0 0.29796870303508388 0.13324494980562551 0 0.31620906144234068 0.1208067496385241 0 0.30305135274880812 0.12356219707009899 0 0.31049869669876812 0.13448771667188339 0 0.30305135274880812 0.12356219707009899 0 0.31049869669876812 0.13448771667188339 0 0.29796870303508388 0.13324494980562551 0 0.30305135274880812 0.12356219707009899 0 0.29165241567210581 0.1213918845042056 0 0.29796870303508388 0.13324494980562551 0 0.29165241567210581 0.1213918845042056 0 0.27953702252087331 0.1279177717799545 0 0.28697265377983089 0.1371647178409881 0 0.29962564292652349 0.14903920257700889 0 0.29796870303508388 0.13324494980562551 0 0.28697265377983089 0.1371647178409881 0 0.29165241567210581 0.1213918845042056 0 0.29796870303508388 0.13324494980562551 0 0.28697265377983089 0.1371647178409881 0 0.28110271231692652 0.14809685289469929 0 0.28808068641212109 0.15760724093592929 0 0.29962564292652349 0.14903920257700889 0 0.27688776081229849 0.1373493813198815 0 0.28110271231692652 0.14809685289469929 0 0.28697265377983089 0.1371647178409881 0 0.28110271231692652 0.14809685289469929 0 0.29962564292652349 0.14903920257700889 0 0.28697265377983089 0.1371647178409881 0 0.27956511278934149 0.23597797564195669 0 0.26007206654130183 0.24598283735499671 0 0.26478464155997739 0.2226292845221382 0 0.27389458339419342 0.25786475014875337 0 0.27956511278934149 0.23597797564195669 0 0.26007206654130183 0.24598283735499671 0 0.24928818712813069 0.22177134864970191 0 0.24771278979313671 0.23449037935316691 0 0.26478464155997739 0.2226292845221382 0 0.24771278979313671 0.23449037935316691 0 0.26007206654130183 0.24598283735499671 0 0.26478464155997739 0.2226292845221382 0 0.27956511278934149 0.23597797564195669 0 0.26478464155997739 0.2226292845221382 0 0.29034935467025119 0.22224304400579281 0 0.26478464155997739 0.2226292845221382 0 0.27684276802354729 0.20628869571017849 0 0.26296345339643901 0.20439806405687749 0 0.26478464155997739 0.2226292845221382 0 0.27684276802354729 0.20628869571017849 0 0.29034935467025119 0.22224304400579281 0 0.26478464155997739 0.2226292845221382 0 0.26296345339643901 0.20439806405687749 0 0.25053223063961699 0.209180953877251 0 0.24928818712813069 0.22177134864970191 0 0.26478464155997739 0.2226292845221382 0 0.25053223063961699 0.209180953877251 0 0.26296345339643901 0.20439806405687749 0 0.25053223063961699 0.209180953877251 0 0.25327692367436438 0.19184118522532931 0 0.26296345339643901 0.20439806405687749 0 0.25327692367436438 0.19184118522532931 0 0.2707388870247604 0.18993419681884591 0 0.27684276802354729 0.20628869571017849 0 0.26296345339643901 0.20439806405687749 0 0.2707388870247604 0.18993419681884591 0 0.27684276802354729 0.20628869571017849 0 0.2707388870247604 0.18993419681884591 0 0.2842174495378626 0.1950855661952228 0 0.28609485047613648 0.1810555946227714 0 0.2707388870247604 0.18993419681884591 0 0.2842174495378626 0.1950855661952228 0 0.27684276802354729 0.20628869571017849 0 0.2842174495378626 0.1950855661952228 0 0.29071791397168478 0.20570152976386599 0 0.2842174495378626 0.1950855661952228 0 0.29782411653472179 0.19338927701948189 0 0.29071791397168478 0.20570152976386599 0 0.28609485047613648 0.1810555946227714 0 0.2842174495378626 0.1950855661952228 0 0.29782411653472179 0.19338927701948189 0 0.29782411653472179 0.19338927701948189 0 0.30372728722375658 0.21216022955194699 0 0.31372965661698848 0.19938817771568509 0 0.30870614132288632 0.18719904488028721 0 0.29782411653472179 0.19338927701948189 0 0.31372965661698848 0.19938817771568509 0 0.29782411653472179 0.19338927701948189 0 0.30372728722375658 0.21216022955194699 0 0.29071791397168478 0.20570152976386599 0 0.30372728722375658 0.21216022955194699 0 0.29071791397168478 0.20570152976386599 0 0.29034935467025119 0.22224304400579281 0 0.27684276802354729 0.20628869571017849 0 0.29071791397168478 0.20570152976386599 0 0.29034935467025119 0.22224304400579281 0 0.27956511278934149 0.23597797564195669 0 0.29034935467025119 0.22224304400579281 0 0.30579885396124701 0.23445551455596261 0 0.30372728722375658 0.21216022955194699 0 0.30579885396124701 0.23445551455596261 0 0.32054558946373918 0.21740736522436729 0 0.30372728722375658 0.21216022955194699 0 0.29034935467025119 0.22224304400579281 0 0.30579885396124701 0.23445551455596261 0 0.30848474276947119 0.26298195610867708 0 0.30579885396124701 0.23445551455596261 0 0.32147440974595892 0.24742096830902921 0 0.29124522116601248 0.25035399812975961 0 0.30848474276947119 0.26298195610867708 0 0.30579885396124701 0.23445551455596261 0 0.27389458339419342 0.25786475014875337 0 0.29124522116601248 0.25035399812975961 0 0.27956511278934149 0.23597797564195669 0 0.27956511278934149 0.23597797564195669 0 0.30579885396124701 0.23445551455596261 0 0.29124522116601248 0.25035399812975961 0 0.27956511278934149 0.23597797564195669 0 0.30579885396124701 0.23445551455596261 0 0.33578124644895652 0.24683856264327361 0 0.33203259513315242 0.2329330534699684 0 0.34851963586995932 0.2395940229528111 0 0.34541988725501049 0.25334391406492363 0 0.33578124644895652 0.24683856264327361 0 0.34851963586995932 0.2395940229528111 0 0.33578124644895652 0.24683856264327361 0 0.32147440974595892 0.24742096830902921 0 0.33203259513315242 0.2329330534699684 0 0.30579885396124701 0.23445551455596261 0 0.32147440974595892 0.24742096830902921 0 0.33203259513315242 0.2329330534699684 0 0.30579885396124701 0.23445551455596261 0 0.33203259513315242 0.2329330534699684 0 0.30579885396124701 0.23445551455596261 0 0.33203259513315242 0.2329330534699684 0 0.32054558946373918 0.21740736522436729 0 0.33717522202759292 0.22119576502167981 0 0.33203259513315242 0.2329330534699684 0 0.32054558946373918 0.21740736522436729 0 0.33717522202759292 0.22119576502167981 0 0.33203259513315242 0.2329330534699684 0 0.35826633630505789 0.23141059238397521 0 0.34235678705127592 0.2117703150399799 0 0.33026168003456657 0.20483893913916401 0 0.34740822163028501 0.20021953147729049 0 0.33717522202759292 0.22119576502167981 0 0.33026168003456657 0.20483893913916401 0 0.32054558946373918 0.21740736522436729 0 0.33717522202759292 0.22119576502167981 0 0.34235678705127592 0.2117703150399799 0 0.33026168003456657 0.20483893913916401 0 0.30372728722375658 0.21216022955194699 0 0.32054558946373918 0.21740736522436729 0 0.31372965661698848 0.19938817771568509 0 0.33026168003456657 0.20483893913916401 0 0.32054558946373918 0.21740736522436729 0 0.31372965661698848 0.19938817771568509 0 0.33026168003456657 0.20483893913916401 0 0.31372965661698848 0.19938817771568509 0 0.32329699037877468 0.18638276914985871 0 0.30870614132288632 0.18719904488028721 0 0.31372965661698848 0.19938817771568509 0 0.32329699037877468 0.18638276914985871 0 0.33530032769788409 0.1927633195497773 0 0.34740822163028501 0.20021953147729049 0 0.34023441874791022 0.17961203843279611 0 0.33026168003456657 0.20483893913916401 0 0.33530032769788409 0.1927633195497773 0 0.34740822163028501 0.20021953147729049 0 0.33026168003456657 0.20483893913916401 0 0.33530032769788409 0.1927633195497773 0 0.32329699037877468 0.18638276914985871 0 0.34740822163028501 0.20021953147729049 0 0.34023441874791022 0.17961203843279611 0 0.34740822163028501 0.20021953147729049 0 0.34023441874791022 0.17961203843279611 0 0.35798642278339837 0.1846651756309089 0 0.34740822163028501 0.20021953147729049 0 0.36315269958080559 0.1963278121729673 0 0.35798642278339837 0.1846651756309089 0 0.34740822163028501 0.20021953147729049 0 0.36315269958080559 0.1963278121729673 0 0.35800980925804893 0.20698734249259279 0 0.36315269958080559 0.1963278121729673 0 0.3789682501410313 0.17860641981075309 0 0.38237783048181478 0.19207444173587321 0 0.36689629130844598 0.21057500179832811 0 0.35458202451265902 0.22082702452178529 0 0.37947367421384398 0.22029972725613989 0 0.36315269958080559 0.1963278121729673 0 0.36689629130844598 0.21057500179832811 0 0.35800980925804893 0.20698734249259279 0 0.36315269958080559 0.1963278121729673 0 0.36689629130844598 0.21057500179832811 0 0.38012853541051023 0.20563792469409919 0 0.36689629130844598 0.21057500179832811 0 0.35800980925804893 0.20698734249259279 0 0.35458202451265902 0.22082702452178529 0 0.34740822163028501 0.20021953147729049 0 0.35458202451265902 0.22082702452178529 0 0.34235678705127592 0.2117703150399799 0 0.34740822163028501 0.20021953147729049 0 0.35458202451265902 0.22082702452178529 0 0.33717522202759292 0.22119576502167981 0 0.34235678705127592 0.2117703150399799 0 0.35458202451265902 0.22082702452178529 0 0.34740822163028501 0.20021953147729049 0 0.35800980925804893 0.20698734249259279 0 0.35458202451265902 0.22082702452178529 0 0.33203259513315242 0.2329330534699684 0 0.35826633630505789 0.23141059238397521 0 0.35119758361160491 0.23595881639501179 0 0.33203259513315242 0.2329330534699684 0 0.35826633630505789 0.23141059238397521 0 0.33717522202759292 0.22119576502167981 0 0.35458202451265902 0.22082702452178529 0 0.33717522202759292 0.22119576502167981 0 0.35826633630505789 0.23141059238397521 0 0.35458202451265902 0.22082702452178529 0 0.35826633630505789 0.23141059238397521 0 0.35458202451265902 0.22082702452178529 0 0.36229634954705747 0.23117671272888499 0 0.35826633630505789 0.23141059238397521 0 0.35458202451265902 0.22082702452178529 0 0.35458202451265902 0.22082702452178529 0 0.36715415338301999 0.22644246072333579 0 0.37947367421384398 0.22029972725613989 0 0.35458202451265902 0.22082702452178529 0 0.37947367421384398 0.22029972725613989 0 0.35458202451265902 0.22082702452178529 0 0.36715415338301999 0.22644246072333579 0 0.36229634954705747 0.23117671272888499 0 0.36715415338301999 0.22644246072333579 0 0.37602346114657498 0.2294008295160018 0 0.37947367421384398 0.22029972725613989 0 0.36715415338301999 0.22644246072333579 0 0.37038177664317667 0.23263509909546029 0 0.37602346114657498 0.2294008295160018 0 0.37038177664317667 0.23263509909546029 0 0.36229634954705747 0.23117671272888499 0 0.36761569919706172 0.23802400273378349 0 0.36715415338301999 0.22644246072333579 0 0.37038177664317667 0.23263509909546029 0 0.36229634954705747 0.23117671272888499 0 0.35826633630505789 0.23141059238397521 0 0.36229634954705747 0.23117671272888499 0 0.36761569919706172 0.23802400273378349 0 0.35826633630505789 0.23141059238397521 0 0.36229634954705747 0.23117671272888499 0 0.35826633630505789 0.23141059238397521 0 0.36761569919706172 0.23802400273378349 0 0.3637720744356403 0.24722639637122271 0 0.35826633630505789 0.23141059238397521 0 0.3637720744356403 0.24722639637122271 0 0.35711495642644231 0.24114265799793599 0 0.35826633630505789 0.23141059238397521 0 0.3637720744356403 0.24722639637122271 0 0.36761569919706172 0.23802400273378349 0 0.37390972291710922 0.2473738802106851 0 0.37931095130113679 0.23828120046656709 0 0.37038177664317667 0.23263509909546029 0 0.36761569919706172 0.23802400273378349 0 0.37931095130113679 0.23828120046656709 0 0.36761569919706172 0.23802400273378349 0 0.37390972291710922 0.2473738802106851 0 0.3637720744356403 0.24722639637122271 0 0.35919760034078768 0.25488576680956188 0 0.3637720744356403 0.24722639637122271 0 0.35711495642644231 0.24114265799793599 0 0.35919760034078768 0.25488576680956188 0 0.35711495642644231 0.24114265799793599 0 0.34851963586995932 0.2395940229528111 0 0.33203259513315242 0.2329330534699684 0 0.34851963586995932 0.2395940229528111 0 0.35119758361160491 0.23595881639501179 0 0.35919760034078768 0.25488576680956188 0 0.34851963586995932 0.2395940229528111 0 0.35711495642644231 0.24114265799793599 0 0.34851963586995932 0.2395940229528111 0 0.35119758361160491 0.23595881639501179 0 0.35826633630505789 0.23141059238397521 0 0.35711495642644231 0.24114265799793599 0 0.35119758361160491 0.23595881639501179 0 0.35919760034078768 0.25488576680956188 0 0.34541988725501049 0.25334391406492363 0 0.34851963586995932 0.2395940229528111 0 0.33109727175376569 0.13483498039444691 0 0.33306061586553543 0.1590045453883015 0 0.34903189455999112 0.14752159286534011 0 0.332238289802742 0.1174346697997587 0 0.33109727175376569 0.13483498039444691 0 0.34785110977579681 0.12869357301322859 0 0.33109727175376569 0.13483498039444691 0 0.34903189455999112 0.14752159286534011 0 0.34785110977579681 0.12869357301322859 0 0.31049869669876812 0.13448771667188339 0 0.33109727175376569 0.13483498039444691 0 0.31874595690188778 0.14580740351808091 0 0.31620906144234068 0.1208067496385241 0 0.31049869669876812 0.13448771667188339 0 0.33109727175376569 0.13483498039444691 0 0.33109727175376569 0.13483498039444691 0 0.31874595690188778 0.14580740351808091 0 0.33306061586553543 0.1590045453883015 0 0.31874595690188778 0.14580740351808091 0 0.31510810510818171 0.16007082843444051 0 0.33306061586553543 0.1590045453883015 0 0.31510810510818171 0.16007082843444051 0 0.32281288309490158 0.17146456593948531 0 0.33306061586553543 0.1590045453883015 0 0.31068923881431482 0.1750297450973764 0 0.31510810510818171 0.16007082843444051 0 0.32281288309490158 0.17146456593948531 0 0.31068923881431482 0.1750297450973764 0 0.30870614132288632 0.18719904488028721 0 0.32329699037877468 0.18638276914985871 0 0.31068923881431482 0.1750297450973764 0 0.32281288309490158 0.17146456593948531 0 0.32329699037877468 0.18638276914985871 0 0.33530032769788409 0.1927633195497773 0 0.32329699037877468 0.18638276914985871 0 0.34023441874791022 0.17961203843279611 0 0.32281288309490158 0.17146456593948531 0 0.32329699037877468 0.18638276914985871 0 0.34023441874791022 0.17961203843279611 0 0.34023441874791022 0.17961203843279611 0 0.33306061586553543 0.1590045453883015 0 0.34664607566629091 0.16353767996749211 0 0.32281288309490158 0.17146456593948531 0 0.34023441874791022 0.17961203843279611 0 0.33306061586553543 0.1590045453883015 0 0.34023441874791022 0.17961203843279611 0 0.33306061586553543 0.1590045453883015 0 0.33306061586553543 0.1590045453883015 0 0.34664607566629091 0.16353767996749211 0 0.34903189455999112 0.14752159286534011 0 0.34664607566629091 0.16353767996749211 0 0.35936370045079502 0.1618364107977712 0 0.34903189455999112 0.14752159286534011 0 0.35936370045079502 0.1618364107977712 0 0.35378485128080772 0.17270792758645651 0 0.36428996142675912 0.17296768678462529 0 0.34664607566629091 0.16353767996749211 0 0.35936370045079502 0.1618364107977712 0 0.35378485128080772 0.17270792758645651 0 0.34023441874791022 0.17961203843279611 0 0.35378485128080772 0.17270792758645651 0 0.35798642278339837 0.1846651756309089 0 0.34023441874791022 0.17961203843279611 0 0.34664607566629091 0.16353767996749211 0 0.35378485128080772 0.17270792758645651 0 0.35378485128080772 0.17270792758645651 0 0.35798642278339837 0.1846651756309089 0 0.36428996142675912 0.17296768678462529 0 0.36315269958080559 0.1963278121729673 0 0.37023101855946572 0.18096566877748521 0 0.3789682501410313 0.17860641981075309 0 0.36315269958080559 0.1963278121729673 0 0.3789682501410313 0.17860641981075309 0 0.36315269958080559 0.1963278121729673 0 0.35798642278339837 0.1846651756309089 0 0.37023101855946572 0.18096566877748521 0 0.35798642278339837 0.1846651756309089 0 0.36428996142675912 0.17296768678462529 0 0.37023101855946572 0.18096566877748521 0 0.37294344526524548 0.17307460322345999 0 0.37023101855946572 0.18096566877748521 0 0.3789682501410313 0.17860641981075309 0 0.36428996142675912 0.17296768678462529 0 0.37294344526524548 0.17307460322345999 0 0.37023101855946572 0.18096566877748521 0 0.37023101855946572 0.18096566877748521 0 0.3789682501410313 0.17860641981075309 0 0.35936370045079502 0.1618364107977712 0 0.37143033022084221 0.16455633469166969 0 0.36903666071003671 0.1502464038168172 0 0.35936370045079502 0.1618364107977712 0 0.36428996142675912 0.17296768678462529 0 0.37143033022084221 0.16455633469166969 0 0.36428996142675912 0.17296768678462529 0 0.37294344526524548 0.17307460322345999 0 0.37143033022084221 0.16455633469166969 0 0.37294344526524548 0.17307460322345999 0 0.37143033022084221 0.16455633469166969 0 0.37988578887213142 0.1666854360682414 0 0.37143033022084221 0.16455633469166969 0 0.36903666071003671 0.1502464038168172 0 0.38116885613204832 0.15580844791011589 0 0.36903666071003671 0.1502464038168172 0 0.34903189455999112 0.14752159286534011 0 0.36572929324651332 0.1320594642229149 0 0.35936370045079502 0.1618364107977712 0 0.36903666071003671 0.1502464038168172 0 0.34903189455999112 0.14752159286534011 0 0.34903189455999112 0.14752159286534011 0 0.34785110977579681 0.12869357301322859 0 0.36572929324651332 0.1320594642229149 0 0.36903666071003671 0.1502464038168172 0 0.36572929324651332 0.1320594642229149 0 0.38651546400664027 0.13534731401526309 0 0.37457884466264257 0.11465160156173169 0 0.36572929324651332 0.1320594642229149 0 0.38651546400664027 0.13534731401526309 0 0.38651546400664027 0.13534731401526309 0 0.41083932134662748 0.1428947475747695 0 0.40654670959268202 0.12302498878555169 0 0.39137073736026579 0.14901267715693059 0 0.39490378574382962 0.16075058369276149 0 0.41083932134662748 0.1428947475747695 0 0.38651546400664027 0.13534731401526309 0 0.39137073736026579 0.14901267715693059 0 0.41083932134662748 0.1428947475747695 0 0.39490378574382962 0.16075058369276149 0 0.41083932134662748 0.1428947475747695 0 0.39490378574382962 0.16075058369276149 0 0.41065062964564342 0.15876514333886321 0 0.41083932134662748 0.1428947475747695 0 0.38651546400664027 0.13534731401526309 0 0.39137073736026579 0.14901267715693059 0 0.38116885613204832 0.15580844791011589 0 0.39137073736026579 0.14901267715693059 0 0.38116885613204832 0.15580844791011589 0 0.39490378574382962 0.16075058369276149 0 0.36903666071003671 0.1502464038168172 0 0.38651546400664027 0.13534731401526309 0 0.38116885613204832 0.15580844791011589 0 0.3789682501410313 0.17860641981075309 0 0.39490378574382962 0.16075058369276149 0 0.37143033022084221 0.16455633469166969 0 0.38116885613204832 0.15580844791011589 0 0.37988578887213142 0.1666854360682414 0 0.37988578887213142 0.1666854360682414 0 0.3789682501410313 0.17860641981075309 0 0.39490378574382962 0.16075058369276149 0 0.38116885613204832 0.15580844791011589 0 0.37988578887213142 0.1666854360682414 0 0.39490378574382962 0.16075058369276149 0 0.3789682501410313 0.17860641981075309 0 0.39004960546617451 0.1825267540515364 0 0.40234972672922131 0.1722928954447786 0 0.37294344526524548 0.17307460322345999 0 0.37988578887213142 0.1666854360682414 0 0.3789682501410313 0.17860641981075309 0 0.39004960546617451 0.1825267540515364 0 0.39650261451263069 0.18713325921474069 0 0.38237783048181478 0.19207444173587321 0 0.3789682501410313 0.17860641981075309 0 0.39004960546617451 0.1825267540515364 0 0.38237783048181478 0.19207444173587321 0 0.3789682501410313 0.17860641981075309 0 0.40234972672922131 0.1722928954447786 0 0.39004960546617451 0.1825267540515364 0 0.39650261451263069 0.18713325921474069 0 0.40234972672922131 0.1722928954447786 0 0.39650261451263069 0.18713325921474069 0 0.40234972672922131 0.1722928954447786 0 0.40977248609995898 0.18789884113245611 0 0.40234972672922131 0.1722928954447786 0 0.39490378574382962 0.16075058369276149 0 0.41065062964564342 0.15876514333886321 0 0.3789682501410313 0.17860641981075309 0 0.40234972672922131 0.1722928954447786 0 0.39490378574382962 0.16075058369276149 0 0.40234972672922131 0.1722928954447786 0 0.42573120331741132 0.1659793710788047 0 0.40234972672922131 0.1722928954447786 0 0.41065062964564342 0.15876514333886321 0 0.42573120331741132 0.1659793710788047 0 0.40234972672922131 0.1722928954447786 0 0.41945049279918928 0.18037351489627881 0 0.42573120331741132 0.1659793710788047 0 0.40234972672922131 0.1722928954447786 0 0.41945049279918928 0.18037351489627881 0 0.40977248609995898 0.18789884113245611 0 0.41945049279918928 0.18037351489627881 0 0.43439814052230552 0.18030304231771041 0 0.42500090732704948 0.19539342450764449 0 0.41945049279918928 0.18037351489627881 0 0.43439814052230552 0.18030304231771041 0 0.42573120331741132 0.1659793710788047 0 0.41065062964564342 0.15876514333886321 0 0.42573120331741132 0.1659793710788047 0 0.42947696200355462 0.1476283110175087 0 0.42573120331741132 0.1659793710788047 0 0.44911267990560177 0.1596658467128326 0 0.42573120331741132 0.1659793710788047 0 0.42947696200355462 0.1476283110175087 0 0.44911267990560177 0.1596658467128326 0 0.43439814052230552 0.18030304231771041 0 0.42573120331741132 0.1659793710788047 0 0.44911267990560177 0.1596658467128326 0 0.42947696200355462 0.1476283110175087 0 0.42677485694942541 0.12503891145677751 0 0.44415540867828113 0.1320317175189295 0 0.42947696200355462 0.1476283110175087 0 0.42677485694942541 0.12503891145677751 0 0.41083932134662748 0.1428947475747695 0 0.42677485694942541 0.12503891145677751 0 0.41083932134662748 0.1428947475747695 0 0.42677485694942541 0.12503891145677751 0 0.41083932134662748 0.1428947475747695 0 0.40654670959268202 0.12302498878555169 0 0.41065062964564342 0.15876514333886321 0 0.42947696200355462 0.1476283110175087 0 0.41083932134662748 0.1428947475747695 0 0.39116114858523071 0.25672614267488458 0 0.39697154225890141 0.23652913913649901 0 0.41244673235884372 0.24327477468345751 0 0.39697154225890141 0.23652913913649901 0 0.40801359987569491 0.23166505141971849 0 0.41244673235884372 0.24327477468345751 0 0.39697154225890141 0.23652913913649901 0 0.37931095130113679 0.23828120046656709 0 0.3865314975174734 0.22945523558387251 0 0.39116114858523071 0.25672614267488458 0 0.37390972291710922 0.2473738802106851 0 0.37931095130113679 0.23828120046656709 0 0.39116114858523071 0.25672614267488458 0 0.39697154225890141 0.23652913913649901 0 0.37931095130113679 0.23828120046656709 0 0.3865314975174734 0.22945523558387251 0 0.37947367421384398 0.22029972725613989 0 0.40436532391502911 0.2197724299904944 0 0.37038177664317667 0.23263509909546029 0 0.37931095130113679 0.23828120046656709 0 0.37602346114657498 0.2294008295160018 0 0.37931095130113679 0.23828120046656709 0 0.3865314975174734 0.22945523558387251 0 0.37602346114657498 0.2294008295160018 0 0.3865314975174734 0.22945523558387251 0 0.37602346114657498 0.2294008295160018 0 0.37947367421384398 0.22029972725613989 0 0.37947367421384398 0.22029972725613989 0 0.40436532391502911 0.2197724299904944 0 0.39697154225890141 0.23652913913649901 0 0.40436532391502911 0.2197724299904944 0 0.40801359987569491 0.23166505141971849 0 0.39697154225890141 0.23652913913649901 0 0.3865314975174734 0.22945523558387251 0 0.40436532391502911 0.2197724299904944 0 0.39239058523958448 0.21133571008206969 0 0.38012853541051023 0.20563792469409919 0 0.40256472136877991 0.20051567460087191 0 0.40436532391502911 0.2197724299904944 0 0.39239058523958448 0.21133571008206969 0 0.40256472136877991 0.20051567460087191 0 0.37947367421384398 0.22029972725613989 0 0.40436532391502911 0.2197724299904944 0 0.39239058523958448 0.21133571008206969 0 0.37947367421384398 0.22029972725613989 0 0.39239058523958448 0.21133571008206969 0 0.38012853541051023 0.20563792469409919 0 0.36689629130844598 0.21057500179832811 0 0.37947367421384398 0.22029972725613989 0 0.38012853541051023 0.20563792469409919 0 0.38012853541051023 0.20563792469409919 0 0.38237783048181478 0.19207444173587321 0 0.40256472136877991 0.20051567460087191 0 0.36315269958080559 0.1963278121729673 0 0.38012853541051023 0.20563792469409919 0 0.38237783048181478 0.19207444173587321 0 0.38012853541051023 0.20563792469409919 0 0.40256472136877991 0.20051567460087191 0 0.39650261451263069 0.18713325921474069 0 0.38237783048181478 0.19207444173587321 0 0.40256472136877991 0.20051567460087191 0 0.39650261451263069 0.18713325921474069 0 0.40256472136877991 0.20051567460087191 0 0.40977248609995898 0.18789884113245611 0 0.40256472136877991 0.20051567460087191 0 0.40977248609995898 0.18789884113245611 0 0.42500090732704948 0.19539342450764449 0 0.40256472136877991 0.20051567460087191 0 0.42500090732704948 0.19539342450764449 0 0.40256472136877991 0.20051567460087191 0 0.42500090732704948 0.19539342450764449 0 0.41659275666082718 0.20919934088789829 0 0.41945049279918928 0.18037351489627881 0 0.40977248609995898 0.18789884113245611 0 0.42500090732704948 0.19539342450764449 0 0.43439814052230552 0.18030304231771041 0 0.42500090732704948 0.19539342450764449 0 0.44743709328531922 0.19027117441441721 0 0.42500090732704948 0.19539342450764449 0 0.44743709328531922 0.19027117441441721 0 0.42500090732704948 0.19539342450764449 0 0.43519982925487388 0.2045717941938206 0 0.41659275666082718 0.20919934088789829 0 0.42500090732704948 0.19539342450764449 0 0.43944528353447793 0.19880235840266169 0 0.44743709328531922 0.19027117441441721 0 0.42500090732704948 0.19539342450764449 0 0.43519982925487388 0.2045717941938206 0 0.43944528353447793 0.19880235840266169 0 0.43519982925487388 0.2045717941938206 0 0.41659275666082718 0.20919934088789829 0 0.42925697361621401 0.2192451327248488 0 0.40436532391502911 0.2197724299904944 0 0.41659275666082718 0.20919934088789829 0 0.42925697361621401 0.2192451327248488 0 0.40436532391502911 0.2197724299904944 0 0.40256472136877991 0.20051567460087191 0 0.41659275666082718 0.20919934088789829 0 0.40436532391502911 0.2197724299904944 0 0.40801359987569491 0.23166505141971849 0 0.42041082702330401 0.23080070373253719 0 0.40436532391502911 0.2197724299904944 0 0.42925697361621401 0.2192451327248488 0 0.40436532391502911 0.2197724299904944 0 0.42041082702330401 0.23080070373253719 0 0.42925697361621401 0.2192451327248488 0 0.42041082702330401 0.23080070373253719 0 0.42925697361621401 0.2192451327248488 0 0.44189792177200049 0.22819249518173401 0 0.42041082702330401 0.23080070373253719 0 0.44226130196693519 0.24367528627527099 0 0.44189792177200049 0.22819249518173401 0 0.42041082702330401 0.23080070373253719 0 0.44226130196693519 0.24367528627527099 0 0.42041082702330401 0.23080070373253719 0 0.42365365707085328 0.24969033119948791 0 0.44226130196693519 0.24367528627527099 0 0.42041082702330401 0.23080070373253719 0 0.42365365707085328 0.24969033119948791 0 0.41244673235884372 0.24327477468345751 0 0.40801359987569491 0.23166505141971849 0 0.42041082702330401 0.23080070373253719 0 0.41244673235884372 0.24327477468345751 0 0.4641117769105666 0.25654986881800468 0 0.45626990887029573 0.2329396380547363 0 0.47839994308495759 0.23214429699819669 0 0.4641117769105666 0.25654986881800468 0 0.44226130196693519 0.24367528627527099 0 0.45626990887029573 0.2329396380547363 0 0.44226130196693519 0.24367528627527099 0 0.44189792177200049 0.22819249518173401 0 0.45626990887029573 0.2329396380547363 0 0.42925697361621401 0.2192451327248488 0 0.44189792177200049 0.22819249518173401 0 0.45414862331739891 0.2187178354592032 0 0.42925697361621401 0.2192451327248488 0 0.45414862331739891 0.2187178354592032 0 0.44189792177200049 0.22819249518173401 0 0.45626990887029573 0.2329396380547363 0 0.45414862331739891 0.2187178354592032 0 0.46759487455005733 0.2167942336434053 0 0.45679988616991568 0.2183580455960086 0 0.47839994308495759 0.23214429699819669 0 0.45679988616991568 0.2183580455960086 0 0.47839994308495759 0.23214429699819669 0 0.45626990887029573 0.2329396380547363 0 0.45679988616991568 0.2183580455960086 0 0.47839994308495759 0.23214429699819669 0 0.45626990887029573 0.2329396380547363 0 0.45679988616991568 0.2183580455960086 0 0.45414862331739891 0.2187178354592032 0 0.46759487455005733 0.2167942336434053 0 0.46642222320488042 0.2076341919131395 0 0.45834071066671861 0.20905813009481369 0 0.46642222320488042 0.2076341919131395 0 0.45834071066671861 0.20905813009481369 0 0.46004047898781869 0.1955512389181952 0 0.45834071066671861 0.20905813009481369 0 0.45014330427066901 0.20497304049476481 0 0.46004047898781869 0.1955512389181952 0 0.45834071066671861 0.20905813009481369 0 0.45679988616991568 0.2183580455960086 0 0.45014330427066901 0.20497304049476481 0 0.46759487455005733 0.2167942336434053 0 0.45834071066671861 0.20905813009481369 0 0.45679988616991568 0.2183580455960086 0 0.43519982925487388 0.2045717941938206 0 0.45679988616991568 0.2183580455960086 0 0.45414862331739891 0.2187178354592032 0 0.43519982925487388 0.2045717941938206 0 0.45679988616991568 0.2183580455960086 0 0.43519982925487388 0.2045717941938206 0 0.45679988616991568 0.2183580455960086 0 0.45014330427066901 0.20497304049476481 0 0.43519982925487388 0.2045717941938206 0 0.42925697361621401 0.2192451327248488 0 0.45414862331739891 0.2187178354592032 0 0.45014330427066901 0.20497304049476481 0 0.43944528353447793 0.19880235840266169 0 0.44743709328531922 0.19027117441441721 0 0.45014330427066901 0.20497304049476481 0 0.44743709328531922 0.19027117441441721 0 0.46004047898781869 0.1955512389181952 0 0.43519982925487388 0.2045717941938206 0 0.45014330427066901 0.20497304049476481 0 0.43944528353447793 0.19880235840266169 0 0.46642222320488042 0.2076341919131395 0 0.46004047898781869 0.1955512389181952 0 0.4698732792435889 0.18514892432118979 0 0.44743709328531922 0.19027117441441721 0 0.46004047898781869 0.1955512389181952 0 0.4698732792435889 0.18514892432118979 0 0.44743709328531922 0.19027117441441721 0 0.4698732792435889 0.18514892432118979 0 0.46642222320488042 0.2076341919131395 0 0.4698732792435889 0.18514892432118979 0 0.48321111160244062 0.18473291212197371 0 0.46642222320488042 0.2076341919131395 0 0.48561074701156598 0.20362840258582829 0 0.48321111160244062 0.18473291212197371 0 0.46642222320488042 0.2076341919131395 0 0.48321111160244062 0.18473291212197371 0 0.5 0.1898646043540001 0 0.48561074701156598 0.20362840258582829 0 0.48321111160244062 0.18473291212197371 0 0.5 0.1898646043540001 0 0.5 0.2178975763771924 0 0.48561074701156598 0.20362840258582829 0 0.5 0.2178975763771924 0 0.48561074701156598 0.20362840258582829 0 0.47915014387129867 0.2159502441067854 0 0.46642222320488042 0.2076341919131395 0 0.48561074701156598 0.20362840258582829 0 0.47915014387129867 0.2159502441067854 0 0.46759487455005733 0.2167942336434053 0 0.46642222320488042 0.2076341919131395 0 0.47915014387129867 0.2159502441067854 0 0.4641117769105666 0.25654986881800468 0 0.47839994308495759 0.23214429699819669 0 0.49999999999999972 0.24593054840038461 0 0.46759487455005733 0.2167942336434053 0 0.47915014387129867 0.2159502441067854 0 0.47839994308495759 0.23214429699819669 0 0.5 0.2178975763771924 0 0.47915014387129867 0.2159502441067854 0 0.47839994308495759 0.23214429699819669 0 0.5 0.2178975763771924 0 0.47839994308495759 0.23214429699819669 0 0.49999999999999972 0.24593054840038461 0 0.47839994308495759 0.23214429699819669 0 0.49999999999999972 0.24593054840038461 0 0.46785936030903852 0.15460382152114521 0 0.45797325822306578 0.13921250109850769 0 0.47227439155793888 0.128920274469501 0 0.46785936030903852 0.15460382152114521 0 0.45797325822306578 0.13921250109850769 0 0.44911267990560177 0.1596658467128326 0 0.45797325822306578 0.13921250109850769 0 0.47227439155793888 0.128920274469501 0 0.45646445066446861 0.1208408452701302 0 0.45797325822306578 0.13921250109850769 0 0.44415540867828113 0.1320317175189295 0 0.45646445066446861 0.1208408452701302 0 0.44415540867828113 0.1320317175189295 0 0.44911267990560177 0.1596658467128326 0 0.45797325822306578 0.13921250109850769 0 0.44415540867828113 0.1320317175189295 0 0.44911267990560177 0.1596658467128326 0 0.42947696200355462 0.1476283110175087 0 0.44415540867828113 0.1320317175189295 0 0.44911267990560177 0.1596658467128326 0 0.44911267990560177 0.1596658467128326 0 0.45210987238658917 0.1763735878148586 0 0.43439814052230552 0.18030304231771041 0 0.44743709328531922 0.19027117441441721 0 0.45210987238658917 0.1763735878148586 0 0.43439814052230552 0.18030304231771041 0 0.44911267990560177 0.1596658467128326 0 0.45210987238658917 0.1763735878148586 0 0.44743709328531922 0.19027117441441721 0 0.45210987238658917 0.1763735878148586 0 0.4698732792435889 0.18514892432118979 0 0.45210987238658917 0.1763735878148586 0 0.4634051365453144 0.16858154737562461 0 0.4698732792435889 0.18514892432118979 0 0.46785936030903852 0.15460382152114521 0 0.44911267990560177 0.1596658467128326 0 0.46785936030903852 0.15460382152114521 0 0.44911267990560177 0.1596658467128326 0 0.4634051365453144 0.16858154737562461 0 0.44911267990560177 0.1596658467128326 0 0.45210987238658917 0.1763735878148586 0 0.4634051365453144 0.16858154737562461 0 0.46785936030903852 0.15460382152114521 0 0.4634051365453144 0.16858154737562461 0 0.47807049088175352 0.16711555650809659 0 0.4634051365453144 0.16858154737562461 0 0.47807049088175352 0.16711555650809659 0 0.4698732792435889 0.18514892432118979 0 0.47807049088175352 0.16711555650809659 0 0.4698732792435889 0.18514892432118979 0 0.48321111160244062 0.18473291212197371 0 0.48321111160244062 0.18473291212197371 0 0.50000000000000044 0.1618316323308078 0 0.5 0.1898646043540001 0 0.48321111160244062 0.18473291212197371 0 0.50000000000000044 0.1618316323308078 0 0.47807049088175352 0.16711555650809659 0 0.48321111160244062 0.18473291212197371 0 0.50000000000000044 0.1618316323308078 0 0.47807049088175352 0.16711555650809659 0 0.50000000000000044 0.1618316323308078 0 0.48329699359387579 0.1448700902122263 0 0.50000000000000044 0.1618316323308078 0 0.48329699359387579 0.1448700902122263 0 0.5 0.13278616309740321 0 0.46785936030903852 0.15460382152114521 0 0.48329699359387579 0.1448700902122263 0 0.47227439155793888 0.128920274469501 0 0.46785936030903852 0.15460382152114521 0 0.47807049088175352 0.16711555650809659 0 0.48329699359387579 0.1448700902122263 0 0.48329699359387579 0.1448700902122263 0 0.47227439155793888 0.128920274469501 0 0.5 0.13278616309740321 0 0.5 0.13278616309740321 0 0.5 0.1037406938639986 0 0.48141767566778121 0.11102138261823 0 0.47227439155793888 0.128920274469501 0 0.5 0.13278616309740321 0 0.48141767566778121 0.11102138261823 0 0.5 0.1037406938639986 0 0.48141767566778121 0.11102138261823 0 0.47242063211278762 0.084362302615663881 0 0.48141767566778121 0.11102138261823 0 0.47242063211278762 0.084362302615663881 0 0.46239335466817949 0.1052974790445835 0 0.47227439155793888 0.128920274469501 0 0.48141767566778121 0.11102138261823 0 0.46239335466817949 0.1052974790445835 0 0.5 0.074695224630593859 0 0.47242063211278762 0.084362302615663881 0 0.46740713043188908 0.055349091496802318 0 0.5 0.1037406938639986 0 0.5 0.074695224630593859 0 0.47242063211278762 0.084362302615663881 0 0.47242063211278762 0.084362302615663881 0 0.46740713043188908 0.055349091496802318 0 0.45300470637632928 0.080729467201739444 0 0.44236811737052018 0.05820688259723733 0 0.46740713043188908 0.055349091496802318 0 0.47242063211278762 0.084362302615663881 0 0.45300470637632928 0.080729467201739444 0 0.46740713043188908 0.055349091496802318 0 0.47242063211278762 0.084362302615663881 0 0.45300470637632928 0.080729467201739444 0 0.46239335466817949 0.1052974790445835 0 0.45300470637632928 0.080729467201739444 0 0.43919813745096031 0.10439758832502639 0 0.43424086622363961 0.076763459131123313 0 0.45300470637632928 0.080729467201739444 0 0.43424086622363961 0.076763459131123313 0 0.44236811737052018 0.05820688259723733 0 0.47227439155793888 0.128920274469501 0 0.45646445066446861 0.1208408452701302 0 0.46239335466817949 0.1052974790445835 0 0.45300470637632928 0.080729467201739444 0 0.46239335466817949 0.1052974790445835 0 0.43919813745096031 0.10439758832502639 0 0.44415540867828113 0.1320317175189295 0 0.45646445066446861 0.1208408452701302 0 0.43919813745096031 0.10439758832502639 0 0.45646445066446861 0.1208408452701302 0 0.46239335466817949 0.1052974790445835 0 0.43919813745096031 0.10439758832502639 0 0.44415540867828113 0.1320317175189295 0 0.43919813745096031 0.10439758832502639 0 0.42677485694942541 0.12503891145677751 0 0.44415540867828113 0.1320317175189295 0 0.43919813745096031 0.10439758832502639 0 0.42677485694942541 0.12503891145677751 0 0.43919813745096031 0.10439758832502639 0 0.41987553528408611 0.10995308193041289 0 0.41987553528408611 0.10995308193041289 0 0.40654670959268202 0.12302498878555169 0 0.40519155268262641 0.1032841683223209 0 0.42677485694942541 0.12503891145677751 0 0.41987553528408611 0.10995308193041289 0 0.40654670959268202 0.12302498878555169 0 0.41987553528408611 0.10995308193041289 0 0.42166641974473629 0.094019752762387859 0 0.40519155268262641 0.1032841683223209 0 0.43919813745096031 0.10439758832502639 0 0.41987553528408611 0.10995308193041289 0 0.42166641974473629 0.094019752762387859 0 0.43919813745096031 0.10439758832502639 0 0.43424086622363961 0.076763459131123313 0 0.43919813745096031 0.10439758832502639 0 0.42166641974473629 0.094019752762387859 0 0.43424086622363961 0.076763459131123313 0 0.43424086622363961 0.076763459131123313 0 0.42027530506261918 0.061508929105537569 0 0.44236811737052018 0.05820688259723733 0 0.40495620398164472 0.079615837181005553 0 0.40312055584581002 0.059494588374270643 0 0.42027530506261918 0.061508929105537569 0 0.43424086622363961 0.076763459131123313 0 0.40495620398164472 0.079615837181005553 0 0.42027530506261918 0.061508929105537569 0 0.42166641974473629 0.094019752762387859 0 0.43424086622363961 0.076763459131123313 0 0.40495620398164472 0.079615837181005553 0 0.42166641974473629 0.094019752762387859 0 0.40495620398164472 0.079615837181005553 0 0.40519155268262641 0.1032841683223209 0 0.40495620398164472 0.079615837181005553 0 0.38686508425042121 0.097491692603889513 0 0.40519155268262641 0.1032841683223209 0 0.40495620398164472 0.079615837181005553 0 0.38277645965618912 0.079445547237405781 0 0.38686508425042121 0.097491692603889513 0 0.40495620398164472 0.079615837181005553 0 0.38709236633763738 0.063329305237755984 0 0.40312055584581002 0.059494588374270643 0 0.40495620398164472 0.079615837181005553 0 0.38709236633763738 0.063329305237755984 0 0.38277645965618912 0.079445547237405781 0 0.36565586428775732 0.072146372702464975 0 0.37409110470898571 0.053193543692808987 0 0.38709236633763738 0.063329305237755984 0 0.36565586428775732 0.072146372702464975 0 0.38709236633763738 0.063329305237755984 0 0.38277645965618912 0.079445547237405781 0 0.36673073492479569 0.092792611858038471 0 0.38277645965618912 0.079445547237405781 0 0.38686508425042121 0.097491692603889513 0 0.37457884466264257 0.11465160156173169 0 0.36673073492479569 0.092792611858038471 0 0.38686508425042121 0.097491692603889513 0 0.37457884466264257 0.11465160156173169 0 0.38686508425042121 0.097491692603889513 0 0.39176700472521159 0.1146700374442019 0 0.37457884466264257 0.11465160156173169 0 0.38651546400664027 0.13534731401526309 0 0.39176700472521159 0.1146700374442019 0 0.38651546400664027 0.13534731401526309 0 0.40654670959268202 0.12302498878555169 0 0.39176700472521159 0.1146700374442019 0 0.40654670959268202 0.12302498878555169 0 0.39176700472521159 0.1146700374442019 0 0.40519155268262641 0.1032841683223209 0 0.38686508425042121 0.097491692603889513 0 0.39176700472521159 0.1146700374442019 0 0.40519155268262641 0.1032841683223209 0 0.39703184960912552 0.027997644346186901 0 0.39188008088395537 0.01155712270445489 0 0.40819308661035841 0.01045900650805669 0 0.39188008088395537 0.01155712270445489 0 0.40819308661035841 0.01045900650805669 0 0.40253634393715082 -0.0066768609635344429 0 0.39188008088395537 0.01155712270445489 0 0.40253634393715082 -0.0066768609635344429 0 0.38545552644044051 -0.0036620198405254061 0 0.37756801179460708 0.0077458342357824856 0 0.38545552644044051 -0.0036620198405254061 0 0.36806179696710029 -0.00038801838553694109 0 0.39188008088395537 0.01155712270445489 0 0.37756801179460708 0.0077458342357824856 0 0.38545552644044051 -0.0036620198405254061 0 0.39188008088395537 0.01155712270445489 0 0.37756801179460708 0.0077458342357824856 0 0.37786381651360662 0.021152962711322418 0 0.39703184960912552 0.027997644346186901 0 0.39188008088395537 0.01155712270445489 0 0.37786381651360662 0.021152962711322418 0 0.39703184960912552 0.027997644346186901 0 0.37786381651360662 0.021152962711322418 0 0.37808648580134668 0.037092345855213503 0 0.39703184960912552 0.027997644346186901 0 0.37808648580134668 0.037092345855213503 0 0.39154113183397671 0.047343041880176358 0 0.37409110470898571 0.053193543692808987 0 0.37808648580134668 0.037092345855213503 0 0.39154113183397671 0.047343041880176358 0 0.37409110470898571 0.053193543692808987 0 0.38709236633763738 0.063329305237755984 0 0.39154113183397671 0.047343041880176358 0 0.38709236633763738 0.063329305237755984 0 0.40312055584581002 0.059494588374270643 0 0.39154113183397671 0.047343041880176358 0 0.40312055584581002 0.059494588374270643 0 0.39154113183397671 0.047343041880176358 0 0.40980021243127912 0.043611431627299448 0 0.39703184960912552 0.027997644346186901 0 0.39154113183397671 0.047343041880176358 0 0.40980021243127912 0.043611431627299448 0 0.39703184960912552 0.027997644346186901 0 0.40980021243127912 0.043611431627299448 0 0.42235630301044341 0.025352174821847651 0 0.40980021243127912 0.043611431627299448 0 0.42725767081772248 0.04580300287945345 0 0.42235630301044341 0.025352174821847651 0 0.40980021243127912 0.043611431627299448 0 0.42027530506261918 0.061508929105537569 0 0.42725767081772248 0.04580300287945345 0 0.40312055584581002 0.059494588374270643 0 0.40980021243127912 0.043611431627299448 0 0.42027530506261918 0.061508929105537569 0 0.42027530506261918 0.061508929105537569 0 0.42725767081772248 0.04580300287945345 0 0.44236811737052018 0.05820688259723733 0 0.42725767081772248 0.04580300287945345 0 0.42235630301044341 0.025352174821847651 0 0.44444408634591498 0.038164000202257527 0 0.42235630301044341 0.025352174821847651 0 0.40819308661035841 0.01045900650805669 0 0.4262155581205827 -0.0062079925046123422 0 0.42235630301044341 0.025352174821847651 0 0.44202218369985141 0.017891801863501311 0 0.4262155581205827 -0.0062079925046123422 0 0.42235630301044341 0.025352174821847651 0 0.44202218369985141 0.017891801863501311 0 0.44444408634591498 0.038164000202257527 0 0.39703184960912552 0.027997644346186901 0 0.42235630301044341 0.025352174821847651 0 0.40819308661035841 0.01045900650805669 0 0.44202218369985141 0.017891801863501311 0 0.4262155581205827 -0.0062079925046123422 0 0.44511406106538509 0.0045039236747506329 0 0.44202218369985141 0.017891801863501311 0 0.4262155581205827 -0.0062079925046123422 0 0.44511406106538509 0.0045039236747506329 0 0.44202218369985141 0.017891801863501311 0 0.46239362875099049 0.026335880377940799 0 0.44202218369985141 0.017891801863501311 0 0.46239362875099049 0.026335880377940799 0 0.44444408634591498 0.038164000202257527 0 0.46239362875099049 0.026335880377940799 0 0.46590660556401498 0.006527872327476804 0 0.47386309266216969 0.015128594100645539 0 0.44511406106538509 0.0045039236747506329 0 0.46239362875099049 0.026335880377940799 0 0.45738012707009362 -0.0026773307409208992 0 0.46239362875099049 0.026335880377940799 0 0.45738012707009362 -0.0026773307409208992 0 0.46239362875099049 0.026335880377940799 0 0.46590660556401498 0.006527872327476804 0 0.45738012707009362 -0.0026773307409208992 0 0.46590660556401498 0.006527872327476804 0 0.47015717095862503 0.001517232122601611 0 0.46744358108159539 -0.0079018727910486856 0 0.44236811737052018 0.05820688259723733 0 0.44444408634591498 0.038164000202257527 0 0.46740713043188908 0.055349091496802318 0 0.42725767081772248 0.04580300287945345 0 0.44236811737052018 0.05820688259723733 0 0.44444408634591498 0.038164000202257527 0 0.46239362875099049 0.026335880377940799 0 0.44444408634591498 0.038164000202257527 0 0.46740713043188908 0.055349091496802318 0 0.46239362875099049 0.026335880377940799 0 0.46740713043188908 0.055349091496802318 0 0.46740713043188908 0.055349091496802318 0 0.48143499462671369 0.032935765212740539 0 0.5 0.045649755397188962 0 0.5 0.074695224630593859 0 0.46740713043188908 0.055349091496802318 0 0.5 0.045649755397188962 0 0.46239362875099049 0.026335880377940799 0 0.46740713043188908 0.055349091496802318 0 0.48143499462671369 0.032935765212740539 0 0.48143499462671369 0.032935765212740539 0 0.5 0.045649755397188962 0 0.5 0.016604286163784291 0 0.46590660556401498 0.006527872327476804 0 0.47015717095862503 0.001517232122601611 0 0.47386309266216969 0.015128594100645539 0 0.48039132123927131 0.0032030364821811039 0 0.47015717095862503 0.001517232122601611 0 0.47386309266216969 0.015128594100645539 0 0.46239362875099049 0.026335880377940799 0 0.48143499462671369 0.032935765212740539 0 0.47386309266216969 0.015128594100645539 0 0.48143499462671369 0.032935765212740539 0 0.47386309266216969 0.015128594100645539 0 0.5 0.016604286163784291 0 0.48039132123927131 0.0032030364821811039 0 0.47386309266216969 0.015128594100645539 0 0.5 0.016604286163784291 0 0.48039132123927131 0.0032030364821811039 0 0.5 0.016604286163784291 0 0.50000000000000067 -0.012441183069620431 0 0.48039132123927131 0.0032030364821811039 0 0.50000000000000067 -0.012441183069620431 0 0.48200737715481851 -0.0094754767586627004 0 0.50000000000000067 -0.012441183069620431 0 0.48200737715481851 -0.0094754767586627004 0 0.48458955379201929 -0.020173631783488341 0 0.48039132123927131 0.0032030364821811039 0 0.48200737715481851 -0.0094754767586627004 0 0.47366007163651491 -0.005026457459310827 0 0.48200737715481851 -0.0094754767586627004 0 0.47449097046430738 -0.01340308957452413 0 0.48458955379201929 -0.020173631783488341 0 0.48200737715481851 -0.0094754767586627004 0 0.47449097046430738 -0.01340308957452413 0 0.47366007163651491 -0.005026457459310827 0 0.47449097046430738 -0.01340308957452413 0 0.47366007163651491 -0.005026457459310827 0 0.46744358108159539 -0.0079018727910486856 0 0.48039132123927131 0.0032030364821811039 0 0.47015717095862503 0.001517232122601611 0 0.47366007163651491 -0.005026457459310827 0 0.47015717095862503 0.001517232122601611 0 0.47366007163651491 -0.005026457459310827 0 0.46744358108159539 -0.0079018727910486856 0 0.47449097046430738 -0.01340308957452413 0 0.46917910758403902 -0.02790608049735838 0 0.46744358108159539 -0.0079018727910486856 0 0.47449097046430738 -0.01340308957452413 0 0.46917910758403902 -0.02790608049735838 0 0.48458955379201929 -0.020173631783488341 0 0.46917910758403902 -0.02790608049735838 0 0.48458955379201929 -0.020173631783488341 0 0.48265869022203989 -0.034908184325981452 0 0.46917910758403902 -0.02790608049735838 0 0.48458955379201929 -0.020173631783488341 0 0.50000000000000067 -0.012441183069620431 0 0.48458955379201929 -0.020173631783488341 0 0.5 -0.039563373959975938 0 0.50000000000000067 -0.012441183069620431 0 0.48458955379201929 -0.020173631783488341 0 0.48458955379201929 -0.020173631783488341 0 0.5 -0.039563373959975938 0 0.48265869022203989 -0.034908184325981452 0 0.5 -0.039563373959975938 0 0.4794527383893587 -0.049873305578467877 0 0.48265869022203989 -0.034908184325981452 0 0.5 -0.039563373959975938 0 0.4794527383893587 -0.049873305578467877 0 0.5 -0.066685564850331391 0 0.4794527383893587 -0.049873305578467877 0 0.48972636919467838 -0.071840530659577531 0 0.4794527383893587 -0.049873305578467877 0 0.45781342521503909 -0.05865170834881013 0 0.47444408932942272 -0.066888169712159593 0 0.46917910758403902 -0.02790608049735838 0 0.4794527383893587 -0.049873305578467877 0 0.46917910758403902 -0.02790608049735838 0 0.4794527383893587 -0.049873305578467877 0 0.48265869022203989 -0.034908184325981452 0 0.46917910758403902 -0.02790608049735838 0 0.4794527383893587 -0.049873305578467877 0 0.46309700879531029 -0.04399909958186788 0 0.46917910758403902 -0.02790608049735838 0 0.46309700879531029 -0.04399909958186788 0 0.44594276399280558 -0.039565303902837509 0 0.46917910758403902 -0.02790608049735838 0 0.44594276399280558 -0.039565303902837509 0 0.46309700879531029 -0.04399909958186788 0 0.45781342521503909 -0.05865170834881013 0 0.44594276399280558 -0.039565303902837509 0 0.4794527383893587 -0.049873305578467877 0 0.46309700879531029 -0.04399909958186788 0 0.45781342521503909 -0.05865170834881013 0 0.45781342521503909 -0.05865170834881013 0 0.44594276399280558 -0.039565303902837509 0 0.43688423943272808 -0.056178499506719833 0 0.44173161236668218 -0.0097650283996426578 0 0.45440016198981309 -0.019922434363877941 0 0.43413968594880009 -0.02521421932672669 0 0.44594276399280558 -0.039565303902837509 0 0.45440016198981309 -0.019922434363877941 0 0.43413968594880009 -0.02521421932672669 0 0.44511406106538509 0.0045039236747506329 0 0.44173161236668218 -0.0097650283996426578 0 0.4262155581205827 -0.0062079925046123422 0 0.44511406106538509 0.0045039236747506329 0 0.45115209638310738 -0.0060026077539907649 0 0.45738012707009362 -0.0026773307409208992 0 0.44511406106538509 0.0045039236747506329 0 0.44173161236668218 -0.0097650283996426578 0 0.45115209638310738 -0.0060026077539907649 0 0.44173161236668218 -0.0097650283996426578 0 0.45115209638310738 -0.0060026077539907649 0 0.45440016198981309 -0.019922434363877941 0 0.46917910758403902 -0.02790608049735838 0 0.45738012707009362 -0.0026773307409208992 0 0.46744358108159539 -0.0079018727910486856 0 0.45115209638310738 -0.0060026077539907649 0 0.45738012707009362 -0.0026773307409208992 0 0.45440016198981309 -0.019922434363877941 0 0.45738012707009362 -0.0026773307409208992 0 0.45440016198981309 -0.019922434363877941 0 0.46917910758403902 -0.02790608049735838 0 0.45738012707009362 -0.0026773307409208992 0 0.46590660556401498 0.006527872327476804 0 0.45738012707009362 -0.0026773307409208992 0 0.46744358108159539 -0.0079018727910486856 0 0.46917910758403902 -0.02790608049735838 0 0.44594276399280558 -0.039565303902837509 0 0.45440016198981309 -0.019922434363877941 0 0.46917910758403902 -0.02790608049735838 0 0.45738012707009362 -0.0026773307409208992 0 0.45440016198981309 -0.019922434363877941 0 0.48076414131777562 -0.11247395638408229 0 0.5 -0.12142492329520869 0 0.47707070035431021 -0.13922479809624089 0 0.48076414131777562 -0.11247395638408229 0 0.5 -0.12142492329520869 0 0.49999999999999889 -0.093807755740686796 0 0.48076414131777562 -0.11247395638408229 0 0.49999999999999889 -0.093807755740686796 0 0.4831487074223082 -0.093826506603197482 0 0.48076414131777562 -0.11247395638408229 0 0.4831487074223082 -0.093826506603197482 0 0.46724295353051809 -0.10230829234848959 0 0.4831487074223082 -0.093826506603197482 0 0.47736342046151931 -0.080365122476308684 0 0.46724295353051809 -0.10230829234848959 0 0.4831487074223082 -0.093826506603197482 0 0.47736342046151931 -0.080365122476308684 0 0.48972636919467838 -0.071840530659577531 0 0.47736342046151931 -0.080365122476308684 0 0.46724295353051809 -0.10230829234848959 0 0.49999999999999889 -0.093807755740686796 0 0.48972636919467838 -0.071840530659577531 0 0.49999999999999889 -0.093807755740686796 0 0.4831487074223082 -0.093826506603197482 0 0.48972636919467838 -0.071840530659577531 0 0.4794527383893587 -0.049873305578467877 0 0.5 -0.066685564850331391 0 0.48972636919467838 -0.071840530659577531 0 0.49999999999999889 -0.093807755740686796 0 0.5 -0.066685564850331391 0 0.48972636919467838 -0.071840530659577531 0 0.4794527383893587 -0.049873305578467877 0 0.48972636919467838 -0.071840530659577531 0 0.47444408932942272 -0.066888169712159593 0 0.47736342046151931 -0.080365122476308684 0 0.47444408932942272 -0.066888169712159593 0 0.46111344225814149 -0.083042334749947017 0 0.47736342046151931 -0.080365122476308684 0 0.48972636919467838 -0.071840530659577531 0 0.47444408932942272 -0.066888169712159593 0 0.45781342521503909 -0.05865170834881013 0 0.47444408932942272 -0.066888169712159593 0 0.46111344225814149 -0.083042334749947017 0 0.45781342521503909 -0.05865170834881013 0 0.43894306382610948 -0.073497416913578265 0 0.46111344225814149 -0.083042334749947017 0 0.45781342521503909 -0.05865170834881013 0 0.43894306382610948 -0.073497416913578265 0 0.43688423943272808 -0.056178499506719833 0 0.43894306382610948 -0.073497416913578265 0 0.45435471372378139 -0.095800678932662683 0 0.43943038487960501 -0.099755374704827537 0 0.43894306382610948 -0.073497416913578265 0 0.46111344225814149 -0.083042334749947017 0 0.43894306382610948 -0.073497416913578265 0 0.46111344225814149 -0.083042334749947017 0 0.45435471372378139 -0.095800678932662683 0 0.47736342046151931 -0.080365122476308684 0 0.46111344225814149 -0.083042334749947017 0 0.46724295353051809 -0.10230829234848959 0 0.46111344225814149 -0.083042334749947017 0 0.45435471372378139 -0.095800678932662683 0 0.46724295353051809 -0.10230829234848959 0 0.45435471372378139 -0.095800678932662683 0 0.46724295353051809 -0.10230829234848959 0 0.4571224865995171 -0.1242514622206706 0 0.45435471372378139 -0.095800678932662683 0 0.43943038487960501 -0.099755374704827537 0 0.4571224865995171 -0.1242514622206706 0 0.43943038487960501 -0.099755374704827537 0 0.4571224865995171 -0.1242514622206706 0 0.4301403036084171 -0.11241465638247949 0 0.4571224865995171 -0.1242514622206706 0 0.4301403036084171 -0.11241465638247949 0 0.42766208497337771 -0.1303141828852305 0 0.48076414131777562 -0.11247395638408229 0 0.46724295353051809 -0.10230829234848959 0 0.4571224865995171 -0.1242514622206706 0 0.46724295353051809 -0.10230829234848959 0 0.4571224865995171 -0.1242514622206706 0 0.40832215027824031 -0.1144337336776084 0 0.42766208497337771 -0.1303141828852305 0 0.40832215027824031 -0.1144337336776084 0 0.4301403036084171 -0.11241465638247949 0 0.42766208497337771 -0.1303141828852305 0 0.43943038487960501 -0.099755374704827537 0 0.4301403036084171 -0.11241465638247949 0 0.41816441131134552 -0.093318528424060493 0 0.40832215027824031 -0.1144337336776084 0 0.4301403036084171 -0.11241465638247949 0 0.41816441131134552 -0.093318528424060493 0 0.41816441131134552 -0.093318528424060493 0 0.4167726853940773 -0.063952499077209513 0 0.40078788444156133 -0.079574605529837583 0 0.43894306382610948 -0.073497416913578265 0 0.43943038487960501 -0.099755374704827537 0 0.41816441131134552 -0.093318528424060493 0 0.43894306382610948 -0.073497416913578265 0 0.4167726853940773 -0.063952499077209513 0 0.43894306382610948 -0.073497416913578265 0 0.41816441131134552 -0.093318528424060493 0 0.4167726853940773 -0.063952499077209513 0 0.43894306382610948 -0.073497416913578265 0 0.4167726853940773 -0.063952499077209513 0 0.43688423943272808 -0.056178499506719833 0 0.37844323608669711 -0.079044736294757778 0 0.40078788444156133 -0.079574605529837583 0 0.39460230696204562 -0.054407581240839789 0 0.4167726853940773 -0.063952499077209513 0 0.40078788444156133 -0.079574605529837583 0 0.39460230696204562 -0.054407581240839789 0 0.37844323608669711 -0.079044736294757778 0 0.39460230696204562 -0.054407581240839789 0 0.37503272161128531 -0.061223623872779527 0 0.37844323608669711 -0.079044736294757778 0 0.39460230696204562 -0.054407581240839789 0 0.38764194430038401 -0.085425682777195172 0 0.37844323608669711 -0.079044736294757778 0 0.40078788444156133 -0.079574605529837583 0 0.38898221558310292 -0.098553284469986374 0 0.36964228088796558 -0.082672835262364311 0 0.38764194430038401 -0.085425682777195172 0 0.37844323608669711 -0.079044736294757778 0 0.36964228088796558 -0.082672835262364311 0 0.38764194430038401 -0.085425682777195172 0 0.38898221558310292 -0.098553284469986374 0 0.36964228088796558 -0.082672835262364311 0 0.38898221558310292 -0.098553284469986374 0 0.36964228088796558 -0.082672835262364311 0 0.36946343925720321 -0.09703537720912668 0 0.41816441131134552 -0.093318528424060493 0 0.40078788444156133 -0.079574605529837583 0 0.38898221558310292 -0.098553284469986374 0 0.38764194430038401 -0.085425682777195172 0 0.40078788444156133 -0.079574605529837583 0 0.38898221558310292 -0.098553284469986374 0 0.40832215027824031 -0.1144337336776084 0 0.38898221558310292 -0.098553284469986374 0 0.40832215027824031 -0.1144337336776084 0 0.41816441131134552 -0.093318528424060493 0 0.38898221558310292 -0.098553284469986374 0 0.38898221558310292 -0.098553284469986374 0 0.3731368881841004 -0.11227644779841341 0 0.36946343925720321 -0.09703537720912668 0 0.38898221558310292 -0.098553284469986374 0 0.38916326183786282 -0.1175632209054157 0 0.3731368881841004 -0.11227644779841341 0 0.38916326183786282 -0.1175632209054157 0 0.3731368881841004 -0.11227644779841341 0 0.37590145401963498 -0.1304655197827134 0 0.40832215027824031 -0.1144337336776084 0 0.38916326183786282 -0.1175632209054157 0 0.3994736011242353 -0.13208711879835691 0 0.40832215027824031 -0.1144337336776084 0 0.38898221558310292 -0.098553284469986374 0 0.38916326183786282 -0.1175632209054157 0 0.41040893254131411 -0.030307786872726009 0 0.4262155581205827 -0.0062079925046123422 0 0.41040893254131411 -0.030307786872726009 0 0.4262155581205827 -0.0062079925046123422 0 0.40253634393715082 -0.0066768609635344429 0 0.40819308661035841 0.01045900650805669 0 0.4262155581205827 -0.0062079925046123422 0 0.40253634393715082 -0.0066768609635344429 0 0.44173161236668218 -0.0097650283996426578 0 0.4262155581205827 -0.0062079925046123422 0 0.43413968594880009 -0.02521421932672669 0 0.41040893254131411 -0.030307786872726009 0 0.4262155581205827 -0.0062079925046123422 0 0.43413968594880009 -0.02521421932672669 0 0.44594276399280558 -0.039565303902837509 0 0.43413968594880009 -0.02521421932672669 0 0.42494925873560929 -0.045225569291163732 0 0.41040893254131411 -0.030307786872726009 0 0.43413968594880009 -0.02521421932672669 0 0.42494925873560929 -0.045225569291163732 0 0.44594276399280558 -0.039565303902837509 0 0.42494925873560929 -0.045225569291163732 0 0.43688423943272808 -0.056178499506719833 0 0.4167726853940773 -0.063952499077209513 0 0.42494925873560929 -0.045225569291163732 0 0.43688423943272808 -0.056178499506719833 0 0.4167726853940773 -0.063952499077209513 0 0.42494925873560929 -0.045225569291163732 0 0.39460230696204562 -0.054407581240839789 0 0.41040893254131411 -0.030307786872726009 0 0.42494925873560929 -0.045225569291163732 0 0.39460230696204562 -0.054407581240839789 0 0.41040893254131411 -0.030307786872726009 0 0.39460230696204562 -0.054407581240839789 0 0.41040893254131411 -0.030307786872726009 0 0.39460230696204562 -0.054407581240839789 0 0.39260796055430142 -0.02403945571152127 0 0.4167726853940773 -0.063952499077209513 0 0.39460230696204562 -0.054407581240839789 0 0.39460230696204562 -0.054407581240839789 0 0.37503272161128531 -0.061223623872779527 0 0.37217268481573113 -0.044751052321242067 0 0.39460230696204562 -0.054407581240839789 0 0.37217268481573113 -0.044751052321242067 0 0.39460230696204562 -0.054407581240839789 0 0.37888755091127302 -0.035872300100898431 0 0.37217268481573113 -0.044751052321242067 0 0.39460230696204562 -0.054407581240839789 0 0.37888755091127302 -0.035872300100898431 0 0.39260796055430142 -0.02403945571152127 0 0.37888755091127302 -0.035872300100898431 0 0.37563030892103588 -0.017032284707454302 0 0.39260796055430142 -0.02403945571152127 0 0.41040893254131411 -0.030307786872726009 0 0.39260796055430142 -0.02403945571152127 0 0.40253634393715082 -0.0066768609635344429 0 0.39260796055430142 -0.02403945571152127 0 0.40253634393715082 -0.0066768609635344429 0 0.38545552644044051 -0.0036620198405254061 0 0.37563030892103588 -0.017032284707454302 0 0.38545552644044051 -0.0036620198405254061 0 0.36806179696710029 -0.00038801838553694109 0 0.37563030892103588 -0.017032284707454302 0 0.39260796055430142 -0.02403945571152127 0 0.38545552644044051 -0.0036620198405254061 0 0.37563030892103588 -0.017032284707454302 0 0.36806179696710029 -0.00038801838553694109 0 0.36401702293024513 -0.011242146103624191 0 0.36806179696710029 -0.00038801838553694109 0 0.36401702293024513 -0.011242146103624191 0 0.35260341344835128 -0.0038356075645182711 0 0.37888755091127302 -0.035872300100898431 0 0.37563030892103588 -0.017032284707454302 0 0.35693849804535782 -0.021053728676485889 0 0.37888755091127302 -0.035872300100898431 0 0.35693849804535782 -0.021053728676485889 0 0.3642425187250472 -0.03397027928722831 0 0.37563030892103588 -0.017032284707454302 0 0.36401702293024513 -0.011242146103624191 0 0.35693849804535782 -0.021053728676485889 0 0.37888755091127302 -0.035872300100898431 0 0.35693849804535782 -0.021053728676485889 0 0.35693849804535782 -0.021053728676485889 0 0.33498944517944268 -0.006235157252073421 0 0.34197881177233058 -0.02225149902274836 0 0.35693849804535782 -0.021053728676485889 0 0.34974306266941702 -0.035094523401643388 0 0.3642425187250472 -0.03397027928722831 0 0.35693849804535782 -0.021053728676485889 0 0.34197881177233058 -0.02225149902274836 0 0.34974306266941702 -0.035094523401643388 0 0.35693849804535782 -0.021053728676485889 0 0.33498944517944268 -0.006235157252073421 0 0.36401702293024513 -0.011242146103624191 0 0.35693849804535782 -0.021053728676485889 0 0.35260341344835128 -0.0038356075645182711 0 0.35693849804535782 -0.021053728676485889 0 0.35260341344835128 -0.0038356075645182711 0 0.33498944517944268 -0.006235157252073421 0 0.32731344052310302 -0.025437994482044729 0 0.34974306266941702 -0.035094523401643388 0 0.33498944517944268 -0.006235157252073421 0 0.34197881177233058 -0.02225149902274836 0 0.32731344052310302 -0.025437994482044729 0 0.34197881177233058 -0.02225149902274836 0 0.32731344052310302 -0.025437994482044729 0 0.34974306266941702 -0.035094523401643388 0 0.32731344052310302 -0.025437994482044729 0 0.30488381837678902 -0.015781465562446109 0 0.30645511317094892 -0.03331069464057184 0 0.32731344052310302 -0.025437994482044729 0 0.31610396223944709 -0.01460518202224659 0 0.32199139912153463 -0.01217500557514371 0 0.32731344052310302 -0.025437994482044729 0 0.31610396223944709 -0.01460518202224659 0 0.30488381837678902 -0.015781465562446109 0 0.32731344052310302 -0.025437994482044729 0 0.30488381837678902 -0.015781465562446109 0 0.31610396223944709 -0.01460518202224659 0 0.32199139912153463 -0.01217500557514371 0 0.31022719093636242 -0.0050262624693518249 0 0.3130403923135277 0.0085834141723390503 0 0.32199139912153463 -0.01217500557514371 0 0.31022719093636242 -0.0050262624693518249 0 0.3130403923135277 0.0085834141723390503 0 0.33498944517944268 -0.006235157252073421 0 0.32199139912153463 -0.01217500557514371 0 0.33498944517944268 -0.006235157252073421 0 0.32731344052310302 -0.025437994482044729 0 0.32199139912153463 -0.01217500557514371 0 0.31326794938038183 -0.050388917671271467 0 0.33301016933934541 -0.043624952674911968 0 0.32875086973574441 -0.062942059039553397 0 0.31326794938038183 -0.050388917671271467 0 0.32875086973574441 -0.062942059039553397 0 0.31387498350922233 -0.063887715945327314 0 0.32731344052310302 -0.025437994482044729 0 0.32001166810344472 -0.038190639867199998 0 0.30645511317094892 -0.03331069464057184 0 0.31326794938038183 -0.050388917671271467 0 0.32001166810344472 -0.038190639867199998 0 0.33301016933934541 -0.043624952674911968 0 0.31326794938038183 -0.050388917671271467 0 0.32001166810344472 -0.038190639867199998 0 0.30645511317094892 -0.03331069464057184 0 0.32731344052310302 -0.025437994482044729 0 0.32001166810344472 -0.038190639867199998 0 0.33301016933934541 -0.043624952674911968 0 0.33301016933934541 -0.043624952674911968 0 0.34974306266941702 -0.035094523401643388 0 0.34780654702659453 -0.046393181176363277 0 0.32731344052310302 -0.025437994482044729 0 0.33301016933934541 -0.043624952674911968 0 0.34974306266941702 -0.035094523401643388 0 0.33301016933934541 -0.043624952674911968 0 0.34459383327888099 -0.056301086199122032 0 0.34780654702659453 -0.046393181176363277 0 0.33301016933934541 -0.043624952674911968 0 0.34459383327888099 -0.056301086199122032 0 0.32875086973574441 -0.062942059039553397 0 0.34459383327888099 -0.056301086199122032 0 0.34438243945962521 -0.06818457863044107 0 0.32875086973574441 -0.062942059039553397 0 0.34459383327888099 -0.056301086199122032 0 0.35862813296295742 -0.051002997965673848 0 0.34780654702659453 -0.046393181176363277 0 0.34459383327888099 -0.056301086199122032 0 0.35862813296295742 -0.051002997965673848 0 0.35499130934678469 -0.065170048723386179 0 0.35862813296295742 -0.051002997965673848 0 0.34974306266941702 -0.035094523401643388 0 0.34780654702659453 -0.046393181176363277 0 0.35862813296295742 -0.051002997965673848 0 0.34974306266941702 -0.035094523401643388 0 0.37217268481573113 -0.044751052321242067 0 0.34974306266941702 -0.035094523401643388 0 0.3642425187250472 -0.03397027928722831 0 0.37217268481573113 -0.044751052321242067 0 0.34974306266941702 -0.035094523401643388 0 0.37217268481573113 -0.044751052321242067 0 0.37888755091127302 -0.035872300100898431 0 0.3642425187250472 -0.03397027928722831 0 0.37217268481573113 -0.044751052321242067 0 0.37503272161128531 -0.061223623872779527 0 0.37217268481573113 -0.044751052321242067 0 0.36806450963387249 -0.054012083110705447 0 0.35862813296295742 -0.051002997965673848 0 0.36621298639512828 -0.062743050355770172 0 0.35499130934678469 -0.065170048723386179 0 0.35862813296295742 -0.051002997965673848 0 0.36806450963387249 -0.054012083110705447 0 0.36621298639512828 -0.062743050355770172 0 0.35862813296295742 -0.051002997965673848 0 0.37217268481573113 -0.044751052321242067 0 0.36806450963387249 -0.054012083110705447 0 0.37503272161128531 -0.061223623872779527 0 0.36806450963387249 -0.054012083110705447 0 0.36621298639512828 -0.062743050355770172 0 0.37503272161128531 -0.061223623872779527 0 0.36621298639512828 -0.062743050355770172 0 0.37068199717781419 -0.072706331839798091 0 0.37844323608669711 -0.079044736294757778 0 0.37503272161128531 -0.061223623872779527 0 0.37068199717781419 -0.072706331839798091 0 0.36621298639512828 -0.062743050355770172 0 0.36210568966989809 -0.07507369568962674 0 0.35499130934678469 -0.065170048723386179 0 0.36621298639512828 -0.062743050355770172 0 0.36210568966989809 -0.07507369568962674 0 0.37068199717781419 -0.072706331839798091 0 0.36210568966989809 -0.07507369568962674 0 0.37068199717781419 -0.072706331839798091 0 0.36964228088796558 -0.082672835262364311 0 0.37844323608669711 -0.079044736294757778 0 0.37068199717781419 -0.072706331839798091 0 0.36964228088796558 -0.082672835262364311 0 0.36964228088796558 -0.082672835262364311 0 0.3564042543093906 -0.087311239728398965 0 0.36946343925720321 -0.09703537720912668 0 0.36210568966989809 -0.07507369568962674 0 0.36964228088796558 -0.082672835262364311 0 0.3564042543093906 -0.087311239728398965 0 0.3564042543093906 -0.087311239728398965 0 0.35242632144855651 -0.075340305914461392 0 0.33802726664048072 -0.07876814549378032 0 0.3564042543093906 -0.087311239728398965 0 0.33910572387415822 -0.096743274900313203 0 0.33802726664048072 -0.07876814549378032 0 0.36210568966989809 -0.07507369568962674 0 0.3564042543093906 -0.087311239728398965 0 0.35242632144855651 -0.075340305914461392 0 0.34438243945962521 -0.06818457863044107 0 0.35242632144855651 -0.075340305914461392 0 0.33802726664048072 -0.07876814549378032 0 0.34459383327888099 -0.056301086199122032 0 0.34438243945962521 -0.06818457863044107 0 0.35499130934678469 -0.065170048723386179 0 0.34438243945962521 -0.06818457863044107 0 0.35499130934678469 -0.065170048723386179 0 0.35242632144855651 -0.075340305914461392 0 0.36210568966989809 -0.07507369568962674 0 0.35499130934678469 -0.065170048723386179 0 0.35242632144855651 -0.075340305914461392 0 0.3731368881841004 -0.11227644779841341 0 0.35844131219951092 -0.1037858520186862 0 0.34845088464983248 -0.1228298600577169 0 0.3731368881841004 -0.11227644779841341 0 0.34845088464983248 -0.1228298600577169 0 0.37590145401963498 -0.1304655197827134 0 0.3564042543093906 -0.087311239728398965 0 0.36946343925720321 -0.09703537720912668 0 0.35844131219951092 -0.1037858520186862 0 0.3731368881841004 -0.11227644779841341 0 0.36946343925720321 -0.09703537720912668 0 0.35844131219951092 -0.1037858520186862 0 0.3564042543093906 -0.087311239728398965 0 0.35844131219951092 -0.1037858520186862 0 0.33910572387415822 -0.096743274900313203 0 0.35844131219951092 -0.1037858520186862 0 0.34845088464983248 -0.1228298600577169 0 0.33910572387415822 -0.096743274900313203 0 0.34845088464983248 -0.1228298600577169 0 0.33910572387415822 -0.096743274900313203 0 0.34845088464983248 -0.1228298600577169 0 0.33910572387415822 -0.096743274900313203 0 0.32467402799536449 -0.1113691906945662 0 0.34845088464983248 -0.1228298600577169 0 0.32467402799536449 -0.1113691906945662 0 0.3364827105324984 -0.1380019253012616 0 0.33910572387415822 -0.096743274900313203 0 0.32467402799536449 -0.1113691906945662 0 0.32454795470934189 -0.092640217619360782 0 0.32467402799536449 -0.1113691906945662 0 0.32454795470934189 -0.092640217619360782 0 0.30928183995034991 -0.098527739073216949 0 0.32467402799536449 -0.1113691906945662 0 0.31078505083423758 -0.11893329318577189 0 0.30928183995034991 -0.098527739073216949 0 0.32467402799536449 -0.1113691906945662 0 0.31078505083423758 -0.11893329318577189 0 0.31641198041894908 -0.1390844711010194 0 0.34438243945962521 -0.06818457863044107 0 0.32875086973574441 -0.062942059039553397 0 0.33802726664048072 -0.07876814549378032 0 0.33910572387415822 -0.096743274900313203 0 0.33802726664048072 -0.07876814549378032 0 0.32454795470934189 -0.092640217619360782 0 0.33802726664048072 -0.07876814549378032 0 0.31487447324138318 -0.079278199197454255 0 0.32454795470934189 -0.092640217619360782 0 0.33802726664048072 -0.07876814549378032 0 0.31487447324138318 -0.079278199197454255 0 0.31487447324138318 -0.079278199197454255 0 0.32454795470934189 -0.092640217619360782 0 0.30928183995034991 -0.098527739073216949 0 0.32875086973574441 -0.062942059039553397 0 0.33802726664048072 -0.07876814549378032 0 0.31487447324138318 -0.079278199197454255 0 0.32875086973574441 -0.062942059039553397 0 0.31487447324138318 -0.079278199197454255 0 0.31387498350922233 -0.063887715945327314 0 0.31487447324138318 -0.079278199197454255 0 0.31387498350922233 -0.063887715945327314 0 0.29860664167938011 -0.06294168787303013 0 0.31487447324138318 -0.079278199197454255 0 0.29860664167938011 -0.06294168787303013 0 0.29172167984228559 -0.079788252901128204 0 0.31487447324138318 -0.079278199197454255 0 0.29172167984228559 -0.079788252901128204 0 0.31487447324138318 -0.079278199197454255 0 0.29172167984228559 -0.079788252901128204 0 0.30928183995034991 -0.098527739073216949 0 0.29172167984228559 -0.079788252901128204 0 0.30928183995034991 -0.098527739073216949 0 0.29179339680802818 -0.099300965835933883 0 0.29172167984228559 -0.079788252901128204 0 0.29179339680802818 -0.099300965835933883 0 0.28040140537259589 -0.088204460929725559 0 0.29172167984228559 -0.079788252901128204 0 0.28583328434915423 -0.067551568195361955 0 0.26856888644318799 -0.080298306604802028 0 0.29860664167938011 -0.06294168787303013 0 0.29172167984228559 -0.079788252901128204 0 0.28583328434915423 -0.067551568195361955 0 0.29860664167938011 -0.06294168787303013 0 0.28583328434915423 -0.067551568195361955 0 0.29084669003916602 -0.058155190308955523 0 0.31078505083423758 -0.11893329318577189 0 0.29909928803216301 -0.1157944112769157 0 0.30928183995034991 -0.098527739073216949 0 0.31078505083423758 -0.11893329318577189 0 0.29909928803216301 -0.1157944112769157 0 0.3044581177743616 -0.1298906537831411 0 0.29909928803216301 -0.1157944112769157 0 0.30928183995034991 -0.098527739073216949 0 0.29179339680802818 -0.099300965835933883 0 0.29179339680802818 -0.099300965835933883 0 0.27958843081028922 -0.098740859994093058 0 0.28040140537259589 -0.088204460929725559 0 0.29179339680802818 -0.099300965835933883 0 0.28396350532651882 -0.1137813903703679 0 0.27958843081028922 -0.098740859994093058 0 0.28396350532651882 -0.1137813903703679 0 0.27871314576242379 -0.1280379014909295 0 0.29144579711841462 -0.1301070142792432 0 0.29909928803216301 -0.1157944112769157 0 0.28396350532651882 -0.1137813903703679 0 0.29144579711841462 -0.1301070142792432 0 0.29909928803216301 -0.1157944112769157 0 0.29179339680802818 -0.099300965835933883 0 0.28396350532651882 -0.1137813903703679 0 0.27317913370039248 -0.11734314503396021 0 0.26444962565753188 -0.1177575699908858 0 0.26815198893977371 -0.12615322346994831 0 0.27317913370039248 -0.11734314503396021 0 0.27871314576242379 -0.1280379014909295 0 0.26815198893977371 -0.12615322346994831 0 0.28396350532651882 -0.1137813903703679 0 0.27317913370039248 -0.11734314503396021 0 0.27871314576242379 -0.1280379014909295 0 0.28396350532651882 -0.1137813903703679 0 0.27317913370039248 -0.11734314503396021 0 0.27025466411543181 -0.1069314262811067 0 0.27317913370039248 -0.11734314503396021 0 0.27025466411543181 -0.1069314262811067 0 0.26444962565753188 -0.1177575699908858 0 0.28396350532651882 -0.1137813903703679 0 0.27025466411543181 -0.1069314262811067 0 0.27958843081028922 -0.098740859994093058 0 0.27025466411543181 -0.1069314262811067 0 0.27958843081028922 -0.098740859994093058 0 0.27108270782639271 -0.093578955138367559 0 0.27025466411543181 -0.1069314262811067 0 0.25862271384477842 -0.098740393505283547 0 0.27108270782639271 -0.093578955138367559 0 0.25082829793759442 -0.1095026453344221 0 0.25478116043846633 -0.080602048818224442 0 0.2445952619361231 -0.093698055038988842 0 0.25082829793759442 -0.1095026453344221 0 0.25478116043846633 -0.080602048818224442 0 0.25862271384477842 -0.098740393505283547 0 0.25082829793759442 -0.1095026453344221 0 0.24867654124636951 -0.1171824804057654 0 0.25862271384477842 -0.098740393505283547 0 0.24867654124636951 -0.1171824804057654 0 0.25862271384477842 -0.098740393505283547 0 0.259285257396771 -0.1109877991424762 0 0.24867654124636951 -0.1171824804057654 0 0.25862271384477842 -0.098740393505283547 0 0.25082829793759442 -0.1095026453344221 0 0.25478116043846633 -0.080602048818224442 0 0.27025466411543181 -0.1069314262811067 0 0.25862271384477842 -0.098740393505283547 0 0.259285257396771 -0.1109877991424762 0 0.27025466411543181 -0.1069314262811067 0 0.259285257396771 -0.1109877991424762 0 0.26444962565753188 -0.1177575699908858 0 0.259285257396771 -0.1109877991424762 0 0.25686622184789049 -0.118465262361168 0 0.26444962565753188 -0.1177575699908858 0 0.259285257396771 -0.1109877991424762 0 0.25686622184789049 -0.118465262361168 0 0.24867654124636951 -0.1171824804057654 0 0.25451107968786962 -0.1243576649647278 0 0.25138186385401579 -0.13274940000198271 0 0.24867654124636951 -0.1171824804057654 0 0.25686622184789049 -0.118465262361168 0 0.25451107968786962 -0.1243576649647278 0 0.24867654124636951 -0.1171824804057654 0 0.25138186385401579 -0.13274940000198271 0 0.24867654124636951 -0.1171824804057654 0 0.25686622184789049 -0.118465262361168 0 0.25451107968786962 -0.1243576649647278 0 0.25962001421926267 -0.12406175743667119 0 0.25962001421926267 -0.12406175743667119 0 0.26444962565753188 -0.1177575699908858 0 0.26815198893977371 -0.12615322346994831 0 0.25686622184789049 -0.118465262361168 0 0.25962001421926267 -0.12406175743667119 0 0.26444962565753188 -0.1177575699908858 0 0.26628155154754157 -0.075262479400184754 0 0.27678744088489182 -0.052667717390068987 0 0.28583328434915423 -0.067551568195361955 0 0.26856888644318799 -0.080298306604802028 0 0.28254998089729522 -0.054374710735600379 0 0.26628155154754157 -0.075262479400184754 0 0.2657014562371664 -0.06278269582339438 0 0.27678744088489182 -0.052667717390068987 0 0.26856888644318799 -0.080298306604802028 0 0.28254998089729522 -0.054374710735600379 0 0.26628155154754157 -0.075262479400184754 0 0.26856888644318799 -0.080298306604802028 0 0.28254998089729522 -0.054374710735600379 0 0.29172167984228559 -0.079788252901128204 0 0.26856888644318799 -0.080298306604802028 0 0.25862271384477842 -0.098740393505283547 0 0.27108270782639271 -0.093578955138367559 0 0.26856888644318799 -0.080298306604802028 0 0.29172167984228559 -0.079788252901128204 0 0.28040140537259589 -0.088204460929725559 0 0.26856888644318799 -0.080298306604802028 0 0.27958843081028922 -0.098740859994093058 0 0.28040140537259589 -0.088204460929725559 0 0.27108270782639271 -0.093578955138367559 0 0.28040140537259589 -0.088204460929725559 0 0.27108270782639271 -0.093578955138367559 0 0.26856888644318799 -0.080298306604802028 0 0.25862271384477842 -0.098740393505283547 0 0.26856888644318799 -0.080298306604802028 0 0.25478116043846633 -0.080602048818224442 0 0.26628155154754157 -0.075262479400184754 0 0.26856888644318799 -0.080298306604802028 0 0.25478116043846633 -0.080602048818224442 0 0.26856888644318799 -0.080298306604802028 0 0.25478116043846633 -0.080602048818224442 0 0.25862271384477842 -0.098740393505283547 0 0.26856888644318799 -0.080298306604802028 0 0.25478116043846633 -0.080602048818224442 0 0.2460700497688284 -0.080793953707780183 0 0.2657014562371664 -0.06278269582339438 0 0.25478116043846633 -0.080602048818224442 0 0.25852819007125788 -0.053206359864300563 0 0.26628155154754157 -0.075262479400184754 0 0.2657014562371664 -0.06278269582339438 0 0.25478116043846633 -0.080602048818224442 0 0.25478116043846633 -0.080602048818224442 0 0.25852819007125788 -0.053206359864300563 0 0.24944737075499149 -0.068843888556443175 0 0.25478116043846633 -0.080602048818224442 0 0.25852819007125788 -0.053206359864300563 0 0.25478116043846633 -0.080602048818224442 0 0.24944737075499149 -0.068843888556443175 0 0.2460700497688284 -0.080793953707780183 0 0.25852819007125788 -0.053206359864300563 0 0.24721937315541639 -0.056573217580361643 0 0.24944737075499149 -0.068843888556443175 0 0.25852819007125788 -0.053206359864300563 0 0.24721937315541639 -0.056573217580361643 0 0.24910752483994139 -0.039692287742642877 0 0.2657014562371664 -0.06278269582339438 0 0.25852819007125788 -0.053206359864300563 0 0.26824164900144359 -0.05168564424388461 0 0.2657014562371664 -0.06278269582339438 0 0.26824164900144359 -0.05168564424388461 0 0.27678744088489182 -0.052667717390068987 0 0.26628155154754157 -0.075262479400184754 0 0.27678744088489182 -0.052667717390068987 0 0.28254998089729522 -0.054374710735600379 0 0.26824164900144359 -0.05168564424388461 0 0.27678744088489182 -0.052667717390068987 0 0.27194950881245838 -0.038085803897774488 0 0.25852819007125788 -0.053206359864300563 0 0.26824164900144359 -0.05168564424388461 0 0.27194950881245838 -0.038085803897774488 0 0.27678744088489182 -0.052667717390068987 0 0.27194950881245838 -0.038085803897774488 0 0.28729333022224202 -0.030072955379953241 0 0.25852819007125788 -0.053206359864300563 0 0.26227521970404888 -0.025810670910376629 0 0.25852819007125788 -0.053206359864300563 0 0.27194950881245838 -0.038085803897774488 0 0.26227521970404888 -0.025810670910376629 0 0.25852819007125788 -0.053206359864300563 0 0.26227521970404888 -0.025810670910376629 0 0.24910752483994139 -0.039692287742642877 0 0.26602224933683999 0.001585018043547347 0 0.26227521970404888 -0.025810670910376629 0 0.2453786940251601 -0.0068958978480940566 0 0.26602224933683999 0.001585018043547347 0 0.26227521970404888 -0.025810670910376629 0 0.26602224933683999 0.001585018043547347 0 0.27914852208400598 -0.01359857287446728 0 0.28793788127773418 -0.00033153511801853059 0 0.26602224933683999 0.001585018043547347 0 0.26227521970404888 -0.025810670910376629 0 0.27914852208400598 -0.01359857287446728 0 0.27194950881245838 -0.038085803897774488 0 0.26227521970404888 -0.025810670910376629 0 0.27914852208400598 -0.01359857287446728 0 0.27194950881245838 -0.038085803897774488 0 0.27914852208400598 -0.01359857287446728 0 0.28729333022224202 -0.030072955379953241 0 0.28729333022224202 -0.030072955379953241 0 0.29779921955959221 -0.007478193369837495 0 0.27914852208400598 -0.01359857287446728 0 0.28729333022224202 -0.030072955379953241 0 0.29779921955959221 -0.007478193369837495 0 0.28729333022224202 -0.030072955379953241 0 0.29779921955959221 -0.007478193369837495 0 0.29878131722884071 -0.022682506075126101 0 0.27914852208400598 -0.01359857287446728 0 0.28793788127773418 -0.00033153511801853059 0 0.29779921955959221 -0.007478193369837495 0 0.29536512458139053 0.0076741264440699708 0 0.28793788127773418 -0.00033153511801853059 0 0.29779921955959221 -0.007478193369837495 0 0.3130403923135277 0.0085834141723390503 0 0.29779921955959221 -0.007478193369837495 0 0.31022719093636242 -0.0050262624693518249 0 0.29779921955959221 -0.007478193369837495 0 0.29878131722884071 -0.022682506075126101 0 0.30488381837678902 -0.015781465562446109 0 0.29779921955959221 -0.007478193369837495 0 0.31022719093636242 -0.0050262624693518249 0 0.30488381837678902 -0.015781465562446109 0 0.31610396223944709 -0.01460518202224659 0 0.31022719093636242 -0.0050262624693518249 0 0.30488381837678902 -0.015781465562446109 0 0.28729333022224202 -0.030072955379953241 0 0.29878131722884071 -0.022682506075126101 0 0.30645511317094892 -0.03331069464057184 0 0.29878131722884071 -0.022682506075126101 0 0.30488381837678902 -0.015781465562446109 0 0.30645511317094892 -0.03331069464057184 0 0.31326794938038183 -0.050388917671271467 0 0.30645511317094892 -0.03331069464057184 0 0.29639685323083442 -0.047752794431829587 0 0.31326794938038183 -0.050388917671271467 0 0.29860664167938011 -0.06294168787303013 0 0.29639685323083442 -0.047752794431829587 0 0.31326794938038183 -0.050388917671271467 0 0.31387498350922233 -0.063887715945327314 0 0.29860664167938011 -0.06294168787303013 0 0.29639685323083442 -0.047752794431829587 0 0.29084669003916602 -0.058155190308955523 0 0.28254998089729522 -0.054374710735600379 0 0.29860664167938011 -0.06294168787303013 0 0.29639685323083442 -0.047752794431829587 0 0.29084669003916602 -0.058155190308955523 0 0.28583328434915423 -0.067551568195361955 0 0.29084669003916602 -0.058155190308955523 0 0.28254998089729522 -0.054374710735600379 0 0.28729333022224202 -0.030072955379953241 0 0.30645511317094892 -0.03331069464057184 0 0.29639685323083442 -0.047752794431829587 0 0.27678744088489182 -0.052667717390068987 0 0.28729333022224202 -0.030072955379953241 0 0.28729333022224202 -0.030072955379953241 0 0.29639685323083442 -0.047752794431829587 0 0.28254998089729522 -0.054374710735600379 0 0.27678744088489182 -0.052667717390068987 0 0.28729333022224202 -0.030072955379953241 0 0.28254998089729522 -0.054374710735600379 0 0.29026279455403509 -0.2091023781683117 0 0.28939693711245712 -0.21486324543635979 0 0.26919792219548683 -0.20311433681796981 0 0.29026279455403509 -0.2091023781683117 0 0.29260578867106862 -0.19351357859237581 0 0.30101574788654861 -0.20969377695503971 0 0.29026279455403509 -0.2091023781683117 0 0.30101574788654861 -0.20969377695503971 0 0.29763485830136061 -0.2111980102616367 0 0.29026279455403509 -0.2091023781683117 0 0.29763485830136061 -0.2111980102616367 0 0.28939693711245712 -0.21486324543635979 0 0.29763485830136061 -0.2111980102616367 0 0.29951948470241979 -0.22273060229536251 0 0.29026279455403509 -0.2091023781683117 0 0.28939693711245712 -0.21486324543635979 0 0.29763485830136061 -0.2111980102616367 0 0.28939693711245712 -0.21486324543635979 0 0.29763485830136061 -0.2111980102616367 0 0.29026279455403509 -0.2091023781683117 0 0.28939693711245712 -0.21486324543635979 0 0.29026279455403509 -0.2091023781683117 0 0.28284532621798603 -0.19860927218409041 0 0.29260578867106862 -0.19351357859237581 0 0.28284532621798603 -0.19860927218409041 0 0.29260578867106862 -0.19351357859237581 0 0.27793292016808713 -0.19024412054007911 0 0.29026279455403509 -0.2091023781683117 0 0.29260578867106862 -0.19351357859237581 0 0.29260578867106862 -0.19351357859237581 0 0.3046265551504147 -0.20202220900714679 0 0.30531358463828179 -0.21338081631148079 0 0.29260578867106862 -0.19351357859237581 0 0.3046265551504147 -0.20202220900714679 0 0.29988788526611798 -0.19451503191392591 0 0.3046265551504147 -0.20202220900714679 0 0.29988788526611798 -0.19451503191392591 0 0.30721150605161063 -0.19564117547049681 0 0.30721150605161063 -0.19564117547049681 0 0.30985078521201442 -0.18601312544400261 0 0.3142921897577165 -0.19881115963709331 0 0.29988788526611798 -0.19451503191392591 0 0.30721150605161063 -0.19564117547049681 0 0.30985078521201442 -0.18601312544400261 0 0.3046265551504147 -0.20202220900714679 0 0.31416882571063731 -0.20827576283562549 0 0.3142921897577165 -0.19881115963709331 0 0.3046265551504147 -0.20202220900714679 0 0.30721150605161063 -0.19564117547049681 0 0.3142921897577165 -0.19881115963709331 0 0.29260578867106862 -0.19351357859237581 0 0.30101574788654861 -0.20969377695503971 0 0.30531358463828179 -0.21338081631148079 0 0.30531358463828179 -0.21338081631148079 0 0.29951948470241979 -0.22273060229536251 0 0.32490143139420963 -0.21894898849606251 0 0.29260578867106862 -0.19351357859237581 0 0.30531358463828179 -0.21338081631148079 0 0.3046265551504147 -0.20202220900714679 0 0.30531358463828179 -0.21338081631148079 0 0.31416882571063731 -0.20827576283562549 0 0.30101574788654861 -0.20969377695503971 0 0.29763485830136061 -0.2111980102616367 0 0.29763485830136061 -0.2111980102616367 0 0.30531358463828179 -0.21338081631148079 0 0.29951948470241979 -0.22273060229536251 0 0.29763485830136061 -0.2111980102616367 0 0.30531358463828179 -0.21338081631148079 0 0.30101574788654861 -0.20969377695503971 0 0.29763485830136061 -0.2111980102616367 0 0.30531358463828179 -0.21338081631148079 0 0.3051419807997815 -0.23160227416105911 0 0.29951948470241979 -0.22273060229536251 0 0.32490143139420963 -0.21894898849606251 0 0.3051419807997815 -0.23160227416105911 0 0.30966021080157702 -0.24778673336912191 0 0.32026323415058783 -0.2350606530923052 0 0.3051419807997815 -0.23160227416105911 0 0.30966021080157702 -0.24778673336912191 0 0.28551681785921013 -0.24067910256114569 0 0.28939693711245712 -0.21486324543635979 0 0.28551681785921013 -0.24067910256114569 0 0.3051419807997815 -0.23160227416105911 0 0.29951948470241979 -0.22273060229536251 0 0.28551681785921013 -0.24067910256114569 0 0.28939693711245712 -0.21486324543635979 0 0.29951948470241979 -0.22273060229536251 0 0.28551681785921013 -0.24067910256114569 0 0.28939693711245712 -0.21486324543635979 0 0.26703503534861922 -0.22481255510308401 0 0.28939693711245712 -0.21486324543635979 0 0.28551681785921013 -0.24067910256114569 0 0.26703503534861922 -0.22481255510308401 0 0.28551681785921013 -0.24067910256114569 0 0.26703503534861922 -0.22481255510308401 0 0.26145137686751269 -0.25057166113606721 0 0.26703503534861922 -0.22481255510308401 0 0.26145137686751269 -0.25057166113606721 0 0.24467313358478149 -0.2347618647698089 0 0.26703503534861922 -0.22481255510308401 0 0.24467313358478149 -0.2347618647698089 0 0.26703503534861922 -0.22481255510308401 0 0.24154439157591809 -0.21549740969834391 0 0.24467313358478149 -0.2347618647698089 0 0.26703503534861922 -0.22481255510308401 0 0.26919792219548683 -0.20311433681796981 0 0.24154439157591809 -0.21549740969834391 0 0.26919792219548683 -0.20311433681796981 0 0.24813304983693851 -0.197126295467628 0 0.24154439157591809 -0.21549740969834391 0 0.28939693711245712 -0.21486324543635979 0 0.26703503534861922 -0.22481255510308401 0 0.26919792219548683 -0.20311433681796981 0 0.29026279455403509 -0.2091023781683117 0 0.28284532621798603 -0.19860927218409041 0 0.26919792219548683 -0.20311433681796981 0 0.29026279455403509 -0.2091023781683117 0 0.26919792219548683 -0.20311433681796981 0 0.27793292016808713 -0.19024412054007911 0 0.26919792219548683 -0.20311433681796981 0 0.2656045561558677 -0.1843124743945011 0 0.28284532621798603 -0.19860927218409041 0 0.27793292016808713 -0.19024412054007911 0 0.26919792219548683 -0.20311433681796981 0 0.26919792219548683 -0.20311433681796981 0 0.2656045561558677 -0.1843124743945011 0 0.24813304983693851 -0.197126295467628 0 0.26919792219548683 -0.20311433681796981 0 0.24813304983693851 -0.197126295467628 0 0.2656045561558677 -0.1843124743945011 0 0.2515057650938059 -0.1733624733555551 0 0.24813304983693851 -0.197126295467628 0 0.2656045561558677 -0.1843124743945011 0 0.2515057650938059 -0.1733624733555551 0 0.26408789642032432 -0.16932050796563411 0 0.2515057650938059 -0.1733624733555551 0 0.25539367275013369 -0.16061178211912899 0 0.26408789642032432 -0.16932050796563411 0 0.25539367275013369 -0.16061178211912899 0 0.26408789642032432 -0.16932050796563411 0 0.26715991582834708 -0.15413013427778949 0 0.2798828522497071 -0.17382185643508311 0 0.26715991582834708 -0.15413013427778949 0 0.28482362075133277 -0.15867346198633539 0 0.2798828522497071 -0.17382185643508311 0 0.26715991582834708 -0.15413013427778949 0 0.26408789642032432 -0.16932050796563411 0 0.2798828522497071 -0.17382185643508311 0 0.26715991582834708 -0.15413013427778949 0 0.2656045561558677 -0.1843124743945011 0 0.26408789642032432 -0.16932050796563411 0 0.2798828522497071 -0.17382185643508311 0 0.27793292016808713 -0.19024412054007911 0 0.2656045561558677 -0.1843124743945011 0 0.2798828522497071 -0.17382185643508311 0 0.25962001421926267 -0.12406175743667119 0 0.25601075727180939 -0.1293294246180518 0 0.26266141042988461 -0.1341301779451925 0 0.25962001421926267 -0.12406175743667119 0 0.26266141042988461 -0.1341301779451925 0 0.26815198893977371 -0.12615322346994831 0 0.25601075727180939 -0.1293294246180518 0 0.25443697940698701 -0.13443841212049579 0 0.26266141042988461 -0.1341301779451925 0 0.25451107968786962 -0.1243576649647278 0 0.25962001421926267 -0.12406175743667119 0 0.25601075727180939 -0.1293294246180518 0 0.25451107968786962 -0.1243576649647278 0 0.25138186385401579 -0.13274940000198271 0 0.25601075727180939 -0.1293294246180518 0 0.25138186385401579 -0.13274940000198271 0 0.25601075727180939 -0.1293294246180518 0 0.25443697940698701 -0.13443841212049579 0 0.25138186385401579 -0.13274940000198271 0 0.25408718646166178 -0.14831631959819991 0 0.25138186385401579 -0.13274940000198271 0 0.25443697940698701 -0.13443841212049579 0 0.25408718646166178 -0.14831631959819991 0 0.25443697940698701 -0.13443841212049579 0 0.26266141042988461 -0.1341301779451925 0 0.26715991582834708 -0.15413013427778949 0 0.25443697940698701 -0.13443841212049579 0 0.25408718646166178 -0.14831631959819991 0 0.26715991582834708 -0.15413013427778949 0 0.25443697940698701 -0.13443841212049579 0 0.26715991582834708 -0.15413013427778949 0 0.25539367275013369 -0.16061178211912899 0 0.25408718646166178 -0.14831631959819991 0 0.26715991582834708 -0.15413013427778949 0 0.26715991582834708 -0.15413013427778949 0 0.28200320113435018 -0.14399406723594529 0 0.28482362075133277 -0.15867346198633539 0 0.26266141042988461 -0.1341301779451925 0 0.26715991582834708 -0.15413013427778949 0 0.27142984561668759 -0.13730362886532441 0 0.26715991582834708 -0.15413013427778949 0 0.27142984561668759 -0.13730362886532441 0 0.28200320113435018 -0.14399406723594529 0 0.27142984561668759 -0.13730362886532441 0 0.27871314576242379 -0.1280379014909295 0 0.28200320113435018 -0.14399406723594529 0 0.26266141042988461 -0.1341301779451925 0 0.27142984561668759 -0.13730362886532441 0 0.26815198893977371 -0.12615322346994831 0 0.27142984561668759 -0.13730362886532441 0 0.27871314576242379 -0.1280379014909295 0 0.26815198893977371 -0.12615322346994831 0 0.27871314576242379 -0.1280379014909295 0 0.29144579711841462 -0.1301070142792432 0 0.28200320113435018 -0.14399406723594529 0 0.29144579711841462 -0.1301070142792432 0 0.28200320113435018 -0.14399406723594529 0 0.29917949347248268 -0.1497763084577807 0 0.28200320113435018 -0.14399406723594529 0 0.29917949347248268 -0.1497763084577807 0 0.28482362075133277 -0.15867346198633539 0 0.29917949347248268 -0.1497763084577807 0 0.30814993284253361 -0.16679975150747259 0 0.31641198041894908 -0.1390844711010194 0 0.30814993284253361 -0.16679975150747259 0 0.31641198041894908 -0.1390844711010194 0 0.31078505083423758 -0.11893329318577189 0 0.3044581177743616 -0.1298906537831411 0 0.31641198041894908 -0.1390844711010194 0 0.29144579711841462 -0.1301070142792432 0 0.29917949347248268 -0.1497763084577807 0 0.3044581177743616 -0.1298906537831411 0 0.29917949347248268 -0.1497763084577807 0 0.3044581177743616 -0.1298906537831411 0 0.31641198041894908 -0.1390844711010194 0 0.29909928803216301 -0.1157944112769157 0 0.29144579711841462 -0.1301070142792432 0 0.3044581177743616 -0.1298906537831411 0 0.29260578867106862 -0.19351357859237581 0 0.29589264107177671 -0.17164494352507839 0 0.29260578867106862 -0.19351357859237581 0 0.27793292016808713 -0.19024412054007911 0 0.2798828522497071 -0.17382185643508311 0 0.29260578867106862 -0.19351357859237581 0 0.2798828522497071 -0.17382185643508311 0 0.29260578867106862 -0.19351357859237581 0 0.2798828522497071 -0.17382185643508311 0 0.29589264107177671 -0.17164494352507839 0 0.29260578867106862 -0.19351357859237581 0 0.29988788526611798 -0.19451503191392591 0 0.29589264107177671 -0.17164494352507839 0 0.29917949347248268 -0.1497763084577807 0 0.28482362075133277 -0.15867346198633539 0 0.29589264107177671 -0.17164494352507839 0 0.2798828522497071 -0.17382185643508311 0 0.28482362075133277 -0.15867346198633539 0 0.29589264107177671 -0.17164494352507839 0 0.29917949347248268 -0.1497763084577807 0 0.29589264107177671 -0.17164494352507839 0 0.30814993284253361 -0.16679975150747259 0 0.29917949347248268 -0.1497763084577807 0 0.29589264107177671 -0.17164494352507839 0 0.29988788526611798 -0.19451503191392591 0 0.30814993284253361 -0.16679975150747259 0 0.29988788526611798 -0.19451503191392591 0 0.30814993284253361 -0.16679975150747259 0 0.30985078521201442 -0.18601312544400261 0 0.29988788526611798 -0.19451503191392591 0 0.29589264107177671 -0.17164494352507839 0 0.30814993284253361 -0.16679975150747259 0 0.30814993284253361 -0.16679975150747259 0 0.30985078521201442 -0.18601312544400261 0 0.32509287403104248 -0.17310394753369371 0 0.30985078521201442 -0.18601312544400261 0 0.32509287403104248 -0.17310394753369371 0 0.33206264580029499 -0.1910386221393108 0 0.32509287403104248 -0.17310394753369371 0 0.32081909390605162 -0.15893004528340179 0 0.33362158833168121 -0.15673201099142151 0 0.30814993284253361 -0.16679975150747259 0 0.32509287403104248 -0.17310394753369371 0 0.32081909390605162 -0.15893004528340179 0 0.32509287403104248 -0.17310394753369371 0 0.33362158833168121 -0.15673201099142151 0 0.34536409527394102 -0.17412646460221029 0 0.32509287403104248 -0.17310394753369371 0 0.34536409527394102 -0.17412646460221029 0 0.33206264580029499 -0.1910386221393108 0 0.32467402799536449 -0.1113691906945662 0 0.31641198041894908 -0.1390844711010194 0 0.3364827105324984 -0.1380019253012616 0 0.32467402799536449 -0.1113691906945662 0 0.31641198041894908 -0.1390844711010194 0 0.30814993284253361 -0.16679975150747259 0 0.32081909390605162 -0.15893004528340179 0 0.31641198041894908 -0.1390844711010194 0 0.32081909390605162 -0.15893004528340179 0 0.33362158833168121 -0.15673201099142151 0 0.31641198041894908 -0.1390844711010194 0 0.33362158833168121 -0.15673201099142151 0 0.31641198041894908 -0.1390844711010194 0 0.3364827105324984 -0.1380019253012616 0 0.33362158833168121 -0.15673201099142151 0 0.3364827105324984 -0.1380019253012616 0 0.35779604542550669 -0.14891644521512051 0 0.34845088464983248 -0.1228298600577169 0 0.3364827105324984 -0.1380019253012616 0 0.35779604542550669 -0.14891644521512051 0 0.34845088464983248 -0.1228298600577169 0 0.35779604542550669 -0.14891644521512051 0 0.35779604542550669 -0.14891644521512051 0 0.38654437889993448 -0.14949546048180129 0 0.3780414987929907 -0.16366466293502771 0 0.35779604542550669 -0.14891644521512051 0 0.37590145401963498 -0.1304655197827134 0 0.38654437889993448 -0.14949546048180129 0 0.34845088464983248 -0.1228298600577169 0 0.35779604542550669 -0.14891644521512051 0 0.37590145401963498 -0.1304655197827134 0 0.34536409527394102 -0.17412646460221029 0 0.35427450638857549 -0.19606411883461899 0 0.33206264580029499 -0.1910386221393108 0 0.34536409527394102 -0.17412646460221029 0 0.36714120620118101 -0.17500303037252421 0 0.35427450638857549 -0.19606411883461899 0 0.35779604542550669 -0.14891644521512051 0 0.34536409527394102 -0.17412646460221029 0 0.36714120620118101 -0.17500303037252421 0 0.33362158833168121 -0.15673201099142151 0 0.35779604542550669 -0.14891644521512051 0 0.34536409527394102 -0.17412646460221029 0 0.35779604542550669 -0.14891644521512051 0 0.36714120620118101 -0.17500303037252421 0 0.3780414987929907 -0.16366466293502771 0 0.35779604542550669 -0.14891644521512051 0 0.36714120620118101 -0.17500303037252421 0 0.36714120620118101 -0.17500303037252421 0 0.37648636697685589 -0.2010896155299276 0 0.38048642758128731 -0.17602708936564049 0 0.36714120620118101 -0.17500303037252421 0 0.37648636697685589 -0.2010896155299276 0 0.36552496811632101 -0.20831587128819051 0 0.35427450638857549 -0.19606411883461899 0 0.37648636697685589 -0.2010896155299276 0 0.36714120620118101 -0.17500303037252421 0 0.35427450638857549 -0.19606411883461899 0 0.37648636697685589 -0.2010896155299276 0 0.35427450638857549 -0.19606411883461899 0 0.37648636697685589 -0.2010896155299276 0 0.36552496811632101 -0.20831587128819051 0 0.36288169911049512 -0.2206175379215535 0 0.37930649203300593 -0.2089618645150178 0 0.36552496811632101 -0.20831587128819051 0 0.37930649203300593 -0.2089618645150178 0 0.37648636697685589 -0.2010896155299276 0 0.36552496811632101 -0.20831587128819051 0 0.35535007855318318 -0.21200973431666739 0 0.36288169911049512 -0.2206175379215535 0 0.36552496811632101 -0.20831587128819051 0 0.35535007855318318 -0.21200973431666739 0 0.35427450638857549 -0.19606411883461899 0 0.35535007855318318 -0.21200973431666739 0 0.33859598377201938 -0.21158521146706799 0 0.34924192892385297 -0.22463963279975629 0 0.35535007855318318 -0.21200973431666739 0 0.35427450638857549 -0.19606411883461899 0 0.33859598377201938 -0.21158521146706799 0 0.35427450638857549 -0.19606411883461899 0 0.33206264580029499 -0.1910386221393108 0 0.33859598377201938 -0.21158521146706799 0 0.33206264580029499 -0.1910386221393108 0 0.33859598377201938 -0.21158521146706799 0 0.32480421528697562 -0.20573194891503199 0 0.35427450638857549 -0.19606411883461899 0 0.33206264580029499 -0.1910386221393108 0 0.33859598377201938 -0.21158521146706799 0 0.32480421528697562 -0.20573194891503199 0 0.32490143139420963 -0.21894898849606251 0 0.30531358463828179 -0.21338081631148079 0 0.31416882571063731 -0.20827576283562549 0 0.32490143139420963 -0.21894898849606251 0 0.30531358463828179 -0.21338081631148079 0 0.32490143139420963 -0.21894898849606251 0 0.32480421528697562 -0.20573194891503199 0 0.31416882571063731 -0.20827576283562549 0 0.32490143139420963 -0.21894898849606251 0 0.32480421528697562 -0.20573194891503199 0 0.31416882571063731 -0.20827576283562549 0 0.3142921897577165 -0.19881115963709331 0 0.33206264580029499 -0.1910386221393108 0 0.32480421528697562 -0.20573194891503199 0 0.3142921897577165 -0.19881115963709331 0 0.30985078521201442 -0.18601312544400261 0 0.33206264580029499 -0.1910386221393108 0 0.3142921897577165 -0.19881115963709331 0 0.30985078521201442 -0.18601312544400261 0 0.33206264580029499 -0.1910386221393108 0 0.30966021080157702 -0.24778673336912191 0 0.32026323415058783 -0.2350606530923052 0 0.3289423451865191 -0.24692368843009069 0 0.32026323415058783 -0.2350606530923052 0 0.33321753055782433 -0.22977454708551251 0 0.3289423451865191 -0.24692368843009069 0 0.32026323415058783 -0.2350606530923052 0 0.32490143139420963 -0.21894898849606251 0 0.33321753055782433 -0.22977454708551251 0 0.3051419807997815 -0.23160227416105911 0 0.32026323415058783 -0.2350606530923052 0 0.32490143139420963 -0.21894898849606251 0 0.33859598377201938 -0.21158521146706799 0 0.33321753055782433 -0.22977454708551251 0 0.34924192892385297 -0.22463963279975629 0 0.33859598377201938 -0.21158521146706799 0 0.32490143139420963 -0.21894898849606251 0 0.33321753055782433 -0.22977454708551251 0 0.33321753055782433 -0.22977454708551251 0 0.34308749997543991 -0.2386948652922693 0 0.34924192892385297 -0.22463963279975629 0 0.33321753055782433 -0.22977454708551251 0 0.34308749997543991 -0.2386948652922693 0 0.3289423451865191 -0.24692368843009069 0 0.34308749997543991 -0.2386948652922693 0 0.3289423451865191 -0.24692368843009069 0 0.34136557605767021 -0.25086681161139812 0 0.3570554487155676 -0.2365930092284983 0 0.35346002950626321 -0.2486655631124409 0 0.3623160646090739 -0.25740836624736418 0 0.34308749997543991 -0.2386948652922693 0 0.35346002950626321 -0.2486655631124409 0 0.34136557605767021 -0.25086681161139812 0 0.34308749997543991 -0.2386948652922693 0 0.3570554487155676 -0.2365930092284983 0 0.35346002950626321 -0.2486655631124409 0 0.3570554487155676 -0.2365930092284983 0 0.34924192892385297 -0.22463963279975629 0 0.36288169911049512 -0.2206175379215535 0 0.34308749997543991 -0.2386948652922693 0 0.3570554487155676 -0.2365930092284983 0 0.34924192892385297 -0.22463963279975629 0 0.35535007855318318 -0.21200973431666739 0 0.34924192892385297 -0.22463963279975629 0 0.36288169911049512 -0.2206175379215535 0 0.3570554487155676 -0.2365930092284983 0 0.37081127832103972 -0.23318511538119099 0 0.36288169911049512 -0.2206175379215535 0 0.37081127832103972 -0.23318511538119099 0 0.36288169911049512 -0.2206175379215535 0 0.37930649203300593 -0.2089618645150178 0 0.37081127832103972 -0.23318511538119099 0 0.3623160646090739 -0.25740836624736418 0 0.3570554487155676 -0.2365930092284983 0 0.37081127832103972 -0.23318511538119099 0 0.3623160646090739 -0.25740836624736418 0 0.37081127832103972 -0.23318511538119099 0 0.37495946192752022 -0.24961603069556479 0 0.3623160646090739 -0.25740836624736418 0 0.37081127832103972 -0.23318511538119099 0 0.37495946192752022 -0.24961603069556479 0 0.38373913713319457 -0.24321437109047639 0 0.38373913713319457 -0.24321437109047639 0 0.40122953332635891 -0.2454384170017645 0 0.38236589047673691 -0.25419861701114987 0 0.37081127832103972 -0.23318511538119099 0 0.38373913713319457 -0.24321437109047639 0 0.39180726858473441 -0.2321449692089699 0 0.37495946192752022 -0.24961603069556479 0 0.38373913713319457 -0.24321437109047639 0 0.38236589047673691 -0.25419861701114987 0 0.38373913713319457 -0.24321437109047639 0 0.40122953332635891 -0.2454384170017645 0 0.39180726858473441 -0.2321449692089699 0 0.40122953332635891 -0.2454384170017645 0 0.39180726858473441 -0.2321449692089699 0 0.41186460310795853 -0.222379486577785 0 0.39180726858473441 -0.2321449692089699 0 0.39734165693203422 -0.2176523410501594 0 0.41186460310795853 -0.222379486577785 0 0.39180726858473441 -0.2321449692089699 0 0.38382782036013552 -0.22158294394441189 0 0.39734165693203422 -0.2176523410501594 0 0.37081127832103972 -0.23318511538119099 0 0.38382782036013552 -0.22158294394441189 0 0.37930649203300593 -0.2089618645150178 0 0.37081127832103972 -0.23318511538119099 0 0.39180726858473441 -0.2321449692089699 0 0.38382782036013552 -0.22158294394441189 0 0.37081127832103972 -0.23318511538119099 0 0.37930649203300593 -0.2089618645150178 0 0.38382782036013552 -0.22158294394441189 0 0.37930649203300593 -0.2089618645150178 0 0.38417379150212572 -0.20786855239109139 0 0.38952594682020769 -0.20878251829113689 0 0.38165704566600561 -0.20225949630427609 0 0.39943642014919739 -0.20628213039901491 0 0.38165704566600561 -0.20225949630427609 0 0.39943642014919739 -0.20628213039901491 0 0.38382782036013552 -0.22158294394441189 0 0.37930649203300593 -0.2089618645150178 0 0.37930649203300593 -0.2089618645150178 0 0.37648636697685589 -0.2010896155299276 0 0.37930649203300593 -0.2089618645150178 0 0.37648636697685589 -0.2010896155299276 0 0.38165704566600561 -0.20225949630427609 0 0.37930649203300593 -0.2089618645150178 0 0.38165704566600561 -0.20225949630427609 0 0.37930649203300593 -0.2089618645150178 0 0.38417379150212572 -0.20786855239109139 0 0.38165704566600561 -0.20225949630427609 0 0.38417379150212572 -0.20786855239109139 0 0.38952594682020769 -0.20878251829113689 0 0.38165704566600561 -0.20225949630427609 0 0.38382782036013552 -0.22158294394441189 0 0.38417379150212572 -0.20786855239109139 0 0.38952594682020769 -0.20878251829113689 0 0.38382782036013552 -0.22158294394441189 0 0.38952594682020769 -0.20878251829113689 0 0.39734165693203422 -0.2176523410501594 0 0.37648636697685589 -0.2010896155299276 0 0.38048642758128731 -0.17602708936564049 0 0.38703306494582251 -0.18693031588672329 0 0.37648636697685589 -0.2010896155299276 0 0.38165704566600561 -0.20225949630427609 0 0.38703306494582251 -0.18693031588672329 0 0.37648636697685589 -0.2010896155299276 0 0.38165704566600561 -0.20225949630427609 0 0.38165704566600561 -0.20225949630427609 0 0.39250850373247331 -0.1972765719012107 0 0.38703306494582251 -0.18693031588672329 0 0.38165704566600561 -0.20225949630427609 0 0.38703306494582251 -0.18693031588672329 0 0.38165704566600561 -0.20225949630427609 0 0.39250850373247331 -0.1972765719012107 0 0.39943642014919739 -0.20628213039901491 0 0.39250850373247331 -0.1972765719012107 0 0.4019074841688679 -0.19363434501482879 0 0.38703306494582251 -0.18693031588672329 0 0.4019074841688679 -0.19363434501482879 0 0.38703306494582251 -0.18693031588672329 0 0.39865631125712803 -0.18194332722869189 0 0.39250850373247331 -0.1972765719012107 0 0.4019074841688679 -0.19363434501482879 0 0.39943642014919739 -0.20628213039901491 0 0.4019074841688679 -0.19363434501482879 0 0.39943642014919739 -0.20628213039901491 0 0.40974176763513698 -0.20305100091979059 0 0.38952594682020769 -0.20878251829113689 0 0.39734165693203422 -0.2176523410501594 0 0.39943642014919739 -0.20628213039901491 0 0.39943642014919739 -0.20628213039901491 0 0.40748055254024801 -0.21222984564389699 0 0.40974176763513698 -0.20305100091979059 0 0.39734165693203422 -0.2176523410501594 0 0.39943642014919739 -0.20628213039901491 0 0.40748055254024801 -0.21222984564389699 0 0.39734165693203422 -0.2176523410501594 0 0.40748055254024801 -0.21222984564389699 0 0.41186460310795853 -0.222379486577785 0 0.40748055254024801 -0.21222984564389699 0 0.40974176763513698 -0.20305100091979059 0 0.4233987953867332 -0.19905765039093479 0 0.4233987953867332 -0.19905765039093479 0 0.41186460310795853 -0.222379486577785 0 0.42092322105685082 -0.21138905140971789 0 0.4233987953867332 -0.19905765039093479 0 0.41186460310795853 -0.222379486577785 0 0.40748055254024801 -0.21222984564389699 0 0.4233987953867332 -0.19905765039093479 0 0.41186460310795853 -0.222379486577785 0 0.4019074841688679 -0.19363434501482879 0 0.41314710305253177 -0.19340508154877131 0 0.41067650338752232 -0.18498421441702401 0 0.41314710305253177 -0.19340508154877131 0 0.40974176763513698 -0.20305100091979059 0 0.41838252480765858 -0.196503766038753 0 0.4019074841688679 -0.19363434501482879 0 0.41314710305253177 -0.19340508154877131 0 0.40974176763513698 -0.20305100091979059 0 0.40974176763513698 -0.20305100091979059 0 0.41838252480765858 -0.196503766038753 0 0.4233987953867332 -0.19905765039093479 0 0.40974176763513698 -0.20305100091979059 0 0.4233987953867332 -0.19905765039093479 0 0.41838252480765858 -0.196503766038753 0 0.42241883303378541 -0.18909127273861009 0 0.4233987953867332 -0.19905765039093479 0 0.41314710305253177 -0.19340508154877131 0 0.41838252480765858 -0.196503766038753 0 0.42241883303378541 -0.18909127273861009 0 0.41314710305253177 -0.19340508154877131 0 0.42241883303378541 -0.18909127273861009 0 0.41067650338752232 -0.18498421441702401 0 0.4233987953867332 -0.19905765039093479 0 0.44064363782274829 -0.1940152134921887 0 0.4233987953867332 -0.19905765039093479 0 0.43513206095981122 -0.1719310454517084 0 0.44064363782274829 -0.1940152134921887 0 0.4233987953867332 -0.19905765039093479 0 0.43634917411068752 -0.20906547832120501 0 0.44064363782274829 -0.1940152134921887 0 0.42241883303378541 -0.18909127273861009 0 0.4233987953867332 -0.19905765039093479 0 0.4233987953867332 -0.19905765039093479 0 0.42592981284315368 -0.22479851251634611 0 0.4233987953867332 -0.19905765039093479 0 0.43634917411068752 -0.20906547832120501 0 0.42592981284315368 -0.22479851251634611 0 0.42092322105685082 -0.21138905140971789 0 0.4233987953867332 -0.19905765039093479 0 0.42592981284315368 -0.22479851251634611 0 0.42592981284315368 -0.22479851251634611 0 0.4383337432724953 -0.22508748932148401 0 0.42846083029957449 -0.2505393746417573 0 0.43634917411068752 -0.20906547832120501 0 0.42592981284315368 -0.22479851251634611 0 0.4383337432724953 -0.22508748932148401 0 0.42592981284315368 -0.22479851251634611 0 0.41625662325592577 -0.2385802670480672 0 0.42846083029957449 -0.2505393746417573 0 0.42592981284315368 -0.22479851251634611 0 0.42846083029957449 -0.2505393746417573 0 0.40122953332635891 -0.2454384170017645 0 0.41625662325592577 -0.2385802670480672 0 0.41186460310795853 -0.222379486577785 0 0.41625662325592577 -0.2385802670480672 0 0.41302671508189398 -0.25107389522278412 0 0.42846083029957449 -0.2505393746417573 0 0.40122953332635891 -0.2454384170017645 0 0.41625662325592577 -0.2385802670480672 0 0.41302671508189398 -0.25107389522278412 0 0.40122953332635891 -0.2454384170017645 0 0.41186460310795853 -0.222379486577785 0 0.42592981284315368 -0.22479851251634611 0 0.41625662325592577 -0.2385802670480672 0 0.41186460310795853 -0.222379486577785 0 0.42092322105685082 -0.21138905140971789 0 0.42592981284315368 -0.22479851251634611 0 0.41186460310795853 -0.222379486577785 0 0.3994736011242353 -0.13208711879835691 0 0.37590145401963498 -0.1304655197827134 0 0.38654437889993448 -0.14949546048180129 0 0.38916326183786282 -0.1175632209054157 0 0.3994736011242353 -0.13208711879835691 0 0.37590145401963498 -0.1304655197827134 0 0.38654437889993448 -0.14949546048180129 0 0.40371769197783608 -0.1624079248653123 0 0.41030953067980241 -0.14887664227359881 0 0.3994736011242353 -0.13208711879835691 0 0.38654437889993448 -0.14949546048180129 0 0.41030953067980241 -0.14887664227359881 0 0.38654437889993448 -0.14949546048180129 0 0.40371769197783608 -0.1624079248653123 0 0.39240908422563969 -0.17160113546917069 0 0.40371769197783608 -0.1624079248653123 0 0.39240908422563969 -0.17160113546917069 0 0.40859132348554489 -0.17493291360407581 0 0.38654437889993448 -0.14949546048180129 0 0.39240908422563969 -0.17160113546917069 0 0.3780414987929907 -0.16366466293502771 0 0.36714120620118101 -0.17500303037252421 0 0.3780414987929907 -0.16366466293502771 0 0.38048642758128731 -0.17602708936564049 0 0.39240908422563969 -0.17160113546917069 0 0.3780414987929907 -0.16366466293502771 0 0.38048642758128731 -0.17602708936564049 0 0.39240908422563969 -0.17160113546917069 0 0.38048642758128731 -0.17602708936564049 0 0.38703306494582251 -0.18693031588672329 0 0.39240908422563969 -0.17160113546917069 0 0.38703306494582251 -0.18693031588672329 0 0.39240908422563969 -0.17160113546917069 0 0.38703306494582251 -0.18693031588672329 0 0.39865631125712803 -0.18194332722869189 0 0.39240908422563969 -0.17160113546917069 0 0.39865631125712803 -0.18194332722869189 0 0.40859132348554489 -0.17493291360407581 0 0.39865631125712803 -0.18194332722869189 0 0.41067650338752232 -0.18498421441702401 0 0.40859132348554489 -0.17493291360407581 0 0.4019074841688679 -0.19363434501482879 0 0.39865631125712803 -0.18194332722869189 0 0.41067650338752232 -0.18498421441702401 0 0.41067650338752232 -0.18498421441702401 0 0.40859132348554489 -0.17493291360407581 0 0.41985428739426339 -0.17706489255581789 0 0.40859132348554489 -0.17493291360407581 0 0.41985428739426339 -0.17706489255581789 0 0.41907764024642291 -0.16409481193441741 0 0.42241883303378541 -0.18909127273861009 0 0.41067650338752232 -0.18498421441702401 0 0.41985428739426339 -0.17706489255581789 0 0.4233987953867332 -0.19905765039093479 0 0.43513206095981122 -0.1719310454517084 0 0.42241883303378541 -0.18909127273861009 0 0.41985428739426339 -0.17706489255581789 0 0.43513206095981122 -0.1719310454517084 0 0.42241883303378541 -0.18909127273861009 0 0.4233987953867332 -0.19905765039093479 0 0.43513206095981122 -0.1719310454517084 0 0.43513206095981122 -0.1719310454517084 0 0.41907764024642291 -0.16409481193441741 0 0.427836667305586 -0.15228226292756131 0 0.43513206095981122 -0.1719310454517084 0 0.427836667305586 -0.15228226292756131 0 0.44700201966851572 -0.1461946320928515 0 0.41985428739426339 -0.17706489255581789 0 0.43513206095981122 -0.1719310454517084 0 0.41907764024642291 -0.16409481193441741 0 0.40371769197783608 -0.1624079248653123 0 0.40859132348554489 -0.17493291360407581 0 0.41907764024642291 -0.16409481193441741 0 0.40371769197783608 -0.1624079248653123 0 0.41907764024642291 -0.16409481193441741 0 0.41030953067980241 -0.14887664227359881 0 0.41907764024642291 -0.16409481193441741 0 0.41030953067980241 -0.14887664227359881 0 0.427836667305586 -0.15228226292756131 0 0.41030953067980241 -0.14887664227359881 0 0.427836667305586 -0.15228226292756131 0 0.42766208497337771 -0.1303141828852305 0 0.427836667305586 -0.15228226292756131 0 0.42766208497337771 -0.1303141828852305 0 0.44700201966851572 -0.1461946320928515 0 0.42766208497337771 -0.1303141828852305 0 0.44700201966851572 -0.1461946320928515 0 0.3994736011242353 -0.13208711879835691 0 0.41030953067980241 -0.14887664227359881 0 0.42766208497337771 -0.1303141828852305 0 0.40832215027824031 -0.1144337336776084 0 0.3994736011242353 -0.13208711879835691 0 0.42766208497337771 -0.1303141828852305 0 0.4571224865995171 -0.1242514622206706 0 0.44700201966851572 -0.1461946320928515 0 0.47707070035431021 -0.13922479809624089 0 0.4571224865995171 -0.1242514622206706 0 0.42766208497337771 -0.1303141828852305 0 0.44700201966851572 -0.1461946320928515 0 0.4571224865995171 -0.1242514622206706 0 0.44700201966851572 -0.1461946320928515 0 0.44700201966851572 -0.1461946320928515 0 0.46528528865298657 -0.1612074296557211 0 0.47707070035431021 -0.13922479809624089 0 0.44700201966851572 -0.1461946320928515 0 0.46528528865298657 -0.1612074296557211 0 0.44700201966851572 -0.1461946320928515 0 0.46528528865298657 -0.1612074296557211 0 0.45229044673054569 -0.17110279427178871 0 0.46528528865298657 -0.1612074296557211 0 0.45229044673054569 -0.17110279427178871 0 0.46594668618593887 -0.1759106123672266 0 0.43513206095981122 -0.1719310454517084 0 0.44700201966851572 -0.1461946320928515 0 0.45229044673054569 -0.17110279427178871 0 0.43513206095981122 -0.1719310454517084 0 0.44700201966851572 -0.1461946320928515 0 0.43513206095981122 -0.1719310454517084 0 0.44689960834291859 -0.18476180513423979 0 0.44064363782274829 -0.1940152134921887 0 0.43513206095981122 -0.1719310454517084 0 0.45229044673054569 -0.17110279427178871 0 0.44689960834291859 -0.18476180513423979 0 0.45229044673054569 -0.17110279427178871 0 0.44689960834291859 -0.18476180513423979 0 0.45776297058038151 -0.17920234105381189 0 0.47894424012938203 -0.18281601749884699 0 0.45788848025876289 -0.18897277659344119 0 0.44689960834291859 -0.18476180513423979 0 0.45776297058038151 -0.17920234105381189 0 0.45788848025876289 -0.18897277659344119 0 0.45945493280855287 -0.18486891380219 0 0.45776297058038151 -0.17920234105381189 0 0.45788848025876289 -0.18897277659344119 0 0.46458515310363041 -0.18327910725482249 0 0.47894424012938203 -0.18281601749884699 0 0.45788848025876289 -0.18897277659344119 0 0.45945493280855287 -0.18486891380219 0 0.46458515310363041 -0.18327910725482249 0 0.45788848025876289 -0.18897277659344119 0 0.45945493280855287 -0.18486891380219 0 0.45776297058038151 -0.17920234105381189 0 0.46458515310363041 -0.18327910725482249 0 0.45229044673054569 -0.17110279427178871 0 0.45776297058038151 -0.17920234105381189 0 0.46594668618593887 -0.1759106123672266 0 0.45776297058038151 -0.17920234105381189 0 0.46594668618593887 -0.1759106123672266 0 0.46458515310363041 -0.18327910725482249 0 0.46594668618593887 -0.1759106123672266 0 0.46458515310363041 -0.18327910725482249 0 0.47276005740280119 -0.18000582154060499 0 0.46594668618593887 -0.1759106123672266 0 0.47276005740280119 -0.18000582154060499 0 0.48356855763745837 -0.17622022721858971 0 0.46458515310363041 -0.18327910725482249 0 0.47276005740280119 -0.18000582154060499 0 0.47894424012938203 -0.18281601749884699 0 0.47276005740280119 -0.18000582154060499 0 0.48356855763745837 -0.17622022721858971 0 0.47894424012938203 -0.18281601749884699 0 0.48356855763745837 -0.17622022721858971 0 0.47894424012938203 -0.18281601749884699 0 0.50000000000000111 -0.17665925840425251 0 0.47894424012938203 -0.18281601749884699 0 0.50000000000000111 -0.17665925840425251 0 0.48695031280521112 -0.19542122600488829 0 0.47894424012938203 -0.18281601749884699 0 0.50000000000000111 -0.17665925840425251 0 0.50000000000000111 -0.17665925840425251 0 0.48471002826861298 -0.15966095029447669 0 0.5 -0.1490420908497305 0 0.48356855763745837 -0.17622022721858971 0 0.50000000000000111 -0.17665925840425251 0 0.48471002826861298 -0.15966095029447669 0 0.46528528865298657 -0.1612074296557211 0 0.46594668618593887 -0.1759106123672266 0 0.48356855763745837 -0.17622022721858971 0 0.46528528865298657 -0.1612074296557211 0 0.48356855763745837 -0.17622022721858971 0 0.48471002826861298 -0.15966095029447669 0 0.46528528865298657 -0.1612074296557211 0 0.48356855763745837 -0.17622022721858971 0 0.46528528865298657 -0.1612074296557211 0 0.48471002826861298 -0.15966095029447669 0 0.47707070035431021 -0.13922479809624089 0 0.48471002826861298 -0.15966095029447669 0 0.5 -0.1490420908497305 0 0.47707070035431021 -0.13922479809624089 0 0.5 -0.12142492329520869 0 0.5 -0.1490420908497305 0 0.47707070035431021 -0.13922479809624089 0 0.48076414131777562 -0.11247395638408229 0 0.4571224865995171 -0.1242514622206706 0 0.47707070035431021 -0.13922479809624089 0 0.45230803525700092 -0.23106084307724251 0 0.46566689554878721 -0.21320691640823181 0 0.47344531083881219 -0.2374410562230222 0 0.45230803525700092 -0.23106084307724251 0 0.47344531083881219 -0.2374410562230222 0 0.45450155035402928 -0.25772169598388828 0 0.45230803525700092 -0.23106084307724251 0 0.45450155035402928 -0.25772169598388828 0 0.42846083029957449 -0.2505393746417573 0 0.45230803525700092 -0.23106084307724251 0 0.4383337432724953 -0.22508748932148401 0 0.42846083029957449 -0.2505393746417573 0 0.45230803525700092 -0.23106084307724251 0 0.4383337432724953 -0.22508748932148401 0 0.44862086385206013 -0.20997323805086951 0 0.43634917411068752 -0.20906547832120501 0 0.4383337432724953 -0.22508748932148401 0 0.44862086385206013 -0.20997323805086951 0 0.43634917411068752 -0.20906547832120501 0 0.44862086385206013 -0.20997323805086951 0 0.44064363782274829 -0.1940152134921887 0 0.44862086385206013 -0.20997323805086951 0 0.44064363782274829 -0.1940152134921887 0 0.45788848025876289 -0.18897277659344119 0 0.44064363782274829 -0.1940152134921887 0 0.45788848025876289 -0.18897277659344119 0 0.44689960834291859 -0.18476180513423979 0 0.44064363782274829 -0.1940152134921887 0 0.45788848025876289 -0.18897277659344119 0 0.45788848025876289 -0.18897277659344119 0 0.46566689554878721 -0.21320691640823181 0 0.4744743706385684 -0.1984163234079496 0 0.45788848025876289 -0.18897277659344119 0 0.46566689554878721 -0.21320691640823181 0 0.45230803525700092 -0.23106084307724251 0 0.44862086385206013 -0.20997323805086951 0 0.46566689554878721 -0.21320691640823181 0 0.44862086385206013 -0.20997323805086951 0 0.45788848025876289 -0.18897277659344119 0 0.46566689554878721 -0.21320691640823181 0 0.50000000000000111 -0.17665925840425251 0 0.48695031280521112 -0.19542122600488829 0 0.5 -0.20859699197631781 0 0.46566689554878721 -0.21320691640823181 0 0.48010737796627578 -0.21061650280408201 0 0.4744743706385684 -0.1984163234079496 0 0.47894424012938203 -0.18281601749884699 0 0.45788848025876289 -0.18897277659344119 0 0.4744743706385684 -0.1984163234079496 0 0.48010737796627578 -0.21061650280408201 0 0.4744743706385684 -0.1984163234079496 0 0.48695031280521112 -0.19542122600488829 0 0.47894424012938203 -0.18281601749884699 0 0.4744743706385684 -0.1984163234079496 0 0.48695031280521112 -0.19542122600488829 0 0.48010737796627578 -0.21061650280408201 0 0.48695031280521112 -0.19542122600488829 0 0.5 -0.20859699197631781 0 0.48010737796627578 -0.21061650280408201 0 0.5 -0.20859699197631781 0 0.47344531083881219 -0.2374410562230222 0 0.5 -0.20859699197631781 0 0.47344531083881219 -0.2374410562230222 0 0.5 -0.2521374454371399 0 0.46566689554878721 -0.21320691640823181 0 0.48010737796627578 -0.21061650280408201 0 0.47344531083881219 -0.2374410562230222 0 0.46566689554878721 -0.21320691640823181 0 0.47344531083881219 -0.2374410562230222 0 0.47344531083881219 -0.2374410562230222 0 0.48122372612883751 -0.26167519603781259 0 0.5 -0.2521374454371399 0 0.48122372612883751 -0.26167519603781259 0 0.48083826242836702 -0.28185930718039143 0 0.47344531083881219 -0.2374410562230222 0 0.5 -0.2521374454371399 0 0.48122372612883751 -0.26167519603781259 0 0.48122372612883751 -0.26167519603781259 0 0.46714863757369329 -0.27072357042295259 0 0.48083826242836702 -0.28185930718039143 0 0.47344531083881219 -0.2374410562230222 0 0.48122372612883751 -0.26167519603781259 0 0.45450155035402928 -0.25772169598388828 0 0.48122372612883751 -0.26167519603781259 0 0.45450155035402928 -0.25772169598388828 0 0.46714863757369329 -0.27072357042295259 0 0.46714863757369329 -0.27072357042295259 0 0.45772142258727888 -0.28642090412011501 0 0.48083826242836702 -0.28185930718039143 0 0.45450155035402928 -0.25772169598388828 0 0.46714863757369329 -0.27072357042295259 0 0.45772142258727888 -0.28642090412011501 0 0.45450155035402928 -0.25772169598388828 0 0.45772142258727888 -0.28642090412011501 0 0.43099184775599519 -0.27628023676716829 0 0.45450155035402928 -0.25772169598388828 0 0.42846083029957449 -0.2505393746417573 0 0.43099184775599519 -0.27628023676716829 0 0.45772142258727888 -0.28642090412011501 0 0.4592419275884233 -0.31510111072011893 0 0.43352286521241601 -0.30202109889257939 0 0.45772142258727888 -0.28642090412011501 0 0.43099184775599519 -0.27628023676716829 0 0.43352286521241601 -0.30202109889257939 0 0.45772142258727888 -0.28642090412011501 0 0.47566169074601627 -0.30398442435154172 0 0.4592419275884233 -0.31510111072011893 0 0.5 -0.2521374454371399 0 0.48083826242836702 -0.28185930718039143 0 0.5 -0.31151994777747999 0 0.45772142258727888 -0.28642090412011501 0 0.47566169074601627 -0.30398442435154172 0 0.48083826242836702 -0.28185930718039143 0 0.47566169074601627 -0.30398442435154172 0 0.48083826242836702 -0.28185930718039143 0 0.5 -0.31151994777747999 0 0.5 -0.31151994777747999 0 0.48784771713232228 -0.35208609772150162 0 0.5 -0.39249621205173618 0 0.5 -0.31151994777747999 0 0.47458906299155768 -0.32913986111756838 0 0.48784771713232228 -0.35208609772150162 0 0.47566169074601627 -0.30398442435154172 0 0.5 -0.31151994777747999 0 0.47458906299155768 -0.32913986111756838 0 0.47566169074601627 -0.30398442435154172 0 0.47458906299155768 -0.32913986111756838 0 0.4592419275884233 -0.31510111072011893 0 0.48784771713232228 -0.35208609772150162 0 0.47418659988435702 -0.37139315160212988 0 0.5 -0.39249621205173618 0 0.48784771713232228 -0.35208609772150162 0 0.47418659988435702 -0.37139315160212988 0 0.46873439846944448 -0.35158765713876627 0 0.47458906299155768 -0.32913986111756838 0 0.48784771713232228 -0.35208609772150162 0 0.46873439846944448 -0.35158765713876627 0 0.48784771713232228 -0.35208609772150162 0 0.47418659988435702 -0.37139315160212988 0 0.47418659988435702 -0.37139315160212988 0 0.45591553111852151 -0.36472667815038889 0 0.46873439846944448 -0.35158765713876627 0 0.45591553111852151 -0.36472667815038889 0 0.46873439846944448 -0.35158765713876627 0 0.45113308122046442 -0.3405924971022426 0 0.45591553111852151 -0.36472667815038889 0 0.43872192811408928 -0.35503214332672772 0 0.45113308122046442 -0.3405924971022426 0 0.43872192811408928 -0.35503214332672772 0 0.45113308122046442 -0.3405924971022426 0 0.43377557512936121 -0.33730128275127691 0 0.45591553111852151 -0.36472667815038889 0 0.43872192811408928 -0.35503214332672772 0 0.4393570695047726 -0.37478133956090132 0 0.47458906299155768 -0.32913986111756838 0 0.4592419275884233 -0.31510111072011893 0 0.45113308122046442 -0.3405924971022426 0 0.47458906299155768 -0.32913986111756838 0 0.46873439846944448 -0.35158765713876627 0 0.45113308122046442 -0.3405924971022426 0 0.45113308122046442 -0.3405924971022426 0 0.44194882319816808 -0.3232946126927746 0 0.43377557512936121 -0.33730128275127691 0 0.4592419275884233 -0.31510111072011893 0 0.45113308122046442 -0.3405924971022426 0 0.44194882319816808 -0.3232946126927746 0 0.4592419275884233 -0.31510111072011893 0 0.44194882319816808 -0.3232946126927746 0 0.43352286521241601 -0.30202109889257939 0 0.42443602054191831 -0.32701761714265659 0 0.41572405002488361 -0.31563579128493408 0 0.43352286521241601 -0.30202109889257939 0 0.44194882319816808 -0.3232946126927746 0 0.42443602054191831 -0.32701761714265659 0 0.43352286521241601 -0.30202109889257939 0 0.44194882319816808 -0.3232946126927746 0 0.42443602054191831 -0.32701761714265659 0 0.43377557512936121 -0.33730128275127691 0 0.43377557512936121 -0.33730128275127691 0 0.41969838088899242 -0.33969153605125563 0 0.42647462439252731 -0.34873165099889358 0 0.42443602054191831 -0.32701761714265659 0 0.43377557512936121 -0.33730128275127691 0 0.41969838088899242 -0.33969153605125563 0 0.42443602054191831 -0.32701761714265659 0 0.41969838088899242 -0.33969153605125563 0 0.41235538304673769 -0.32921272515526678 0 0.41969838088899242 -0.33969153605125563 0 0.41235538304673769 -0.32921272515526678 0 0.40564856200714811 -0.345200365186631 0 0.41235538304673769 -0.32921272515526678 0 0.41572405002488361 -0.31563579128493408 0 0.40016972142192508 -0.31728480400125808 0 0.42443602054191831 -0.32701761714265659 0 0.41235538304673769 -0.32921272515526678 0 0.41572405002488361 -0.31563579128493408 0 0.43872192811408928 -0.35503214332672772 0 0.4393570695047726 -0.37478133956090132 0 0.42566157599545662 -0.36467833270900402 0 0.4393570695047726 -0.37478133956090132 0 0.42566157599545662 -0.36467833270900402 0 0.42474535414551112 -0.38281676524344449 0 0.43872192811408928 -0.35503214332672772 0 0.43377557512936121 -0.33730128275127691 0 0.42647462439252731 -0.34873165099889358 0 0.42566157599545662 -0.36467833270900402 0 0.42647462439252731 -0.34873165099889358 0 0.41766955609938211 -0.35425504317663731 0 0.43872192811408928 -0.35503214332672772 0 0.42566157599545662 -0.36467833270900402 0 0.42647462439252731 -0.34873165099889358 0 0.41766955609938211 -0.35425504317663731 0 0.41112740259237113 -0.37311592637200369 0 0.40564856200714811 -0.345200365186631 0 0.41112740259237113 -0.37311592637200369 0 0.40564856200714811 -0.345200365186631 0 0.41969838088899242 -0.33969153605125563 0 0.42647462439252731 -0.34873165099889358 0 0.41766955609938211 -0.35425504317663731 0 0.41969838088899242 -0.33969153605125563 0 0.41766955609938211 -0.35425504317663731 0 0.40564856200714811 -0.345200365186631 0 0.42566157599545662 -0.36467833270900402 0 0.41766955609938211 -0.35425504317663731 0 0.41112740259237113 -0.37311592637200369 0 0.42566157599545662 -0.36467833270900402 0 0.41112740259237113 -0.37311592637200369 0 0.42474535414551112 -0.38281676524344449 0 0.41112740259237113 -0.37311592637200369 0 0.39522774680648082 -0.35284392967435402 0 0.38619262602800708 -0.36637674047714952 0 0.41112740259237113 -0.37311592637200369 0 0.39522774680648082 -0.35284392967435402 0 0.40564856200714811 -0.345200365186631 0 0.39522774680648082 -0.35284392967435402 0 0.40564856200714811 -0.345200365186631 0 0.39944743381850362 -0.34062870519647309 0 0.39522774680648082 -0.35284392967435402 0 0.38619262602800708 -0.36637674047714952 0 0.37491198448982438 -0.33912433814699661 0 0.39522774680648082 -0.35284392967435402 0 0.39944743381850362 -0.34062870519647309 0 0.37491198448982438 -0.33912433814699661 0 0.38619262602800708 -0.36637674047714952 0 0.37701300469812571 -0.38252732933684203 0 0.36337543330570998 -0.36213445546499973 0 0.41235538304673769 -0.32921272515526678 0 0.40564856200714811 -0.345200365186631 0 0.40016972142192508 -0.31728480400125808 0 0.40016972142192508 -0.31728480400125808 0 0.39944743381850362 -0.34062870519647309 0 0.38721780629441072 -0.32713711586709582 0 0.40564856200714811 -0.345200365186631 0 0.40016972142192508 -0.31728480400125808 0 0.39944743381850362 -0.34062870519647309 0 0.40564856200714811 -0.345200365186631 0 0.40016972142192508 -0.31728480400125808 0 0.39944743381850362 -0.34062870519647309 0 0.37491198448982438 -0.33912433814699661 0 0.39944743381850362 -0.34062870519647309 0 0.38721780629441072 -0.32713711586709582 0 0.37491198448982438 -0.33912433814699661 0 0.38721780629441072 -0.32713711586709582 0 0.36894938420794671 -0.32027131444029999 0 0.37491198448982438 -0.33912433814699661 0 0.38721780629441072 -0.32713711586709582 0 0.38346181650652827 -0.30729124765511528 0 0.36894938420794671 -0.32027131444029999 0 0.40016972142192508 -0.31728480400125808 0 0.38721780629441072 -0.32713711586709582 0 0.38346181650652827 -0.30729124765511528 0 0.38346181650652827 -0.30729124765511528 0 0.37826539445723678 -0.29034598971074688 0 0.36715833027398848 -0.30020053250048101 0 0.40016972142192508 -0.31728480400125808 0 0.38346181650652827 -0.30729124765511528 0 0.39469088083670278 -0.28936924281588511 0 0.40016972142192508 -0.31728480400125808 0 0.39469088083670278 -0.28936924281588511 0 0.40016972142192508 -0.31728480400125808 0 0.39469088083670278 -0.28936924281588511 0 0.40813625990142133 -0.30264271123290959 0 0.39469088083670278 -0.28936924281588511 0 0.40813625990142133 -0.30264271123290959 0 0.40674172804155267 -0.28671694392354452 0 0.39469088083670278 -0.28936924281588511 0 0.40051697537399078 -0.27761483236512552 0 0.40674172804155267 -0.28671694392354452 0 0.39469088083670278 -0.28936924281588511 0 0.40813625990142133 -0.30264271123290959 0 0.39469088083670278 -0.28936924281588511 0 0.37850347272288898 -0.2733888045316239 0 0.39469088083670278 -0.28936924281588511 0 0.37826539445723678 -0.29034598971074688 0 0.37850347272288898 -0.2733888045316239 0 0.38346181650652827 -0.30729124765511528 0 0.39469088083670278 -0.28936924281588511 0 0.37826539445723678 -0.29034598971074688 0 0.39469088083670278 -0.28936924281588511 0 0.37850347272288898 -0.2733888045316239 0 0.38808641525504511 -0.27393529115344378 0 0.37850347272288898 -0.2733888045316239 0 0.37556493909755589 -0.26007368374764239 0 0.38358964814061741 -0.26532208665444862 0 0.39059446354475952 -0.26849734742574421 0 0.38808641525504511 -0.27393529115344378 0 0.38358964814061741 -0.26532208665444862 0 0.37850347272288898 -0.2733888045316239 0 0.38808641525504511 -0.27393529115344378 0 0.38358964814061741 -0.26532208665444862 0 0.39059446354475952 -0.26849734742574421 0 0.38808641525504511 -0.27393529115344378 0 0.37495946192752022 -0.24961603069556479 0 0.38236589047673691 -0.25419861701114987 0 0.37556493909755589 -0.26007368374764239 0 0.38236589047673691 -0.25419861701114987 0 0.37556493909755589 -0.26007368374764239 0 0.38358964814061741 -0.26532208665444862 0 0.38236589047673691 -0.25419861701114987 0 0.38901407744825411 -0.26044502977070838 0 0.38358964814061741 -0.26532208665444862 0 0.39059446354475952 -0.26849734742574421 0 0.38901407744825411 -0.26044502977070838 0 0.38358964814061741 -0.26532208665444862 0 0.39059446354475952 -0.26849734742574421 0 0.38901407744825411 -0.26044502977070838 0 0.40122953332635891 -0.2454384170017645 0 0.38236589047673691 -0.25419861701114987 0 0.38901407744825411 -0.26044502977070838 0 0.40122953332635891 -0.2454384170017645 0 0.39059446354475952 -0.26849734742574421 0 0.40436362081148702 -0.26086587713732801 0 0.40122953332635891 -0.2454384170017645 0 0.39059446354475952 -0.26849734742574421 0 0.38901407744825411 -0.26044502977070838 0 0.40122953332635891 -0.2454384170017645 0 0.39059446354475952 -0.26849734742574421 0 0.40122953332635891 -0.2454384170017645 0 0.40436362081148702 -0.26086587713732801 0 0.41302671508189398 -0.25107389522278412 0 0.39469088083670278 -0.28936924281588511 0 0.39059446354475952 -0.26849734742574421 0 0.39469088083670278 -0.28936924281588511 0 0.39059446354475952 -0.26849734742574421 0 0.40051697537399078 -0.27761483236512552 0 0.39469088083670278 -0.28936924281588511 0 0.39059446354475952 -0.26849734742574421 0 0.38808641525504511 -0.27393529115344378 0 0.39059446354475952 -0.26849734742574421 0 0.40074495813364958 -0.26962520575325122 0 0.40051697537399078 -0.27761483236512552 0 0.40436362081148702 -0.26086587713732801 0 0.40074495813364958 -0.26962520575325122 0 0.41133462747158162 -0.27478878157295988 0 0.39059446354475952 -0.26849734742574421 0 0.40436362081148702 -0.26086587713732801 0 0.40074495813364958 -0.26962520575325122 0 0.40051697537399078 -0.27761483236512552 0 0.41133462747158162 -0.27478878157295988 0 0.40674172804155267 -0.28671694392354452 0 0.40074495813364958 -0.26962520575325122 0 0.40051697537399078 -0.27761483236512552 0 0.41133462747158162 -0.27478878157295988 0 0.41133462747158162 -0.27478878157295988 0 0.41763552828410638 -0.26270963306839951 0 0.43099184775599519 -0.27628023676716829 0 0.41133462747158162 -0.27478878157295988 0 0.43099184775599519 -0.27628023676716829 0 0.4190298966240672 -0.2891691516308425 0 0.40436362081148702 -0.26086587713732801 0 0.41133462747158162 -0.27478878157295988 0 0.41763552828410638 -0.26270963306839951 0 0.40436362081148702 -0.26086587713732801 0 0.41302671508189398 -0.25107389522278412 0 0.41763552828410638 -0.26270963306839951 0 0.41302671508189398 -0.25107389522278412 0 0.41763552828410638 -0.26270963306839951 0 0.42846083029957449 -0.2505393746417573 0 0.42846083029957449 -0.2505393746417573 0 0.43099184775599519 -0.27628023676716829 0 0.41763552828410638 -0.26270963306839951 0 0.42846083029957449 -0.2505393746417573 0 0.43099184775599519 -0.27628023676716829 0 0.43099184775599519 -0.27628023676716829 0 0.43352286521241601 -0.30202109889257939 0 0.4190298966240672 -0.2891691516308425 0 0.43099184775599519 -0.27628023676716829 0 0.43352286521241601 -0.30202109889257939 0 0.43352286521241601 -0.30202109889257939 0 0.40813625990142133 -0.30264271123290959 0 0.4190298966240672 -0.2891691516308425 0 0.41572405002488361 -0.31563579128493408 0 0.43352286521241601 -0.30202109889257939 0 0.40813625990142133 -0.30264271123290959 0 0.41572405002488361 -0.31563579128493408 0 0.40016972142192508 -0.31728480400125808 0 0.40813625990142133 -0.30264271123290959 0 0.40813625990142133 -0.30264271123290959 0 0.40674172804155267 -0.28671694392354452 0 0.4190298966240672 -0.2891691516308425 0 0.41133462747158162 -0.27478878157295988 0 0.40674172804155267 -0.28671694392354452 0 0.4190298966240672 -0.2891691516308425 0 0.5 -0.5 0 0.44686436538842628 -0.41000725936338678 0 0.43320324814046091 -0.42931431324401531 0 0.5 -0.5 0 0.42631534838482088 -0.4505009174945373 0 0.41470146412657483 -0.4712179818296835 0 0.5 -0.5 0 0.43320324814046091 -0.42931431324401531 0 0.42631534838482088 -0.4505009174945373 0 0.5 -0.5 0 0.44686436538842628 -0.41000725936338678 0 0.5 -0.39249621205173618 0 0.44686436538842628 -0.41000725936338678 0 0.43320324814046091 -0.42931431324401531 0 0.44686436538842628 -0.41000725936338678 0 0.5 -0.39249621205173618 0 0.4605254826363917 -0.3907002054827583 0 0.47418659988435702 -0.37139315160212988 0 0.5 -0.39249621205173618 0 0.4605254826363917 -0.3907002054827583 0 0.47418659988435702 -0.37139315160212988 0 0.45591553111852151 -0.36472667815038889 0 0.4605254826363917 -0.3907002054827583 0 0.47418659988435702 -0.37139315160212988 0 0.4605254826363917 -0.3907002054827583 0 0.44686436538842628 -0.41000725936338678 0 0.4605254826363917 -0.3907002054827583 0 0.44686436538842628 -0.41000725936338678 0 0.4605254826363917 -0.3907002054827583 0 0.44008323267764099 -0.39308928957284822 0 0.44686436538842628 -0.41000725936338678 0 0.44008323267764099 -0.39308928957284822 0 0.43247826153376939 -0.40618245748001602 0 0.45591553111852151 -0.36472667815038889 0 0.4393570695047726 -0.37478133956090132 0 0.4605254826363917 -0.3907002054827583 0 0.4393570695047726 -0.37478133956090132 0 0.4605254826363917 -0.3907002054827583 0 0.44008323267764099 -0.39308928957284822 0 0.4393570695047726 -0.37478133956090132 0 0.44008323267764099 -0.39308928957284822 0 0.42474535414551112 -0.38281676524344449 0 0.44008323267764099 -0.39308928957284822 0 0.42474535414551112 -0.38281676524344449 0 0.42457719661824039 -0.39835077915890638 0 0.42474535414551112 -0.38281676524344449 0 0.42457719661824039 -0.39835077915890638 0 0.41660624317759137 -0.40103148755737711 0 0.44008323267764099 -0.39308928957284822 0 0.43247826153376939 -0.40618245748001602 0 0.42457719661824039 -0.39835077915890638 0 0.42462038182776202 -0.40445698031242061 0 0.41660624317759137 -0.40103148755737711 0 0.42481982598144691 -0.41226319705338332 0 0.42462038182776202 -0.40445698031242061 0 0.42457719661824039 -0.39835077915890638 0 0.41660624317759137 -0.40103148755737711 0 0.43247826153376939 -0.40618245748001602 0 0.42462038182776202 -0.40445698031242061 0 0.42457719661824039 -0.39835077915890638 0 0.42457719661824039 -0.39835077915890638 0 0.41660624317759137 -0.40103148755737711 0 0.41112740259237113 -0.37311592637200369 0 0.41660624317759137 -0.40103148755737711 0 0.39716211257309703 -0.38933518796152522 0 0.41112740259237113 -0.37311592637200369 0 0.41660624317759137 -0.40103148755737711 0 0.41112740259237113 -0.37311592637200369 0 0.42474535414551112 -0.38281676524344449 0 0.41660624317759137 -0.40103148755737711 0 0.41112740259237113 -0.37311592637200369 0 0.38619262602800708 -0.36637674047714952 0 0.39716211257309703 -0.38933518796152522 0 0.38619262602800708 -0.36637674047714952 0 0.39716211257309703 -0.38933518796152522 0 0.37701300469812571 -0.38252732933684203 0 0.37701300469812571 -0.38252732933684203 0 0.38892435676961418 -0.41034117251939578 0 0.36725513355974448 -0.40061296610293928 0 0.39716211257309703 -0.38933518796152522 0 0.37701300469812571 -0.38252732933684203 0 0.38892435676961418 -0.41034117251939578 0 0.41660624317759137 -0.40103148755737711 0 0.39716211257309703 -0.38933518796152522 0 0.38892435676961418 -0.41034117251939578 0 0.41660624317759137 -0.40103148755737711 0 0.38892435676961418 -0.41034117251939578 0 0.41660624317759137 -0.40103148755737711 0 0.40620579620814162 -0.41591647491870631 0 0.38892435676961418 -0.41034117251939578 0 0.40620579620814162 -0.41591647491870631 0 0.38892435676961418 -0.41034117251939578 0 0.3873935002002914 -0.43155392182526692 0 0.38892435676961418 -0.41034117251939578 0 0.36124247036163709 -0.41965085748141501 0 0.38892435676961418 -0.41034117251939578 0 0.3873935002002914 -0.43155392182526692 0 0.36124247036163709 -0.41965085748141501 0 0.3873935002002914 -0.43155392182526692 0 0.40485394198757613 -0.43141867799052142 0 0.39699189312573008 -0.44310276003329863 0 0.40620579620814162 -0.41591647491870631 0 0.3873935002002914 -0.43155392182526692 0 0.40485394198757613 -0.43141867799052142 0 0.40620579620814162 -0.41591647491870631 0 0.40485394198757613 -0.43141867799052142 0 0.42146079578120738 -0.42576620252595693 0 0.40485394198757613 -0.43141867799052142 0 0.42146079578120738 -0.42576620252595693 0 0.41221772462251022 -0.44075403064937829 0 0.41660624317759137 -0.40103148755737711 0 0.42146079578120738 -0.42576620252595693 0 0.42481982598144691 -0.41226319705338332 0 0.41660624317759137 -0.40103148755737711 0 0.40620579620814162 -0.41591647491870631 0 0.42146079578120738 -0.42576620252595693 0 0.41660624317759137 -0.40103148755737711 0 0.42146079578120738 -0.42576620252595693 0 0.42146079578120738 -0.42576620252595693 0 0.42481982598144691 -0.41226319705338332 0 0.43176529936506219 -0.41670668593335169 0 0.44686436538842628 -0.41000725936338678 0 0.43176529936506219 -0.41670668593335169 0 0.43320324814046091 -0.42931431324401531 0 0.43247826153376939 -0.40618245748001602 0 0.42462038182776202 -0.40445698031242061 0 0.42481982598144691 -0.41226319705338332 0 0.44686436538842628 -0.41000725936338678 0 0.43247826153376939 -0.40618245748001602 0 0.43176529936506219 -0.41670668593335169 0 0.43247826153376939 -0.40618245748001602 0 0.42481982598144691 -0.41226319705338332 0 0.43176529936506219 -0.41670668593335169 0 0.42146079578120738 -0.42576620252595693 0 0.43320324814046091 -0.42931431324401531 0 0.42631534838482088 -0.4505009174945373 0 0.42146079578120738 -0.42576620252595693 0 0.43176529936506219 -0.41670668593335169 0 0.43320324814046091 -0.42931431324401531 0 0.5 -0.5 0 0.37732017875406948 -0.5 0 0.41470146412657483 -0.4712179818296835 0 0.42146079578120738 -0.42576620252595693 0 0.42631534838482088 -0.4505009174945373 0 0.42631534838482088 -0.4505009174945373 0 0.40378936347353911 -0.45595697129973928 0 0.41470146412657483 -0.4712179818296835 0 0.42631534838482088 -0.4505009174945373 0 0.41221772462251022 -0.44075403064937829 0 0.40378936347353911 -0.45595697129973928 0 0.42146079578120738 -0.42576620252595693 0 0.42631534838482088 -0.4505009174945373 0 0.41221772462251022 -0.44075403064937829 0 0.40485394198757613 -0.43141867799052142 0 0.41221772462251022 -0.44075403064937829 0 0.39699189312573008 -0.44310276003329863 0 0.39699189312573008 -0.44310276003329863 0 0.38439928841141402 -0.45460356758458792 0 0.40378936347353911 -0.45595697129973928 0 0.41221772462251022 -0.44075403064937829 0 0.39699189312573008 -0.44310276003329863 0 0.40378936347353911 -0.45595697129973928 0 0.3873935002002914 -0.43155392182526692 0 0.38439928841141402 -0.45460356758458792 0 0.36584437015320842 -0.44715809198159168 0 0.3873935002002914 -0.43155392182526692 0 0.39699189312573008 -0.44310276003329863 0 0.38439928841141402 -0.45460356758458792 0 0.38439928841141402 -0.45460356758458792 0 0.38902602254743007 -0.47368921406577158 0 0.36335058096828532 -0.47616044630185972 0 0.40378936347353911 -0.45595697129973928 0 0.38902602254743007 -0.47368921406577158 0 0.41470146412657483 -0.4712179818296835 0 0.38439928841141402 -0.45460356758458792 0 0.40378936347353911 -0.45595697129973928 0 0.38902602254743007 -0.47368921406577158 0 0.38902602254743007 -0.47368921406577158 0 0.37732017875406948 -0.5 0 0.41470146412657483 -0.4712179818296835 0 0.38902602254743007 -0.47368921406577158 0 0.41470146412657483 -0.4712179818296835 0 0.38902602254743007 -0.47368921406577158 0 0.36335058096828532 -0.47616044630185972 0 0.38902602254743007 -0.47368921406577158 0 0.37732017875406948 -0.5 0 0.36335058096828532 -0.47616044630185972 0 0.37732017875406948 -0.5 0 0.33767513938914062 -0.47863167853794791 0 0.31111490704888539 -0.5 0 0.33767513938914062 -0.47863167853794791 0 0.31199969780999592 -0.48110291077403589 0 0.31111490704888539 -0.5 0 0.33767513938914062 -0.47863167853794791 0 0.32037327023278012 -0.46781666819623008 0 0.31199969780999592 -0.48110291077403589 0 0.33767513938914062 -0.47863167853794791 0 0.31199969780999592 -0.48110291077403589 0 0.32037327023278012 -0.46781666819623008 0 0.31199969780999592 -0.48110291077403589 0 0.3093695038811522 -0.4790219385202647 0 0.37732017875406948 -0.5 0 0.33767513938914062 -0.47863167853794791 0 0.36335058096828532 -0.47616044630185972 0 0.33767513938914062 -0.47863167853794791 0 0.36335058096828532 -0.47616044630185972 0 0.33767513938914062 -0.47863167853794791 0 0.36335058096828532 -0.47616044630185972 0 0.34147133764981641 -0.4533112322838061 0 0.36335058096828532 -0.47616044630185972 0 0.36584437015320842 -0.44715809198159168 0 0.34147133764981641 -0.4533112322838061 0 0.36584437015320842 -0.44715809198159168 0 0.34147133764981641 -0.4533112322838061 0 0.36124247036163709 -0.41965085748141501 0 0.38439928841141402 -0.45460356758458792 0 0.36335058096828532 -0.47616044630185972 0 0.36584437015320842 -0.44715809198159168 0 0.34147133764981641 -0.4533112322838061 0 0.32314108728328778 -0.44705420856011657 0 0.33356058395365978 -0.42896054244343418 0 0.34147133764981641 -0.4533112322838061 0 0.32037327023278012 -0.46781666819623008 0 0.32314108728328778 -0.44705420856011657 0 0.33767513938914062 -0.47863167853794791 0 0.34147133764981641 -0.4533112322838061 0 0.32037327023278012 -0.46781666819623008 0 0.32037327023278012 -0.46781666819623008 0 0.32314108728328778 -0.44705420856011657 0 0.307624100713419 -0.45864608296285919 0 0.32314108728328778 -0.44705420856011657 0 0.33356058395365978 -0.42896054244343418 0 0.30587869754568281 -0.43827022740545402 0 0.33356058395365978 -0.42896054244343418 0 0.30587869754568281 -0.43827022740545402 0 0.31644934037006128 -0.42344122964048048 0 0.33356058395365978 -0.42896054244343418 0 0.30587869754568281 -0.43827022740545402 0 0.31644934037006128 -0.42344122964048048 0 0.3224384062569936 -0.41113358670292671 0 0.33356058395365978 -0.42896054244343418 0 0.31644934037006128 -0.42344122964048048 0 0.3224384062569936 -0.41113358670292671 0 0.30391967372390921 -0.41540056201010711 0 0.3224384062569936 -0.41113358670292671 0 0.33356058395365978 -0.42896054244343418 0 0.34490053432764423 -0.40638072928364111 0 0.33356058395365978 -0.42896054244343418 0 0.36124247036163709 -0.41965085748141501 0 0.34147133764981641 -0.4533112322838061 0 0.33356058395365978 -0.42896054244343418 0 0.36124247036163709 -0.41965085748141501 0 0.3873935002002914 -0.43155392182526692 0 0.36584437015320842 -0.44715809198159168 0 0.36124247036163709 -0.41965085748141501 0 0.38892435676961418 -0.41034117251939578 0 0.36124247036163709 -0.41965085748141501 0 0.36725513355974448 -0.40061296610293928 0 0.36124247036163709 -0.41965085748141501 0 0.34490053432764423 -0.40638072928364111 0 0.36725513355974448 -0.40061296610293928 0 0.33356058395365978 -0.42896054244343418 0 0.36124247036163709 -0.41965085748141501 0 0.34490053432764423 -0.40638072928364111 0 0.34490053432764423 -0.40638072928364111 0 0.36725513355974448 -0.40061296610293928 0 0.35516083837636159 -0.38486451328480381 0 0.37701300469812571 -0.38252732933684203 0 0.35516083837636159 -0.38486451328480381 0 0.36337543330570998 -0.36213445546499973 0 0.37701300469812571 -0.38252732933684203 0 0.36725513355974448 -0.40061296610293928 0 0.35516083837636159 -0.38486451328480381 0 0.35516083837636159 -0.38486451328480381 0 0.32910990188755468 -0.39311116161421339 0 0.33659761108079628 -0.36229384044668628 0 0.32910990188755468 -0.39311116161421339 0 0.33659761108079628 -0.36229384044668628 0 0.31977661373550859 -0.37261180596378612 0 0.35516083837636159 -0.38486451328480381 0 0.32910990188755468 -0.39311116161421339 0 0.34490053432764423 -0.40638072928364111 0 0.35516083837636159 -0.38486451328480381 0 0.32910990188755468 -0.39311116161421339 0 0.3224384062569936 -0.41113358670292671 0 0.34490053432764423 -0.40638072928364111 0 0.32910990188755468 -0.39311116161421339 0 0.32910990188755468 -0.39311116161421339 0 0.31063569109852551 -0.38400731049811399 0 0.30305896539874772 -0.40135780994362302 0 0.32910990188755468 -0.39311116161421339 0 0.30305896539874772 -0.40135780994362302 0 0.3224384062569936 -0.41113358670292671 0 0.32910990188755468 -0.39311116161421339 0 0.30305896539874772 -0.40135780994362302 0 0.32910990188755468 -0.39311116161421339 0 0.31063569109852551 -0.38400731049811399 0 0.31977661373550859 -0.37261180596378612 0 0.31063569109852551 -0.38400731049811399 0 0.29414976423939632 -0.38354918927340348 0 0.30513903983252377 -0.36799847725245483 0 0.31063569109852551 -0.38400731049811399 0 0.30305896539874772 -0.40135780994362302 0 0.29414976423939632 -0.38354918927340348 0 0.28855687915842299 -0.3958895695255451 0 0.28001075808560721 -0.38904682061212131 0 0.27700802890994081 -0.40960445827303249 0 0.30305896539874772 -0.40135780994362302 0 0.27700802890994081 -0.40960445827303249 0 0.30305896539874772 -0.40135780994362302 0 0.28855687915842299 -0.3958895695255451 0 0.29414976423939632 -0.38354918927340348 0 0.30305896539874772 -0.40135780994362302 0 0.28855687915842299 -0.3958895695255451 0 0.27700802890994081 -0.40960445827303249 0 0.29414976423939632 -0.38354918927340348 0 0.27528213027753451 -0.37689910492476508 0 0.28001075808560721 -0.38904682061212131 0 0.28855687915842299 -0.3958895695255451 0 0.29414976423939632 -0.38354918927340348 0 0.28001075808560721 -0.38904682061212131 0 0.27528213027753451 -0.37689910492476508 0 0.28001075808560721 -0.38904682061212131 0 0.26236858605676727 -0.38179803266389001 0 0.26236858605676727 -0.38179803266389001 0 0.25111996676834131 -0.37092614410471192 0 0.24785660344515331 -0.38941470180170989 0 0.26236858605676727 -0.38179803266389001 0 0.25933491820166388 -0.40159479961589822 0 0.24785660344515331 -0.38941470180170989 0 0.28001075808560721 -0.38904682061212131 0 0.25933491820166388 -0.40159479961589822 0 0.27700802890994081 -0.40960445827303249 0 0.28001075808560721 -0.38904682061212131 0 0.26236858605676727 -0.38179803266389001 0 0.25933491820166388 -0.40159479961589822 0 0.28001075808560721 -0.38904682061212131 0 0.25933491820166388 -0.40159479961589822 0 0.27700802890994081 -0.40960445827303249 0 0.2721373095815206 -0.4217547153518556 0 0.25986908168494899 -0.41713180592291388 0 0.27700802890994081 -0.40960445827303249 0 0.2721373095815206 -0.4217547153518556 0 0.28882887895621701 -0.41885619527501322 0 0.25933491820166388 -0.40159479961589822 0 0.25986908168494899 -0.41713180592291388 0 0.23865907831772071 -0.41414277861967502 0 0.25933491820166388 -0.40159479961589822 0 0.27700802890994081 -0.40960445827303249 0 0.25986908168494899 -0.41713180592291388 0 0.25702072591614289 -0.43385611603563801 0 0.25068429260795089 -0.4274193644325488 0 0.25136918124408458 -0.43904996123601692 0 0.25702072591614289 -0.43385611603563801 0 0.25068429260795089 -0.4274193644325488 0 0.26224593276543873 -0.42863322331120107 0 0.25986908168494899 -0.41713180592291388 0 0.25068429260795089 -0.4274193644325488 0 0.26224593276543873 -0.42863322331120107 0 0.2721373095815206 -0.4217547153518556 0 0.25986908168494899 -0.41713180592291388 0 0.26224593276543873 -0.42863322331120107 0 0.25702072591614289 -0.43385611603563801 0 0.26224593276543873 -0.42863322331120107 0 0.26470088033460881 -0.43673810719805389 0 0.25702072591614289 -0.43385611603563801 0 0.26470088033460881 -0.43673810719805389 0 0.26021698330114262 -0.44008132514901549 0 0.26224593276543873 -0.42863322331120107 0 0.26470088033460881 -0.43673810719805389 0 0.27248861664697083 -0.43443574238757671 0 0.2721373095815206 -0.4217547153518556 0 0.28020422813316981 -0.4294196891401092 0 0.28882887895621701 -0.41885619527501322 0 0.26470088033460881 -0.43673810719805389 0 0.27248861664697083 -0.43443574238757671 0 0.27022120164648361 -0.44068347118852741 0 0.2721373095815206 -0.4217547153518556 0 0.26224593276543873 -0.42863322331120107 0 0.27248861664697083 -0.43443574238757671 0 0.2721373095815206 -0.4217547153518556 0 0.27248861664697083 -0.43443574238757671 0 0.28020422813316981 -0.4294196891401092 0 0.27248861664697083 -0.43443574238757671 0 0.28001418424825553 -0.4370222460514307 0 0.27520303221642278 -0.44017278674659061 0 0.27248861664697083 -0.43443574238757671 0 0.28020422813316981 -0.4294196891401092 0 0.28001418424825553 -0.4370222460514307 0 0.28001418424825553 -0.4370222460514307 0 0.28938028136994831 -0.43140200256447248 0 0.28623053075891169 -0.44013832150401139 0 0.28938028136994831 -0.43140200256447248 0 0.30587869754568281 -0.43827022740545402 0 0.28623053075891169 -0.44013832150401139 0 0.28020422813316981 -0.4294196891401092 0 0.28001418424825553 -0.4370222460514307 0 0.28938028136994831 -0.43140200256447248 0 0.28938028136994831 -0.43140200256447248 0 0.28882887895621701 -0.41885619527501322 0 0.29700188289893942 -0.42598224681376168 0 0.28020422813316981 -0.4294196891401092 0 0.28938028136994831 -0.43140200256447248 0 0.28882887895621701 -0.41885619527501322 0 0.30305896539874772 -0.40135780994362302 0 0.27700802890994081 -0.40960445827303249 0 0.28882887895621701 -0.41885619527501322 0 0.28882887895621701 -0.41885619527501322 0 0.30391967372390921 -0.41540056201010711 0 0.29700188289893942 -0.42598224681376168 0 0.3224384062569936 -0.41113358670292671 0 0.30305896539874772 -0.40135780994362302 0 0.30391967372390921 -0.41540056201010711 0 0.30305896539874772 -0.40135780994362302 0 0.28882887895621701 -0.41885619527501322 0 0.30391967372390921 -0.41540056201010711 0 0.28938028136994831 -0.43140200256447248 0 0.29700188289893942 -0.42598224681376168 0 0.30587869754568281 -0.43827022740545402 0 0.31644934037006128 -0.42344122964048048 0 0.30391967372390921 -0.41540056201010711 0 0.30587869754568281 -0.43827022740545402 0 0.30391967372390921 -0.41540056201010711 0 0.29700188289893942 -0.42598224681376168 0 0.30587869754568281 -0.43827022740545402 0 0.30391967372390921 -0.41540056201010711 0 0.30587869754568281 -0.43827022740545402 0 0.30587869754568281 -0.43827022740545402 0 0.307624100713419 -0.45864608296285919 0 0.30587869754568281 -0.43827022740545402 0 0.307624100713419 -0.45864608296285919 0 0.29531145556615002 -0.44975736432696067 0 0.32314108728328778 -0.44705420856011657 0 0.30587869754568281 -0.43827022740545402 0 0.307624100713419 -0.45864608296285919 0 0.32037327023278012 -0.46781666819623008 0 0.307624100713419 -0.45864608296285919 0 0.3093695038811522 -0.4790219385202647 0 0.307624100713419 -0.45864608296285919 0 0.29579816874749271 -0.45951325557518641 0 0.2985245960415297 -0.47028936037699531 0 0.307624100713419 -0.45864608296285919 0 0.29579816874749271 -0.45951325557518641 0 0.29531145556615002 -0.44975736432696067 0 0.29579816874749271 -0.45951325557518641 0 0.2903283735539694 -0.45497203154914678 0 0.28508519963423817 -0.4583653873568268 0 0.29579816874749271 -0.45951325557518641 0 0.2903283735539694 -0.45497203154914678 0 0.29531145556615002 -0.44975736432696067 0 0.29579816874749271 -0.45951325557518641 0 0.28572561570590999 -0.46919487629503281 0 0.2985245960415297 -0.47028936037699531 0 0.29579816874749271 -0.45951325557518641 0 0.28508519963423817 -0.4583653873568268 0 0.28572561570590999 -0.46919487629503281 0 0.2903283735539694 -0.45497203154914678 0 0.28508519963423817 -0.4583653873568268 0 0.28511867026799681 -0.45225211893761319 0 0.28508519963423817 -0.4583653873568268 0 0.28511867026799681 -0.45225211893761319 0 0.27758265721925379 -0.45445388800487391 0 0.28511867026799681 -0.45225211893761319 0 0.27820865225114061 -0.4512852622606342 0 0.28054645923504212 -0.44659371171347512 0 0.30587869754568281 -0.43827022740545402 0 0.28054645923504212 -0.44659371171347512 0 0.28511867026799681 -0.45225211893761319 0 0.29531145556615002 -0.44975736432696067 0 0.28054645923504212 -0.44659371171347512 0 0.30587869754568281 -0.43827022740545402 0 0.28623053075891169 -0.44013832150401139 0 0.28054645923504212 -0.44659371171347512 0 0.30587869754568281 -0.43827022740545402 0 0.29531145556615002 -0.44975736432696067 0 0.28054645923504212 -0.44659371171347512 0 0.2903283735539694 -0.45497203154914678 0 0.28511867026799681 -0.45225211893761319 0 0.29531145556615002 -0.44975736432696067 0 0.28623053075891169 -0.44013832150401139 0 0.2807189821335786 -0.44415447011775971 0 0.28054645923504212 -0.44659371171347512 0 0.28623053075891169 -0.44013832150401139 0 0.2807189821335786 -0.44415447011775971 0 0.27904689629933771 -0.44199580121010618 0 0.28001418424825553 -0.4370222460514307 0 0.28623053075891169 -0.44013832150401139 0 0.27904689629933771 -0.44199580121010618 0 0.28001418424825553 -0.4370222460514307 0 0.27904689629933771 -0.44199580121010618 0 0.27520303221642278 -0.44017278674659061 0 0.2807189821335786 -0.44415447011775971 0 0.27875436758955863 -0.44450114049872652 0 0.27904689629933771 -0.44199580121010618 0 0.2807189821335786 -0.44415447011775971 0 0.27875436758955863 -0.44450114049872652 0 0.28054645923504212 -0.44659371171347512 0 0.27875436758955863 -0.44450114049872652 0 0.27630082486999608 -0.44353775494466058 0 0.27697927177060622 -0.44571109645224261 0 0.27875436758955863 -0.44450114049872652 0 0.27904689629933771 -0.44199580121010618 0 0.27630082486999608 -0.44353775494466058 0 0.27904689629933771 -0.44199580121010618 0 0.27630082486999608 -0.44353775494466058 0 0.27520303221642278 -0.44017278674659061 0 0.27630082486999608 -0.44353775494466058 0 0.27480146882088657 -0.4451722511746834 0 0.27697927177060622 -0.44571109645224261 0 0.27630082486999608 -0.44353775494466058 0 0.27480146882088657 -0.4451722511746834 0 0.27302375873547691 -0.44369992207664971 0 0.27480146882088657 -0.4451722511746834 0 0.27297541587207069 -0.44601479543194328 0 0.27302375873547691 -0.44369992207664971 0 0.27630082486999608 -0.44353775494466058 0 0.27520303221642278 -0.44017278674659061 0 0.27302375873547691 -0.44369992207664971 0 0.27820865225114061 -0.4512852622606342 0 0.26852945322755378 -0.45200094240872007 0 0.27758265721925379 -0.45445388800487391 0 0.28054645923504212 -0.44659371171347512 0 0.27178958648720197 -0.44961265380296139 0 0.26852945322755378 -0.45200094240872007 0 0.28054645923504212 -0.44659371171347512 0 0.27697927177060622 -0.44571109645224261 0 0.27178958648720197 -0.44961265380296139 0 0.28054645923504212 -0.44659371171347512 0 0.27178958648720197 -0.44961265380296139 0 0.27820865225114061 -0.4512852622606342 0 0.28054645923504212 -0.44659371171347512 0 0.26852945322755378 -0.45200094240872007 0 0.28511867026799681 -0.45225211893761319 0 0.27820865225114061 -0.4512852622606342 0 0.27758265721925379 -0.45445388800487391 0 0.27875436758955863 -0.44450114049872652 0 0.28054645923504212 -0.44659371171347512 0 0.27697927177060622 -0.44571109645224261 0 0.27480146882088657 -0.4451722511746834 0 0.27697927177060622 -0.44571109645224261 0 0.27178958648720197 -0.44961265380296139 0 0.27178958648720197 -0.44961265380296139 0 0.26852945322755378 -0.45200094240872007 0 0.25732895903383329 -0.45459797197720608 0 0.27480146882088657 -0.4451722511746834 0 0.27178958648720197 -0.44961265380296139 0 0.27297541587207069 -0.44601479543194328 0 0.27178958648720197 -0.44961265380296139 0 0.27114537397374222 -0.44592330732041341 0 0.26932455575149639 -0.44674840665148841 0 0.27178958648720197 -0.44961265380296139 0 0.26932455575149639 -0.44674840665148841 0 0.26876595185813301 -0.44855402011261708 0 0.27178958648720197 -0.44961265380296139 0 0.27297541587207069 -0.44601479543194328 0 0.27114537397374222 -0.44592330732041341 0 0.27114537397374222 -0.44592330732041341 0 0.26932455575149639 -0.44674840665148841 0 0.26944098665325011 -0.44440026423820173 0 0.26604777940900609 -0.44775223929084379 0 0.26876595185813301 -0.44855402011261708 0 0.26483328323471061 -0.450780484924094 0 0.26932455575149639 -0.44674840665148841 0 0.26713141770794491 -0.44631680139867341 0 0.26876595185813301 -0.44855402011261708 0 0.26932455575149639 -0.44674840665148841 0 0.26713141770794491 -0.44631680139867341 0 0.26944098665325011 -0.44440026423820173 0 0.26713141770794491 -0.44631680139867341 0 0.26604777940900609 -0.44775223929084379 0 0.26876595185813301 -0.44855402011261708 0 0.27178958648720197 -0.44961265380296139 0 0.26876595185813301 -0.44855402011261708 0 0.26483328323471061 -0.450780484924094 0 0.27178958648720197 -0.44961265380296139 0 0.26483328323471061 -0.450780484924094 0 0.27248861664697083 -0.43443574238757671 0 0.27520303221642278 -0.44017278674659061 0 0.27022120164648361 -0.44068347118852741 0 0.27520303221642278 -0.44017278674659061 0 0.27022120164648361 -0.44068347118852741 0 0.27302375873547691 -0.44369992207664971 0 0.27297541587207069 -0.44601479543194328 0 0.27114537397374222 -0.44592330732041341 0 0.27302375873547691 -0.44369992207664971 0 0.27114537397374222 -0.44592330732041341 0 0.27302375873547691 -0.44369992207664971 0 0.26944098665325011 -0.44440026423820173 0 0.27022120164648361 -0.44068347118852741 0 0.27302375873547691 -0.44369992207664971 0 0.26944098665325011 -0.44440026423820173 0 0.27022120164648361 -0.44068347118852741 0 0.26944098665325011 -0.44440026423820173 0 0.2660118217314742 -0.44273876511636479 0 0.26713141770794491 -0.44631680139867341 0 0.26944098665325011 -0.44440026423820173 0 0.2660118217314742 -0.44273876511636479 0 0.26470088033460881 -0.43673810719805389 0 0.27022120164648361 -0.44068347118852741 0 0.2660118217314742 -0.44273876511636479 0 0.26470088033460881 -0.43673810719805389 0 0.2660118217314742 -0.44273876511636479 0 0.26021698330114262 -0.44008132514901549 0 0.26021698330114262 -0.44008132514901549 0 0.25943550903841273 -0.44648715096589081 0 0.2559999114587358 -0.44394772304122643 0 0.26021698330114262 -0.44008132514901549 0 0.26369319273036668 -0.44616193792835152 0 0.25943550903841273 -0.44648715096589081 0 0.2660118217314742 -0.44273876511636479 0 0.26021698330114262 -0.44008132514901549 0 0.26369319273036668 -0.44616193792835152 0 0.26713141770794491 -0.44631680139867341 0 0.2660118217314742 -0.44273876511636479 0 0.26369319273036668 -0.44616193792835152 0 0.27178958648720197 -0.44961265380296139 0 0.25732895903383329 -0.45459797197720608 0 0.26483328323471061 -0.450780484924094 0 0.25548466123924007 -0.45327142374677459 0 0.26483328323471061 -0.450780484924094 0 0.25732895903383329 -0.45459797197720608 0 0.25548466123924007 -0.45327142374677459 0 0.27178958648720197 -0.44961265380296139 0 0.26483328323471061 -0.450780484924094 0 0.25732895903383329 -0.45459797197720608 0 0.26369319273036668 -0.44616193792835152 0 0.26483328323471061 -0.450780484924094 0 0.26166107432110108 -0.44843660697179571 0 0.26713141770794491 -0.44631680139867341 0 0.26604777940900609 -0.44775223929084379 0 0.26369319273036668 -0.44616193792835152 0 0.26604777940900609 -0.44775223929084379 0 0.26369319273036668 -0.44616193792835152 0 0.26483328323471061 -0.450780484924094 0 0.26483328323471061 -0.450780484924094 0 0.25932820981467192 -0.44951817065431432 0 0.25548466123924007 -0.45327142374677459 0 0.26483328323471061 -0.450780484924094 0 0.25932820981467192 -0.44951817065431432 0 0.26166107432110108 -0.44843660697179571 0 0.26369319273036668 -0.44616193792835152 0 0.26166107432110108 -0.44843660697179571 0 0.25943550903841273 -0.44648715096589081 0 0.25932820981467192 -0.44951817065431432 0 0.26166107432110108 -0.44843660697179571 0 0.25943550903841273 -0.44648715096589081 0 0.25932820981467192 -0.44951817065431432 0 0.25943550903841273 -0.44648715096589081 0 0.25621550435749008 -0.44833619338356179 0 0.25621550435749008 -0.44833619338356179 0 0.2519211020100891 -0.44679589062830061 0 0.2559999114587358 -0.44394772304122643 0 0.25943550903841273 -0.44648715096589081 0 0.25621550435749008 -0.44833619338356179 0 0.2559999114587358 -0.44394772304122643 0 0.25932820981467192 -0.44951817065431432 0 0.25621550435749008 -0.44833619338356179 0 0.25548466123924007 -0.45327142374677459 0 0.25621550435749008 -0.44833619338356179 0 0.2519211020100891 -0.44679589062830061 0 0.25548466123924007 -0.45327142374677459 0 0.25702072591614289 -0.43385611603563801 0 0.26021698330114262 -0.44008132514901549 0 0.25136918124408458 -0.43904996123601692 0 0.26021698330114262 -0.44008132514901549 0 0.25136918124408458 -0.43904996123601692 0 0.2559999114587358 -0.44394772304122643 0 0.2519211020100891 -0.44679589062830061 0 0.25136918124408458 -0.43904996123601692 0 0.2559999114587358 -0.44394772304122643 0 0.25732895903383329 -0.45459797197720608 0 0.26062849152823331 -0.46654098366269992 0 0.24892331014441851 -0.46660937312845951 0 0.25732895903383329 -0.45459797197720608 0 0.25548466123924007 -0.45327142374677459 0 0.24892331014441851 -0.46660937312845951 0 0.25732895903383329 -0.45459797197720608 0 0.26407604260511192 -0.46002858021773851 0 0.26062849152823331 -0.46654098366269992 0 0.26852945322755378 -0.45200094240872007 0 0.25732895903383329 -0.45459797197720608 0 0.26448716302775771 -0.45586459018273151 0 0.25732895903383329 -0.45459797197720608 0 0.26448716302775771 -0.45586459018273151 0 0.26407604260511192 -0.46002858021773851 0 0.26448716302775771 -0.45586459018273151 0 0.26407604260511192 -0.46002858021773851 0 0.26801419724453163 -0.4568308661272612 0 0.26407604260511192 -0.46002858021773851 0 0.26062849152823331 -0.46654098366269992 0 0.27280369184844711 -0.46127048132133658 0 0.26407604260511192 -0.46002858021773851 0 0.27280369184844711 -0.46127048132133658 0 0.26801419724453163 -0.4568308661272612 0 0.26852945322755378 -0.45200094240872007 0 0.27171469460507408 -0.45621952323633819 0 0.27758265721925379 -0.45445388800487391 0 0.26852945322755378 -0.45200094240872007 0 0.26448716302775771 -0.45586459018273151 0 0.26801419724453163 -0.4568308661272612 0 0.26852945322755378 -0.45200094240872007 0 0.26801419724453163 -0.4568308661272612 0 0.27171469460507408 -0.45621952323633819 0 0.27280369184844711 -0.46127048132133658 0 0.26801419724453163 -0.4568308661272612 0 0.27171469460507408 -0.45621952323633819 0 0.28508519963423817 -0.4583653873568268 0 0.27280369184844711 -0.46127048132133658 0 0.27758265721925379 -0.45445388800487391 0 0.27280369184844711 -0.46127048132133658 0 0.27171469460507408 -0.45621952323633819 0 0.27758265721925379 -0.45445388800487391 0 0.28508519963423817 -0.4583653873568268 0 0.27280369184844711 -0.46127048132133658 0 0.28572561570590999 -0.46919487629503281 0 0.25942875430018991 -0.47899593092680942 0 0.27995863936328769 -0.5 0 0.29410559115967477 -0.48507064853163367 0 0.25942875430018991 -0.47899593092680942 0 0.29410559115967477 -0.48507064853163367 0 0.28572561570590999 -0.46919487629503281 0 0.27280369184844711 -0.46127048132133658 0 0.25942875430018991 -0.47899593092680942 0 0.28572561570590999 -0.46919487629503281 0 0.26062849152823331 -0.46654098366269992 0 0.27280369184844711 -0.46127048132133658 0 0.25942875430018991 -0.47899593092680942 0 0.26062849152823331 -0.46654098366269992 0 0.25942875430018991 -0.47899593092680942 0 0.24892331014441851 -0.46660937312845951 0 0.27995863936328769 -0.5 0 0.29410559115967477 -0.48507064853163367 0 0.31111490704888539 -0.5 0 0.29410559115967477 -0.48507064853163367 0 0.28572561570590999 -0.46919487629503281 0 0.2985245960415297 -0.47028936037699531 0 0.307624100713419 -0.45864608296285919 0 0.3093695038811522 -0.4790219385202647 0 0.307624100713419 -0.45864608296285919 0 0.2985245960415297 -0.47028936037699531 0 0.3093695038811522 -0.4790219385202647 0 0.29410559115967477 -0.48507064853163367 0 0.2985245960415297 -0.47028936037699531 0 0.3093695038811522 -0.4790219385202647 0 0.29410559115967477 -0.48507064853163367 0 0.3093695038811522 -0.4790219385202647 0 0.31111490704888539 -0.5 0 0.31199969780999592 -0.48110291077403589 0 0.3093695038811522 -0.4790219385202647 0 0.31111490704888539 -0.5 0 0.3093695038811522 -0.4790219385202647 0 0.31111490704888539 -0.5 0 0.33152762264786778 -0.29913735182688561 0 0.3311825097947011 -0.27941517375259461 0 0.34989735690301721 -0.28838716691152849 0 0.33152762264786778 -0.29913735182688561 0 0.35056983252178298 -0.31025468137459178 0 0.33445341247296401 -0.31931717973720891 0 0.33152762264786778 -0.29913735182688561 0 0.33445341247296401 -0.31931717973720891 0 0.3139519862015574 -0.31345829033900341 0 0.33152762264786778 -0.29913735182688561 0 0.3139519862015574 -0.31345829033900341 0 0.30618869701939178 -0.2860230157593347 0 0.33152762264786778 -0.29913735182688561 0 0.3311825097947011 -0.27941517375259461 0 0.30618869701939178 -0.2860230157593347 0 0.31943013572718898 -0.26478372790726867 0 0.3311825097947011 -0.27941517375259461 0 0.30618869701939178 -0.2860230157593347 0 0.30966021080157702 -0.24778673336912191 0 0.3289423451865191 -0.24692368843009069 0 0.31943013572718898 -0.26478372790726867 0 0.3289423451865191 -0.24692368843009069 0 0.33604116212116258 -0.26290444481701242 0 0.34136557605767021 -0.25086681161139812 0 0.3289423451865191 -0.24692368843009069 0 0.31943013572718898 -0.26478372790726867 0 0.33604116212116258 -0.26290444481701242 0 0.33604116212116258 -0.26290444481701242 0 0.34136557605767021 -0.25086681161139812 0 0.34901066256235092 -0.26133912935374848 0 0.31943013572718898 -0.26478372790726867 0 0.33604116212116258 -0.26290444481701242 0 0.3311825097947011 -0.27941517375259461 0 0.33604116212116258 -0.26290444481701242 0 0.3311825097947011 -0.27941517375259461 0 0.34443184554439221 -0.27364154863752832 0 0.3311825097947011 -0.27941517375259461 0 0.34443184554439221 -0.27364154863752832 0 0.34989735690301721 -0.28838716691152849 0 0.33604116212116258 -0.26290444481701242 0 0.34443184554439221 -0.27364154863752832 0 0.34901066256235092 -0.26133912935374848 0 0.34443184554439221 -0.27364154863752832 0 0.35687105873035718 -0.27293425504073782 0 0.34989735690301721 -0.28838716691152849 0 0.34443184554439221 -0.27364154863752832 0 0.35687105873035718 -0.27293425504073782 0 0.34901066256235092 -0.26133912935374848 0 0.35346002950626321 -0.2486655631124409 0 0.34136557605767021 -0.25086681161139812 0 0.34901066256235092 -0.26133912935374848 0 0.35687105873035718 -0.27293425504073782 0 0.34901066256235092 -0.26133912935374848 0 0.3623160646090739 -0.25740836624736418 0 0.35346002950626321 -0.2486655631124409 0 0.3623160646090739 -0.25740836624736418 0 0.35346002950626321 -0.2486655631124409 0 0.34901066256235092 -0.26133912935374848 0 0.3623160646090739 -0.25740836624736418 0 0.37850347272288898 -0.2733888045316239 0 0.3623160646090739 -0.25740836624736418 0 0.37850347272288898 -0.2733888045316239 0 0.37556493909755589 -0.26007368374764239 0 0.3623160646090739 -0.25740836624736418 0 0.35687105873035718 -0.27293425504073782 0 0.3623160646090739 -0.25740836624736418 0 0.37495946192752022 -0.24961603069556479 0 0.37556493909755589 -0.26007368374764239 0 0.3623160646090739 -0.25740836624736418 0 0.37850347272288898 -0.2733888045316239 0 0.3623160646090739 -0.25740836624736418 0 0.36602445061364658 -0.27158059455439398 0 0.35687105873035718 -0.27293425504073782 0 0.36602445061364658 -0.27158059455439398 0 0.36640720639226632 -0.28259095239785031 0 0.35687105873035718 -0.27293425504073782 0 0.3623160646090739 -0.25740836624736418 0 0.36602445061364658 -0.27158059455439398 0 0.37850347272288898 -0.2733888045316239 0 0.36602445061364658 -0.27158059455439398 0 0.36640720639226632 -0.28259095239785031 0 0.37826539445723678 -0.29034598971074688 0 0.37850347272288898 -0.2733888045316239 0 0.36640720639226632 -0.28259095239785031 0 0.36640720639226632 -0.28259095239785031 0 0.34989735690301721 -0.28838716691152849 0 0.36715833027398848 -0.30020053250048101 0 0.37826539445723678 -0.29034598971074688 0 0.36640720639226632 -0.28259095239785031 0 0.36715833027398848 -0.30020053250048101 0 0.35687105873035718 -0.27293425504073782 0 0.36640720639226632 -0.28259095239785031 0 0.34989735690301721 -0.28838716691152849 0 0.33152762264786778 -0.29913735182688561 0 0.34989735690301721 -0.28838716691152849 0 0.35056983252178298 -0.31025468137459178 0 0.34989735690301721 -0.28838716691152849 0 0.35056983252178298 -0.31025468137459178 0 0.36715833027398848 -0.30020053250048101 0 0.35056983252178298 -0.31025468137459178 0 0.36715833027398848 -0.30020053250048101 0 0.36894938420794671 -0.32027131444029999 0 0.38346181650652827 -0.30729124765511528 0 0.36715833027398848 -0.30020053250048101 0 0.36894938420794671 -0.32027131444029999 0 0.36894938420794671 -0.32027131444029999 0 0.37491198448982438 -0.33912433814699661 0 0.35037653516114542 -0.33761997109752012 0 0.37491198448982438 -0.33912433814699661 0 0.35037653516114542 -0.33761997109752012 0 0.35056983252178298 -0.31025468137459178 0 0.35037653516114542 -0.33761997109752012 0 0.33445341247296401 -0.31931717973720891 0 0.35056983252178298 -0.31025468137459178 0 0.36894938420794671 -0.32027131444029999 0 0.35037653516114542 -0.33761997109752012 0 0.38619262602800708 -0.36637674047714952 0 0.37491198448982438 -0.33912433814699661 0 0.36337543330570998 -0.36213445546499973 0 0.37491198448982438 -0.33912433814699661 0 0.35037653516114542 -0.33761997109752012 0 0.36337543330570998 -0.36213445546499973 0 0.35037653516114542 -0.33761997109752012 0 0.36337543330570998 -0.36213445546499973 0 0.33659761108079628 -0.36229384044668628 0 0.35516083837636159 -0.38486451328480381 0 0.36337543330570998 -0.36213445546499973 0 0.33659761108079628 -0.36229384044668628 0 0.35037653516114542 -0.33761997109752012 0 0.33659761108079628 -0.36229384044668628 0 0.32584108583246618 -0.33611560404804353 0 0.33659761108079628 -0.36229384044668628 0 0.31351248398035098 -0.35283202312128398 0 0.32584108583246618 -0.33611560404804353 0 0.31351248398035098 -0.35283202312128398 0 0.31977661373550859 -0.37261180596378612 0 0.30513903983252377 -0.36799847725245483 0 0.33659761108079628 -0.36229384044668628 0 0.31351248398035098 -0.35283202312128398 0 0.31977661373550859 -0.37261180596378612 0 0.35037653516114542 -0.33761997109752012 0 0.33445341247296401 -0.31931717973720891 0 0.32584108583246618 -0.33611560404804353 0 0.35037653516114542 -0.33761997109752012 0 0.32584108583246618 -0.33611560404804353 0 0.32584108583246618 -0.33611560404804353 0 0.30130563650378711 -0.33461123699856699 0 0.31351248398035098 -0.35283202312128398 0 0.32584108583246618 -0.33611560404804353 0 0.30130563650378711 -0.33461123699856699 0 0.32584108583246618 -0.33611560404804353 0 0.3139519862015574 -0.31345829033900341 0 0.30130563650378711 -0.33461123699856699 0 0.33445341247296401 -0.31931717973720891 0 0.32584108583246618 -0.33611560404804353 0 0.3139519862015574 -0.31345829033900341 0 0.3139519862015574 -0.31345829033900341 0 0.30130563650378711 -0.33461123699856699 0 0.29268653746939649 -0.31140784048857689 0 0.28423110729017492 -0.33198182098462631 0 0.29247065393489458 -0.34887735364005479 0 0.26999634084621682 -0.34394253106028833 0 0.30130563650378711 -0.33461123699856699 0 0.28423110729017492 -0.33198182098462631 0 0.29247065393489458 -0.34887735364005479 0 0.28423110729017492 -0.33198182098462631 0 0.27387646009946509 -0.31812667393550259 0 0.29268653746939649 -0.31140784048857689 0 0.30130563650378711 -0.33461123699856699 0 0.28423110729017492 -0.33198182098462631 0 0.29268653746939649 -0.31140784048857689 0 0.31063569109852551 -0.38400731049811399 0 0.31977661373550859 -0.37261180596378612 0 0.30513903983252377 -0.36799847725245483 0 0.31351248398035098 -0.35283202312128398 0 0.30513903983252377 -0.36799847725245483 0 0.29247065393489458 -0.34887735364005479 0 0.31351248398035098 -0.35283202312128398 0 0.30130563650378711 -0.33461123699856699 0 0.29247065393489458 -0.34887735364005479 0 0.29247065393489458 -0.34887735364005479 0 0.28338512917223441 -0.36416992978348639 0 0.26999634084621682 -0.34394253106028833 0 0.29414976423939632 -0.38354918927340348 0 0.27528213027753451 -0.37689910492476508 0 0.28338512917223441 -0.36416992978348639 0 0.30513903983252377 -0.36799847725245483 0 0.29247065393489458 -0.34887735364005479 0 0.28338512917223441 -0.36416992978348639 0 0.29414976423939632 -0.38354918927340348 0 0.30513903983252377 -0.36799847725245483 0 0.28338512917223441 -0.36416992978348639 0 0.27528213027753451 -0.37689910492476508 0 0.26236858605676727 -0.38179803266389001 0 0.26611902939032628 -0.36514034536323098 0 0.27528213027753451 -0.37689910492476508 0 0.28338512917223441 -0.36416992978348639 0 0.26611902939032628 -0.36514034536323098 0 0.28338512917223441 -0.36416992978348639 0 0.26611902939032628 -0.36514034536323098 0 0.26999634084621682 -0.34394253106028833 0 0.26999634084621682 -0.34394253106028833 0 0.25656673479516778 -0.35294149486564191 0 0.25512775720606329 -0.33544301720451491 0 0.26611902939032628 -0.36514034536323098 0 0.26999634084621682 -0.34394253106028833 0 0.25656673479516778 -0.35294149486564191 0 0.26611902939032628 -0.36514034536323098 0 0.25656673479516778 -0.35294149486564191 0 0.25111996676834131 -0.37092614410471192 0 0.26236858605676727 -0.38179803266389001 0 0.26611902939032628 -0.36514034536323098 0 0.25111996676834131 -0.37092614410471192 0 0.26999634084621682 -0.34394253106028833 0 0.27387646009946509 -0.31812667393550259 0 0.25512775720606329 -0.33544301720451491 0 0.26999634084621682 -0.34394253106028833 0 0.27387646009946509 -0.31812667393550259 0 0.28423110729017492 -0.33198182098462631 0 0.26999634084621682 -0.34394253106028833 0 0.27387646009946509 -0.31812667393550259 0 0.27387646009946509 -0.31812667393550259 0 0.25768527794469709 -0.30269365091155781 0 0.24726429393935159 -0.31986269405237783 0 0.27387646009946509 -0.31812667393550259 0 0.25512775720606329 -0.33544301720451491 0 0.24726429393935159 -0.31986269405237783 0 0.25768527794469709 -0.30269365091155781 0 0.25205521600315212 -0.28507613616413929 0 0.27775657935271347 -0.29231081681071691 0 0.25205521600315212 -0.28507613616413929 0 0.27775657935271347 -0.29231081681071691 0 0.2637927041190965 -0.27058177027947011 0 0.27387646009946509 -0.31812667393550259 0 0.25768527794469709 -0.30269365091155781 0 0.27775657935271347 -0.29231081681071691 0 0.27387646009946509 -0.31812667393550259 0 0.27775657935271347 -0.29231081681071691 0 0.27387646009946509 -0.31812667393550259 0 0.27775657935271347 -0.29231081681071691 0 0.29268653746939649 -0.31140784048857689 0 0.27775657935271347 -0.29231081681071691 0 0.30618869701939178 -0.2860230157593347 0 0.28163669860596191 -0.26649495968593129 0 0.27775657935271347 -0.29231081681071691 0 0.29268653746939649 -0.31140784048857689 0 0.30618869701939178 -0.2860230157593347 0 0.3139519862015574 -0.31345829033900341 0 0.29268653746939649 -0.31140784048857689 0 0.30618869701939178 -0.2860230157593347 0 0.30966021080157702 -0.24778673336912191 0 0.31943013572718898 -0.26478372790726867 0 0.30051533313495837 -0.26218367574241042 0 0.30966021080157702 -0.24778673336912191 0 0.28551681785921013 -0.24067910256114569 0 0.30051533313495837 -0.26218367574241042 0 0.31943013572718898 -0.26478372790726867 0 0.30618869701939178 -0.2860230157593347 0 0.30051533313495837 -0.26218367574241042 0 0.30618869701939178 -0.2860230157593347 0 0.30051533313495837 -0.26218367574241042 0 0.28163669860596191 -0.26649495968593129 0 0.28551681785921013 -0.24067910256114569 0 0.28163669860596191 -0.26649495968593129 0 0.28551681785921013 -0.24067910256114569 0 0.30051533313495837 -0.26218367574241042 0 0.28163669860596191 -0.26649495968593129 0 0.28551681785921013 -0.24067910256114569 0 0.28163669860596191 -0.26649495968593129 0 0.26145137686751269 -0.25057166113606721 0 0.28163669860596191 -0.26649495968593129 0 0.2637927041190965 -0.27058177027947011 0 0.26145137686751269 -0.25057166113606721 0 0.27775657935271347 -0.29231081681071691 0 0.28163669860596191 -0.26649495968593129 0 0.2637927041190965 -0.27058177027947011 0 0.27775657935271347 -0.29231081681071691 0 0.28163669860596191 -0.26649495968593129 0 0.25205521600315212 -0.28507613616413929 0 0.2637927041190965 -0.27058177027947011 0 0.2472851894690144 -0.26661922728829851 0 0.2637927041190965 -0.27058177027947011 0 0.26145137686751269 -0.25057166113606721 0 0.2472851894690144 -0.26661922728829851 0 0.24061150457431191 -0.25186374409499401 0 0.2472851894690144 -0.26661922728829851 0 0.22783931244949859 -0.26440551898006043 0 0.26145137686751269 -0.25057166113606721 0 0.24061150457431191 -0.25186374409499401 0 0.2472851894690144 -0.26661922728829851 0 0.25205521600315212 -0.28507613616413929 0 0.2472851894690144 -0.26661922728829851 0 0.23373074807295061 -0.28188856701681098 0 0.2472851894690144 -0.26661922728829851 0 0.22783931244949859 -0.26440551898006043 0 0.23373074807295061 -0.28188856701681098 0 0.22783931244949859 -0.26440551898006043 0 0.21557190254776901 -0.2821090553337412 0 0.23373074807295061 -0.28188856701681098 0 0.24061150457431191 -0.25186374409499401 0 0.22783931244949859 -0.26440551898006043 0 0.22231123182094389 -0.24471117443653381 0 0.22783931244949859 -0.26440551898006043 0 0.207484625684625 -0.26514768111990988 0 0.22231123182094389 -0.24471117443653381 0 0.207484625684625 -0.26514768111990988 0 0.22231123182094389 -0.24471117443653381 0 0.19096637578835671 -0.24771322335898729 0 0.207484625684625 -0.26514768111990988 0 0.20013658594838599 -0.28294164438748659 0 0.21557190254776901 -0.2821090553337412 0 0.22783931244949859 -0.26440551898006043 0 0.207484625684625 -0.26514768111990988 0 0.21557190254776901 -0.2821090553337412 0 0.207484625684625 -0.26514768111990988 0 0.1895227772289246 -0.27091676433038492 0 0.20013658594838599 -0.28294164438748659 0 0.1895227772289246 -0.27091676433038492 0 0.19096637578835671 -0.24771322335898729 0 0.207484625684625 -0.26514768111990988 0 0.1895227772289246 -0.27091676433038492 0 0.19096637578835671 -0.24771322335898729 0 0.1880791786694925 -0.29412030530178251 0 0.2075225840314823 -0.3015266828846877 0 0.19207872750094679 -0.31515929504290391 0 0.1895227772289246 -0.27091676433038492 0 0.1880791786694925 -0.29412030530178251 0 0.1880791786694925 -0.29412030530178251 0 0.20013658594838599 -0.28294164438748659 0 0.2075225840314823 -0.3015266828846877 0 0.1895227772289246 -0.27091676433038492 0 0.1880791786694925 -0.29412030530178251 0 0.20013658594838599 -0.28294164438748659 0 0.20013658594838599 -0.28294164438748659 0 0.21557190254776901 -0.2821090553337412 0 0.2075225840314823 -0.3015266828846877 0 0.21557190254776901 -0.2821090553337412 0 0.2075225840314823 -0.3015266828846877 0 0.22267212160244931 -0.29642362826298968 0 0.2075225840314823 -0.3015266828846877 0 0.22459676630293601 -0.31237923337947471 0 0.22267212160244931 -0.29642362826298968 0 0.22459676630293601 -0.31237923337947471 0 0.22267212160244931 -0.29642362826298968 0 0.23747384032880289 -0.29809193359505232 0 0.22459676630293601 -0.31237923337947471 0 0.23747384032880289 -0.29809193359505232 0 0.22267212160244931 -0.29642362826298968 0 0.23373074807295061 -0.28188856701681098 0 0.23747384032880289 -0.29809193359505232 0 0.21557190254776901 -0.2821090553337412 0 0.22267212160244931 -0.29642362826298968 0 0.23373074807295061 -0.28188856701681098 0 0.25205521600315212 -0.28507613616413929 0 0.23373074807295061 -0.28188856701681098 0 0.23747384032880289 -0.29809193359505232 0 0.25768527794469709 -0.30269365091155781 0 0.25205521600315212 -0.28507613616413929 0 0.23747384032880289 -0.29809193359505232 0 0.25768527794469709 -0.30269365091155781 0 0.23747384032880289 -0.29809193359505232 0 0.24726429393935159 -0.31986269405237783 0 0.22459676630293601 -0.31237923337947471 0 0.23747384032880289 -0.29809193359505232 0 0.24726429393935159 -0.31986269405237783 0 0.22459676630293601 -0.31237923337947471 0 0.24726429393935159 -0.31986269405237783 0 0.2341432135361188 -0.33980401401476867 0 0.25512775720606329 -0.33544301720451491 0 0.24726429393935159 -0.31986269405237783 0 0.2341432135361188 -0.33980401401476867 0 0.25656673479516778 -0.35294149486564191 0 0.25512775720606329 -0.33544301720451491 0 0.2341432135361188 -0.33980401401476867 0 0.2341432135361188 -0.33980401401476867 0 0.21319007714091329 -0.34392436014379979 0 0.21171969227706891 -0.32666653316389682 0 0.2341432135361188 -0.33980401401476867 0 0.21171969227706891 -0.32666653316389682 0 0.22459676630293601 -0.31237923337947471 0 0.2341432135361188 -0.33980401401476867 0 0.21171969227706891 -0.32666653316389682 0 0.25111996676834131 -0.37092614410471192 0 0.23821037602007389 -0.35927928059789838 0 0.2356735092688749 -0.3783148161018231 0 0.25656673479516778 -0.35294149486564191 0 0.25111996676834131 -0.37092614410471192 0 0.23821037602007389 -0.35927928059789838 0 0.25656673479516778 -0.35294149486564191 0 0.2341432135361188 -0.33980401401476867 0 0.23821037602007389 -0.35927928059789838 0 0.25656673479516778 -0.35294149486564191 0 0.2341432135361188 -0.33980401401476867 0 0.2341432135361188 -0.33980401401476867 0 0.22202264209231601 -0.3549963777845922 0 0.21319007714091329 -0.34392436014379979 0 0.2341432135361188 -0.33980401401476867 0 0.23821037602007389 -0.35927928059789838 0 0.22202264209231601 -0.3549963777845922 0 0.23821037602007389 -0.35927928059789838 0 0.22202264209231601 -0.3549963777845922 0 0.2238812748764023 -0.37007476123018729 0 0.23821037602007389 -0.35927928059789838 0 0.2238812748764023 -0.37007476123018729 0 0.2356735092688749 -0.3783148161018231 0 0.22202264209231601 -0.3549963777845922 0 0.2238812748764023 -0.37007476123018729 0 0.2123426736130303 -0.36577492384627253 0 0.2238812748764023 -0.37007476123018729 0 0.2123426736130303 -0.36577492384627253 0 0.21438316733136509 -0.38155884753985753 0 0.2033628137456118 -0.37176699150318548 0 0.2123426736130303 -0.36577492384627253 0 0.21438316733136509 -0.38155884753985753 0 0.2033628137456118 -0.37176699150318548 0 0.2123426736130303 -0.36577492384627253 0 0.20126000855414919 -0.36154435954079239 0 0.2123426736130303 -0.36577492384627253 0 0.20914613507833771 -0.35470820547902088 0 0.20126000855414919 -0.36154435954079239 0 0.22202264209231601 -0.3549963777845922 0 0.2123426736130303 -0.36577492384627253 0 0.20914613507833771 -0.35470820547902088 0 0.22202264209231601 -0.3549963777845922 0 0.20914613507833771 -0.35470820547902088 0 0.21319007714091329 -0.34392436014379979 0 0.20914613507833771 -0.35470820547902088 0 0.21319007714091329 -0.34392436014379979 0 0.20247217376963009 -0.34866449490135271 0 0.21319007714091329 -0.34392436014379979 0 0.20247217376963009 -0.34866449490135271 0 0.20086121162924159 -0.33871417441432589 0 0.20247217376963009 -0.34866449490135271 0 0.19154699975625861 -0.35087161556466318 0 0.1976164452433993 -0.35510411890495391 0 0.19000985083547861 -0.35076823275470359 0 0.20086121162924159 -0.33871417441432589 0 0.20247217376963009 -0.34866449490135271 0 0.19154699975625861 -0.35087161556466318 0 0.20086121162924159 -0.33871417441432589 0 0.19000985083547861 -0.35076823275470359 0 0.19154699975625861 -0.35087161556466318 0 0.20086121162924159 -0.33871417441432589 0 0.19000985083547861 -0.35076823275470359 0 0.19154699975625861 -0.35087161556466318 0 0.19000985083547861 -0.35076823275470359 0 0.19154699975625861 -0.35087161556466318 0 0.1976164452433993 -0.35510411890495391 0 0.20914613507833771 -0.35470820547902088 0 0.20247217376963009 -0.34866449490135271 0 0.1976164452433993 -0.35510411890495391 0 0.19000985083547861 -0.35076823275470359 0 0.1976164452433993 -0.35510411890495391 0 0.20126000855414919 -0.36154435954079239 0 0.20914613507833771 -0.35470820547902088 0 0.1976164452433993 -0.35510411890495391 0 0.20126000855414919 -0.36154435954079239 0 0.19474682670583829 -0.36444446641351852 0 0.19515935903523879 -0.3780861504505299 0 0.1794433545966525 -0.38121661870292728 0 0.2033628137456118 -0.37176699150318548 0 0.19000985083547861 -0.35076823275470359 0 0.19474682670583829 -0.36444446641351852 0 0.2033628137456118 -0.37176699150318548 0 0.19000985083547861 -0.35076823275470359 0 0.20126000855414919 -0.36154435954079239 0 0.2033628137456118 -0.37176699150318548 0 0.19000985083547861 -0.35076823275470359 0 0.2033628137456118 -0.37176699150318548 0 0.19474682670583829 -0.36444446641351852 0 0.19515935903523879 -0.3780861504505299 0 0.2075225840314823 -0.3015266828846877 0 0.22459676630293601 -0.31237923337947471 0 0.21171969227706891 -0.32666653316389682 0 0.2075225840314823 -0.3015266828846877 0 0.21171969227706891 -0.32666653316389682 0 0.19207872750094679 -0.31515929504290391 0 0.22459676630293601 -0.31237923337947471 0 0.21171969227706891 -0.32666653316389682 0 0.21319007714091329 -0.34392436014379979 0 0.21171969227706891 -0.32666653316389682 0 0.20086121162924159 -0.33871417441432589 0 0.21171969227706891 -0.32666653316389682 0 0.20086121162924159 -0.33871417441432589 0 0.21171969227706891 -0.32666653316389682 0 0.20086121162924159 -0.33871417441432589 0 0.19219192149204919 -0.32819855561412098 0 0.19000985083547861 -0.35076823275470359 0 0.20086121162924159 -0.33871417441432589 0 0.19100323375418099 -0.33735135772220032 0 0.20086121162924159 -0.33871417441432589 0 0.19100323375418099 -0.33735135772220032 0 0.19219192149204919 -0.32819855561412098 0 0.19219192149204919 -0.32819855561412098 0 0.19207872750094679 -0.31515929504290391 0 0.1791575815060644 -0.31893231268706751 0 0.21171969227706891 -0.32666653316389682 0 0.19207872750094679 -0.31515929504290391 0 0.21171969227706891 -0.32666653316389682 0 0.19219192149204919 -0.32819855561412098 0 0.19207872750094679 -0.31515929504290391 0 0.1791575815060644 -0.31893231268706751 0 0.1783310822847925 -0.33236766065433232 0 0.16664395044725699 -0.31397240203381033 0 0.19207872750094679 -0.31515929504290391 0 0.1791575815060644 -0.31893231268706751 0 0.17243776272482381 -0.30365205692191238 0 0.1783310822847925 -0.33236766065433232 0 0.16664395044725699 -0.31397240203381033 0 0.19219192149204919 -0.32819855561412098 0 0.1791575815060644 -0.31893231268706751 0 0.1783310822847925 -0.33236766065433232 0 0.19000985083547861 -0.35076823275470359 0 0.19100323375418099 -0.33735135772220032 0 0.1783310822847925 -0.33236766065433232 0 0.19100323375418099 -0.33735135772220032 0 0.19219192149204919 -0.32819855561412098 0 0.1783310822847925 -0.33236766065433232 0 0.19000985083547861 -0.35076823275470359 0 0.1783310822847925 -0.33236766065433232 0 0.1783310822847925 -0.33236766065433232 0 0.15994952199121629 -0.33993588861841578 0 0.16994408506048739 -0.34953205087245642 0 0.1783310822847925 -0.33236766065433232 0 0.15994952199121629 -0.33993588861841578 0 0.16220686035018719 -0.32815226376919909 0 0.15994952199121629 -0.33993588861841578 0 0.16220686035018719 -0.32815226376919909 0 0.15302594891977231 -0.33010695232150739 0 0.16220686035018719 -0.32815226376919909 0 0.15402734094865991 -0.31874959311920242 0 0.15302594891977231 -0.33010695232150739 0 0.1783310822847925 -0.33236766065433232 0 0.16220686035018719 -0.32815226376919909 0 0.16664395044725699 -0.31397240203381033 0 0.16664395044725699 -0.31397240203381033 0 0.15402734094865991 -0.31874959311920242 0 0.15235265550825361 -0.30752944507263541 0 0.16220686035018719 -0.32815226376919909 0 0.16664395044725699 -0.31397240203381033 0 0.15402734094865991 -0.31874959311920242 0 0.17746432227538081 -0.36467336138103029 0 0.1794433545966525 -0.38121661870292728 0 0.16492591356934741 -0.37858490709730569 0 0.19000985083547861 -0.35076823275470359 0 0.19474682670583829 -0.36444446641351852 0 0.17746432227538081 -0.36467336138103029 0 0.19474682670583829 -0.36444446641351852 0 0.17746432227538081 -0.36467336138103029 0 0.1794433545966525 -0.38121661870292728 0 0.19474682670583829 -0.36444446641351852 0 0.1794433545966525 -0.38121661870292728 0 0.19000985083547861 -0.35076823275470359 0 0.16994408506048739 -0.34953205087245642 0 0.19000985083547861 -0.35076823275470359 0 0.17746432227538081 -0.36467336138103029 0 0.16994408506048739 -0.34953205087245642 0 0.19000985083547861 -0.35076823275470359 0 0.1783310822847925 -0.33236766065433232 0 0.16994408506048739 -0.34953205087245642 0 0.19000985083547861 -0.35076823275470359 0 0.17746432227538081 -0.36467336138103029 0 0.16994408506048739 -0.34953205087245642 0 0.14987881756041591 -0.34828783340174441 0 0.17746432227538081 -0.36467336138103029 0 0.16994408506048739 -0.34953205087245642 0 0.15911816004155049 -0.36223725731204998 0 0.16994408506048739 -0.34953205087245642 0 0.15911816004155049 -0.36223725731204998 0 0.14987881756041591 -0.34828783340174441 0 0.15994952199121629 -0.33993588861841578 0 0.16994408506048739 -0.34953205087245642 0 0.14987881756041591 -0.34828783340174441 0 0.17746432227538081 -0.36467336138103029 0 0.15911816004155049 -0.36223725731204998 0 0.16492591356934741 -0.37858490709730569 0 0.15911816004155049 -0.36223725731204998 0 0.1569832794833429 -0.37225963541855422 0 0.16492591356934741 -0.37858490709730569 0 0.17746432227538081 -0.36467336138103029 0 0.16492591356934741 -0.37858490709730569 0 0.14892873236813201 -0.36558825856946059 0 0.13877444591408761 -0.36312270726577339 0 0.14773534176783479 -0.37920179860051068 0 0.13877444591408761 -0.36312270726577339 0 0.14773534176783479 -0.37920179860051068 0 0.14892873236813201 -0.36558825856946059 0 0.14773534176783479 -0.37920179860051068 0 0.1569832794833429 -0.37225963541855422 0 0.15290712884602931 -0.37439950124734311 0 0.14892873236813201 -0.36558825856946059 0 0.15290712884602931 -0.37439950124734311 0 0.14892873236813201 -0.36558825856946059 0 0.14773534176783479 -0.37920179860051068 0 0.15911816004155049 -0.36223725731204998 0 0.14892873236813201 -0.36558825856946059 0 0.14555647843408201 -0.35692468886515921 0 0.15911816004155049 -0.36223725731204998 0 0.1569832794833429 -0.37225963541855422 0 0.14892873236813201 -0.36558825856946059 0 0.14892873236813201 -0.36558825856946059 0 0.14555647843408201 -0.35692468886515921 0 0.13877444591408761 -0.36312270726577339 0 0.14987881756041591 -0.34828783340174441 0 0.12981355006034451 -0.34704361593103378 0 0.14489705337498801 -0.33710124067632902 0 0.14555647843408201 -0.35692468886515921 0 0.14987881756041591 -0.34828783340174441 0 0.12981355006034451 -0.34704361593103378 0 0.15911816004155049 -0.36223725731204998 0 0.14555647843408201 -0.35692468886515921 0 0.14987881756041591 -0.34828783340174441 0 0.14987881756041591 -0.34828783340174441 0 0.12981355006034451 -0.34704361593103378 0 0.14555647843408201 -0.35692468886515921 0 0.12981355006034451 -0.34704361593103378 0 0.13877444591408761 -0.36312270726577339 0 0.12981355006034451 -0.34704361593103378 0 0.13877444591408761 -0.36312270726577339 0 0.12981355006034451 -0.34704361593103378 0 0.13877444591408761 -0.36312270726577339 0 0.12719922570869319 -0.36045835834078788 0 0.12981355006034451 -0.34704361593103378 0 0.12719922570869319 -0.36045835834078788 0 0.1197528644682677 -0.35463299991206948 0 0.13877444591408761 -0.36312270726577339 0 0.12708238592477769 -0.3711726568853902 0 0.13425710954045181 -0.37941537297245642 0 0.13877444591408761 -0.36312270726577339 0 0.14773534176783479 -0.37920179860051068 0 0.13425710954045181 -0.37941537297245642 0 0.13877444591408761 -0.36312270726577339 0 0.12719922570869319 -0.36045835834078788 0 0.12708238592477769 -0.3711726568853902 0 0.14559778285110889 -0.32420839281448799 0 0.13791842980147551 -0.3266890672549565 0 0.13874667529484891 -0.31970726217878209 0 0.14559778285110889 -0.32420839281448799 0 0.14334058215766729 -0.31276830747450701 0 0.13874667529484891 -0.31970726217878209 0 0.14559778285110889 -0.32420839281448799 0 0.14334058215766729 -0.31276830747450701 0 0.15402734094865991 -0.31874959311920242 0 0.14334058215766729 -0.31276830747450701 0 0.15402734094865991 -0.31874959311920242 0 0.15235265550825361 -0.30752944507263541 0 0.14559778285110889 -0.32420839281448799 0 0.15402734094865991 -0.31874959311920242 0 0.15302594891977231 -0.33010695232150739 0 0.15994952199121629 -0.33993588861841578 0 0.15302594891977231 -0.33010695232150739 0 0.14489705337498801 -0.33710124067632902 0 0.15994952199121629 -0.33993588861841578 0 0.14987881756041591 -0.34828783340174441 0 0.14489705337498801 -0.33710124067632902 0 0.14559778285110889 -0.32420839281448799 0 0.14489705337498801 -0.33710124067632902 0 0.13791842980147551 -0.3266890672549565 0 0.14559778285110889 -0.32420839281448799 0 0.15302594891977231 -0.33010695232150739 0 0.14489705337498801 -0.33710124067632902 0 0.12981355006034451 -0.34704361593103378 0 0.13197924088338889 -0.33271422920625132 0 0.11820372969174429 -0.32621139500878021 0 0.13197924088338889 -0.33271422920625132 0 0.12906344148839469 -0.32652582716015532 0 0.13791842980147551 -0.3266890672549565 0 0.14489705337498801 -0.33710124067632902 0 0.13197924088338889 -0.33271422920625132 0 0.13791842980147551 -0.3266890672549565 0 0.12981355006034451 -0.34704361593103378 0 0.14489705337498801 -0.33710124067632902 0 0.13197924088338889 -0.33271422920625132 0 0.13197924088338889 -0.33271422920625132 0 0.12906344148839469 -0.32652582716015532 0 0.11820372969174429 -0.32621139500878021 0 0.12707662910914591 -0.32216327093416952 0 0.12906344148839469 -0.32652582716015532 0 0.1216108526422847 -0.32442835510370271 0 0.12707662910914591 -0.32216327093416952 0 0.13193154091747769 -0.32084659794728421 0 0.12906344148839469 -0.32652582716015532 0 0.13193154091747769 -0.32084659794728421 0 0.12906344148839469 -0.32652582716015532 0 0.13791842980147551 -0.3266890672549565 0 0.13193154091747769 -0.32084659794728421 0 0.13791842980147551 -0.3266890672549565 0 0.13874667529484891 -0.31970726217878209 0 0.13193154091747769 -0.32084659794728421 0 0.13874667529484891 -0.31970726217878209 0 0.13168877399167311 -0.31267328226611968 0 0.14334058215766729 -0.31276830747450701 0 0.13874667529484891 -0.31970726217878209 0 0.13168877399167311 -0.31267328226611968 0 0.13193154091747769 -0.32084659794728421 0 0.13168877399167311 -0.31267328226611968 0 0.12570068138842669 -0.31685230352553612 0 0.13168877399167311 -0.31267328226611968 0 0.12570068138842669 -0.31685230352553612 0 0.1206449350642575 -0.31273267530916599 0 0.12707662910914591 -0.32216327093416952 0 0.13193154091747769 -0.32084659794728421 0 0.12570068138842669 -0.31685230352553612 0 0.13168877399167311 -0.31267328226611968 0 0.1251592047645993 -0.30168328576800202 0 0.13466966497701369 -0.30344721209128278 0 0.14334058215766729 -0.31276830747450701 0 0.13466966497701369 -0.30344721209128278 0 0.14279458537796219 -0.29657977932236879 0 0.13168877399167311 -0.31267328226611968 0 0.1251592047645993 -0.30168328576800202 0 0.1206449350642575 -0.31273267530916599 0 0.1251592047645993 -0.30168328576800202 0 0.13466966497701369 -0.30344721209128278 0 0.13179753259293531 -0.29148603145091512 0 0.13466966497701369 -0.30344721209128278 0 0.14279458537796219 -0.29657977932236879 0 0.13179753259293531 -0.29148603145091512 0 0.14334058215766729 -0.31276830747450701 0 0.13168877399167311 -0.31267328226611968 0 0.13466966497701369 -0.30344721209128278 0 0.14334058215766729 -0.31276830747450701 0 0.15235265550825361 -0.30752944507263541 0 0.14279458537796219 -0.29657977932236879 0 0.15235265550825361 -0.30752944507263541 0 0.15495681860972149 -0.29557714341328822 0 0.14279458537796219 -0.29657977932236879 0 0.15495681860972149 -0.29557714341328822 0 0.14343913827942131 -0.28117673669499232 0 0.1572329688250633 -0.27800915498555101 0 0.15495681860972149 -0.29557714341328822 0 0.14279458537796219 -0.29657977932236879 0 0.14343913827942131 -0.28117673669499232 0 0.13179753259293531 -0.29148603145091512 0 0.12610381228901629 -0.27973635839720201 0 0.14343913827942131 -0.28117673669499232 0 0.14279458537796219 -0.29657977932236879 0 0.13179753259293531 -0.29148603145091512 0 0.14343913827942131 -0.28117673669499232 0 0.1251592047645993 -0.30168328576800202 0 0.13179753259293531 -0.29148603145091512 0 0.1187848314304174 -0.29077887112321132 0 0.13179753259293531 -0.29148603145091512 0 0.12610381228901629 -0.27973635839720201 0 0.1187848314304174 -0.29077887112321132 0 0.12610381228901629 -0.27973635839720201 0 0.13499638341263531 -0.26930181819777921 0 0.14343913827942131 -0.28117673669499232 0 0.12610381228901629 -0.27973635839720201 0 0.13499638341263531 -0.26930181819777921 0 0.1188275658860955 -0.26719772217839471 0 0.13499638341263531 -0.26930181819777921 0 0.12906799302994659 -0.25991100407216922 0 0.1188275658860955 -0.26719772217839471 0 0.12906799302994659 -0.25991100407216922 0 0.1196722046577542 -0.25417102299646022 0 0.1308809502751575 -0.24859267584269421 0 0.13499638341263531 -0.26930181819777921 0 0.12906799302994659 -0.25991100407216922 0 0.13928167392511689 -0.25653279202325607 0 0.12906799302994659 -0.25991100407216922 0 0.13928167392511689 -0.25653279202325607 0 0.1308809502751575 -0.24859267584269421 0 0.13928167392511689 -0.25653279202325607 0 0.14141424986332879 -0.24505502678180921 0 0.1308809502751575 -0.24859267584269421 0 0.13928167392511689 -0.25653279202325607 0 0.14809292821024431 -0.25134993503629383 0 0.14141424986332879 -0.24505502678180921 0 0.13928167392511689 -0.25653279202325607 0 0.14809292821024431 -0.25134993503629383 0 0.14996057220814801 -0.26390968489150002 0 0.13499638341263531 -0.26930181819777921 0 0.13928167392511689 -0.25653279202325607 0 0.14996057220814801 -0.26390968489150002 0 0.14809292821024431 -0.25134993503629383 0 0.14996057220814801 -0.26390968489150002 0 0.15993424921527771 -0.24882487645807311 0 0.14996057220814801 -0.26390968489150002 0 0.14343913827942131 -0.28117673669499232 0 0.1572329688250633 -0.27800915498555101 0 0.13499638341263531 -0.26930181819777921 0 0.14996057220814801 -0.26390968489150002 0 0.14343913827942131 -0.28117673669499232 0 0.14996057220814801 -0.26390968489150002 0 0.1667788482578485 -0.2656406417823356 0 0.1572329688250633 -0.27800915498555101 0 0.1667788482578485 -0.2656406417823356 0 0.1572329688250633 -0.27800915498555101 0 0.171029466770177 -0.28374156814563889 0 0.14996057220814801 -0.26390968489150002 0 0.1667788482578485 -0.2656406417823356 0 0.15993424921527771 -0.24882487645807311 0 0.1667788482578485 -0.2656406417823356 0 0.1757536332365727 -0.25234785155315981 0 0.15993424921527771 -0.24882487645807311 0 0.1895227772289246 -0.27091676433038492 0 0.1757536332365727 -0.25234785155315981 0 0.19096637578835671 -0.24771322335898729 0 0.1895227772289246 -0.27091676433038492 0 0.1667788482578485 -0.2656406417823356 0 0.1757536332365727 -0.25234785155315981 0 0.1895227772289246 -0.27091676433038492 0 0.1667788482578485 -0.2656406417823356 0 0.171029466770177 -0.28374156814563889 0 0.1880791786694925 -0.29412030530178251 0 0.17243776272482381 -0.30365205692191238 0 0.171029466770177 -0.28374156814563889 0 0.1895227772289246 -0.27091676433038492 0 0.1880791786694925 -0.29412030530178251 0 0.171029466770177 -0.28374156814563889 0 0.1880791786694925 -0.29412030530178251 0 0.19207872750094679 -0.31515929504290391 0 0.17243776272482381 -0.30365205692191238 0 0.19207872750094679 -0.31515929504290391 0 0.17243776272482381 -0.30365205692191238 0 0.1791575815060644 -0.31893231268706751 0 0.16664395044725699 -0.31397240203381033 0 0.17243776272482381 -0.30365205692191238 0 0.16664395044725699 -0.31397240203381033 0 0.15495681860972149 -0.29557714341328822 0 0.16664395044725699 -0.31397240203381033 0 0.15495681860972149 -0.29557714341328822 0 0.17243776272482381 -0.30365205692191238 0 0.16664395044725699 -0.31397240203381033 0 0.15235265550825361 -0.30752944507263541 0 0.15495681860972149 -0.29557714341328822 0 0.15495681860972149 -0.29557714341328822 0 0.17243776272482381 -0.30365205692191238 0 0.171029466770177 -0.28374156814563889 0 0.15495681860972149 -0.29557714341328822 0 0.1572329688250633 -0.27800915498555101 0 0.171029466770177 -0.28374156814563889 0 0.25942875430018991 -0.47899593092680942 0 0.27995863936328769 -0.5 0 0.21051977474250541 -0.5 0 0.21051977474250541 -0.5 0 0.2285573973498484 -0.47632413796771889 0 0.2053610652476362 -0.46662684781337371 0 0.21051977474250541 -0.5 0 0.2053610652476362 -0.46662684781337371 0 0.18029926725183429 -0.47330455984667319 0 0.2053610652476362 -0.46662684781337371 0 0.18029926725183429 -0.47330455984667319 0 0.25942875430018991 -0.47899593092680942 0 0.21051977474250541 -0.5 0 0.2285573973498484 -0.47632413796771889 0 0.25942875430018991 -0.47899593092680942 0 0.2285573973498484 -0.47632413796771889 0 0.24892331014441851 -0.46660937312845951 0 0.2285573973498484 -0.47632413796771889 0 0.23042286324343819 -0.45994913578007413 0 0.2053610652476362 -0.46662684781337371 0 0.25548466123924007 -0.45327142374677459 0 0.23042286324343819 -0.45994913578007413 0 0.25548466123924007 -0.45327142374677459 0 0.23042286324343819 -0.45994913578007413 0 0.24892331014441851 -0.46660937312845951 0 0.2285573973498484 -0.47632413796771889 0 0.23042286324343819 -0.45994913578007413 0 0.24892331014441851 -0.46660937312845951 0 0.25548466123924007 -0.45327142374677459 0 0.23042286324343819 -0.45994913578007413 0 0.24087186830212939 -0.44879682433243479 0 0.25136918124408458 -0.43904996123601692 0 0.24087186830212939 -0.44879682433243479 0 0.23699392437826941 -0.4325627112299944 0 0.2519211020100891 -0.44679589062830061 0 0.25136918124408458 -0.43904996123601692 0 0.24087186830212939 -0.44879682433243479 0 0.2519211020100891 -0.44679589062830061 0 0.25548466123924007 -0.45327142374677459 0 0.24087186830212939 -0.44879682433243479 0 0.23042286324343819 -0.45994913578007413 0 0.21971423614916419 -0.44513670955194939 0 0.20843004771174051 -0.45217146722829671 0 0.23042286324343819 -0.45994913578007413 0 0.24087186830212939 -0.44879682433243479 0 0.21971423614916419 -0.44513670955194939 0 0.24087186830212939 -0.44879682433243479 0 0.21971423614916419 -0.44513670955194939 0 0.23699392437826941 -0.4325627112299944 0 0.21971423614916419 -0.44513670955194939 0 0.208478070230496 -0.44090520823980062 0 0.21798323843377759 -0.42669075762345182 0 0.208478070230496 -0.44090520823980062 0 0.20843004771174051 -0.45217146722829671 0 0.19895543030796331 -0.44128837016807609 0 0.21971423614916419 -0.44513670955194939 0 0.208478070230496 -0.44090520823980062 0 0.20843004771174051 -0.45217146722829671 0 0.23042286324343819 -0.45994913578007413 0 0.2053610652476362 -0.46662684781337371 0 0.23042286324343819 -0.45994913578007413 0 0.20843004771174051 -0.45217146722829671 0 0.2053610652476362 -0.46662684781337371 0 0.20843004771174051 -0.45217146722829671 0 0.2053610652476362 -0.46662684781337371 0 0.19387624907406051 -0.45433336482159581 0 0.2053610652476362 -0.46662684781337371 0 0.19387624907406051 -0.45433336482159581 0 0.18029926725183429 -0.47330455984667319 0 0.19387624907406051 -0.45433336482159581 0 0.19730739854983459 -0.43923873662722879 0 0.17538719929630861 -0.45254190600442301 0 0.19730739854983459 -0.43923873662722879 0 0.19468972804315191 -0.43598317723468599 0 0.17538719929630861 -0.45254190600442301 0 0.19387624907406051 -0.45433336482159581 0 0.19895543030796331 -0.44128837016807609 0 0.19730739854983459 -0.43923873662722879 0 0.208478070230496 -0.44090520823980062 0 0.19895543030796331 -0.44128837016807609 0 0.19730739854983459 -0.43923873662722879 0 0.19730739854983459 -0.43923873662722879 0 0.19468972804315191 -0.43598317723468599 0 0.19895543030796331 -0.44128837016807609 0 0.19730739854983459 -0.43923873662722879 0 0.20843004771174051 -0.45217146722829671 0 0.19387624907406051 -0.45433336482159581 0 0.19895543030796331 -0.44128837016807609 0 0.19730739854983459 -0.43923873662722879 0 0.2031062597904513 -0.42323969604031508 0 0.19468972804315191 -0.43598317723468599 0 0.2031062597904513 -0.42323969604031508 0 0.19468972804315191 -0.43598317723468599 0 0.1794148052653094 -0.41698597411351129 0 0.2031062597904513 -0.42323969604031508 0 0.19484986476292851 -0.40595525984623693 0 0.1794148052653094 -0.41698597411351129 0 0.2031062597904513 -0.42323969604031508 0 0.2123754347916795 -0.39723851264193072 0 0.19484986476292851 -0.40595525984623693 0 0.2031062597904513 -0.42323969604031508 0 0.21798323843377759 -0.42669075762345182 0 0.2210251719961418 -0.41159968231358629 0 0.2031062597904513 -0.42323969604031508 0 0.2210251719961418 -0.41159968231358629 0 0.2123754347916795 -0.39723851264193072 0 0.19730739854983459 -0.43923873662722879 0 0.2031062597904513 -0.42323969604031508 0 0.21798323843377759 -0.42669075762345182 0 0.19730739854983459 -0.43923873662722879 0 0.21798323843377759 -0.42669075762345182 0 0.208478070230496 -0.44090520823980062 0 0.19730739854983459 -0.43923873662722879 0 0.21798323843377759 -0.42669075762345182 0 0.21798323843377759 -0.42669075762345182 0 0.23699392437826941 -0.4325627112299944 0 0.23865907831772071 -0.41414277861967502 0 0.21971423614916419 -0.44513670955194939 0 0.21798323843377759 -0.42669075762345182 0 0.23699392437826941 -0.4325627112299944 0 0.25068429260795089 -0.4274193644325488 0 0.23699392437826941 -0.4325627112299944 0 0.23865907831772071 -0.41414277861967502 0 0.25068429260795089 -0.4274193644325488 0 0.25136918124408458 -0.43904996123601692 0 0.23699392437826941 -0.4325627112299944 0 0.25933491820166388 -0.40159479961589822 0 0.23865907831772071 -0.41414277861967502 0 0.25986908168494899 -0.41713180592291388 0 0.25068429260795089 -0.4274193644325488 0 0.23865907831772071 -0.41414277861967502 0 0.21798323843377759 -0.42669075762345182 0 0.23865907831772071 -0.41414277861967502 0 0.2210251719961418 -0.41159968231358629 0 0.21798323843377759 -0.42669075762345182 0 0.23865907831772071 -0.41414277861967502 0 0.23865907831772071 -0.41414277861967502 0 0.2210251719961418 -0.41159968231358629 0 0.23300184864707979 -0.39668666664255858 0 0.2210251719961418 -0.41159968231358629 0 0.23300184864707979 -0.39668666664255858 0 0.2123754347916795 -0.39723851264193072 0 0.23300184864707979 -0.39668666664255858 0 0.22506095349179711 -0.38558078901540782 0 0.2123754347916795 -0.39723851264193072 0 0.23865907831772071 -0.41414277861967502 0 0.23300184864707979 -0.39668666664255858 0 0.24785660344515331 -0.38941470180170989 0 0.25933491820166388 -0.40159479961589822 0 0.23865907831772071 -0.41414277861967502 0 0.24785660344515331 -0.38941470180170989 0 0.23300184864707979 -0.39668666664255858 0 0.24785660344515331 -0.38941470180170989 0 0.2356735092688749 -0.3783148161018231 0 0.25111996676834131 -0.37092614410471192 0 0.24785660344515331 -0.38941470180170989 0 0.2356735092688749 -0.3783148161018231 0 0.23300184864707979 -0.39668666664255858 0 0.2356735092688749 -0.3783148161018231 0 0.22506095349179711 -0.38558078901540782 0 0.2238812748764023 -0.37007476123018729 0 0.2356735092688749 -0.3783148161018231 0 0.22506095349179711 -0.38558078901540782 0 0.2238812748764023 -0.37007476123018729 0 0.22506095349179711 -0.38558078901540782 0 0.21438316733136509 -0.38155884753985753 0 0.22506095349179711 -0.38558078901540782 0 0.21438316733136509 -0.38155884753985753 0 0.2123754347916795 -0.39723851264193072 0 0.21438316733136509 -0.38155884753985753 0 0.20393825094957241 -0.38343476230284601 0 0.2123754347916795 -0.39723851264193072 0 0.20393825094957241 -0.38343476230284601 0 0.2123754347916795 -0.39723851264193072 0 0.1942006185130711 -0.39061251728161728 0 0.2033628137456118 -0.37176699150318548 0 0.21438316733136509 -0.38155884753985753 0 0.20393825094957241 -0.38343476230284601 0 0.2123754347916795 -0.39723851264193072 0 0.19484986476292851 -0.40595525984623693 0 0.1942006185130711 -0.39061251728161728 0 0.19484986476292851 -0.40595525984623693 0 0.1942006185130711 -0.39061251728161728 0 0.18235646991544599 -0.39874339303555362 0 0.1942006185130711 -0.39061251728161728 0 0.19515935903523879 -0.3780861504505299 0 0.1794433545966525 -0.38121661870292728 0 0.2033628137456118 -0.37176699150318548 0 0.20393825094957241 -0.38343476230284601 0 0.19515935903523879 -0.3780861504505299 0 0.20393825094957241 -0.38343476230284601 0 0.1942006185130711 -0.39061251728161728 0 0.19515935903523879 -0.3780861504505299 0 0.1942006185130711 -0.39061251728161728 0 0.1794433545966525 -0.38121661870292728 0 0.18235646991544599 -0.39874339303555362 0 0.18235646991544599 -0.39874339303555362 0 0.16413988248746711 -0.39798877099233648 0 0.1794148052653094 -0.41698597411351129 0 0.1794433545966525 -0.38121661870292728 0 0.18235646991544599 -0.39874339303555362 0 0.16413988248746711 -0.39798877099233648 0 0.16413988248746711 -0.39798877099233648 0 0.16045563059723289 -0.40202660197178219 0 0.1794148052653094 -0.41698597411351129 0 0.16413988248746711 -0.39798877099233648 0 0.16045563059723289 -0.40202660197178219 0 0.14773534176783479 -0.37920179860051068 0 0.16413988248746711 -0.39798877099233648 0 0.16045563059723289 -0.40202660197178219 0 0.16045563059723289 -0.40202660197178219 0 0.1533669792510321 -0.40979555394926348 0 0.1794433545966525 -0.38121661870292728 0 0.16413988248746711 -0.39798877099233648 0 0.16413988248746711 -0.39798877099233648 0 0.1655271383790741 -0.38576880587195361 0 0.15732099304646641 -0.38134239041915741 0 0.16413988248746711 -0.39798877099233648 0 0.15732099304646641 -0.38134239041915741 0 0.14773534176783479 -0.37920179860051068 0 0.1794433545966525 -0.38121661870292728 0 0.16413988248746711 -0.39798877099233648 0 0.1655271383790741 -0.38576880587195361 0 0.1794433545966525 -0.38121661870292728 0 0.1655271383790741 -0.38576880587195361 0 0.16492591356934741 -0.37858490709730569 0 0.1655271383790741 -0.38576880587195361 0 0.16492591356934741 -0.37858490709730569 0 0.15732099304646641 -0.38134239041915741 0 0.1569832794833429 -0.37225963541855422 0 0.16492591356934741 -0.37858490709730569 0 0.15732099304646641 -0.38134239041915741 0 0.16413988248746711 -0.39798877099233648 0 0.14773534176783479 -0.37920179860051068 0 0.1569832794833429 -0.37225963541855422 0 0.15290712884602931 -0.37439950124734311 0 0.15732099304646641 -0.38134239041915741 0 0.16045563059723289 -0.40202660197178219 0 0.14773534176783479 -0.37920179860051068 0 0.15290712884602931 -0.37439950124734311 0 0.15732099304646641 -0.38134239041915741 0 0.14773534176783479 -0.37920179860051068 0 0.13425710954045181 -0.37941537297245642 0 0.130571671730984 -0.3859151575792536 0 0.1382076234784437 -0.39198512780037231 0 0.14773534176783479 -0.37920179860051068 0 0.13425710954045181 -0.37941537297245642 0 0.1382076234784437 -0.39198512780037231 0 0.130571671730984 -0.3859151575792536 0 0.12631595218810829 -0.38138848684127602 0 0.12350600171693241 -0.39087164270290969 0 0.130571671730984 -0.3859151575792536 0 0.1382076234784437 -0.39198512780037231 0 0.12350600171693241 -0.39087164270290969 0 0.13425710954045181 -0.37941537297245642 0 0.130571671730984 -0.3859151575792536 0 0.12631595218810829 -0.38138848684127602 0 0.12708238592477769 -0.3711726568853902 0 0.13425710954045181 -0.37941537297245642 0 0.12631595218810829 -0.38138848684127602 0 0.1303204984370423 -0.40443061333472718 0 0.14549097747888459 -0.40480426529027602 0 0.12350600171693241 -0.39087164270290969 0 0.1382076234784437 -0.39198512780037231 0 0.14549097747888459 -0.40480426529027602 0 0.12350600171693241 -0.39087164270290969 0 0.14549097747888459 -0.40480426529027602 0 0.12350600171693241 -0.39087164270290969 0 0.16045563059723289 -0.40202660197178219 0 0.14773534176783479 -0.37920179860051068 0 0.14549097747888459 -0.40480426529027602 0 0.14773534176783479 -0.37920179860051068 0 0.1382076234784437 -0.39198512780037231 0 0.14549097747888459 -0.40480426529027602 0 0.14773534176783479 -0.37920179860051068 0 0.14549097747888459 -0.40480426529027602 0 0.16045563059723289 -0.40202660197178219 0 0.14549097747888459 -0.40480426529027602 0 0.1533669792510321 -0.40979555394926348 0 0.14549097747888459 -0.40480426529027602 0 0.1533669792510321 -0.40979555394926348 0 0.14733282966039321 -0.40891339989173781 0 0.14549097747888459 -0.40480426529027602 0 0.1533669792510321 -0.40979555394926348 0 0.1533669792510321 -0.40979555394926348 0 0.14996083621882039 -0.41361883733673449 0 0.1533669792510321 -0.40979555394926348 0 0.14996083621882039 -0.41361883733673449 0 0.14733282966039321 -0.40891339989173781 0 0.1533669792510321 -0.40979555394926348 0 0.14996083621882039 -0.41361883733673449 0 0.15635712989514969 -0.42508793813361601 0 0.14996083621882039 -0.41361883733673449 0 0.14416981331438211 -0.41987537548387133 0 0.14498142021295249 -0.41061701279821061 0 0.14416981331438211 -0.41987537548387133 0 0.14498142021295249 -0.41061701279821061 0 0.14416981331438211 -0.41987537548387133 0 0.14498142021295249 -0.41061701279821061 0 0.13287330046128229 -0.41938943186989031 0 0.14996083621882039 -0.41361883733673449 0 0.14416981331438211 -0.41987537548387133 0 0.14549097747888459 -0.40480426529027602 0 0.14498142021295249 -0.41061701279821061 0 0.1361262959720165 -0.41113705697103547 0 0.14549097747888459 -0.40480426529027602 0 0.14733282966039321 -0.40891339989173781 0 0.14498142021295249 -0.41061701279821061 0 0.14549097747888459 -0.40480426529027602 0 0.14498142021295249 -0.41061701279821061 0 0.14733282966039321 -0.40891339989173781 0 0.14498142021295249 -0.41061701279821061 0 0.14996083621882039 -0.41361883733673449 0 0.14733282966039321 -0.40891339989173781 0 0.14498142021295249 -0.41061701279821061 0 0.1303204984370423 -0.40443061333472718 0 0.14549097747888459 -0.40480426529027602 0 0.1361262959720165 -0.41113705697103547 0 0.1303204984370423 -0.40443061333472718 0 0.1361262959720165 -0.41113705697103547 0 0.13287330046128229 -0.41938943186989031 0 0.1303204984370423 -0.40443061333472718 0 0.13287330046128229 -0.41938943186989031 0 0.11450357334271841 -0.39729018077158451 0 0.14498142021295249 -0.41061701279821061 0 0.1361262959720165 -0.41113705697103547 0 0.13287330046128229 -0.41938943186989031 0 0.14498142021295249 -0.41061701279821061 0 0.13287330046128229 -0.41938943186989031 0 0.14416981331438211 -0.41987537548387133 0 0.13287330046128229 -0.41938943186989031 0 0.13846991199782041 -0.426122298550346 0 0.13846991199782041 -0.426122298550346 0 0.1181796960080411 -0.44835977447329489 0 0.12501564170929311 -0.43161350294415202 0 0.13846991199782041 -0.426122298550346 0 0.1181796960080411 -0.44835977447329489 0 0.13287330046128229 -0.41938943186989031 0 0.12501564170929311 -0.43161350294415202 0 0.13846991199782041 -0.426122298550346 0 0.13287330046128229 -0.41938943186989031 0 0.13846991199782041 -0.426122298550346 0 0.14313067303386459 -0.43172931316629132 0 0.1444318483179895 -0.43329466028011859 0 0.14234127707672861 -0.44073430571457001 0 0.14996083621882039 -0.41361883733673449 0 0.14416981331438211 -0.41987537548387133 0 0.1444318483179895 -0.43329466028011859 0 0.1444318483179895 -0.43329466028011859 0 0.14234127707672861 -0.44073430571457001 0 0.13846991199782041 -0.426122298550346 0 0.14313067303386459 -0.43172931316629132 0 0.14234127707672861 -0.44073430571457001 0 0.14996083621882039 -0.41361883733673449 0 0.1444318483179895 -0.43329466028011859 0 0.14996083621882039 -0.41361883733673449 0 0.1444318483179895 -0.43329466028011859 0 0.15635712989514969 -0.42508793813361601 0 0.14313067303386459 -0.43172931316629132 0 0.14234127707672861 -0.44073430571457001 0 0.14313067303386459 -0.43172931316629132 0 0.1444318483179895 -0.43329466028011859 0 0.14416981331438211 -0.41987537548387133 0 0.14313067303386459 -0.43172931316629132 0 0.1444318483179895 -0.43329466028011859 0 0.14416981331438211 -0.41987537548387133 0 0.14313067303386459 -0.43172931316629132 0 0.14416981331438211 -0.41987537548387133 0 0.13846991199782041 -0.426122298550346 0 0.14313067303386459 -0.43172931316629132 0 0.14416981331438211 -0.41987537548387133 0 0.13846991199782041 -0.426122298550346 0 0.13846991199782041 -0.426122298550346 0 0.14313067303386459 -0.43172931316629132 0 0.1444318483179895 -0.43329466028011859 0 0.1545040365798073 -0.4349268054978131 0 0.15635712989514969 -0.42508793813361601 0 0.1545040365798073 -0.4349268054978131 0 0.16350985228968001 -0.43487381479745341 0 0.15635712989514969 -0.42508793813361601 0 0.16350985228968001 -0.43487381479745341 0 0.1710199696588228 -0.4209828509266737 0 0.17868209120921169 -0.4347314709572328 0 0.16350985228968001 -0.43487381479745341 0 0.15635712989514969 -0.42508793813361601 0 0.1710199696588228 -0.4209828509266737 0 0.16045563059723289 -0.40202660197178219 0 0.1533669792510321 -0.40979555394926348 0 0.1710199696588228 -0.4209828509266737 0 0.1533669792510321 -0.40979555394926348 0 0.1710199696588228 -0.4209828509266737 0 0.1533669792510321 -0.40979555394926348 0 0.15635712989514969 -0.42508793813361601 0 0.1710199696588228 -0.4209828509266737 0 0.16413988248746711 -0.39798877099233648 0 0.1794148052653094 -0.41698597411351129 0 0.16045563059723289 -0.40202660197178219 0 0.1710199696588228 -0.4209828509266737 0 0.16045563059723289 -0.40202660197178219 0 0.1710199696588228 -0.4209828509266737 0 0.1794148052653094 -0.41698597411351129 0 0.19484986476292851 -0.40595525984623693 0 0.18235646991544599 -0.39874339303555362 0 0.1794148052653094 -0.41698597411351129 0 0.19468972804315191 -0.43598317723468599 0 0.1794148052653094 -0.41698597411351129 0 0.19468972804315191 -0.43598317723468599 0 0.1710199696588228 -0.4209828509266737 0 0.1794148052653094 -0.41698597411351129 0 0.19468972804315191 -0.43598317723468599 0 0.1710199696588228 -0.4209828509266737 0 0.19468972804315191 -0.43598317723468599 0 0.1710199696588228 -0.4209828509266737 0 0.17868209120921169 -0.4347314709572328 0 0.1710199696588228 -0.4209828509266737 0 0.17868209120921169 -0.4347314709572328 0 0.21051977474250541 -0.5 0 0.12568737103267669 -0.5 0 0.18029926725183429 -0.47330455984667319 0 0.19730739854983459 -0.43923873662722879 0 0.17538719929630861 -0.45254190600442301 0 0.19468972804315191 -0.43598317723468599 0 0.17868209120921169 -0.4347314709572328 0 0.17538719929630861 -0.45254190600442301 0 0.17868209120921169 -0.4347314709572328 0 0.17538719929630861 -0.45254190600442301 0 0.16733200440991169 -0.44501771102091348 0 0.19387624907406051 -0.45433336482159581 0 0.17538719929630861 -0.45254190600442301 0 0.18029926725183429 -0.47330455984667319 0 0.17538719929630861 -0.45254190600442301 0 0.15346700004278269 -0.46584507538161751 0 0.17538719929630861 -0.45254190600442301 0 0.16457663673024189 -0.45752935547026602 0 0.15346700004278269 -0.46584507538161751 0 0.17538719929630861 -0.45254190600442301 0 0.15346700004278269 -0.46584507538161751 0 0.18029926725183429 -0.47330455984667319 0 0.16457663673024189 -0.45752935547026602 0 0.16733200440991169 -0.44501771102091348 0 0.15450424252411621 -0.44541200787519192 0 0.16457663673024189 -0.45752935547026602 0 0.15450424252411621 -0.44541200787519192 0 0.15027644701373261 -0.45544025305538383 0 0.16457663673024189 -0.45752935547026602 0 0.15450424252411621 -0.44541200787519192 0 0.17538719929630861 -0.45254190600442301 0 0.16457663673024189 -0.45752935547026602 0 0.16733200440991169 -0.44501771102091348 0 0.16350985228968001 -0.43487381479745341 0 0.17868209120921169 -0.4347314709572328 0 0.16733200440991169 -0.44501771102091348 0 0.1545040365798073 -0.4349268054978131 0 0.16350985228968001 -0.43487381479745341 0 0.15450424252411621 -0.44541200787519192 0 0.16350985228968001 -0.43487381479745341 0 0.16733200440991169 -0.44501771102091348 0 0.15450424252411621 -0.44541200787519192 0 0.1444318483179895 -0.43329466028011859 0 0.1545040365798073 -0.4349268054978131 0 0.15450424252411621 -0.44541200787519192 0 0.1444318483179895 -0.43329466028011859 0 0.15450424252411621 -0.44541200787519192 0 0.15450424252411621 -0.44541200787519192 0 0.14163167438234811 -0.44882906084646029 0 0.15027644701373261 -0.45544025305538383 0 0.1444318483179895 -0.43329466028011859 0 0.15450424252411621 -0.44541200787519192 0 0.14234127707672861 -0.44073430571457001 0 0.15450424252411621 -0.44541200787519192 0 0.14163167438234811 -0.44882906084646029 0 0.14234127707672861 -0.44073430571457001 0 0.14163167438234811 -0.44882906084646029 0 0.14234127707672861 -0.44073430571457001 0 0.14234127707672861 -0.44073430571457001 0 0.1369440389329922 -0.45994127523669037 0 0.13846991199782041 -0.426122298550346 0 0.14234127707672861 -0.44073430571457001 0 0.1319318160319892 -0.44710520743846038 0 0.14234127707672861 -0.44073430571457001 0 0.1319318160319892 -0.44710520743846038 0 0.1369440389329922 -0.45994127523669037 0 0.14163167438234811 -0.44882906084646029 0 0.14234127707672861 -0.44073430571457001 0 0.1369440389329922 -0.45994127523669037 0 0.13846991199782041 -0.426122298550346 0 0.1319318160319892 -0.44710520743846038 0 0.1181796960080411 -0.44835977447329489 0 0.1369440389329922 -0.45994127523669037 0 0.1315468007892561 -0.47914824475881101 0 0.1232149026707276 -0.4607179753093662 0 0.1319318160319892 -0.44710520743846038 0 0.1369440389329922 -0.45994127523669037 0 0.1232149026707276 -0.4607179753093662 0 0.1369440389329922 -0.45994127523669037 0 0.15027644701373261 -0.45544025305538383 0 0.15346700004278269 -0.46584507538161751 0 0.1369440389329922 -0.45994127523669037 0 0.15346700004278269 -0.46584507538161751 0 0.1315468007892561 -0.47914824475881101 0 0.14163167438234811 -0.44882906084646029 0 0.1369440389329922 -0.45994127523669037 0 0.15027644701373261 -0.45544025305538383 0 0.16457663673024189 -0.45752935547026602 0 0.15027644701373261 -0.45544025305538383 0 0.15346700004278269 -0.46584507538161751 0 0.15346700004278269 -0.46584507538161751 0 0.12568737103267669 -0.5 0 0.18029926725183429 -0.47330455984667319 0 0.15346700004278269 -0.46584507538161751 0 0.1315468007892561 -0.47914824475881101 0 0.15346700004278269 -0.46584507538161751 0 0.1315468007892561 -0.47914824475881101 0 0.12568737103267669 -0.5 0 0.1369440389329922 -0.45994127523669037 0 0.1315468007892561 -0.47914824475881101 0 0.1315468007892561 -0.47914824475881101 0 0.12568737103267669 -0.5 0 0.075951619622103284 -0.4755769245981481 0 0.06178660149062945 -0.49999999999999573 0 0.075951619622103284 -0.4755769245981481 0 0.080030604185024057 -0.5 0 0.06178660149062945 -0.49999999999999573 0 0.062849177476782134 -0.47012240813253708 0 0.075951619622103284 -0.4755769245981481 0 0.06178660149062945 -0.49999999999999573 0 0.062849177476782134 -0.47012240813253708 0 0.075951619622103284 -0.4755769245981481 0 0.075939841593487906 -0.46063812866441511 0 0.075951619622103284 -0.4755769245981481 0 0.087591553631304706 -0.4884294969823223 0 0.097195515882054495 -0.47814106333114109 0 0.087591553631304706 -0.4884294969823223 0 0.080030604185024057 -0.5 0 0.097188474836036973 -0.49999999999999861 0 0.075951619622103284 -0.4755769245981481 0 0.087591553631304706 -0.4884294969823223 0 0.080030604185024057 -0.5 0 0.097188474836036973 -0.49999999999999861 0 0.1143676378126465 -0.48957412237940479 0 0.097195515882054495 -0.47814106333114109 0 0.087591553631304706 -0.4884294969823223 0 0.097188474836036973 -0.49999999999999861 0 0.097195515882054495 -0.47814106333114109 0 0.097188474836036973 -0.49999999999999861 0 0.1143676378126465 -0.48957412237940479 0 0.12568737103267669 -0.5 0 0.097188474836036973 -0.49999999999999861 0 0.1143676378126465 -0.48957412237940479 0 0.1315468007892561 -0.47914824475881101 0 0.12568737103267669 -0.5 0 0.1143676378126465 -0.48957412237940479 0 0.1315468007892561 -0.47914824475881101 0 0.1143676378126465 -0.48957412237940479 0 0.1141126827310194 -0.47296282055630451 0 0.1315468007892561 -0.47914824475881101 0 0.1143676378126465 -0.48957412237940479 0 0.1315468007892561 -0.47914824475881101 0 0.1141126827310194 -0.47296282055630451 0 0.1232149026707276 -0.4607179753093662 0 0.1143676378126465 -0.48957412237940479 0 0.1141126827310194 -0.47296282055630451 0 0.097195515882054495 -0.47814106333114109 0 0.1141126827310194 -0.47296282055630451 0 0.097195515882054495 -0.47814106333114109 0 0.1065743815310682 -0.4567905293926362 0 0.097195515882054495 -0.47814106333114109 0 0.1065743815310682 -0.4567905293926362 0 0.089030505710194094 -0.45115384919629381 0 0.1141126827310194 -0.47296282055630451 0 0.1065743815310682 -0.4567905293926362 0 0.1232149026707276 -0.4607179753093662 0 0.1065743815310682 -0.4567905293926362 0 0.1232149026707276 -0.4607179753093662 0 0.1181796960080411 -0.44835977447329489 0 0.1065743815310682 -0.4567905293926362 0 0.1181796960080411 -0.44835977447329489 0 0.1109519030857376 -0.43527164053309109 0 0.12501564170929311 -0.43161350294415202 0 0.1181796960080411 -0.44835977447329489 0 0.1109519030857376 -0.43527164053309109 0 0.1319318160319892 -0.44710520743846038 0 0.1232149026707276 -0.4607179753093662 0 0.1181796960080411 -0.44835977447329489 0 0.1065743815310682 -0.4567905293926362 0 0.089030505710194094 -0.45115384919629381 0 0.1109519030857376 -0.43527164053309109 0 0.089030505710194094 -0.45115384919629381 0 0.101124229695609 -0.42857043262736222 0 0.1109519030857376 -0.43527164053309109 0 0.089030505710194094 -0.45115384919629381 0 0.101124229695609 -0.42857043262736222 0 0.089030505710194094 -0.45115384919629381 0 0.1109519030857376 -0.43527164053309109 0 0.089030505710194094 -0.45115384919629381 0 0.077401988785442313 -0.44617074766442072 0 0.081644576974008676 -0.43266870040944738 0 0.089030505710194094 -0.45115384919629381 0 0.075939841593487906 -0.46063812866441511 0 0.077401988785442313 -0.44617074766442072 0 0.075951619622103284 -0.4755769245981481 0 0.089030505710194094 -0.45115384919629381 0 0.075939841593487906 -0.46063812866441511 0 0.075951619622103284 -0.4755769245981481 0 0.097195515882054495 -0.47814106333114109 0 0.089030505710194094 -0.45115384919629381 0 0.075951619622103284 -0.4755769245981481 0 0.089030505710194094 -0.45115384919629381 0 0.089030505710194094 -0.45115384919629381 0 0.075939841593487906 -0.46063812866441511 0 0.062849177476782134 -0.47012240813253708 0 0.063862963010318546 -0.44161670989838642 0 0.062849177476782134 -0.47012240813253708 0 0.075939841593487906 -0.46063812866441511 0 0.063862963010318546 -0.44161670989838642 0 0.062849177476782134 -0.47012240813253708 0 0.075939841593487906 -0.46063812866441511 0 0.063862963010318546 -0.44161670989838642 0 0.077401988785442313 -0.44617074766442072 0 0.081644576974008676 -0.43266870040944738 0 0.075939841593487906 -0.46063812866441511 0 0.063862963010318546 -0.44161670989838642 0 0.077401988785442313 -0.44617074766442072 0 0.063862963010318546 -0.44161670989838642 0 0.06487674854385482 -0.41311101166423592 0 0.063862963010318546 -0.44161670989838642 0 0.06487674854385482 -0.41311101166423592 0 0.081644576974008676 -0.43266870040944738 0 0.06487674854385482 -0.41311101166423592 0 0.087463609318532531 -0.41525678274911398 0 0.078849520756269831 -0.39913077852404111 0 0.06487674854385482 -0.41311101166423592 0 0.087463609318532531 -0.41525678274911398 0 0.081644576974008676 -0.43266870040944738 0 0.087463609318532531 -0.41525678274911398 0 0.081644576974008676 -0.43266870040944738 0 0.101124229695609 -0.42857043262736222 0 0.089030505710194094 -0.45115384919629381 0 0.081644576974008676 -0.43266870040944738 0 0.101124229695609 -0.42857043262736222 0 0.101124229695609 -0.42857043262736222 0 0.1116564703424316 -0.42322351471985348 0 0.1014599755437761 -0.41537716744409292 0 0.101124229695609 -0.42857043262736222 0 0.1109519030857376 -0.43527164053309109 0 0.1116564703424316 -0.42322351471985348 0 0.13287330046128229 -0.41938943186989031 0 0.1109519030857376 -0.43527164053309109 0 0.13287330046128229 -0.41938943186989031 0 0.1109519030857376 -0.43527164053309109 0 0.1116564703424316 -0.42322351471985348 0 0.13287330046128229 -0.41938943186989031 0 0.12501564170929311 -0.43161350294415202 0 0.1109519030857376 -0.43527164053309109 0 0.13287330046128229 -0.41938943186989031 0 0.11388094764625881 -0.41364838203611243 0 0.11450357334271841 -0.39729018077158451 0 0.13287330046128229 -0.41938943186989031 0 0.11450357334271841 -0.39729018077158451 0 0.13287330046128229 -0.41938943186989031 0 0.1116564703424316 -0.42322351471985348 0 0.11388094764625881 -0.41364838203611243 0 0.11388094764625881 -0.41364838203611243 0 0.1014599755437761 -0.41537716744409292 0 0.1071389450076748 -0.40491976416979009 0 0.1014599755437761 -0.41537716744409292 0 0.09437611127522412 -0.39876639253413287 0 0.1071389450076748 -0.40491976416979009 0 0.087463609318532531 -0.41525678274911398 0 0.1014599755437761 -0.41537716744409292 0 0.09437611127522412 -0.39876639253413287 0 0.1116564703424316 -0.42322351471985348 0 0.11388094764625881 -0.41364838203611243 0 0.1014599755437761 -0.41537716744409292 0 0.087463609318532531 -0.41525678274911398 0 0.101124229695609 -0.42857043262736222 0 0.1014599755437761 -0.41537716744409292 0 0.09437611127522412 -0.39876639253413287 0 0.1055193966371359 -0.39135313688699908 0 0.1071389450076748 -0.40491976416979009 0 0.1055193966371359 -0.39135313688699908 0 0.1071389450076748 -0.40491976416979009 0 0.11450357334271841 -0.39729018077158451 0 0.11388094764625881 -0.41364838203611243 0 0.1071389450076748 -0.40491976416979009 0 0.11450357334271841 -0.39729018077158451 0 0.1055193966371359 -0.39135313688699908 0 0.11450357334271841 -0.39729018077158451 0 0.12350600171693241 -0.39087164270290969 0 0.1303204984370423 -0.40443061333472718 0 0.11450357334271841 -0.39729018077158451 0 0.12350600171693241 -0.39087164270290969 0 0.1055193966371359 -0.39135313688699908 0 0.12350600171693241 -0.39087164270290969 0 0.10152102595498 -0.3769390201155437 0 0.12350600171693241 -0.39087164270290969 0 0.10152102595498 -0.3769390201155437 0 0.12350600171693241 -0.39087164270290969 0 0.1172385494377032 -0.37644946353314013 0 0.10152102595498 -0.3769390201155437 0 0.12708238592477769 -0.3711726568853902 0 0.12631595218810829 -0.38138848684127602 0 0.1172385494377032 -0.37644946353314013 0 0.12631595218810829 -0.38138848684127602 0 0.12350600171693241 -0.39087164270290969 0 0.1172385494377032 -0.37644946353314013 0 0.09437611127522412 -0.39876639253413287 0 0.094426251803852862 -0.36869747355664989 0 0.09437611127522412 -0.39876639253413287 0 0.10152102595498 -0.3769390201155437 0 0.094426251803852862 -0.36869747355664989 0 0.09437611127522412 -0.39876639253413287 0 0.1055193966371359 -0.39135313688699908 0 0.10152102595498 -0.3769390201155437 0 0.09437611127522412 -0.39876639253413287 0 0.081640600566346533 -0.38391439224263718 0 0.094426251803852862 -0.36869747355664989 0 0.087463609318532531 -0.41525678274911398 0 0.09437611127522412 -0.39876639253413287 0 0.078849520756269831 -0.39913077852404111 0 0.09437611127522412 -0.39876639253413287 0 0.081640600566346533 -0.38391439224263718 0 0.078849520756269831 -0.39913077852404111 0 0.06487674854385482 -0.41311101166423592 0 0.078849520756269831 -0.39913077852404111 0 0.065890534077391094 -0.3846053134300853 0 0.06487674854385482 -0.41311101166423592 0 0.065890534077391094 -0.3846053134300853 0 0.081640600566346533 -0.38391439224263718 0 0.078849520756269831 -0.39913077852404111 0 0.065890534077391094 -0.3846053134300853 0 0.081640600566346533 -0.38391439224263718 0 0.065890534077391094 -0.3846053134300853 0 0.073891795549607481 -0.36784549658753318 0 0.065890534077391094 -0.3846053134300853 0 0.034515754640013392 -0.39747604312024393 0 0.045118820712252511 -0.36445871131086099 0 0.034515754640013392 -0.39747604312024393 0 0.02044003490213514 -0.37737378967670732 0 0.045118820712252511 -0.36445871131086099 0 0.06487674854385482 -0.41311101166423592 0 0.065890534077391094 -0.3846053134300853 0 0.034515754640013392 -0.39747604312024393 0 -0.0038527496268592589 -0.3672291952552324 0 -0.0040446306882286412 -0.39018727966337591 0 0.02044003490213514 -0.37737378967670732 0 -0.0040446306882286412 -0.39018727966337591 0 0.02044003490213514 -0.37737378967670732 0 -0.0040446306882286412 -0.39018727966337591 0 0.02044003490213514 -0.37737378967670732 0 0.010306551863908201 -0.40149362704505198 0 0.02044003490213514 -0.37737378967670732 0 0.010306551863908201 -0.40149362704505198 0 0.034515754640013392 -0.39747604312024393 0 0.02044003490213514 -0.37737378967670732 0 0.010306551863908201 -0.40149362704505198 0 0.034515754640013392 -0.39747604312024393 0 0.010306551863908201 -0.40149362704505198 0 0.02331766953821544 -0.41105881360340119 0 0.02331766953821544 -0.41105881360340119 0 0.01273534387527378 -0.42484218371901528 0 0.035713027773666382 -0.42042340052929339 0 0.034515754640013392 -0.39747604312024393 0 0.02331766953821544 -0.41105881360340119 0 0.035713027773666382 -0.42042340052929339 0 -0.0069820897190364401 -0.4086769801487235 0 0.010306551863908201 -0.40149362704505198 0 0.01273534387527378 -0.42484218371901528 0 0.010306551863908201 -0.40149362704505198 0 0.02331766953821544 -0.41105881360340119 0 0.01273534387527378 -0.42484218371901528 0 -0.009633871137189191 -0.42927842521070569 0 0.01273534387527378 -0.42484218371901528 0 0.0024577522408671922 -0.43896216099892871 0 0.01273534387527378 -0.42484218371901528 0 0.016127916594840839 -0.44787153081649128 0 0.0024577522408671922 -0.43896216099892871 0 0.01273534387527378 -0.42484218371901528 0 0.031727668068430817 -0.4395056664637022 0 0.016127916594840839 -0.44787153081649128 0 0.01273534387527378 -0.42484218371901528 0 0.035713027773666382 -0.42042340052929339 0 0.031727668068430817 -0.4395056664637022 0 0.035713027773666382 -0.42042340052929339 0 0.048283266718296053 -0.43313336609351499 0 0.031727668068430817 -0.4395056664637022 0 0.06487674854385482 -0.41311101166423592 0 0.034515754640013392 -0.39747604312024393 0 0.035713027773666382 -0.42042340052929339 0 0.063862963010318546 -0.44161670989838642 0 0.06487674854385482 -0.41311101166423592 0 0.048283266718296053 -0.43313336609351499 0 0.06487674854385482 -0.41311101166423592 0 0.035713027773666382 -0.42042340052929339 0 0.048283266718296053 -0.43313336609351499 0 0.048283266718296053 -0.43313336609351499 0 0.053238278940815252 -0.45272339653991361 0 0.041530218571387348 -0.45349995376750812 0 0.063862963010318546 -0.44161670989838642 0 0.048283266718296053 -0.43313336609351499 0 0.053238278940815252 -0.45272339653991361 0 0.062849177476782134 -0.47012240813253708 0 0.053238278940815252 -0.45272339653991361 0 0.049665768927292013 -0.46524454480762129 0 0.062849177476782134 -0.47012240813253708 0 0.063862963010318546 -0.44161670989838642 0 0.053238278940815252 -0.45272339653991361 0 0.053238278940815252 -0.45272339653991361 0 0.049665768927292013 -0.46524454480762129 0 0.041530218571387348 -0.45349995376750812 0 0.049665768927292013 -0.46524454480762129 0 0.041530218571387348 -0.45349995376750812 0 0.038003589529994032 -0.47208222323450222 0 0.041530218571387348 -0.45349995376750812 0 0.026557377892838741 -0.45935340391835949 0 0.038003589529994032 -0.47208222323450222 0 0.041530218571387348 -0.45349995376750812 0 0.031727668068430817 -0.4395056664637022 0 0.026557377892838741 -0.45935340391835949 0 0.048283266718296053 -0.43313336609351499 0 0.041530218571387348 -0.45349995376750812 0 0.031727668068430817 -0.4395056664637022 0 0.031727668068430817 -0.4395056664637022 0 0.016127916594840839 -0.44787153081649128 0 0.026557377892838741 -0.45935340391835949 0 -0.009398380369456661 -0.45385650424950202 0 0.016127916594840839 -0.44787153081649128 0 0.0024577522408671922 -0.43896216099892871 0 -0.009398380369456661 -0.45385650424950202 0 0.016127916594840839 -0.44787153081649128 0 0.0069670417537066919 -0.46493374492892559 0 0.016127916594840839 -0.44787153081649128 0 0.0069670417537066919 -0.46493374492892559 0 0.026557377892838741 -0.45935340391835949 0 0.0069670417537066919 -0.46493374492892559 0 0.026557377892838741 -0.45935340391835949 0 0.024831221726946729 -0.47770931884794832 0 0.026557377892838741 -0.45935340391835949 0 0.024831221726946729 -0.47770931884794832 0 0.038003589529994032 -0.47208222323450222 0 0.0069670417537066919 -0.46493374492892559 0 0.024831221726946729 -0.47770931884794832 0 0.01065173656885314 -0.48430315308847149 0 -0.01269979997855125 -0.47887270166548351 0 0.0069670417537066919 -0.46493374492892559 0 0.01065173656885314 -0.48430315308847149 0 0.01065173656885314 -0.48430315308847149 0 0.002177945731232533 -0.5 0 0.031982273610930978 -0.5 0 -0.01269979997855125 -0.47887270166548351 0 0.01065173656885314 -0.48430315308847149 0 0.002177945731232533 -0.5 0 0.024831221726946729 -0.47770931884794832 0 0.01065173656885314 -0.48430315308847149 0 0.031982273610930978 -0.5 0 0.031982273610930978 -0.5 0 0.040841658097982181 -0.48650110239258398 0 0.06178660149062945 -0.49999999999999573 0 0.024831221726946729 -0.47770931884794832 0 0.031982273610930978 -0.5 0 0.040841658097982181 -0.48650110239258398 0 0.024831221726946729 -0.47770931884794832 0 0.040841658097982181 -0.48650110239258398 0 0.038003589529994032 -0.47208222323450222 0 0.049665768927292013 -0.46524454480762129 0 0.038003589529994032 -0.47208222323450222 0 0.051685466315939461 -0.47821059644803321 0 0.040841658097982181 -0.48650110239258398 0 0.038003589529994032 -0.47208222323450222 0 0.051685466315939461 -0.47821059644803321 0 0.062849177476782134 -0.47012240813253708 0 0.051685466315939461 -0.47821059644803321 0 0.06178660149062945 -0.49999999999999573 0 0.062849177476782134 -0.47012240813253708 0 0.049665768927292013 -0.46524454480762129 0 0.051685466315939461 -0.47821059644803321 0 0.062849177476782134 -0.47012240813253708 0 0.051685466315939461 -0.47821059644803321 0 0.062849177476782134 -0.47012240813253708 0 0.06178660149062945 -0.49999999999999573 0 0.040841658097982181 -0.48650110239258398 0 0.051685466315939461 -0.47821059644803321 0 0.06178660149062945 -0.49999999999999573 0 0.087755608200669327 -0.28440773572457823 0 0.084781975672079332 -0.30147227297985479 0 0.066420075856435529 -0.30156260943484148 0 0.087755608200669327 -0.28440773572457823 0 0.084781975672079332 -0.30147227297985479 0 0.095717625389146965 -0.29835989490034021 0 0.084781975672079332 -0.30147227297985479 0 0.094525114727023671 -0.30941008054348501 0 0.095717625389146965 -0.29835989490034021 0 0.084781975672079332 -0.30147227297985479 0 0.094525114727023671 -0.30941008054348501 0 0.080458711684886275 -0.31381224542774261 0 0.084781975672079332 -0.30147227297985479 0 0.066420075856435529 -0.30156260943484148 0 0.080458711684886275 -0.31381224542774261 0 0.066420075856435529 -0.30156260943484148 0 0.080458711684886275 -0.31381224542774261 0 0.06461004345746818 -0.32179361845951399 0 0.066420075856435529 -0.30156260943484148 0 0.080458711684886275 -0.31381224542774261 0 0.066420075856435529 -0.30156260943484148 0 0.074615354478404172 -0.27986014395819647 0 0.062309436811790957 -0.28015833660389949 0 0.087755608200669327 -0.28440773572457823 0 0.066420075856435529 -0.30156260943484148 0 0.074615354478404172 -0.27986014395819647 0 0.087755608200669327 -0.28440773572457823 0 0.066420075856435529 -0.30156260943484148 0 0.074615354478404172 -0.27986014395819647 0 0.071050251710601198 -0.26387615718726343 0 0.062309436811790957 -0.28015833660389949 0 0.074615354478404172 -0.27986014395819647 0 0.071050251710601198 -0.26387615718726343 0 0.085541399812524135 -0.26929588084039979 0 0.071050251710601198 -0.26387615718726343 0 0.055835307651992849 -0.25860407515123002 0 0.063191750791965512 -0.2478844723196435 0 0.071050251710601198 -0.26387615718726343 0 0.063191750791965512 -0.2478844723196435 0 0.077824764188750256 -0.24806112706710451 0 0.071050251710601198 -0.26387615718726343 0 0.091226166940717016 -0.25523961270148521 0 0.085541399812524135 -0.26929588084039979 0 0.071050251710601198 -0.26387615718726343 0 0.091226166940717016 -0.25523961270148521 0 0.071050251710601198 -0.26387615718726343 0 0.091226166940717016 -0.25523961270148521 0 0.077824764188750256 -0.24806112706710451 0 0.091226166940717016 -0.25523961270148521 0 0.077824764188750256 -0.24806112706710451 0 0.087408311407275799 -0.24871554933453291 0 0.091226166940717016 -0.25523961270148521 0 0.085541399812524135 -0.26929588084039979 0 0.095087836655275662 -0.26525037220608061 0 0.091226166940717016 -0.25523961270148521 0 0.087408311407275799 -0.24871554933453291 0 0.093755337571119035 -0.24848599676784819 0 0.087755608200669327 -0.28440773572457823 0 0.074615354478404172 -0.27986014395819647 0 0.085541399812524135 -0.26929588084039979 0 0.085541399812524135 -0.26929588084039979 0 0.098588492521629392 -0.27544297411638852 0 0.095087836655275662 -0.26525037220608061 0 0.087755608200669327 -0.28440773572457823 0 0.085541399812524135 -0.26929588084039979 0 0.098588492521629392 -0.27544297411638852 0 0.098588492521629392 -0.27544297411638852 0 0.10499528734623211 -0.26102302116604892 0 0.1118173396904354 -0.27974808674103158 0 0.098588492521629392 -0.27544297411638852 0 0.095087836655275662 -0.26525037220608061 0 0.10499528734623211 -0.26102302116604892 0 0.098588492521629392 -0.27544297411638852 0 0.10499528734623211 -0.26102302116604892 0 0.091226166940717016 -0.25523961270148521 0 0.10499528734623211 -0.26102302116604892 0 0.1114020821708336 -0.24660306821570879 0 0.091226166940717016 -0.25523961270148521 0 0.1114020821708336 -0.24660306821570879 0 0.091226166940717016 -0.25523961270148521 0 0.095087836655275662 -0.26525037220608061 0 0.10499528734623211 -0.26102302116604892 0 0.10499528734623211 -0.26102302116604892 0 0.1114020821708336 -0.24660306821570879 0 0.10499528734623211 -0.26102302116604892 0 0.1196722046577542 -0.25417102299646022 0 0.1114020821708336 -0.24660306821570879 0 0.10499528734623211 -0.26102302116604892 0 0.1196722046577542 -0.25417102299646022 0 0.1188275658860955 -0.26719772217839471 0 0.12906799302994659 -0.25991100407216922 0 0.1196722046577542 -0.25417102299646022 0 0.1188275658860955 -0.26719772217839471 0 0.10499528734623211 -0.26102302116604892 0 0.1118173396904354 -0.27974808674103158 0 0.1188275658860955 -0.26719772217839471 0 0.12610381228901629 -0.27973635839720201 0 0.1118173396904354 -0.27974808674103158 0 0.1188275658860955 -0.26719772217839471 0 0.12610381228901629 -0.27973635839720201 0 0.1118173396904354 -0.27974808674103158 0 0.1187848314304174 -0.29077887112321132 0 0.1187848314304174 -0.29077887112321132 0 0.104819728541573 -0.29092961857166127 0 0.11522287992104729 -0.30034084349083251 0 0.1118173396904354 -0.27974808674103158 0 0.1187848314304174 -0.29077887112321132 0 0.104819728541573 -0.29092961857166127 0 0.087755608200669327 -0.28440773572457823 0 0.098588492521629392 -0.27544297411638852 0 0.104819728541573 -0.29092961857166127 0 0.098588492521629392 -0.27544297411638852 0 0.1118173396904354 -0.27974808674103158 0 0.104819728541573 -0.29092961857166127 0 0.087755608200669327 -0.28440773572457823 0 0.104819728541573 -0.29092961857166127 0 0.095717625389146965 -0.29835989490034021 0 0.094525114727023671 -0.30941008054348501 0 0.095717625389146965 -0.29835989490034021 0 0.1067056998043894 -0.30557976668212161 0 0.104819728541573 -0.29092961857166127 0 0.095717625389146965 -0.29835989490034021 0 0.1067056998043894 -0.30557976668212161 0 0.104819728541573 -0.29092961857166127 0 0.1067056998043894 -0.30557976668212161 0 0.11522287992104729 -0.30034084349083251 0 0.094525114727023671 -0.30941008054348501 0 0.1067056998043894 -0.30557976668212161 0 0.10348479743980291 -0.32023470322226699 0 0.1067056998043894 -0.30557976668212161 0 0.11522287992104729 -0.30034084349083251 0 0.1206449350642575 -0.31273267530916599 0 0.1251592047645993 -0.30168328576800202 0 0.1187848314304174 -0.29077887112321132 0 0.11522287992104729 -0.30034084349083251 0 0.1251592047645993 -0.30168328576800202 0 0.11522287992104729 -0.30034084349083251 0 0.1206449350642575 -0.31273267530916599 0 0.12570068138842669 -0.31685230352553612 0 0.1206449350642575 -0.31273267530916599 0 0.1216108526422847 -0.32442835510370271 0 0.1067056998043894 -0.30557976668212161 0 0.1206449350642575 -0.31273267530916599 0 0.11820372969174429 -0.32621139500878021 0 0.1067056998043894 -0.30557976668212161 0 0.11820372969174429 -0.32621139500878021 0 0.1067056998043894 -0.30557976668212161 0 0.11820372969174429 -0.32621139500878021 0 0.10348479743980291 -0.32023470322226699 0 0.1206449350642575 -0.31273267530916599 0 0.11820372969174429 -0.32621139500878021 0 0.1216108526422847 -0.32442835510370271 0 0.12906344148839469 -0.32652582716015532 0 0.11820372969174429 -0.32621139500878021 0 0.1216108526422847 -0.32442835510370271 0 0.11820372969174429 -0.32621139500878021 0 0.1216108526422847 -0.32442835510370271 0 0.12707662910914591 -0.32216327093416952 0 0.12570068138842669 -0.31685230352553612 0 0.1216108526422847 -0.32442835510370271 0 0.11820372969174429 -0.32621139500878021 0 0.1141966428722406 -0.34325081632941551 0 0.103492095462521 -0.33391039245630688 0 0.12981355006034451 -0.34704361593103378 0 0.11820372969174429 -0.32621139500878021 0 0.1141966428722406 -0.34325081632941551 0 0.12981355006034451 -0.34704361593103378 0 0.11820372969174429 -0.32621139500878021 0 0.11820372969174429 -0.32621139500878021 0 0.103492095462521 -0.33391039245630688 0 0.1141966428722406 -0.34325081632941551 0 0.103492095462521 -0.33391039245630688 0 0.1054122982004758 -0.34244547417412319 0 0.1141966428722406 -0.34325081632941551 0 0.103492095462521 -0.33391039245630688 0 0.103492095462521 -0.33391039245630688 0 0.09447639233248635 -0.33862855457916691 0 0.103492095462521 -0.33391039245630688 0 0.1054122982004758 -0.34244547417412319 0 0.09447639233248635 -0.33862855457916691 0 0.1054122982004758 -0.34244547417412319 0 0.09447639233248635 -0.33862855457916691 0 0.1045655088188682 -0.34966460077536748 0 0.09447639233248635 -0.33862855457916691 0 0.094497347513336979 -0.32606188142064357 0 0.103492095462521 -0.33391039245630688 0 0.09447639233248635 -0.33862855457916691 0 0.094497347513336979 -0.32606188142064357 0 0.103492095462521 -0.33391039245630688 0 0.094497347513336979 -0.32606188142064357 0 0.103492095462521 -0.33391039245630688 0 0.094497347513336979 -0.32606188142064357 0 0.10348479743980291 -0.32023470322226699 0 0.094525114727023671 -0.30941008054348501 0 0.094497347513336979 -0.32606188142064357 0 0.10348479743980291 -0.32023470322226699 0 0.094525114727023671 -0.30941008054348501 0 0.094497347513336979 -0.32606188142064357 0 0.11820372969174429 -0.32621139500878021 0 0.103492095462521 -0.33391039245630688 0 0.10348479743980291 -0.32023470322226699 0 0.1172385494377032 -0.37644946353314013 0 0.10152102595498 -0.3769390201155437 0 0.1105361653812456 -0.36958880332721589 0 0.1172385494377032 -0.37644946353314013 0 0.1105361653812456 -0.36958880332721589 0 0.1187090327596223 -0.36620155235890761 0 0.12708238592477769 -0.3711726568853902 0 0.1172385494377032 -0.37644946353314013 0 0.1187090327596223 -0.36620155235890761 0 0.12719922570869319 -0.36045835834078788 0 0.12708238592477769 -0.3711726568853902 0 0.1187090327596223 -0.36620155235890761 0 0.12719922570869319 -0.36045835834078788 0 0.1187090327596223 -0.36620155235890761 0 0.1197528644682677 -0.35463299991206948 0 0.1105361653812456 -0.36958880332721589 0 0.1187090327596223 -0.36620155235890761 0 0.1116696457163588 -0.36166131442005189 0 0.1187090327596223 -0.36620155235890761 0 0.1116696457163588 -0.36166131442005189 0 0.1197528644682677 -0.35463299991206948 0 0.12981355006034451 -0.34704361593103378 0 0.1141966428722406 -0.34325081632941551 0 0.11070685806266679 -0.34585883830517022 0 0.12981355006034451 -0.34704361593103378 0 0.1197528644682677 -0.35463299991206948 0 0.11070685806266679 -0.34585883830517022 0 0.12981355006034451 -0.34704361593103378 0 0.11070685806266679 -0.34585883830517022 0 0.11135479429473751 -0.3542410450488338 0 0.1197528644682677 -0.35463299991206948 0 0.11070685806266679 -0.34585883830517022 0 0.1116696457163588 -0.36166131442005189 0 0.11135479429473751 -0.3542410450488338 0 0.1197528644682677 -0.35463299991206948 0 0.1116696457163588 -0.36166131442005189 0 0.11135479429473751 -0.3542410450488338 0 0.10642429550358221 -0.35732855728135132 0 0.1141966428722406 -0.34325081632941551 0 0.1054122982004758 -0.34244547417412319 0 0.11070685806266679 -0.34585883830517022 0 0.09447639233248635 -0.33862855457916691 0 0.094426251803852862 -0.36869747355664989 0 0.09447639233248635 -0.33862855457916691 0 0.10050390077200121 -0.35610430338959831 0 0.094426251803852862 -0.36869747355664989 0 0.09447639233248635 -0.33862855457916691 0 0.1045655088188682 -0.34966460077536748 0 0.10050390077200121 -0.35610430338959831 0 0.11135479429473751 -0.3542410450488338 0 0.11070685806266679 -0.34585883830517022 0 0.1045655088188682 -0.34966460077536748 0 0.1054122982004758 -0.34244547417412319 0 0.11070685806266679 -0.34585883830517022 0 0.1045655088188682 -0.34966460077536748 0 0.1045655088188682 -0.34966460077536748 0 0.10050390077200121 -0.35610430338959831 0 0.10642429550358221 -0.35732855728135132 0 0.11135479429473751 -0.3542410450488338 0 0.1045655088188682 -0.34966460077536748 0 0.10642429550358221 -0.35732855728135132 0 0.10050390077200121 -0.35610430338959831 0 0.10642429550358221 -0.35732855728135132 0 0.1040276279159454 -0.36497152277290468 0 0.1105361653812456 -0.36958880332721589 0 0.1116696457163588 -0.36166131442005189 0 0.1040276279159454 -0.36497152277290468 0 0.1116696457163588 -0.36166131442005189 0 0.10642429550358221 -0.35732855728135132 0 0.1040276279159454 -0.36497152277290468 0 0.10050390077200121 -0.35610430338959831 0 0.1040276279159454 -0.36497152277290468 0 0.094426251803852862 -0.36869747355664989 0 0.10152102595498 -0.3769390201155437 0 0.1040276279159454 -0.36497152277290468 0 0.094426251803852862 -0.36869747355664989 0 0.10152102595498 -0.3769390201155437 0 0.1105361653812456 -0.36958880332721589 0 0.1040276279159454 -0.36497152277290468 0 0.094426251803852862 -0.36869747355664989 0 0.08409913957018017 -0.35587155130933729 0 0.073891795549607481 -0.36784549658753318 0 0.081640600566346533 -0.38391439224263718 0 0.094426251803852862 -0.36869747355664989 0 0.073891795549607481 -0.36784549658753318 0 0.09447639233248635 -0.33862855457916691 0 0.069797606522369923 -0.35154363294501489 0 0.09447639233248635 -0.33862855457916691 0 0.08409913957018017 -0.35587155130933729 0 0.069797606522369923 -0.35154363294501489 0 0.09447639233248635 -0.33862855457916691 0 0.094426251803852862 -0.36869747355664989 0 0.08409913957018017 -0.35587155130933729 0 0.08409913957018017 -0.35587155130933729 0 0.069797606522369923 -0.35154363294501489 0 0.073891795549607481 -0.36784549658753318 0 0.069797606522369923 -0.35154363294501489 0 0.073891795549607481 -0.36784549658753318 0 0.045118820712252511 -0.36445871131086099 0 0.094497347513336979 -0.32606188142064357 0 0.080458711684886275 -0.31381224542774261 0 0.077982291988881125 -0.33166262846323252 0 0.094525114727023671 -0.30941008054348501 0 0.094497347513336979 -0.32606188142064357 0 0.080458711684886275 -0.31381224542774261 0 0.094497347513336979 -0.32606188142064357 0 0.080458711684886275 -0.31381224542774261 0 0.09447639233248635 -0.33862855457916691 0 0.069797606522369923 -0.35154363294501489 0 0.077982291988881125 -0.33166262846323252 0 0.09447639233248635 -0.33862855457916691 0 0.094497347513336979 -0.32606188142064357 0 0.077982291988881125 -0.33166262846323252 0 0.069797606522369923 -0.35154363294501489 0 0.077982291988881125 -0.33166262846323252 0 0.06290974630975199 -0.33692369367953467 0 0.077982291988881125 -0.33166262846323252 0 0.06290974630975199 -0.33692369367953467 0 0.06461004345746818 -0.32179361845951399 0 0.080458711684886275 -0.31381224542774261 0 0.077982291988881125 -0.33166262846323252 0 0.06461004345746818 -0.32179361845951399 0 0.06461004345746818 -0.32179361845951399 0 0.05268026965995691 -0.32805702588966978 0 0.045082737076614317 -0.31871893561292952 0 0.066420075856435529 -0.30156260943484148 0 0.06461004345746818 -0.32179361845951399 0 0.045082737076614317 -0.31871893561292952 0 0.06290974630975199 -0.33692369367953467 0 0.05268026965995691 -0.32805702588966978 0 0.049547754204683873 -0.33660581399782408 0 0.06290974630975199 -0.33692369367953467 0 0.06461004345746818 -0.32179361845951399 0 0.05268026965995691 -0.32805702588966978 0 0.06290974630975199 -0.33692369367953467 0 0.049547754204683873 -0.33660581399782408 0 0.054762462223884853 -0.34744143045406373 0 0.05268026965995691 -0.32805702588966978 0 0.049547754204683873 -0.33660581399782408 0 0.040372558382361159 -0.32993015920236002 0 0.049547754204683873 -0.33660581399782408 0 0.040372558382361159 -0.32993015920236002 0 0.040372558382361159 -0.32993015920236002 0 0.03552543144613006 -0.32640350464340773 0 0.022101296261978071 -0.33719720503194639 0 0.040372558382361159 -0.32993015920236002 0 0.030406296642247761 -0.35365197443953339 0 0.049547754204683873 -0.33660581399782408 0 0.040372558382361159 -0.32993015920236002 0 0.044338568018333961 -0.34907608706227872 0 0.040372558382361159 -0.32993015920236002 0 0.03552543144613006 -0.32640350464340773 0 0.03552543144613006 -0.32640350464340773 0 0.036509023474654782 -0.31308953626827207 0 0.045082737076614317 -0.31871893561292952 0 0.036509023474654782 -0.31308953626827207 0 0.046505353518844078 -0.31533280696450089 0 0.045082737076614317 -0.31871893561292952 0 0.046505353518844078 -0.31533280696450089 0 0.045082737076614317 -0.31871893561292952 0 0.05268026965995691 -0.32805702588966978 0 0.040372558382361159 -0.32993015920236002 0 0.045082737076614317 -0.31871893561292952 0 0.040372558382361159 -0.32993015920236002 0 0.03552543144613006 -0.32640350464340773 0 0.045082737076614317 -0.31871893561292952 0 0.040372558382361159 -0.32993015920236002 0 0.045082737076614317 -0.31871893561292952 0 0.03552543144613006 -0.32640350464340773 0 0.045082737076614317 -0.31871893561292952 0 0.065890534077391094 -0.3846053134300853 0 0.073891795549607481 -0.36784549658753318 0 0.045118820712252511 -0.36445871131086099 0 0.069797606522369923 -0.35154363294501489 0 0.045118820712252511 -0.36445871131086099 0 0.069797606522369923 -0.35154363294501489 0 0.054762462223884853 -0.34744143045406373 0 0.045118820712252511 -0.36445871131086099 0 0.054762462223884853 -0.34744143045406373 0 0.044338568018333961 -0.34907608706227872 0 0.045118820712252511 -0.36445871131086099 0 0.069797606522369923 -0.35154363294501489 0 0.06290974630975199 -0.33692369367953467 0 0.054762462223884853 -0.34744143045406373 0 0.049547754204683873 -0.33660581399782408 0 0.054762462223884853 -0.34744143045406373 0 0.044338568018333961 -0.34907608706227872 0 0.040372558382361159 -0.32993015920236002 0 0.044338568018333961 -0.34907608706227872 0 0.030406296642247761 -0.35365197443953339 0 0.044338568018333961 -0.34907608706227872 0 0.045118820712252511 -0.36445871131086099 0 0.030406296642247761 -0.35365197443953339 0 0.02044003490213514 -0.37737378967670732 0 0.045118820712252511 -0.36445871131086099 0 0.030406296642247761 -0.35365197443953339 0 0.02044003490213514 -0.37737378967670732 0 0.045118820712252511 -0.36445871131086099 0 0.02044003490213514 -0.37737378967670732 0 0.030406296642247761 -0.35365197443953339 0 0.02044003490213514 -0.37737378967670732 0 0.030406296642247761 -0.35365197443953339 0 0.01391768574883724 -0.36156146619798929 0 0.030406296642247761 -0.35365197443953339 0 0.0086771610778249852 -0.34799090542048389 0 0.022101296261978071 -0.33719720503194639 0 0.030406296642247761 -0.35365197443953339 0 0.0086771610778249852 -0.34799090542048389 0 0.01391768574883724 -0.36156146619798929 0 -0.0038527496268592589 -0.3672291952552324 0 0.0086771610778249852 -0.34799090542048389 0 0.01391768574883724 -0.36156146619798929 0 -0.0038527496268592589 -0.3672291952552324 0 0.02044003490213514 -0.37737378967670732 0 0.01391768574883724 -0.36156146619798929 0 0.03552543144613006 -0.32640350464340773 0 0.022101296261978071 -0.33719720503194639 0 0.015797698828369559 -0.31205007443835531 0 0.03552543144613006 -0.32640350464340773 0 0.015797698828369559 -0.31205007443835531 0 0.03552543144613006 -0.32640350464340773 0 0.036509023474654782 -0.31308953626827207 0 0.015797698828369559 -0.31205007443835531 0 0.03552543144613006 -0.32640350464340773 0 0.022101296261978071 -0.33719720503194639 0 0.040372558382361159 -0.32993015920236002 0 0.030406296642247761 -0.35365197443953339 0 0.022101296261978071 -0.33719720503194639 0 0.0086771610778249852 -0.34799090542048389 0 0.022101296261978071 -0.33719720503194639 0 0.0018253179094817561 -0.33148695818618618 0 0.0086771610778249852 -0.34799090542048389 0 0.022101296261978071 -0.33719720503194639 0 -0.0053491287304535916 -0.31543705698788238 0 0.0018253179094817561 -0.33148695818618618 0 0.015797698828369559 -0.31205007443835531 0 0.022101296261978071 -0.33719720503194639 0 0.0018253179094817561 -0.33148695818618618 0 0.015797698828369559 -0.31205007443835531 0 -0.0039300337893912567 -0.29769664423330311 0 0.015068478431672 -0.28604920032866349 0 0.015797698828369559 -0.31205007443835531 0 -0.0039300337893912567 -0.29769664423330311 0 -0.0053491287304535916 -0.31543705698788238 0 0.015797698828369559 -0.31205007443835531 0 -0.0039300337893912567 -0.29769664423330311 0 0.015797698828369559 -0.31205007443835531 0 -0.0039300337893912567 -0.29769664423330311 0 -0.007981009471871324 -0.26683248623107969 0 0.015068478431672 -0.28604920032866349 0 0.036509023474654782 -0.31308953626827207 0 0.015797698828369559 -0.31205007443835531 0 0.03373521827065281 -0.30001919607980648 0 0.015068478431672 -0.28604920032866349 0 0.015797698828369559 -0.31205007443835531 0 0.03373521827065281 -0.30001919607980648 0 0.015068478431672 -0.28604920032866349 0 0.03373521827065281 -0.30001919607980648 0 0.046845299725428058 -0.28448232576786281 0 0.042198714756396312 -0.30640823682524437 0 0.03373521827065281 -0.30001919607980648 0 0.050587370791805607 -0.29995067378376111 0 0.036509023474654782 -0.31308953626827207 0 0.042198714756396312 -0.30640823682524437 0 0.03373521827065281 -0.30001919607980648 0 0.046505353518844078 -0.31533280696450089 0 0.042198714756396312 -0.30640823682524437 0 0.050587370791805607 -0.29995067378376111 0 0.036509023474654782 -0.31308953626827207 0 0.046505353518844078 -0.31533280696450089 0 0.042198714756396312 -0.30640823682524437 0 0.03373521827065281 -0.30001919607980648 0 0.046845299725428058 -0.28448232576786281 0 0.050587370791805607 -0.29995067378376111 0 0.066420075856435529 -0.30156260943484148 0 0.046845299725428058 -0.28448232576786281 0 0.066420075856435529 -0.30156260943484148 0 0.046845299725428058 -0.28448232576786281 0 0.050587370791805607 -0.29995067378376111 0 0.066420075856435529 -0.30156260943484148 0 0.046845299725428058 -0.28448232576786281 0 0.062309436811790957 -0.28015833660389949 0 0.066420075856435529 -0.30156260943484148 0 0.046505353518844078 -0.31533280696450089 0 0.050587370791805607 -0.29995067378376111 0 0.066420075856435529 -0.30156260943484148 0 0.046505353518844078 -0.31533280696450089 0 0.045082737076614317 -0.31871893561292952 0 0.066420075856435529 -0.30156260943484148 0 0.045082737076614317 -0.31871893561292952 0 0.071050251710601198 -0.26387615718726343 0 0.055835307651992849 -0.25860407515123002 0 0.050874336480485338 -0.27251270167304148 0 0.055835307651992849 -0.25860407515123002 0 0.050874336480485338 -0.27251270167304148 0 0.04275520381104489 -0.25902340891147951 0 0.055835307651992849 -0.25860407515123002 0 0.04275520381104489 -0.25902340891147951 0 0.04855845313208311 -0.24709254666118141 0 0.055835307651992849 -0.25860407515123002 0 0.04855845313208311 -0.24709254666118141 0 0.063191750791965512 -0.2478844723196435 0 0.071050251710601198 -0.26387615718726343 0 0.050874336480485338 -0.27251270167304148 0 0.071050251710601198 -0.26387615718726343 0 0.062309436811790957 -0.28015833660389949 0 0.050874336480485338 -0.27251270167304148 0 0.046845299725428058 -0.28448232576786281 0 0.062309436811790957 -0.28015833660389949 0 0.050874336480485338 -0.27251270167304148 0 0.050874336480485338 -0.27251270167304148 0 0.04275520381104489 -0.25902340891147951 0 0.027270523594420861 -0.26740204210088381 0 0.046845299725428058 -0.28448232576786281 0 0.027270523594420861 -0.26740204210088381 0 0.046845299725428058 -0.28448232576786281 0 0.050874336480485338 -0.27251270167304148 0 0.027270523594420861 -0.26740204210088381 0 0.04275520381104489 -0.25902340891147951 0 0.0312373981962423 -0.24950567897106049 0 0.04855845313208311 -0.24709254666118141 0 0.04275520381104489 -0.25902340891147951 0 0.027270523594420861 -0.26740204210088381 0 0.0312373981962423 -0.24950567897106049 0 0.015068478431672 -0.28604920032866349 0 0.046845299725428058 -0.28448232576786281 0 0.027270523594420861 -0.26740204210088381 0 0.027270523594420861 -0.26740204210088381 0 0.0076957474634097864 -0.25032175843390908 0 0.0312373981962423 -0.24950567897106049 0 0.027270523594420861 -0.26740204210088381 0 0.0076957474634097864 -0.25032175843390908 0 0.015068478431672 -0.28604920032866349 0 0.027270523594420861 -0.26740204210088381 0 0.01051343500440787 -0.26765137177363407 0 -0.007981009471871324 -0.26683248623107969 0 0.015068478431672 -0.28604920032866349 0 0.01051343500440787 -0.26765137177363407 0 -0.007981009471871324 -0.26683248623107969 0 0.01051343500440787 -0.26765137177363407 0 0.0076957474634097864 -0.25032175843390908 0 0.027270523594420861 -0.26740204210088381 0 0.01051343500440787 -0.26765137177363407 0 0.0076957474634097864 -0.25032175843390908 0 -0.0097925411917082275 -0.2350620727506374 0 0.0076957474634097864 -0.25032175843390908 0 0.0052482380929481766 -0.23255468427204029 0 0.0076957474634097864 -0.25032175843390908 0 0.0052482380929481766 -0.23255468427204029 0 0.01988030588950648 -0.23748900684297 0 0.0076957474634097864 -0.25032175843390908 0 0.01988030588950648 -0.23748900684297 0 0.015189879888181809 -0.22049898237531521 0 0.0052482380929481766 -0.23255468427204029 0 0.01988030588950648 -0.23748900684297 0 -0.0065574519470419533 -0.214820418438218 0 0.015189879888181809 -0.22049898237531521 0 0.0052482380929481766 -0.23255468427204029 0 0.015189879888181809 -0.22049898237531521 0 0.028950958588357119 -0.21259362822663161 0 0.032064864315603042 -0.2246562552520307 0 0.015189879888181809 -0.22049898237531521 0 0.01988030588950648 -0.23748900684297 0 0.032064864315603042 -0.2246562552520307 0 0.01988030588950648 -0.23748900684297 0 0.039537496743073608 -0.23646976573838141 0 0.032064864315603042 -0.2246562552520307 0 0.01988030588950648 -0.23748900684297 0 0.032064864315603042 -0.2246562552520307 0 0.0312373981962423 -0.24950567897106049 0 0.01988030588950648 -0.23748900684297 0 0.039537496743073608 -0.23646976573838141 0 0.0076957474634097864 -0.25032175843390908 0 0.0312373981962423 -0.24950567897106049 0 0.01988030588950648 -0.23748900684297 0 0.0066385746459730471 -0.18762293938074459 0 0.012562316241336691 -0.20260624354720391 0 0.0194390299319076 -0.18872677907477881 0 -0.0020010690508425301 -0.2007389962191608 0 0.0066385746459730471 -0.18762293938074459 0 0.012562316241336691 -0.20260624354720391 0 -0.0065574519470419533 -0.214820418438218 0 0.015189879888181809 -0.22049898237531521 0 0.012562316241336691 -0.20260624354720391 0 -0.0065574519470419533 -0.214820418438218 0 -0.0020010690508425301 -0.2007389962191608 0 0.012562316241336691 -0.20260624354720391 0 0.012562316241336691 -0.20260624354720391 0 0.028950958588357119 -0.21259362822663161 0 0.042466594338948269 -0.2004290892140812 0 0.015189879888181809 -0.22049898237531521 0 0.012562316241336691 -0.20260624354720391 0 0.028950958588357119 -0.21259362822663161 0 0.012562316241336691 -0.20260624354720391 0 0.03087609893533149 -0.1916720650261817 0 0.042466594338948269 -0.2004290892140812 0 0.012562316241336691 -0.20260624354720391 0 0.03087609893533149 -0.1916720650261817 0 0.0194390299319076 -0.18872677907477881 0 0.012562316241336691 -0.20260624354720391 0 0.042466594338948269 -0.2004290892140812 0 0.03087609893533149 -0.1916720650261817 0 0.0194390299319076 -0.18872677907477881 0 0.02818368586261235 -0.18386720988780619 0 0.041289517759455538 -0.19087558776508121 0 0.042466594338948269 -0.2004290892140812 0 0.052478181301010153 -0.18907312306575391 0 0.03087609893533149 -0.1916720650261817 0 0.041289517759455538 -0.19087558776508121 0 0.039337196462532281 -0.1823280737543079 0 0.03087609893533149 -0.1916720650261817 0 0.041289517759455538 -0.19087558776508121 0 0.042466594338948269 -0.2004290892140812 0 0.042466594338948269 -0.2004290892140812 0 0.04247113815771579 -0.214777570744527 0 0.050754338395415162 -0.2095684107105335 0 0.028950958588357119 -0.21259362822663161 0 0.042466594338948269 -0.2004290892140812 0 0.04247113815771579 -0.214777570744527 0 0.028950958588357119 -0.21259362822663161 0 0.04247113815771579 -0.214777570744527 0 0.032064864315603042 -0.2246562552520307 0 0.042466594338948269 -0.2004290892140812 0 0.061718130504552153 -0.20648821807976739 0 0.050754338395415162 -0.2095684107105335 0 0.04247113815771579 -0.214777570744527 0 0.056361490580444443 -0.2165787648037584 0 0.050754338395415162 -0.2095684107105335 0 0.056361490580444443 -0.2165787648037584 0 0.061718130504552153 -0.20648821807976739 0 0.066553110684747285 -0.21634006370396139 0 0.056361490580444443 -0.2165787648037584 0 0.061718130504552153 -0.20648821807976739 0 0.050754338395415162 -0.2095684107105335 0 0.042466594338948269 -0.2004290892140812 0 0.072370872436559985 -0.19825193488095941 0 0.052478181301010153 -0.18907312306575391 0 0.072370872436559985 -0.19825193488095941 0 0.059734976696323092 -0.18129515284864031 0 0.042466594338948269 -0.2004290892140812 0 0.052478181301010153 -0.18907312306575391 0 0.072370872436559985 -0.19825193488095941 0 0.042466594338948269 -0.2004290892140812 0 0.061718130504552153 -0.20648821807976739 0 0.072370872436559985 -0.19825193488095941 0 0.0312373981962423 -0.24950567897106049 0 0.039537496743073608 -0.23646976573838141 0 0.04855845313208311 -0.24709254666118141 0 0.039537496743073608 -0.23646976573838141 0 0.032064864315603042 -0.2246562552520307 0 0.048360907556311103 -0.22558980165841661 0 0.04247113815771579 -0.214777570744527 0 0.032064864315603042 -0.2246562552520307 0 0.048360907556311103 -0.22558980165841661 0 0.039537496743073608 -0.23646976573838141 0 0.048360907556311103 -0.22558980165841661 0 0.05652058258868032 -0.23533897924153491 0 0.04247113815771579 -0.214777570744527 0 0.056361490580444443 -0.2165787648037584 0 0.048360907556311103 -0.22558980165841661 0 0.056361490580444443 -0.2165787648037584 0 0.048360907556311103 -0.22558980165841661 0 0.063209872952349408 -0.22571747417026741 0 0.056361490580444443 -0.2165787648037584 0 0.063209872952349408 -0.22571747417026741 0 0.066553110684747285 -0.21634006370396139 0 0.048360907556311103 -0.22558980165841661 0 0.05652058258868032 -0.23533897924153491 0 0.063209872952349408 -0.22571747417026741 0 0.039537496743073608 -0.23646976573838141 0 0.05652058258868032 -0.23533897924153491 0 0.04855845313208311 -0.24709254666118141 0 0.05652058258868032 -0.23533897924153491 0 0.04855845313208311 -0.24709254666118141 0 0.063191750791965512 -0.2478844723196435 0 0.05652058258868032 -0.23533897924153491 0 0.063191750791965512 -0.2478844723196435 0 0.071674350652907948 -0.2345930565650543 0 0.071674350652907948 -0.2345930565650543 0 0.077824764188750256 -0.24806112706710451 0 0.082397753629034051 -0.23805791429464759 0 0.063191750791965512 -0.2478844723196435 0 0.071674350652907948 -0.2345930565650543 0 0.077824764188750256 -0.24806112706710451 0 0.077824764188750256 -0.24806112706710451 0 0.082397753629034051 -0.23805791429464759 0 0.087408311407275799 -0.24871554933453291 0 0.082397753629034051 -0.23805791429464759 0 0.087408311407275799 -0.24871554933453291 0 0.097056617851726756 -0.23370440493663749 0 0.087408311407275799 -0.24871554933453291 0 0.097056617851726756 -0.23370440493663749 0 0.087408311407275799 -0.24871554933453291 0 0.093755337571119035 -0.24848599676784819 0 0.097056617851726756 -0.23370440493663749 0 0.085914468443403627 -0.228469224100038 0 0.08435937213287871 -0.2214642639806689 0 0.10670492429617601 -0.21869326053874111 0 0.082397753629034051 -0.23805791429464759 0 0.085914468443403627 -0.228469224100038 0 0.097056617851726756 -0.23370440493663749 0 0.071674350652907948 -0.2345930565650543 0 0.082397753629034051 -0.23805791429464759 0 0.085914468443403627 -0.228469224100038 0 0.08435937213287871 -0.2214642639806689 0 0.074863334799411749 -0.22295483863780799 0 0.0782144537864779 -0.21784518118232549 0 0.085914468443403627 -0.228469224100038 0 0.08435937213287871 -0.2214642639806689 0 0.074863334799411749 -0.22295483863780799 0 0.074863334799411749 -0.22295483863780799 0 0.073704584966858 -0.21589499145194499 0 0.0782144537864779 -0.21784518118232549 0 0.071674350652907948 -0.2345930565650543 0 0.085914468443403627 -0.228469224100038 0 0.074863334799411749 -0.22295483863780799 0 0.071674350652907948 -0.2345930565650543 0 0.074863334799411749 -0.22295483863780799 0 0.063209872952349408 -0.22571747417026741 0 0.05652058258868032 -0.23533897924153491 0 0.071674350652907948 -0.2345930565650543 0 0.063209872952349408 -0.22571747417026741 0 0.074863334799411749 -0.22295483863780799 0 0.063209872952349408 -0.22571747417026741 0 0.066553110684747285 -0.21634006370396139 0 0.066553110684747285 -0.21634006370396139 0 0.069953373625471632 -0.20924079645872859 0 0.073704584966858 -0.21589499145194499 0 0.061718130504552153 -0.20648821807976739 0 0.069953373625471632 -0.20924079645872859 0 0.072370872436559985 -0.19825193488095941 0 0.061718130504552153 -0.20648821807976739 0 0.066553110684747285 -0.21634006370396139 0 0.069953373625471632 -0.20924079645872859 0 0.069953373625471632 -0.20924079645872859 0 0.077840269022859621 -0.21168414582375669 0 0.072370872436559985 -0.19825193488095941 0 0.072370872436559985 -0.19825193488095941 0 0.083383340408276385 -0.21303015265619099 0 0.077840269022859621 -0.21168414582375669 0 0.072370872436559985 -0.19825193488095941 0 0.083383340408276385 -0.21303015265619099 0 0.069953373625471632 -0.20924079645872859 0 0.077840269022859621 -0.21168414582375669 0 0.073704584966858 -0.21589499145194499 0 0.074863334799411749 -0.22295483863780799 0 0.066553110684747285 -0.21634006370396139 0 0.073704584966858 -0.21589499145194499 0 0.077840269022859621 -0.21168414582375669 0 0.073704584966858 -0.21589499145194499 0 0.0782144537864779 -0.21784518118232549 0 0.072370872436559985 -0.19825193488095941 0 0.059734976696323092 -0.18129515284864031 0 0.072370872436559985 -0.19825193488095941 0 0.071652052597834068 -0.18455300733867849 0 0.059734976696323092 -0.18129515284864031 0 0.072370872436559985 -0.19825193488095941 0 0.084596969222160229 -0.18645607816375981 0 0.071652052597834068 -0.18455300733867849 0 0.072370872436559985 -0.19825193488095941 0 0.098402659808903781 -0.19635671378611599 0 0.072370872436559985 -0.19825193488095941 0 0.098402659808903781 -0.19635671378611599 0 0.084596969222160229 -0.18645607816375981 0 0.072370872436559985 -0.19825193488095941 0 0.083383340408276385 -0.21303015265619099 0 0.098402659808903781 -0.19635671378611599 0 0.083383340408276385 -0.21303015265619099 0 0.085036669035835177 -0.2152488424698504 0 0.10670492429617601 -0.21869326053874111 0 0.08435937213287871 -0.2214642639806689 0 0.085036669035835177 -0.2152488424698504 0 0.10670492429617601 -0.21869326053874111 0 0.083383340408276385 -0.21303015265619099 0 0.085036669035835177 -0.2152488424698504 0 0.081766820877265556 -0.2158545172225585 0 0.083383340408276385 -0.21303015265619099 0 0.085036669035835177 -0.2152488424698504 0 0.08435937213287871 -0.2214642639806689 0 0.085036669035835177 -0.2152488424698504 0 0.081766820877265556 -0.2158545172225585 0 0.08435937213287871 -0.2214642639806689 0 0.081766820877265556 -0.2158545172225585 0 0.0782144537864779 -0.21784518118232549 0 0.077840269022859621 -0.21168414582375669 0 0.081766820877265556 -0.2158545172225585 0 0.0782144537864779 -0.21784518118232549 0 0.077840269022859621 -0.21168414582375669 0 0.083383340408276385 -0.21303015265619099 0 0.081766820877265556 -0.2158545172225585 0 0.077840269022859621 -0.21168414582375669 0 0.083383340408276385 -0.21303015265619099 0 0.083383340408276385 -0.21303015265619099 0 0.10670492429617601 -0.21869326053874111 0 0.083383340408276385 -0.21303015265619099 0 0.1014590643764887 -0.20755467466026331 0 0.10670492429617601 -0.21869326053874111 0 0.1014590643764887 -0.20755467466026331 0 0.10670492429617601 -0.21869326053874111 0 0.1173453329925984 -0.20213857166000601 0 0.083383340408276385 -0.21303015265619099 0 0.1014590643764887 -0.20755467466026331 0 0.098402659808903781 -0.19635671378611599 0 0.098402659808903781 -0.19635671378611599 0 0.1112114008499262 -0.19084163836449611 0 0.1011118689091851 -0.17928738523059459 0 0.098402659808903781 -0.19635671378611599 0 0.1112114008499262 -0.19084163836449611 0 0.1173453329925984 -0.20213857166000601 0 0.1014590643764887 -0.20755467466026331 0 0.098402659808903781 -0.19635671378611599 0 0.1173453329925984 -0.20213857166000601 0 0.1112114008499262 -0.19084163836449611 0 0.1173453329925984 -0.20213857166000601 0 0.1279857416890173 -0.18558388278126861 0 0.1173453329925984 -0.20213857166000601 0 0.1279857416890173 -0.18558388278126861 0 0.10670492429617601 -0.21869326053874111 0 0.1173453329925984 -0.20213857166000601 0 0.10670492429617601 -0.21869326053874111 0 0.1173453329925984 -0.20213857166000601 0 0.1221374426251142 -0.222440691099903 0 0.1173453329925984 -0.20213857166000601 0 0.1221374426251142 -0.222440691099903 0 0.12982892170523949 -0.2051292632345971 0 0.1221374426251142 -0.222440691099903 0 0.12457107474955061 -0.2338111052969441 0 0.1114020821708336 -0.24660306821570879 0 0.1221374426251142 -0.222440691099903 0 0.1114020821708336 -0.24660306821570879 0 0.1093625149626264 -0.23220598180581159 0 0.10670492429617601 -0.21869326053874111 0 0.1221374426251142 -0.222440691099903 0 0.1093625149626264 -0.23220598180581159 0 0.10670492429617601 -0.21869326053874111 0 0.1221374426251142 -0.222440691099903 0 0.12457107474955061 -0.2338111052969441 0 0.1228593492382601 -0.2416986465037454 0 0.1114020821708336 -0.24660306821570879 0 0.1221374426251142 -0.222440691099903 0 0.1114020821708336 -0.24660306821570879 0 0.1196722046577542 -0.25417102299646022 0 0.1228593492382601 -0.2416986465037454 0 0.1308809502751575 -0.24859267584269421 0 0.1196722046577542 -0.25417102299646022 0 0.1228593492382601 -0.2416986465037454 0 0.1114020821708336 -0.24660306821570879 0 0.1228593492382601 -0.2416986465037454 0 0.1114020821708336 -0.24660306821570879 0 0.091226166940717016 -0.25523961270148521 0 0.1114020821708336 -0.24660306821570879 0 0.099272472968013586 -0.24615181840820349 0 0.1042734219883001 -0.23966631834159041 0 0.097056617851726756 -0.23370440493663749 0 0.1093625149626264 -0.23220598180581159 0 0.1114020821708336 -0.24660306821570879 0 0.1042734219883001 -0.23966631834159041 0 0.1093625149626264 -0.23220598180581159 0 0.1114020821708336 -0.24660306821570879 0 0.1042734219883001 -0.23966631834159041 0 0.099272472968013586 -0.24615181840820349 0 0.091226166940717016 -0.25523961270148521 0 0.099272472968013586 -0.24615181840820349 0 0.093755337571119035 -0.24848599676784819 0 0.099272472968013586 -0.24615181840820349 0 0.093755337571119035 -0.24848599676784819 0 0.097056617851726756 -0.23370440493663749 0 0.1042734219883001 -0.23966631834159041 0 0.099272472968013586 -0.24615181840820349 0 0.097056617851726756 -0.23370440493663749 0 0.085914468443403627 -0.228469224100038 0 0.10670492429617601 -0.21869326053874111 0 0.097056617851726756 -0.23370440493663749 0 0.10670492429617601 -0.21869326053874111 0 0.097056617851726756 -0.23370440493663749 0 0.10670492429617601 -0.21869326053874111 0 0.097056617851726756 -0.23370440493663749 0 0.1093625149626264 -0.23220598180581159 0 0.1005044731883776 -0.15022463901170349 0 0.1117277373052422 -0.1358397973682664 0 0.1106023833996419 -0.1536403171909364 0 0.1005044731883776 -0.15022463901170349 0 0.096586903501071339 -0.14141051084316711 0 0.1117277373052422 -0.1358397973682664 0 0.1005044731883776 -0.15022463901170349 0 0.1106023833996419 -0.1536403171909364 0 0.1015179006842817 -0.16373140770161829 0 0.1005044731883776 -0.15022463901170349 0 0.090702481026810625 -0.14668351717112749 0 0.091396849417981402 -0.15624695213702439 0 0.1005044731883776 -0.15022463901170349 0 0.096586903501071339 -0.14141051084316711 0 0.090702481026810625 -0.14668351717112749 0 0.096586903501071339 -0.14141051084316711 0 0.096086019000178297 -0.13354347782894271 0 0.089362572592944528 -0.1378610711800918 0 0.1117277373052422 -0.1358397973682664 0 0.094782475788349918 -0.12468437348382121 0 0.096586903501071339 -0.14141051084316711 0 0.096086019000178297 -0.13354347782894271 0 0.1117277373052422 -0.1358397973682664 0 0.096086019000178297 -0.13354347782894271 0 0.1117277373052422 -0.1358397973682664 0 0.094782475788349918 -0.12468437348382121 0 0.1117277373052422 -0.1358397973682664 0 0.094782475788349918 -0.12468437348382121 0 0.1128421822290344 -0.1221868460475129 0 0.1117277373052422 -0.1358397973682664 0 0.13114775909195911 -0.1205588017539125 0 0.1286729988221347 -0.14699522125271139 0 0.1117277373052422 -0.1358397973682664 0 0.1128421822290344 -0.1221868460475129 0 0.13114775909195911 -0.1205588017539125 0 0.1106023833996419 -0.1536403171909364 0 0.1217991003066968 -0.15799651051727601 0 0.1286729988221347 -0.14699522125271139 0 0.1117277373052422 -0.1358397973682664 0 0.1286729988221347 -0.14699522125271139 0 0.1117277373052422 -0.1358397973682664 0 0.1106023833996419 -0.1536403171909364 0 0.1286729988221347 -0.14699522125271139 0 0.1217991003066968 -0.15799651051727601 0 0.1176399146522763 -0.1692425724924089 0 0.13028110435273449 -0.16210793113304739 0 0.1106023833996419 -0.1536403171909364 0 0.1176399146522763 -0.1692425724924089 0 0.1015179006842817 -0.16373140770161829 0 0.1106023833996419 -0.1536403171909364 0 0.1217991003066968 -0.15799651051727601 0 0.1176399146522763 -0.1692425724924089 0 0.1011118689091851 -0.17928738523059459 0 0.1279857416890173 -0.18558388278126861 0 0.1176399146522763 -0.1692425724924089 0 0.1279857416890173 -0.18558388278126861 0 0.12817719042701259 -0.17220041259148461 0 0.1176399146522763 -0.1692425724924089 0 0.1011118689091851 -0.17928738523059459 0 0.1279857416890173 -0.18558388278126861 0 0.1112114008499262 -0.19084163836449611 0 0.1011118689091851 -0.17928738523059459 0 0.1279857416890173 -0.18558388278126861 0 0.098402659808903781 -0.19635671378611599 0 0.1011118689091851 -0.17928738523059459 0 0.084596969222160229 -0.18645607816375981 0 0.1176399146522763 -0.1692425724924089 0 0.1011118689091851 -0.17928738523059459 0 0.1015179006842817 -0.16373140770161829 0 0.1011118689091851 -0.17928738523059459 0 0.1015179006842817 -0.16373140770161829 0 0.088119734894828883 -0.16589882889923979 0 0.1005044731883776 -0.15022463901170349 0 0.1015179006842817 -0.16373140770161829 0 0.091396849417981402 -0.15624695213702439 0 0.1015179006842817 -0.16373140770161829 0 0.088119734894828883 -0.16589882889923979 0 0.091396849417981402 -0.15624695213702439 0 0.088119734894828883 -0.16589882889923979 0 0.085401856790348715 -0.1583176436285893 0 0.091396849417981402 -0.15624695213702439 0 0.088119734894828883 -0.16589882889923979 0 0.078210251276526352 -0.15930258865293381 0 0.074237996129352807 -0.17299088767992121 0 0.088119734894828883 -0.16589882889923979 0 0.078210251276526352 -0.15930258865293381 0 0.085401856790348715 -0.1583176436285893 0 0.078210251276526352 -0.15930258865293381 0 0.085401856790348715 -0.1583176436285893 0 0.083880591572058238 -0.1518222048251591 0 0.1011118689091851 -0.17928738523059459 0 0.074237996129352807 -0.17299088767992121 0 0.1011118689091851 -0.17928738523059459 0 0.084596969222160229 -0.18645607816375981 0 0.074237996129352807 -0.17299088767992121 0 0.1011118689091851 -0.17928738523059459 0 0.088119734894828883 -0.16589882889923979 0 0.074237996129352807 -0.17299088767992121 0 0.084596969222160229 -0.18645607816375981 0 0.071652052597834068 -0.18455300733867849 0 0.074237996129352807 -0.17299088767992121 0 0.071652052597834068 -0.18455300733867849 0 0.074237996129352807 -0.17299088767992121 0 0.065651763808915853 -0.17238624033135741 0 0.071652052597834068 -0.18455300733867849 0 0.065651763808915853 -0.17238624033135741 0 0.059734976696323092 -0.18129515284864031 0 0.078210251276526352 -0.15930258865293381 0 0.069835354206025699 -0.1637447777469172 0 0.069545162457228138 -0.15433013329456091 0 0.078210251276526352 -0.15930258865293381 0 0.074237996129352807 -0.17299088767992121 0 0.069835354206025699 -0.1637447777469172 0 0.074237996129352807 -0.17299088767992121 0 0.065651763808915853 -0.17238624033135741 0 0.069835354206025699 -0.1637447777469172 0 0.065651763808915853 -0.17238624033135741 0 0.069835354206025699 -0.1637447777469172 0 0.061631355004415869 -0.1619045544139833 0 0.069545162457228138 -0.15433013329456091 0 0.061025519451714472 -0.15256405433100051 0 0.061631355004415869 -0.1619045544139833 0 0.069835354206025699 -0.1637447777469172 0 0.069545162457228138 -0.15433013329456091 0 0.061631355004415869 -0.1619045544139833 0 0.069545162457228138 -0.15433013329456091 0 0.068012341945966892 -0.1464227187664901 0 0.061025519451714472 -0.15256405433100051 0 0.068012341945966892 -0.1464227187664901 0 0.074373229172573066 -0.13948591619899031 0 0.065596261861118443 -0.13777207635014779 0 0.068012341945966892 -0.1464227187664901 0 0.065596261861118443 -0.13777207635014779 0 0.060478846344982948 -0.14485377962952919 0 0.068012341945966892 -0.1464227187664901 0 0.060478846344982948 -0.14485377962952919 0 0.061025519451714472 -0.15256405433100051 0 0.068012341945966892 -0.1464227187664901 0 0.076171044860603762 -0.1489593253684951 0 0.074373229172573066 -0.13948591619899031 0 0.076171044860603762 -0.1489593253684951 0 0.082483495888430652 -0.14253572502961889 0 0.074373229172573066 -0.13948591619899031 0 0.069545162457228138 -0.15433013329456091 0 0.068012341945966892 -0.1464227187664901 0 0.076171044860603762 -0.1489593253684951 0 0.078210251276526352 -0.15930258865293381 0 0.069545162457228138 -0.15433013329456091 0 0.076171044860603762 -0.1489593253684951 0 0.078210251276526352 -0.15930258865293381 0 0.076171044860603762 -0.1489593253684951 0 0.083880591572058238 -0.1518222048251591 0 0.083880591572058238 -0.1518222048251591 0 0.082483495888430652 -0.14253572502961889 0 0.090702481026810625 -0.14668351717112749 0 0.076171044860603762 -0.1489593253684951 0 0.083880591572058238 -0.1518222048251591 0 0.082483495888430652 -0.14253572502961889 0 0.096586903501071339 -0.14141051084316711 0 0.090702481026810625 -0.14668351717112749 0 0.089362572592944528 -0.1378610711800918 0 0.082483495888430652 -0.14253572502961889 0 0.090702481026810625 -0.14668351717112749 0 0.089362572592944528 -0.1378610711800918 0 0.083880591572058238 -0.1518222048251591 0 0.090702481026810625 -0.14668351717112749 0 0.091396849417981402 -0.15624695213702439 0 0.085401856790348715 -0.1583176436285893 0 0.083880591572058238 -0.1518222048251591 0 0.091396849417981402 -0.15624695213702439 0 0.08977806153169271 -0.12918425069078451 0 0.08135191820936806 -0.13521808458618789 0 0.072569887579608583 -0.12828607425287111 0 0.096086019000178297 -0.13354347782894271 0 0.08977806153169271 -0.12918425069078451 0 0.094782475788349918 -0.12468437348382121 0 0.08977806153169271 -0.12918425069078451 0 0.094782475788349918 -0.12468437348382121 0 0.096086019000178297 -0.13354347782894271 0 0.08977806153169271 -0.12918425069078451 0 0.089362572592944528 -0.1378610711800918 0 0.08977806153169271 -0.12918425069078451 0 0.089362572592944528 -0.1378610711800918 0 0.08135191820936806 -0.13521808458618789 0 0.082483495888430652 -0.14253572502961889 0 0.089362572592944528 -0.1378610711800918 0 0.08135191820936806 -0.13521808458618789 0 0.082483495888430652 -0.14253572502961889 0 0.08135191820936806 -0.13521808458618789 0 0.074373229172573066 -0.13948591619899031 0 0.08135191820936806 -0.13521808458618789 0 0.072569887579608583 -0.12828607425287111 0 0.074373229172573066 -0.13948591619899031 0 0.072569887579608583 -0.12828607425287111 0 0.074373229172573066 -0.13948591619899031 0 0.065596261861118443 -0.13777207635014779 0 0.072569887579608583 -0.12828607425287111 0 0.060635312355333808 -0.1301749635369758 0 0.058987051151021187 -0.1183752014297997 0 0.072569887579608583 -0.12828607425287111 0 0.065596261861118443 -0.13777207635014779 0 0.060635312355333808 -0.1301749635369758 0 0.060635312355333808 -0.1301749635369758 0 0.049913936842726568 -0.1282250855367475 0 0.056109424342194271 -0.13821638011531279 0 0.060635312355333808 -0.1301749635369758 0 0.049913936842726568 -0.1282250855367475 0 0.058987051151021187 -0.1183752014297997 0 0.049913936842726568 -0.1282250855367475 0 0.056109424342194271 -0.13821638011531279 0 0.045878275151451743 -0.13894728633834691 0 0.065596261861118443 -0.13777207635014779 0 0.056109424342194271 -0.13821638011531279 0 0.060478846344982948 -0.14485377962952919 0 0.065596261861118443 -0.13777207635014779 0 0.060635312355333808 -0.1301749635369758 0 0.056109424342194271 -0.13821638011531279 0 0.056109424342194271 -0.13821638011531279 0 0.060478846344982948 -0.14485377962952919 0 0.051650684123920668 -0.14929366858469481 0 0.061025519451714472 -0.15256405433100051 0 0.051650684123920668 -0.14929366858469481 0 0.055027374189235027 -0.1585920115060282 0 0.060478846344982948 -0.14485377962952919 0 0.061025519451714472 -0.15256405433100051 0 0.051650684123920668 -0.14929366858469481 0 0.056109424342194271 -0.13821638011531279 0 0.051650684123920668 -0.14929366858469481 0 0.045878275151451743 -0.13894728633834691 0 0.034463185215851247 -0.14738158878400079 0 0.047099080956087537 -0.1643383708163203 0 0.051650684123920668 -0.14929366858469481 0 0.034463185215851247 -0.14738158878400079 0 0.047099080956087537 -0.1643383708163203 0 0.051650684123920668 -0.14929366858469481 0 0.034463185215851247 -0.14738158878400079 0 0.045878275151451743 -0.13894728633834691 0 0.034463185215851247 -0.14738158878400079 0 0.037254145232565948 -0.13161970867097861 0 0.025104937903267271 -0.1257240937279191 0 0.034463185215851247 -0.14738158878400079 0 0.037254145232565948 -0.13161970867097861 0 0.045878275151451743 -0.13894728633834691 0 0.037254145232565948 -0.13161970867097861 0 0.032423661992285559 -0.1235501806860889 0 0.038805943593728791 -0.1212769224173425 0 0.037254145232565948 -0.13161970867097861 0 0.025104937903267271 -0.1257240937279191 0 0.032423661992285559 -0.1235501806860889 0 0.049913936842726568 -0.1282250855367475 0 0.037254145232565948 -0.13161970867097861 0 0.038805943593728791 -0.1212769224173425 0 0.049913936842726568 -0.1282250855367475 0 0.037254145232565948 -0.13161970867097861 0 0.045878275151451743 -0.13894728633834691 0 0.052478181301010153 -0.18907312306575391 0 0.043470683258430287 -0.1682273559248775 0 0.059734976696323092 -0.18129515284864031 0 0.047099080956087537 -0.1643383708163203 0 0.052478181301010153 -0.18907312306575391 0 0.059734976696323092 -0.18129515284864031 0 0.043470683258430287 -0.1682273559248775 0 0.065651763808915853 -0.17238624033135741 0 0.059734976696323092 -0.18129515284864031 0 0.056818848219543618 -0.16982906196000411 0 0.059734976696323092 -0.18129515284864031 0 0.047099080956087537 -0.1643383708163203 0 0.043470683258430287 -0.1682273559248775 0 0.059734976696323092 -0.18129515284864031 0 0.047099080956087537 -0.1643383708163203 0 0.056818848219543618 -0.16982906196000411 0 0.047099080956087537 -0.1643383708163203 0 0.056818848219543618 -0.16982906196000411 0 0.05465282871528488 -0.16403832328757839 0 0.065651763808915853 -0.17238624033135741 0 0.056818848219543618 -0.16982906196000411 0 0.061631355004415869 -0.1619045544139833 0 0.056818848219543618 -0.16982906196000411 0 0.061631355004415869 -0.1619045544139833 0 0.05465282871528488 -0.16403832328757839 0 0.061631355004415869 -0.1619045544139833 0 0.055027374189235027 -0.1585920115060282 0 0.05465282871528488 -0.16403832328757839 0 0.061025519451714472 -0.15256405433100051 0 0.061631355004415869 -0.1619045544139833 0 0.055027374189235027 -0.1585920115060282 0 0.047099080956087537 -0.1643383708163203 0 0.055027374189235027 -0.1585920115060282 0 0.05465282871528488 -0.16403832328757839 0 0.051650684123920668 -0.14929366858469481 0 0.047099080956087537 -0.1643383708163203 0 0.055027374189235027 -0.1585920115060282 0 0.034463185215851247 -0.14738158878400079 0 0.047099080956087537 -0.1643383708163203 0 0.043470683258430287 -0.1682273559248775 0 0.034463185215851247 -0.14738158878400079 0 0.043470683258430287 -0.1682273559248775 0 0.034463185215851247 -0.14738158878400079 0 0.032706849434253497 -0.1634279226108491 0 0.043470683258430287 -0.1682273559248775 0 0.032706849434253497 -0.1634279226108491 0 0.043470683258430287 -0.1682273559248775 0 0.036211840824592778 -0.17338493606596089 0 0.032706849434253497 -0.1634279226108491 0 0.036211840824592778 -0.17338493606596089 0 0.026277385366023701 -0.16948408667637119 0 0.052478181301010153 -0.18907312306575391 0 0.043470683258430287 -0.1682273559248775 0 0.042874475461641373 -0.17825337220272511 0 0.043470683258430287 -0.1682273559248775 0 0.042874475461641373 -0.17825337220272511 0 0.036211840824592778 -0.17338493606596089 0 0.042874475461641373 -0.17825337220272511 0 0.036211840824592778 -0.17338493606596089 0 0.039337196462532281 -0.1823280737543079 0 0.036211840824592778 -0.17338493606596089 0 0.039337196462532281 -0.1823280737543079 0 0.02916918984645096 -0.1764141058895928 0 0.03087609893533149 -0.1916720650261817 0 0.039337196462532281 -0.1823280737543079 0 0.02818368586261235 -0.18386720988780619 0 0.039337196462532281 -0.1823280737543079 0 0.02818368586261235 -0.18386720988780619 0 0.02916918984645096 -0.1764141058895928 0 0.052478181301010153 -0.18907312306575391 0 0.042874475461641373 -0.17825337220272511 0 0.039337196462532281 -0.1823280737543079 0 0.041289517759455538 -0.19087558776508121 0 0.052478181301010153 -0.18907312306575391 0 0.039337196462532281 -0.1823280737543079 0 0.0194390299319076 -0.18872677907477881 0 0.02818368586261235 -0.18386720988780619 0 0.018934473974284449 -0.1778654375319576 0 0.036211840824592778 -0.17338493606596089 0 0.02916918984645096 -0.1764141058895928 0 0.026277385366023701 -0.16948408667637119 0 0.02818368586261235 -0.18386720988780619 0 0.02916918984645096 -0.1764141058895928 0 0.018934473974284449 -0.1778654375319576 0 0.02916918984645096 -0.1764141058895928 0 0.018934473974284449 -0.1778654375319576 0 0.026277385366023701 -0.16948408667637119 0 0.034463185215851247 -0.14738158878400079 0 0.032706849434253497 -0.1634279226108491 0 0.023209002225429931 -0.15814921743912569 0 0.026277385366023701 -0.16948408667637119 0 0.023209002225429931 -0.15814921743912569 0 0.013927526419299219 -0.16576103898933139 0 0.018934473974284449 -0.1778654375319576 0 0.026277385366023701 -0.16948408667637119 0 0.013927526419299219 -0.16576103898933139 0 0.032706849434253497 -0.1634279226108491 0 0.026277385366023701 -0.16948408667637119 0 0.023209002225429931 -0.15814921743912569 0 0.023209002225429931 -0.15814921743912569 0 0.013927526419299219 -0.16576103898933139 0 0.013664375101580341 -0.15563240239310541 0 0.0043218265361713573 -0.15896927279267381 0 0.013927526419299219 -0.16576103898933139 0 0.013664375101580341 -0.15563240239310541 0 -0.0014132101915579399 -0.1698976651757427 0 0.0043218265361713573 -0.15896927279267381 0 0.013927526419299219 -0.16576103898933139 0 -0.0014132101915579399 -0.1698976651757427 0 0.013927526419299219 -0.16576103898933139 0 0.006868393305995495 -0.17616281559889649 0 0.018934473974284449 -0.1778654375319576 0 0.013927526419299219 -0.16576103898933139 0 0.006868393305995495 -0.17616281559889649 0 -0.0076674425692238608 -0.1819829379196311 0 0.0066385746459730471 -0.18762293938074459 0 0.006868393305995495 -0.17616281559889649 0 0.0066385746459730471 -0.18762293938074459 0 0.0194390299319076 -0.18872677907477881 0 0.018934473974284449 -0.1778654375319576 0 0.0066385746459730471 -0.18762293938074459 0 0.018934473974284449 -0.1778654375319576 0 0.006868393305995495 -0.17616281559889649 0 0.034463185215851247 -0.14738158878400079 0 0.018669485885678311 -0.12618718179210031 0 0.02044783616013222 -0.12692200537465681 0 0.034463185215851247 -0.14738158878400079 0 0.025104937903267271 -0.1257240937279191 0 0.034463185215851247 -0.14738158878400079 0 0.018669485885678311 -0.12618718179210031 0 0.034463185215851247 -0.14738158878400079 0 0.02044783616013222 -0.12692200537465681 0 0.025104937903267271 -0.1257240937279191 0 0.034463185215851247 -0.14738158878400079 0 0.01842602651195116 -0.13411475616691529 0 0.018669485885678311 -0.12618718179210031 0 0.01842602651195116 -0.13411475616691529 0 0.01821469181557156 -0.1472082651810962 0 0.01147915295746395 -0.1384692313047298 0 0.01842602651195116 -0.13411475616691529 0 0.017072445380067171 -0.12552727634901609 0 0.018669485885678311 -0.12618718179210031 0 0.01842602651195116 -0.13411475616691529 0 0.017072445380067171 -0.12552727634901609 0 0.013397928334703621 -0.13220653661405171 0 0.01842602651195116 -0.13411475616691529 0 0.017072445380067171 -0.12552727634901609 0 0.02044783616013222 -0.12692200537465681 0 0.025104937903267271 -0.1257240937279191 0 0.01677593290750418 -0.12364612211753551 0 0.017072445380067171 -0.12552727634901609 0 0.018669485885678311 -0.12618718179210031 0 0.01677593290750418 -0.12364612211753551 0 0.018669485885678311 -0.12618718179210031 0 0.02044783616013222 -0.12692200537465681 0 0.01677593290750418 -0.12364612211753551 0 0.017072445380067171 -0.12552727634901609 0 0.018669485885678311 -0.12618718179210031 0 0.018669485885678311 -0.12618718179210031 0 0.02044783616013222 -0.12692200537465681 0 0.034463185215851247 -0.14738158878400079 0 0.023209002225429931 -0.15814921743912569 0 0.01821469181557156 -0.1472082651810962 0 0.034463185215851247 -0.14738158878400079 0 0.01842602651195116 -0.13411475616691529 0 0.01821469181557156 -0.1472082651810962 0 0.023209002225429931 -0.15814921743912569 0 0.01821469181557156 -0.1472082651810962 0 0.013664375101580341 -0.15563240239310541 0 0.01821469181557156 -0.1472082651810962 0 0.0081073840471503882 -0.14777337367705581 0 0.01147915295746395 -0.1384692313047298 0 0.01821469181557156 -0.1472082651810962 0 0.0081073840471503882 -0.14777337367705581 0 0.013664375101580341 -0.15563240239310541 0 0.0043218265361713573 -0.15896927279267381 0 0.0081073840471503882 -0.14777337367705581 0 0.013664375101580341 -0.15563240239310541 0 -0.0054537170625873922 -0.14476509036948029 0 0.0043218265361713573 -0.15896927279267381 0 0.0081073840471503882 -0.14777337367705581 0 -0.0054537170625873922 -0.14476509036948029 0 0.0081073840471503882 -0.14777337367705581 0 0.003567896516931476 -0.1387464326858992 0 0.0081073840471503882 -0.14777337367705581 0 0.003567896516931476 -0.1387464326858992 0 0.01147915295746395 -0.1384692313047298 0 0.003567896516931476 -0.1387464326858992 0 0.01147915295746395 -0.1384692313047298 0 0.0066140884893323548 -0.1307148826355457 0 -0.002907425846701919 -0.1320095854426846 0 0.003567896516931476 -0.1387464326858992 0 0.0066140884893323548 -0.1307148826355457 0 0.01147915295746395 -0.1384692313047298 0 0.013397928334703621 -0.13220653661405171 0 0.0066140884893323548 -0.1307148826355457 0 0.01842602651195116 -0.13411475616691529 0 0.01147915295746395 -0.1384692313047298 0 0.013397928334703621 -0.13220653661405171 0 0.017072445380067171 -0.12552727634901609 0 0.013397928334703621 -0.13220653661405171 0 0.0066140884893323548 -0.1307148826355457 0 0.01677593290750418 -0.12364612211753551 0 0.01282882395839233 -0.098604609908837293 0 -9.9257394721649628e-06 -0.10112028365277261 0 0.01677593290750418 -0.12364612211753551 0 -9.9257394721649628e-06 -0.10112028365277261 0 -0.0088127683241351288 -0.1148313714181288 0 0.01677593290750418 -0.12364612211753551 0 -0.0088127683241351288 -0.1148313714181288 0 0.017072445380067171 -0.12552727634901609 0 0.01677593290750418 -0.12364612211753551 0 -0.0088127683241351288 -0.1148313714181288 0 0.017072445380067171 -0.12552727634901609 0 -0.0088127683241351288 -0.1148313714181288 0 0.017072445380067171 -0.12552727634901609 0 0.0066140884893323548 -0.1307148826355457 0 0.025104937903267271 -0.1257240937279191 0 0.028529621239580229 -0.1155799979281157 0 0.0157466905906841 -0.1040665986718371 0 0.025104937903267271 -0.1257240937279191 0 0.01677593290750418 -0.12364612211753551 0 0.0157466905906841 -0.1040665986718371 0 0.025104937903267271 -0.1257240937279191 0 0.0157466905906841 -0.1040665986718371 0 0.017072445380067171 -0.12552727634901609 0 0.01677593290750418 -0.12364612211753551 0 0.018669485885678311 -0.12618718179210031 0 0.01677593290750418 -0.12364612211753551 0 0.025104937903267271 -0.1257240937279191 0 0.028529621239580229 -0.1155799979281157 0 0.032423661992285559 -0.1235501806860889 0 0.024642581488433141 -0.097534580463059767 0 0.033878501383730338 -0.0919679859098472 0 0.034191388863637942 -0.10649289041687859 0 0.028529621239580229 -0.1155799979281157 0 0.025777570545583849 -0.10591851686997281 0 0.034191388863637942 -0.10649289041687859 0 0.024642581488433141 -0.097534580463059767 0 0.025777570545583849 -0.10591851686997281 0 0.034191388863637942 -0.10649289041687859 0 0.028529621239580229 -0.1155799979281157 0 0.025777570545583849 -0.10591851686997281 0 0.0157466905906841 -0.1040665986718371 0 0.024642581488433141 -0.097534580463059767 0 0.025777570545583849 -0.10591851686997281 0 0.0157466905906841 -0.1040665986718371 0 0.024642581488433141 -0.097534580463059767 0 0.0157466905906841 -0.1040665986718371 0 0.01282882395839233 -0.098604609908837293 0 0.01677593290750418 -0.12364612211753551 0 0.0157466905906841 -0.1040665986718371 0 0.01282882395839233 -0.098604609908837293 0 -9.9257394721649628e-06 -0.10112028365277261 0 0.01677593290750418 -0.12364612211753551 0 0.01282882395839233 -0.098604609908837293 0 0.01282882395839233 -0.098604609908837293 0 0.008881715009281383 -0.073563097700138733 0 -9.9257394721649628e-06 -0.10112028365277261 0 0.01282882395839233 -0.098604609908837293 0 0.008881715009281383 -0.073563097700138733 0 -0.0060173714802337049 -0.068191951659488145 0 0.008881715009281383 -0.073563097700138733 0 0.0070875359577966344 -0.062180347134700713 0 0.008881715009281383 -0.073563097700138733 0 0.0070875359577966344 -0.062180347134700713 0 0.008881715009281383 -0.073563097700138733 0 0.0099555453691832409 -0.062721701534484336 0 0.0089049546355461189 -0.06438810340400096 0 0.008881715009281383 -0.073563097700138733 0 0.0089049546355461189 -0.06438810340400096 0 0.0070875359577966344 -0.062180347134700713 0 0.0099555453691832409 -0.062721701534484336 0 0.0089049546355461189 -0.06438810340400096 0 0.0070875359577966344 -0.062180347134700713 0 0.0099555453691832409 -0.062721701534484336 0 0.0089049546355461189 -0.06438810340400096 0 0.0099555453691832409 -0.062721701534484336 0 0.037590030753034777 -0.067937880459466693 0 0.008881715009281383 -0.073563097700138733 0 0.026531322424834702 -0.08433858160231808 0 0.037590030753034777 -0.067937880459466693 0 0.008881715009281383 -0.073563097700138733 0 0.037590030753034777 -0.067937880459466693 0 0.008881715009281383 -0.073563097700138733 0 0.0099555453691832409 -0.062721701534484336 0 0.037590030753034777 -0.067937880459466693 0 0.01282882395839233 -0.098604609908837293 0 0.008881715009281383 -0.073563097700138733 0 0.026531322424834702 -0.08433858160231808 0 0.024642581488433141 -0.097534580463059767 0 0.01282882395839233 -0.098604609908837293 0 0.026531322424834702 -0.08433858160231808 0 0.024642581488433141 -0.097534580463059767 0 0.026531322424834702 -0.08433858160231808 0 0.033878501383730338 -0.0919679859098472 0 0.026531322424834702 -0.08433858160231808 0 0.033878501383730338 -0.0919679859098472 0 0.03829030315300537 -0.08239996065292636 0 0.026531322424834702 -0.08433858160231808 0 0.03829030315300537 -0.08239996065292636 0 0.037590030753034777 -0.067937880459466693 0 0.03829030315300537 -0.08239996065292636 0 0.045736910988740588 -0.089073916414053156 0 0.046116227567617393 -0.076789584384071657 0 0.033878501383730338 -0.0919679859098472 0 0.03829030315300537 -0.08239996065292636 0 0.045736910988740588 -0.089073916414053156 0 0.03829030315300537 -0.08239996065292636 0 0.037590030753034777 -0.067937880459466693 0 0.046116227567617393 -0.076789584384071657 0 0.037590030753034777 -0.067937880459466693 0 0.057282433113842193 -0.071654942411226968 0 0.056998542716921417 -0.064134902357592255 0 0.037590030753034777 -0.067937880459466693 0 0.057282433113842193 -0.071654942411226968 0 0.037590030753034777 -0.067937880459466693 0 0.046116227567617393 -0.076789584384071657 0 0.057282433113842193 -0.071654942411226968 0 0.037590030753034777 -0.067937880459466693 0 0.056998542716921417 -0.064134902357592255 0 0.037590030753034777 -0.067937880459466693 0 0.056998542716921417 -0.064134902357592255 0 0.046943433796381398 -0.056312288606575257 0 0.059777513205840078 -0.074932366962408611 0 0.057282433113842193 -0.071654942411226968 0 0.057817173531981667 -0.07867336705556402 0 0.059777513205840078 -0.074932366962408611 0 0.061008610713344208 -0.072358281329801835 0 0.063001835464192288 -0.077042877053041636 0 0.059777513205840078 -0.074932366962408611 0 0.057817173531981667 -0.07867336705556402 0 0.063001835464192288 -0.077042877053041636 0 0.059777513205840078 -0.074932366962408611 0 0.061008610713344208 -0.072358281329801835 0 0.057282433113842193 -0.071654942411226968 0 0.061008610713344208 -0.072358281329801835 0 0.057282433113842193 -0.071654942411226968 0 0.061008610713344208 -0.072358281329801835 0 0.057282433113842193 -0.071654942411226968 0 0.067559629417126676 -0.066206401852268573 0 0.057282433113842193 -0.071654942411226968 0 0.066830696606223025 -0.05724927485079144 0 0.057282433113842193 -0.071654942411226968 0 0.056998542716921417 -0.064134902357592255 0 0.066830696606223025 -0.05724927485079144 0 0.058389673461980957 -0.089945231743554926 0 0.0507966991404614 -0.095727606844099575 0 0.066720237858353904 -0.093129692257573143 0 0.045736910988740588 -0.089073916414053156 0 0.057282433113842193 -0.071654942411226968 0 0.045736910988740588 -0.089073916414053156 0 0.046116227567617393 -0.076789584384071657 0 0.057282433113842193 -0.071654942411226968 0 0.045736910988740588 -0.089073916414053156 0 0.057282433113842193 -0.071654942411226968 0 0.057817173531981667 -0.07867336705556402 0 0.045736910988740588 -0.089073916414053156 0 0.053156453878163652 -0.090136641663916328 0 0.05635087598907397 -0.08500611295645355 0 0.053156453878163652 -0.090136641663916328 0 0.058389673461980957 -0.089945231743554926 0 0.0507966991404614 -0.095727606844099575 0 0.045736910988740588 -0.089073916414053156 0 0.053156453878163652 -0.090136641663916328 0 0.0507966991404614 -0.095727606844099575 0 0.045736910988740588 -0.089073916414053156 0 0.05635087598907397 -0.08500611295645355 0 0.057817173531981667 -0.07867336705556402 0 0.057817173531981667 -0.07867336705556402 0 0.062220788579056503 -0.084138707600723978 0 0.063001835464192288 -0.077042877053041636 0 0.05635087598907397 -0.08500611295645355 0 0.057817173531981667 -0.07867336705556402 0 0.062220788579056503 -0.084138707600723978 0 0.05635087598907397 -0.08500611295645355 0 0.062220788579056503 -0.084138707600723978 0 0.058389673461980957 -0.089945231743554926 0 0.062220788579056503 -0.084138707600723978 0 0.058389673461980957 -0.089945231743554926 0 0.066720237858353904 -0.093129692257573143 0 0.053156453878163652 -0.090136641663916328 0 0.05635087598907397 -0.08500611295645355 0 0.058389673461980957 -0.089945231743554926 0 0.0507966991404614 -0.095727606844099575 0 0.055428292566328141 -0.1076598034373876 0 0.072789587464405517 -0.1102059901639605 0 0.0507966991404614 -0.095727606844099575 0 0.072789587464405517 -0.1102059901639605 0 0.045736910988740588 -0.089073916414053156 0 0.0507966991404614 -0.095727606844099575 0 0.045474755241195937 -0.1029278421852579 0 0.0507966991404614 -0.095727606844099575 0 0.055428292566328141 -0.1076598034373876 0 0.045474755241195937 -0.1029278421852579 0 0.055428292566328141 -0.1076598034373876 0 0.049093369834556672 -0.11106237656382 0 0.045474755241195937 -0.1029278421852579 0 0.055428292566328141 -0.1076598034373876 0 0.058987051151021187 -0.1183752014297997 0 0.072789587464405517 -0.1102059901639605 0 0.049913936842726568 -0.1282250855367475 0 0.058987051151021187 -0.1183752014297997 0 0.046729711167958418 -0.1187886865893992 0 0.055428292566328141 -0.1076598034373876 0 0.058987051151021187 -0.1183752014297997 0 0.049093369834556672 -0.11106237656382 0 0.058987051151021187 -0.1183752014297997 0 0.049093369834556672 -0.11106237656382 0 0.046729711167958418 -0.1187886865893992 0 0.049093369834556672 -0.11106237656382 0 0.040765873231756969 -0.1124428915425508 0 0.046729711167958418 -0.1187886865893992 0 0.040765873231756969 -0.1124428915425508 0 0.046729711167958418 -0.1187886865893992 0 0.038805943593728791 -0.1212769224173425 0 0.049913936842726568 -0.1282250855367475 0 0.046729711167958418 -0.1187886865893992 0 0.038805943593728791 -0.1212769224173425 0 0.028529621239580229 -0.1155799979281157 0 0.032423661992285559 -0.1235501806860889 0 0.038805943593728791 -0.1212769224173425 0 0.028529621239580229 -0.1155799979281157 0 0.040765873231756969 -0.1124428915425508 0 0.034191388863637942 -0.10649289041687859 0 0.028529621239580229 -0.1155799979281157 0 0.040765873231756969 -0.1124428915425508 0 0.038805943593728791 -0.1212769224173425 0 0.045736910988740588 -0.089073916414053156 0 0.034191388863637942 -0.10649289041687859 0 0.045474755241195937 -0.1029278421852579 0 0.033878501383730338 -0.0919679859098472 0 0.045736910988740588 -0.089073916414053156 0 0.034191388863637942 -0.10649289041687859 0 0.045736910988740588 -0.089073916414053156 0 0.034191388863637942 -0.10649289041687859 0 0.040765873231756969 -0.1124428915425508 0 0.034191388863637942 -0.10649289041687859 0 0.045474755241195937 -0.1029278421852579 0 0.049093369834556672 -0.11106237656382 0 0.040765873231756969 -0.1124428915425508 0 0.045474755241195937 -0.1029278421852579 0 0.021259495660713831 0.00072546366398377766 0 0.023841356810678851 -0.009458596356204536 0 0.033795628823587942 -0.00040229243432294458 0 0.023841356810678851 -0.009458596356204536 0 0.013676123525549529 -0.010683941624674859 0 0.01468830858681008 -0.022747749959726449 0 0.021259495660713831 0.00072546366398377766 0 0.023841356810678851 -0.009458596356204536 0 0.013676123525549529 -0.010683941624674859 0 0.021259495660713831 0.00072546366398377766 0 0.010417021748207351 -0.00078749865505162858 0 0.013676123525549529 -0.010683941624674859 0 0.0037321413375690821 -0.01238002763455166 0 0.013676123525549529 -0.010683941624674859 0 0.0073116097955266291 -0.01860456642761606 0 0.010417021748207351 -0.00078749865505162858 0 0.0037321413375690821 -0.01238002763455166 0 0.013676123525549529 -0.010683941624674859 0 0.013676123525549529 -0.010683941624674859 0 0.01468830858681008 -0.022747749959726449 0 0.0073116097955266291 -0.01860456642761606 0 0.01468830858681008 -0.022747749959726449 0 0.0073116097955266291 -0.01860456642761606 0 0.0014308770969664081 -0.026292994201149229 0 0.0037321413375690821 -0.01238002763455166 0 0.0073116097955266291 -0.01860456642761606 0 0.001416984003155328 -0.019216769960212959 0 0.0073116097955266291 -0.01860456642761606 0 0.001416984003155328 -0.019216769960212959 0 0.0014308770969664081 -0.026292994201149229 0 0.01468830858681008 -0.022747749959726449 0 0.0014308770969664081 -0.026292994201149229 0 0.01070149112423137 -0.033660226913964662 0 0.01468830858681008 -0.022747749959726449 0 0.024515040940259539 -0.039628055396105637 0 0.039074536511336251 -0.016534409257727201 0 0.023841356810678851 -0.009458596356204536 0 0.01468830858681008 -0.022747749959726449 0 0.039074536511336251 -0.016534409257727201 0 0.01468830858681008 -0.022747749959726449 0 0.024515040940259539 -0.039628055396105637 0 0.01070149112423137 -0.033660226913964662 0 0.024515040940259539 -0.039628055396105637 0 0.01070149112423137 -0.033660226913964662 0 0.0042592065273816164 -0.044236670667924971 0 0.0014308770969664081 -0.026292994201149229 0 0.01070149112423137 -0.033660226913964662 0 0.0042592065273816164 -0.044236670667924971 0 0.0014308770969664081 -0.026292994201149229 0 0.0042592065273816164 -0.044236670667924971 0 0.0099555453691832409 -0.062721701534484336 0 0.024515040940259539 -0.039628055396105637 0 0.0042592065273816164 -0.044236670667924971 0 0.0099555453691832409 -0.062721701534484336 0 0.0042592065273816164 -0.044236670667924971 0 0.0070875359577966344 -0.062180347134700713 0 0.0042592065273816164 -0.044236670667924971 0 0.0070875359577966344 -0.062180347134700713 0 0.0099555453691832409 -0.062721701534484336 0 0.0070875359577966344 -0.062180347134700713 0 0.0099555453691832409 -0.062721701534484336 0 0.037590030753034777 -0.067937880459466693 0 0.026368251096046989 -0.055549948744807912 0 0.0099555453691832409 -0.062721701534484336 0 0.024515040940259539 -0.039628055396105637 0 0.0099555453691832409 -0.062721701534484336 0 0.024515040940259539 -0.039628055396105637 0 0.026368251096046989 -0.055549948744807912 0 0.024515040940259539 -0.039628055396105637 0 0.026368251096046989 -0.055549948744807912 0 0.036815156562354963 -0.051226221211624137 0 0.037590030753034777 -0.067937880459466693 0 0.026368251096046989 -0.055549948744807912 0 0.036815156562354963 -0.051226221211624137 0 0.037590030753034777 -0.067937880459466693 0 0.036815156562354963 -0.051226221211624137 0 0.046943433796381398 -0.056312288606575257 0 0.036815156562354963 -0.051226221211624137 0 0.046943433796381398 -0.056312288606575257 0 0.048529392530168872 -0.041578999365886611 0 0.056998542716921417 -0.064134902357592255 0 0.046943433796381398 -0.056312288606575257 0 0.056746330957256889 -0.053599744644928171 0 0.056746330957256889 -0.053599744644928171 0 0.048529392530168872 -0.041578999365886611 0 0.064275078623680898 -0.045669013121620992 0 0.056998542716921417 -0.064134902357592255 0 0.056746330957256889 -0.053599744644928171 0 0.066830696606223025 -0.05724927485079144 0 0.046943433796381398 -0.056312288606575257 0 0.056746330957256889 -0.053599744644928171 0 0.048529392530168872 -0.041578999365886611 0 0.048529392530168872 -0.041578999365886611 0 0.062704519211624468 -0.030515158908002781 0 0.064275078623680898 -0.045669013121620992 0 0.024515040940259539 -0.039628055396105637 0 0.036815156562354963 -0.051226221211624137 0 0.048529392530168872 -0.041578999365886611 0 0.024515040940259539 -0.039628055396105637 0 0.048529392530168872 -0.041578999365886611 0 0.039074536511336251 -0.016534409257727201 0 0.024515040940259539 -0.039628055396105637 0 0.039074536511336251 -0.016534409257727201 0 0.048529392530168872 -0.041578999365886611 0 0.039074536511336251 -0.016534409257727201 0 0.062704519211624468 -0.030515158908002781 0 0.039074536511336251 -0.016534409257727201 0 0.058266044987361348 -0.010552270544904849 0 0.062704519211624468 -0.030515158908002781 0 0.053634032082412977 0.0065592368806512294 0 0.039074536511336251 -0.016534409257727201 0 0.058266044987361348 -0.010552270544904849 0 0.053634032082412977 0.0065592368806512294 0 0.071634822515017182 0.001768830129076531 0 0.058266044987361348 -0.010552270544904849 0 0.053634032082412977 0.0065592368806512294 0 0.039074536511336251 -0.016534409257727201 0 0.053634032082412977 0.0065592368806512294 0 0.039074536511336251 -0.016534409257727201 0 0.033795628823587942 -0.00040229243432294458 0 0.023841356810678851 -0.009458596356204536 0 0.039074536511336251 -0.016534409257727201 0 0.033795628823587942 -0.00040229243432294458 0 0.071634822515017182 0.001768830129076531 0 0.091155594027020059 -0.0067354950573685667 0 0.071844502931639811 -0.014917187954618169 0 0.071634822515017182 0.001768830129076531 0 0.058266044987361348 -0.010552270544904849 0 0.071844502931639811 -0.014917187954618169 0 0.058266044987361348 -0.010552270544904849 0 0.071844502931639811 -0.014917187954618169 0 0.062704519211624468 -0.030515158908002781 0 0.071844502931639811 -0.014917187954618169 0 0.062704519211624468 -0.030515158908002781 0 0.080814208062064019 -0.027512971210684169 0 0.091155594027020059 -0.0067354950573685667 0 0.071844502931639811 -0.014917187954618169 0 0.080814208062064019 -0.027512971210684169 0 0.091155594027020059 -0.0067354950573685667 0 0.080814208062064019 -0.027512971210684169 0 0.095987712894303537 -0.026100046717776531 0 0.080814208062064019 -0.027512971210684169 0 0.091323280783567412 -0.042226464333016148 0 0.095987712894303537 -0.026100046717776531 0 0.080814208062064019 -0.027512971210684169 0 0.091323280783567412 -0.042226464333016148 0 0.076378960098602788 -0.042843607290355183 0 0.062704519211624468 -0.030515158908002781 0 0.080814208062064019 -0.027512971210684169 0 0.076378960098602788 -0.042843607290355183 0 0.062704519211624468 -0.030515158908002781 0 0.064275078623680898 -0.045669013121620992 0 0.076378960098602788 -0.042843607290355183 0 0.076378960098602788 -0.042843607290355183 0 0.066830696606223025 -0.05724927485079144 0 0.076378960098602788 -0.042843607290355183 0 0.066830696606223025 -0.05724927485079144 0 0.079652212511878373 -0.057649252718823207 0 0.064275078623680898 -0.045669013121620992 0 0.076378960098602788 -0.042843607290355183 0 0.066830696606223025 -0.05724927485079144 0 0.056746330957256889 -0.053599744644928171 0 0.064275078623680898 -0.045669013121620992 0 0.066830696606223025 -0.05724927485079144 0 0.066830696606223025 -0.05724927485079144 0 0.079652212511878373 -0.057649252718823207 0 0.067559629417126676 -0.066206401852268573 0 0.091323280783567412 -0.042226464333016148 0 0.076378960098602788 -0.042843607290355183 0 0.079652212511878373 -0.057649252718823207 0 0.091323280783567412 -0.042226464333016148 0 0.079652212511878373 -0.057649252718823207 0 0.091921830250970574 -0.055959828701819037 0 0.079652212511878373 -0.057649252718823207 0 0.091921830250970574 -0.055959828701819037 0 0.088069186450185077 -0.06781982909402863 0 0.091921830250970574 -0.055959828701819037 0 0.10496326532541179 -0.055950225443708999 0 0.088069186450185077 -0.06781982909402863 0 0.091323280783567412 -0.042226464333016148 0 0.091921830250970574 -0.055959828701819037 0 0.10496326532541179 -0.055950225443708999 0 0.10496326532541179 -0.055950225443708999 0 0.11962790286634389 -0.072513204585105989 0 0.12747835617616429 -0.054051541912677359 0 0.10496326532541179 -0.055950225443708999 0 0.1172609593535735 -0.041102182837248029 0 0.12747835617616429 -0.054051541912677359 0 0.1172609593535735 -0.041102182837248029 0 0.1042484950089492 -0.036819422118710997 0 0.1153210839099684 -0.024132783886428491 0 0.1172609593535735 -0.041102182837248029 0 0.1153210839099684 -0.024132783886428491 0 0.1304382963626787 -0.03553960451510297 0 0.091323280783567412 -0.042226464333016148 0 0.10496326532541179 -0.055950225443708999 0 0.1042484950089492 -0.036819422118710997 0 0.091323280783567412 -0.042226464333016148 0 0.1042484950089492 -0.036819422118710997 0 0.095987712894303537 -0.026100046717776531 0 0.10496326532541179 -0.055950225443708999 0 0.1172609593535735 -0.041102182837248029 0 0.1042484950089492 -0.036819422118710997 0 0.1042484950089492 -0.036819422118710997 0 0.095987712894303537 -0.026100046717776531 0 0.1153210839099684 -0.024132783886428491 0 0.091155594027020059 -0.0067354950573685667 0 0.095987712894303537 -0.026100046717776531 0 0.1044170721438132 -0.016282736442319951 0 0.095987712894303537 -0.026100046717776531 0 0.1044170721438132 -0.016282736442319951 0 0.1153210839099684 -0.024132783886428491 0 0.1044170721438132 -0.016282736442319951 0 0.1153210839099684 -0.024132783886428491 0 0.111052763499568 -0.0051741236291446974 0 0.13162326829794649 0.011309293970379429 0 0.111052763499568 -0.0051741236291446974 0 0.12668019528294311 -0.0069025068300239542 0 0.1153210839099684 -0.024132783886428491 0 0.111052763499568 -0.0051741236291446974 0 0.12668019528294311 -0.0069025068300239542 0 0.1003978342016343 0.003046416883448567 0 0.091155594027020059 -0.0067354950573685667 0 0.111052763499568 -0.0051741236291446974 0 0.091155594027020059 -0.0067354950573685667 0 0.1044170721438132 -0.016282736442319951 0 0.111052763499568 -0.0051741236291446974 0 0.078731692277935389 -0.09644011146042468 0 0.093686078533611689 -0.098895544513761438 0 0.072789587464405517 -0.1102059901639605 0 0.072789587464405517 -0.1102059901639605 0 0.094782475788349918 -0.12468437348382121 0 0.08977806153169271 -0.12918425069078451 0 0.072789587464405517 -0.1102059901639605 0 0.094782475788349918 -0.12468437348382121 0 0.093686078533611689 -0.098895544513761438 0 0.072789587464405517 -0.1102059901639605 0 0.094782475788349918 -0.12468437348382121 0 0.08977806153169271 -0.12918425069078451 0 0.072569887579608583 -0.12828607425287111 0 0.072789587464405517 -0.1102059901639605 0 0.072569887579608583 -0.12828607425287111 0 0.058987051151021187 -0.1183752014297997 0 0.072789587464405517 -0.1102059901639605 0 0.0507966991404614 -0.095727606844099575 0 0.072789587464405517 -0.1102059901639605 0 0.066720237858353904 -0.093129692257573143 0 0.078731692277935389 -0.09644011146042468 0 0.072789587464405517 -0.1102059901639605 0 0.066720237858353904 -0.093129692257573143 0 0.062220788579056503 -0.084138707600723978 0 0.066720237858353904 -0.093129692257573143 0 0.069693279236358555 -0.080241265840652665 0 0.062220788579056503 -0.084138707600723978 0 0.069693279236358555 -0.080241265840652665 0 0.063001835464192288 -0.077042877053041636 0 0.066720237858353904 -0.093129692257573143 0 0.069693279236358555 -0.080241265840652665 0 0.081730865255370433 -0.083529218906403704 0 0.069693279236358555 -0.080241265840652665 0 0.075481903976473058 -0.071239362909483461 0 0.081730865255370433 -0.083529218906403704 0 0.078731692277935389 -0.09644011146042468 0 0.066720237858353904 -0.093129692257573143 0 0.081730865255370433 -0.083529218906403704 0 0.057282433113842193 -0.071654942411226968 0 0.066830696606223025 -0.05724927485079144 0 0.067559629417126676 -0.066206401852268573 0 0.067559629417126676 -0.066206401852268573 0 0.06775527963146602 -0.072978712972372517 0 0.075481903976473058 -0.071239362909483461 0 0.061008610713344208 -0.072358281329801835 0 0.067559629417126676 -0.066206401852268573 0 0.06775527963146602 -0.072978712972372517 0 0.061008610713344208 -0.072358281329801835 0 0.06775527963146602 -0.072978712972372517 0 0.063001835464192288 -0.077042877053041636 0 0.069693279236358555 -0.080241265840652665 0 0.06775527963146602 -0.072978712972372517 0 0.063001835464192288 -0.077042877053041636 0 0.069693279236358555 -0.080241265840652665 0 0.06775527963146602 -0.072978712972372517 0 0.075481903976473058 -0.071239362909483461 0 0.079652212511878373 -0.057649252718823207 0 0.067559629417126676 -0.066206401852268573 0 0.075481903976473058 -0.071239362909483461 0 0.075481903976473058 -0.071239362909483461 0 0.088069186450185077 -0.06781982909402863 0 0.081730865255370433 -0.083529218906403704 0 0.088069186450185077 -0.06781982909402863 0 0.081730865255370433 -0.083529218906403704 0 0.10003046329167101 -0.077490424605623165 0 0.079652212511878373 -0.057649252718823207 0 0.075481903976473058 -0.071239362909483461 0 0.088069186450185077 -0.06781982909402863 0 0.093686078533611689 -0.098895544513761438 0 0.081730865255370433 -0.083529218906403704 0 0.10003046329167101 -0.077490424605623165 0 0.078731692277935389 -0.09644011146042468 0 0.093686078533611689 -0.098895544513761438 0 0.081730865255370433 -0.083529218906403704 0 0.093686078533611689 -0.098895544513761438 0 0.10003046329167101 -0.077490424605623165 0 0.1119388478190072 -0.089441606994564729 0 0.10496326532541179 -0.055950225443708999 0 0.088069186450185077 -0.06781982909402863 0 0.10003046329167101 -0.077490424605623165 0 0.10496326532541179 -0.055950225443708999 0 0.10003046329167101 -0.077490424605623165 0 0.11962790286634389 -0.072513204585105989 0 0.11962790286634389 -0.072513204585105989 0 0.1119388478190072 -0.089441606994564729 0 0.13263903767282309 -0.090644449684281633 0 0.10003046329167101 -0.077490424605623165 0 0.11962790286634389 -0.072513204585105989 0 0.1119388478190072 -0.089441606994564729 0 0.1119388478190072 -0.089441606994564729 0 0.1137107567305865 -0.10766441158405141 0 0.13263903767282309 -0.090644449684281633 0 0.1137107567305865 -0.10766441158405141 0 0.13263903767282309 -0.090644449684281633 0 0.093686078533611689 -0.098895544513761438 0 0.1119388478190072 -0.089441606994564729 0 0.1137107567305865 -0.10766441158405141 0 0.093686078533611689 -0.098895544513761438 0 0.1137107567305865 -0.10766441158405141 0 0.094782475788349918 -0.12468437348382121 0 0.1137107567305865 -0.10766441158405141 0 0.094782475788349918 -0.12468437348382121 0 0.1137107567305865 -0.10766441158405141 0 0.094782475788349918 -0.12468437348382121 0 0.1128421822290344 -0.1221868460475129 0 0.1137107567305865 -0.10766441158405141 0 0.1128421822290344 -0.1221868460475129 0 0.13114775909195911 -0.1205588017539125 0 0.13114775909195911 -0.1205588017539125 0 0.15403025153812569 -0.1203975911672322 0 0.15258680661598559 -0.1016822829933328 0 0.1137107567305865 -0.10766441158405141 0 0.13114775909195911 -0.1205588017539125 0 0.13263903767282309 -0.090644449684281633 0 0.13114775909195911 -0.1205588017539125 0 0.15258680661598559 -0.1016822829933328 0 0.13263903767282309 -0.090644449684281633 0 0.13263903767282309 -0.090644449684281633 0 0.13511081640998771 -0.068062628614451864 0 0.1515673186150597 -0.073624487784511833 0 0.11962790286634389 -0.072513204585105989 0 0.13263903767282309 -0.090644449684281633 0 0.13511081640998771 -0.068062628614451864 0 0.11962790286634389 -0.072513204585105989 0 0.13511081640998771 -0.068062628614451864 0 0.12747835617616429 -0.054051541912677359 0 0.13511081640998771 -0.068062628614451864 0 0.1515673186150597 -0.073624487784511833 0 0.14189418340508941 -0.04995756174741682 0 0.15258680661598559 -0.1016822829933328 0 0.13263903767282309 -0.090644449684281633 0 0.1515673186150597 -0.073624487784511833 0 0.13263903767282309 -0.090644449684281633 0 0.1515673186150597 -0.073624487784511833 0 0.15258680661598559 -0.1016822829933328 0 0.1515673186150597 -0.073624487784511833 0 0.17169493352550869 -0.091281743208694033 0 0.1515673186150597 -0.073624487784511833 0 0.17169493352550869 -0.091281743208694033 0 0.18127233057205011 -0.071339771330443558 0 0.1515673186150597 -0.073624487784511833 0 0.18127233057205011 -0.071339771330443558 0 0.17784050006796831 -0.050450698260329649 0 0.17169493352550869 -0.091281743208694033 0 0.18625784307586099 -0.10063434636033269 0 0.19032044022035821 -0.085968292600336171 0 0.17169493352550869 -0.091281743208694033 0 0.18127233057205011 -0.071339771330443558 0 0.19032044022035821 -0.085968292600336171 0 0.18625784307586099 -0.10063434636033269 0 0.1733554249428905 -0.11499627546057439 0 0.20285222039429249 -0.1124495952823458 0 0.17169493352550869 -0.091281743208694033 0 0.18625784307586099 -0.10063434636033269 0 0.1733554249428905 -0.11499627546057439 0 0.15403025153812569 -0.1203975911672322 0 0.15258680661598559 -0.1016822829933328 0 0.1733554249428905 -0.11499627546057439 0 0.15403025153812569 -0.1203975911672322 0 0.1733554249428905 -0.11499627546057439 0 0.15948684264095811 -0.13657346029886649 0 0.15258680661598559 -0.1016822829933328 0 0.17169493352550869 -0.091281743208694033 0 0.1733554249428905 -0.11499627546057439 0 0.15466091238919971 -0.0093276693272003365 0 0.13982110672202591 -0.0020998739402764322 0 0.1351624345487841 -0.016542676972347001 0 0.1526184812893058 0.0087924494580814833 0 0.15466091238919971 -0.0093276693272003365 0 0.13982110672202591 -0.0020998739402764322 0 0.13982110672202591 -0.0020998739402764322 0 0.12668019528294311 -0.0069025068300239542 0 0.1351624345487841 -0.016542676972347001 0 0.1153210839099684 -0.024132783886428491 0 0.12668019528294311 -0.0069025068300239542 0 0.1351624345487841 -0.016542676972347001 0 0.1153210839099684 -0.024132783886428491 0 0.1351624345487841 -0.016542676972347001 0 0.1304382963626787 -0.03553960451510297 0 0.1351624345487841 -0.016542676972347001 0 0.14591733158672279 -0.0281390221347773 0 0.1304382963626787 -0.03553960451510297 0 0.15466091238919971 -0.0093276693272003365 0 0.14591733158672279 -0.0281390221347773 0 0.16076571907195369 -0.026656020206073449 0 0.15466091238919971 -0.0093276693272003365 0 0.1351624345487841 -0.016542676972347001 0 0.14591733158672279 -0.0281390221347773 0 0.14591733158672279 -0.0281390221347773 0 0.15948021412642921 -0.042543152708288838 0 0.16076571907195369 -0.026656020206073449 0 0.14591733158672279 -0.0281390221347773 0 0.14189418340508941 -0.04995756174741682 0 0.15948021412642921 -0.042543152708288838 0 0.1304382963626787 -0.03553960451510297 0 0.12747835617616429 -0.054051541912677359 0 0.14189418340508941 -0.04995756174741682 0 0.14591733158672279 -0.0281390221347773 0 0.1304382963626787 -0.03553960451510297 0 0.14189418340508941 -0.04995756174741682 0 0.1172609593535735 -0.041102182837248029 0 0.1304382963626787 -0.03553960451510297 0 0.12747835617616429 -0.054051541912677359 0 0.13511081640998771 -0.068062628614451864 0 0.12747835617616429 -0.054051541912677359 0 0.14189418340508941 -0.04995756174741682 0 0.1515673186150597 -0.073624487784511833 0 0.14189418340508941 -0.04995756174741682 0 0.15948021412642921 -0.042543152708288838 0 0.1515673186150597 -0.073624487784511833 0 0.17784050006796831 -0.050450698260329649 0 0.15948021412642921 -0.042543152708288838 0 0.18127233057205011 -0.071339771330443558 0 0.17784050006796831 -0.050450698260329649 0 0.1975673683951043 -0.054916948311966307 0 0.17784050006796831 -0.050450698260329649 0 0.15948021412642921 -0.042543152708288838 0 0.17930080281601141 -0.027119268516901229 0 0.17784050006796831 -0.050450698260329649 0 0.17930080281601141 -0.027119268516901229 0 0.19704658523737739 -0.035191482480507921 0 0.15948021412642921 -0.042543152708288838 0 0.16076571907195369 -0.026656020206073449 0 0.17930080281601141 -0.027119268516901229 0 0.16076571907195369 -0.026656020206073449 0 0.17930080281601141 -0.027119268516901229 0 0.17979020566437609 -0.0061718643226255166 0 0.17930080281601141 -0.027119268516901229 0 0.17979020566437609 -0.0061718643226255166 0 0.19616664162111261 -0.0092357271221407307 0 0.16895567864545941 0.004835180427338678 0 0.15466091238919971 -0.0093276693272003365 0 0.17979020566437609 -0.0061718643226255166 0 0.15466091238919971 -0.0093276693272003365 0 0.16076571907195369 -0.026656020206073449 0 0.17979020566437609 -0.0061718643226255166 0 0.2056422560813041 0.0044678359364639644 0 0.19616664162111261 -0.0092357271221407307 0 0.21218807383825811 -0.017871547831707069 0 0.2056422560813041 0.0044678359364639644 0 0.21218807383825811 -0.017871547831707069 0 0.2252186252630293 -0.001905012025652924 0 0.19123036879170949 0.01431327226320799 0 0.17979020566437609 -0.0061718643226255166 0 0.19616664162111261 -0.0092357271221407307 0 0.17930080281601141 -0.027119268516901229 0 0.19616664162111261 -0.0092357271221407307 0 0.19704658523737739 -0.035191482480507921 0 0.19616664162111261 -0.0092357271221407307 0 0.21218807383825811 -0.017871547831707069 0 0.19704658523737739 -0.035191482480507921 0 0.21218807383825811 -0.017871547831707069 0 0.2163725161273452 -0.041019115970170758 0 0.19704658523737739 -0.035191482480507921 0 0.2163725161273452 -0.041019115970170758 0 0.19704658523737739 -0.035191482480507921 0 0.1975673683951043 -0.054916948311966307 0 0.17784050006796831 -0.050450698260329649 0 0.19704658523737739 -0.035191482480507921 0 0.1975673683951043 -0.054916948311966307 0 0.2163725161273452 -0.041019115970170758 0 0.1975673683951043 -0.054916948311966307 0 0.21604280568800249 -0.060304572584948229 0 0.1975673683951043 -0.054916948311966307 0 0.21604280568800249 -0.060304572584948229 0 0.1998740400292052 -0.071978340593484208 0 0.2163725161273452 -0.041019115970170758 0 0.21604280568800249 -0.060304572584948229 0 0.23643270331562971 -0.046729204305435937 0 0.21604280568800249 -0.060304572584948229 0 0.23643270331562971 -0.046729204305435937 0 0.22709412080129951 -0.070347450277860116 0 0.23643270331562971 -0.046729204305435937 0 0.22709412080129951 -0.070347450277860116 0 0.24051398262587639 -0.070213629672212396 0 0.23643270331562971 -0.046729204305435937 0 0.24051398262587639 -0.070213629672212396 0 0.24721937315541639 -0.056573217580361643 0 0.23643270331562971 -0.046729204305435937 0 0.24051398262587639 -0.070213629672212396 0 0.24721937315541639 -0.056573217580361643 0 0.23643270331562971 -0.046729204305435937 0 0.24910752483994139 -0.039692287742642877 0 0.23643270331562971 -0.046729204305435937 0 0.24910752483994139 -0.039692287742642877 0 0.232351424005383 -0.023244778938659481 0 0.23643270331562971 -0.046729204305435937 0 0.232351424005383 -0.023244778938659481 0 0.2163725161273452 -0.041019115970170758 0 0.23643270331562971 -0.046729204305435937 0 0.232351424005383 -0.023244778938659481 0 0.21218807383825811 -0.017871547831707069 0 0.2163725161273452 -0.041019115970170758 0 0.232351424005383 -0.023244778938659481 0 0.26227521970404888 -0.025810670910376629 0 0.232351424005383 -0.023244778938659481 0 0.2453786940251601 -0.0068958978480940566 0 0.26227521970404888 -0.025810670910376629 0 0.24910752483994139 -0.039692287742642877 0 0.232351424005383 -0.023244778938659481 0 0.232351424005383 -0.023244778938659481 0 0.2453786940251601 -0.0068958978480940566 0 0.2252186252630293 -0.001905012025652924 0 0.21218807383825811 -0.017871547831707069 0 0.232351424005383 -0.023244778938659481 0 0.2252186252630293 -0.001905012025652924 0 0.2133239764245253 -0.097749079484779636 0 0.20285222039429249 -0.1124495952823458 0 0.19925355472980161 -0.096261314370733986 0 0.2133239764245253 -0.097749079484779636 0 0.20285222039429249 -0.1124495952823458 0 0.22045063064723111 -0.10980496883912889 0 0.21870798606497541 -0.1218526811545695 0 0.20285222039429249 -0.1124495952823458 0 0.20235825323530179 -0.13099159982484709 0 0.21870798606497541 -0.1218526811545695 0 0.20285222039429249 -0.1124495952823458 0 0.22045063064723111 -0.10980496883912889 0 0.1733554249428905 -0.11499627546057439 0 0.20285222039429249 -0.1124495952823458 0 0.20235825323530179 -0.13099159982484709 0 0.18625784307586099 -0.10063434636033269 0 0.20285222039429249 -0.1124495952823458 0 0.19925355472980161 -0.096261314370733986 0 0.18625784307586099 -0.10063434636033269 0 0.19925355472980161 -0.096261314370733986 0 0.19032044022035821 -0.085968292600336171 0 0.19925355472980161 -0.096261314370733986 0 0.19032044022035821 -0.085968292600336171 0 0.206523421199892 -0.084750758402314635 0 0.19032044022035821 -0.085968292600336171 0 0.1998740400292052 -0.071978340593484208 0 0.206523421199892 -0.084750758402314635 0 0.18127233057205011 -0.071339771330443558 0 0.19032044022035821 -0.085968292600336171 0 0.1998740400292052 -0.071978340593484208 0 0.18127233057205011 -0.071339771330443558 0 0.1975673683951043 -0.054916948311966307 0 0.1998740400292052 -0.071978340593484208 0 0.21604280568800249 -0.060304572584948229 0 0.1998740400292052 -0.071978340593484208 0 0.2151930900424916 -0.075129451443135792 0 0.1998740400292052 -0.071978340593484208 0 0.2151930900424916 -0.075129451443135792 0 0.206523421199892 -0.084750758402314635 0 0.2133239764245253 -0.097749079484779636 0 0.19925355472980161 -0.096261314370733986 0 0.206523421199892 -0.084750758402314635 0 0.2151930900424916 -0.075129451443135792 0 0.206523421199892 -0.084750758402314635 0 0.22142794752987091 -0.085627376115080103 0 0.2133239764245253 -0.097749079484779636 0 0.206523421199892 -0.084750758402314635 0 0.22142794752987091 -0.085627376115080103 0 0.2133239764245253 -0.097749079484779636 0 0.22142794752987091 -0.085627376115080103 0 0.2294360840460638 -0.097600463899074438 0 0.22142794752987091 -0.085627376115080103 0 0.232602061951352 -0.08389474406366311 0 0.22709412080129951 -0.070347450277860116 0 0.22142794752987091 -0.085627376115080103 0 0.232602061951352 -0.08389474406366311 0 0.2294360840460638 -0.097600463899074438 0 0.21604280568800249 -0.060304572584948229 0 0.2151930900424916 -0.075129451443135792 0 0.22709412080129951 -0.070347450277860116 0 0.2151930900424916 -0.075129451443135792 0 0.22142794752987091 -0.085627376115080103 0 0.22709412080129951 -0.070347450277860116 0 0.232602061951352 -0.08389474406366311 0 0.22709412080129951 -0.070347450277860116 0 0.24051398262587639 -0.070213629672212396 0 0.24051398262587639 -0.070213629672212396 0 0.24944737075499149 -0.068843888556443175 0 0.2460700497688284 -0.080793953707780183 0 0.24721937315541639 -0.056573217580361643 0 0.24051398262587639 -0.070213629672212396 0 0.24944737075499149 -0.068843888556443175 0 0.24051398262587639 -0.070213629672212396 0 0.2445952619361231 -0.093698055038988842 0 0.232602061951352 -0.08389474406366311 0 0.24051398262587639 -0.070213629672212396 0 0.2445952619361231 -0.093698055038988842 0 0.24051398262587639 -0.070213629672212396 0 0.2460700497688284 -0.080793953707780183 0 0.2445952619361231 -0.093698055038988842 0 0.232602061951352 -0.08389474406366311 0 0.2445952619361231 -0.093698055038988842 0 0.2294360840460638 -0.097600463899074438 0 0.25478116043846633 -0.080602048818224442 0 0.2460700497688284 -0.080793953707780183 0 0.2445952619361231 -0.093698055038988842 0 0.2445952619361231 -0.093698055038988842 0 0.24867654124636951 -0.1171824804057654 0 0.25082829793759442 -0.1095026453344221 0 0.2445952619361231 -0.093698055038988842 0 0.24867654124636951 -0.1171824804057654 0 0.2445952619361231 -0.093698055038988842 0 0.24040722749264451 -0.1062566355604514 0 0.24867654124636951 -0.1171824804057654 0 0.2445952619361231 -0.093698055038988842 0 0.24040722749264451 -0.1062566355604514 0 0.2294360840460638 -0.097600463899074438 0 0.2133239764245253 -0.097749079484779636 0 0.2294360840460638 -0.097600463899074438 0 0.22045063064723111 -0.10980496883912889 0 0.24040722749264451 -0.1062566355604514 0 0.2294360840460638 -0.097600463899074438 0 0.2315739689825092 -0.10808823887331589 0 0.2294360840460638 -0.097600463899074438 0 0.2315739689825092 -0.10808823887331589 0 0.22045063064723111 -0.10980496883912889 0 0.21870798606497541 -0.1218526811545695 0 0.22045063064723111 -0.10980496883912889 0 0.2324684028944996 -0.11711446694985191 0 0.2315739689825092 -0.10808823887331589 0 0.2324684028944996 -0.11711446694985191 0 0.2385422281373856 -0.113931491067882 0 0.2315739689825092 -0.10808823887331589 0 0.22045063064723111 -0.10980496883912889 0 0.2324684028944996 -0.11711446694985191 0 0.21870798606497541 -0.1218526811545695 0 0.2324684028944996 -0.11711446694985191 0 0.23235352844560361 -0.12690043121811129 0 0.2324684028944996 -0.11711446694985191 0 0.23958500007090541 -0.1210156335500253 0 0.23235352844560361 -0.12690043121811129 0 0.2324684028944996 -0.11711446694985191 0 0.23958500007090541 -0.1210156335500253 0 0.2385422281373856 -0.113931491067882 0 0.24040722749264451 -0.1062566355604514 0 0.2315739689825092 -0.10808823887331589 0 0.2385422281373856 -0.113931491067882 0 0.24040722749264451 -0.1062566355604514 0 0.2385422281373856 -0.113931491067882 0 0.24867654124636951 -0.1171824804057654 0 0.23958500007090541 -0.1210156335500253 0 0.24867654124636951 -0.1171824804057654 0 0.24157268059043999 -0.13035438288878731 0 0.24867654124636951 -0.1171824804057654 0 0.24157268059043999 -0.13035438288878731 0 0.23958500007090541 -0.1210156335500253 0 0.2385422281373856 -0.113931491067882 0 0.24867654124636951 -0.1171824804057654 0 0.25138186385401579 -0.13274940000198271 0 0.24867654124636951 -0.1171824804057654 0 0.24157268059043999 -0.13035438288878731 0 0.25138186385401579 -0.13274940000198271 0 0.24157268059043999 -0.13035438288878731 0 0.24412551523773349 -0.14171593062005389 0 0.24157268059043999 -0.13035438288878731 0 0.24412551523773349 -0.14171593062005389 0 0.23280817255724101 -0.14040227835510499 0 0.24157268059043999 -0.13035438288878731 0 0.23235352844560361 -0.12690043121811129 0 0.23280817255724101 -0.14040227835510499 0 0.23958500007090541 -0.1210156335500253 0 0.24157268059043999 -0.13035438288878731 0 0.23235352844560361 -0.12690043121811129 0 0.25408718646166178 -0.14831631959819991 0 0.24412551523773349 -0.14171593062005389 0 0.24012759994652949 -0.157929475398466 0 0.24412551523773349 -0.14171593062005389 0 0.23280817255724101 -0.14040227835510499 0 0.24012759994652949 -0.157929475398466 0 0.25539367275013369 -0.16061178211912899 0 0.25408718646166178 -0.14831631959819991 0 0.24012759994652949 -0.157929475398466 0 0.25138186385401579 -0.13274940000198271 0 0.25408718646166178 -0.14831631959819991 0 0.24412551523773349 -0.14171593062005389 0 0.23280817255724101 -0.14040227835510499 0 0.221764880772924 -0.1338550248131323 0 0.21690483035021521 -0.1516584251920792 0 0.23280817255724101 -0.14040227835510499 0 0.21690483035021521 -0.1516584251920792 0 0.24012759994652949 -0.157929475398466 0 0.23235352844560361 -0.12690043121811129 0 0.23280817255724101 -0.14040227835510499 0 0.221764880772924 -0.1338550248131323 0 0.21870798606497541 -0.1218526811545695 0 0.23235352844560361 -0.12690043121811129 0 0.221764880772924 -0.1338550248131323 0 0.21870798606497541 -0.1218526811545695 0 0.221764880772924 -0.1338550248131323 0 0.20235825323530179 -0.13099159982484709 0 0.221764880772924 -0.1338550248131323 0 0.21690483035021521 -0.1516584251920792 0 0.20235825323530179 -0.13099159982484709 0 0.21690483035021521 -0.1516584251920792 0 0.1979831779233662 -0.1486492653411142 0 0.20235825323530179 -0.13099159982484709 0 0.1979831779233662 -0.1486492653411142 0 0.20235825323530179 -0.13099159982484709 0 0.18148397833791621 -0.13550664385479619 0 0.20010084942967041 -0.18706385832226249 0 0.19771496754817641 -0.1692241386930394 0 0.1785251047461375 -0.1867898521939996 0 0.19771496754817641 -0.1692241386930394 0 0.1785251047461375 -0.1867898521939996 0 0.1979831779233662 -0.1486492653411142 0 0.19771496754817641 -0.1692241386930394 0 0.17808357016969881 -0.1511287846963949 0 0.21690483035021521 -0.1516584251920792 0 0.1979831779233662 -0.1486492653411142 0 0.19771496754817641 -0.1692241386930394 0 0.21690483035021521 -0.1516584251920792 0 0.19771496754817641 -0.1692241386930394 0 0.2227162268770945 -0.16750169699817341 0 0.21690483035021521 -0.1516584251920792 0 0.19771496754817641 -0.1692241386930394 0 0.19771496754817641 -0.1692241386930394 0 0.2176574584277485 -0.18327880094506091 0 0.2227162268770945 -0.16750169699817341 0 0.20010084942967041 -0.18706385832226249 0 0.19771496754817641 -0.1692241386930394 0 0.2176574584277485 -0.18327880094506091 0 0.2176574584277485 -0.18327880094506091 0 0.2227162268770945 -0.16750169699817341 0 0.23557431356518341 -0.1793031322352048 0 0.2176574584277485 -0.18327880094506091 0 0.23557431356518341 -0.1793031322352048 0 0.2305047989351737 -0.19856279498283699 0 0.2227162268770945 -0.16750169699817341 0 0.24012759994652949 -0.157929475398466 0 0.23557431356518341 -0.1793031322352048 0 0.21690483035021521 -0.1516584251920792 0 0.2227162268770945 -0.16750169699817341 0 0.24012759994652949 -0.157929475398466 0 0.2515057650938059 -0.1733624733555551 0 0.24012759994652949 -0.157929475398466 0 0.23557431356518341 -0.1793031322352048 0 0.2515057650938059 -0.1733624733555551 0 0.25539367275013369 -0.16061178211912899 0 0.24012759994652949 -0.157929475398466 0 0.2515057650938059 -0.1733624733555551 0 0.23557431356518341 -0.1793031322352048 0 0.24813304983693851 -0.197126295467628 0 0.23557431356518341 -0.1793031322352048 0 0.24813304983693851 -0.197126295467628 0 0.2305047989351737 -0.19856279498283699 0 0.24813304983693851 -0.197126295467628 0 0.24154439157591809 -0.21549740969834391 0 0.2305047989351737 -0.19856279498283699 0 0.2305047989351737 -0.19856279498283699 0 0.22397241020713449 -0.21901810495799501 0 0.21248654411095699 -0.19724661871839169 0 0.24154439157591809 -0.21549740969834391 0 0.2305047989351737 -0.19856279498283699 0 0.22397241020713449 -0.21901810495799501 0 0.2176574584277485 -0.18327880094506091 0 0.2305047989351737 -0.19856279498283699 0 0.21248654411095699 -0.19724661871839169 0 0.24061150457431191 -0.25186374409499401 0 0.24467313358478149 -0.2347618647698089 0 0.22231123182094389 -0.24471117443653381 0 0.26145137686751269 -0.25057166113606721 0 0.24061150457431191 -0.25186374409499401 0 0.24467313358478149 -0.2347618647698089 0 0.24154439157591809 -0.21549740969834391 0 0.24467313358478149 -0.2347618647698089 0 0.22397241020713449 -0.21901810495799501 0 0.24467313358478149 -0.2347618647698089 0 0.22397241020713449 -0.21901810495799501 0 0.22231123182094389 -0.24471117443653381 0 0.24467313358478149 -0.2347618647698089 0 0.22231123182094389 -0.24471117443653381 0 0.22231123182094389 -0.24471117443653381 0 0.20813320916813269 -0.22971618325568871 0 0.19096637578835671 -0.24771322335898729 0 0.22397241020713449 -0.21901810495799501 0 0.20813320916813269 -0.22971618325568871 0 0.20593777448522169 -0.21411174859089621 0 0.22397241020713449 -0.21901810495799501 0 0.22231123182094389 -0.24471117443653381 0 0.20813320916813269 -0.22971618325568871 0 0.20813320916813269 -0.22971618325568871 0 0.19240997434778881 -0.22450968238758959 0 0.20593777448522169 -0.21411174859089621 0 0.20813320916813269 -0.22971618325568871 0 0.19240997434778881 -0.22450968238758959 0 0.19096637578835671 -0.24771322335898729 0 0.19240997434778881 -0.22450968238758959 0 0.19096637578835671 -0.24771322335898729 0 0.20010084942967041 -0.18706385832226249 0 0.2176574584277485 -0.18327880094506091 0 0.21248654411095699 -0.19724661871839169 0 0.22397241020713449 -0.21901810495799501 0 0.21248654411095699 -0.19724661871839169 0 0.20593777448522169 -0.21411174859089621 0 0.21248654411095699 -0.19724661871839169 0 0.20593777448522169 -0.21411174859089621 0 0.19385357290722099 -0.20130614141619191 0 0.19240997434778881 -0.22450968238758959 0 0.19385357290722099 -0.20130614141619191 0 0.19240997434778881 -0.22450968238758959 0 0.20593777448522169 -0.21411174859089621 0 0.19385357290722099 -0.20130614141619191 0 0.20010084942967041 -0.18706385832226249 0 0.21248654411095699 -0.19724661871839169 0 0.19385357290722099 -0.20130614141619191 0 0.20010084942967041 -0.18706385832226249 0 0.19385357290722099 -0.20130614141619191 0 0.1785251047461375 -0.1867898521939996 0 0.19385357290722099 -0.20130614141619191 0 0.17597764217945619 -0.20506700597695229 0 0.1785251047461375 -0.1867898521939996 0 0.19240997434778881 -0.22450968238758959 0 0.19385357290722099 -0.20130614141619191 0 0.17597764217945619 -0.20506700597695229 0 0.19240997434778881 -0.22450968238758959 0 0.17597764217945619 -0.20506700597695229 0 0.17160699294609269 -0.22162270101367129 0 0.17597764217945619 -0.20506700597695229 0 0.16333839195414171 -0.21585418778984911 0 0.15933524194409851 -0.20435556569495991 0 0.17597764217945619 -0.20506700597695229 0 0.16333839195414171 -0.21585418778984911 0 0.17160699294609269 -0.22162270101367129 0 0.16333839195414171 -0.21585418778984911 0 0.15933524194409851 -0.20435556569495991 0 0.15454453356182579 -0.2177498072294006 0 0.17597764217945619 -0.20506700597695229 0 0.15933524194409851 -0.20435556569495991 0 0.1785251047461375 -0.1867898521939996 0 0.15933524194409851 -0.20435556569495991 0 0.1785251047461375 -0.1867898521939996 0 0.15933524194409851 -0.20435556569495991 0 0.15933220057419251 -0.19292829879491019 0 0.1785251047461375 -0.1867898521939996 0 0.19240997434778881 -0.22450968238758959 0 0.19096637578835671 -0.24771322335898729 0 0.1742648767975214 -0.23741472471534311 0 0.1757536332365727 -0.25234785155315981 0 0.19096637578835671 -0.24771322335898729 0 0.1742648767975214 -0.23741472471534311 0 0.19240997434778881 -0.22450968238758959 0 0.1742648767975214 -0.23741472471534311 0 0.17160699294609269 -0.22162270101367129 0 0.16333839195414171 -0.21585418778984911 0 0.17160699294609269 -0.22162270101367129 0 0.15522754913923531 -0.2304758590342616 0 0.1742648767975214 -0.23741472471534311 0 0.17160699294609269 -0.22162270101367129 0 0.15522754913923531 -0.2304758590342616 0 0.16333839195414171 -0.21585418778984911 0 0.15522754913923531 -0.2304758590342616 0 0.15454453356182579 -0.2177498072294006 0 0.1757536332365727 -0.25234785155315981 0 0.1742648767975214 -0.23741472471534311 0 0.15993424921527771 -0.24882487645807311 0 0.1742648767975214 -0.23741472471534311 0 0.15993424921527771 -0.24882487645807311 0 0.15522754913923531 -0.2304758590342616 0 0.15993424921527771 -0.24882487645807311 0 0.1498738958393499 -0.24242729502683041 0 0.15522754913923531 -0.2304758590342616 0 0.14809292821024431 -0.25134993503629383 0 0.14141424986332879 -0.24505502678180921 0 0.1498738958393499 -0.24242729502683041 0 0.14809292821024431 -0.25134993503629383 0 0.15993424921527771 -0.24882487645807311 0 0.1498738958393499 -0.24242729502683041 0 0.1498738958393499 -0.24242729502683041 0 0.1434235362174221 -0.23535417050642371 0 0.15522754913923531 -0.2304758590342616 0 0.14141424986332879 -0.24505502678180921 0 0.1498738958393499 -0.24242729502683041 0 0.1434235362174221 -0.23535417050642371 0 0.15522754913923531 -0.2304758590342616 0 0.14014537914205949 -0.2219212791959202 0 0.13868249588217479 -0.22645827506708169 0 0.15522754913923531 -0.2304758590342616 0 0.13868249588217479 -0.22645827506708169 0 0.1434235362174221 -0.23535417050642371 0 0.15522754913923531 -0.2304758590342616 0 0.13868249588217479 -0.22645827506708169 0 0.15522754913923531 -0.2304758590342616 0 0.14014537914205949 -0.2219212791959202 0 0.15454453356182579 -0.2177498072294006 0 0.1221374426251142 -0.222440691099903 0 0.13868249588217479 -0.22645827506708169 0 0.13412559720266001 -0.21713962991926619 0 0.1221374426251142 -0.222440691099903 0 0.13868249588217479 -0.22645827506708169 0 0.13118691157600229 -0.2304955893304772 0 0.1221374426251142 -0.222440691099903 0 0.13868249588217479 -0.22645827506708169 0 0.14014537914205949 -0.2219212791959202 0 0.13868249588217479 -0.22645827506708169 0 0.13412559720266001 -0.21713962991926619 0 0.12457107474955061 -0.2338111052969441 0 0.13118691157600229 -0.2304955893304772 0 0.1333171234832321 -0.23752440078609291 0 0.1221374426251142 -0.222440691099903 0 0.12457107474955061 -0.2338111052969441 0 0.13118691157600229 -0.2304955893304772 0 0.13118691157600229 -0.2304955893304772 0 0.13693361279798461 -0.23235298181060629 0 0.1333171234832321 -0.23752440078609291 0 0.1434235362174221 -0.23535417050642371 0 0.13868249588217479 -0.22645827506708169 0 0.13693361279798461 -0.23235298181060629 0 0.13868249588217479 -0.22645827506708169 0 0.13118691157600229 -0.2304955893304772 0 0.13693361279798461 -0.23235298181060629 0 0.14141424986332879 -0.24505502678180921 0 0.1434235362174221 -0.23535417050642371 0 0.1333171234832321 -0.23752440078609291 0 0.1434235362174221 -0.23535417050642371 0 0.13693361279798461 -0.23235298181060629 0 0.1333171234832321 -0.23752440078609291 0 0.12457107474955061 -0.2338111052969441 0 0.1228593492382601 -0.2416986465037454 0 0.1333171234832321 -0.23752440078609291 0 0.1228593492382601 -0.2416986465037454 0 0.1333171234832321 -0.23752440078609291 0 0.1308809502751575 -0.24859267584269421 0 0.14141424986332879 -0.24505502678180921 0 0.1333171234832321 -0.23752440078609291 0 0.1308809502751575 -0.24859267584269421 0 0.15933220057419251 -0.19292829879491019 0 0.14642878854203209 -0.19931117508426399 0 0.1375204007853644 -0.18781783536929089 0 0.15933220057419251 -0.19292829879491019 0 0.1375204007853644 -0.18781783536929089 0 0.15933220057419251 -0.19292829879491019 0 0.1375204007853644 -0.18781783536929089 0 0.1508784609231609 -0.1819604709552726 0 0.15933524194409851 -0.20435556569495991 0 0.15933220057419251 -0.19292829879491019 0 0.14642878854203209 -0.19931117508426399 0 0.15933524194409851 -0.20435556569495991 0 0.14014537914205949 -0.2219212791959202 0 0.15933524194409851 -0.20435556569495991 0 0.14642878854203209 -0.19931117508426399 0 0.14643578907172539 -0.20883416524349321 0 0.15933524194409851 -0.20435556569495991 0 0.14014537914205949 -0.2219212791959202 0 0.15454453356182579 -0.2177498072294006 0 0.15933524194409851 -0.20435556569495991 0 0.14014537914205949 -0.2219212791959202 0 0.14643578907172539 -0.20883416524349321 0 0.14014537914205949 -0.2219212791959202 0 0.14643578907172539 -0.20883416524349321 0 0.13983374665871151 -0.20974864099882881 0 0.14642878854203209 -0.19931117508426399 0 0.14643578907172539 -0.20883416524349321 0 0.13983374665871151 -0.20974864099882881 0 0.13983374665871151 -0.20974864099882881 0 0.13412559720266001 -0.21713962991926619 0 0.12982892170523949 -0.2051292632345971 0 0.1221374426251142 -0.222440691099903 0 0.12982892170523949 -0.2051292632345971 0 0.14642878854203209 -0.19931117508426399 0 0.13983374665871151 -0.20974864099882881 0 0.12982892170523949 -0.2051292632345971 0 0.1221374426251142 -0.222440691099903 0 0.13412559720266001 -0.21713962991926619 0 0.12982892170523949 -0.2051292632345971 0 0.14014537914205949 -0.2219212791959202 0 0.13983374665871151 -0.20974864099882881 0 0.13412559720266001 -0.21713962991926619 0 0.12982892170523949 -0.2051292632345971 0 0.1375204007853644 -0.18781783536929089 0 0.1279857416890173 -0.18558388278126861 0 0.1173453329925984 -0.20213857166000601 0 0.12982892170523949 -0.2051292632345971 0 0.1279857416890173 -0.18558388278126861 0 0.14642878854203209 -0.19931117508426399 0 0.12982892170523949 -0.2051292632345971 0 0.1375204007853644 -0.18781783536929089 0 0.12982892170523949 -0.2051292632345971 0 0.1375204007853644 -0.18781783536929089 0 0.1375204007853644 -0.18781783536929089 0 0.1279857416890173 -0.18558388278126861 0 0.13680200101402229 -0.17186726395921409 0 0.1375204007853644 -0.18781783536929089 0 0.1279857416890173 -0.18558388278126861 0 0.1375204007853644 -0.18781783536929089 0 0.1455867074470707 -0.16966277254471809 0 0.13680200101402229 -0.17186726395921409 0 0.1279857416890173 -0.18558388278126861 0 0.12817719042701259 -0.17220041259148461 0 0.13680200101402229 -0.17186726395921409 0 0.1279857416890173 -0.18558388278126861 0 0.13680200101402229 -0.17186726395921409 0 0.1375204007853644 -0.18781783536929089 0 0.1508784609231609 -0.1819604709552726 0 0.1455867074470707 -0.16966277254471809 0 0.1375204007853644 -0.18781783536929089 0 0.1455867074470707 -0.16966277254471809 0 0.154395754202241 -0.17416114522891499 0 0.1508784609231609 -0.1819604709552726 0 0.1455867074470707 -0.16966277254471809 0 0.154395754202241 -0.17416114522891499 0 0.1508784609231609 -0.1819604709552726 0 0.16255288946441299 -0.17834760686983561 0 0.1456182603390257 -0.15815064513715851 0 0.1621000602494285 -0.15476822070633689 0 0.15856495897431941 -0.16667373054583379 0 0.1456182603390257 -0.15815064513715851 0 0.15856495897431941 -0.16667373054583379 0 0.154395754202241 -0.17416114522891499 0 0.1455867074470707 -0.16966277254471809 0 0.15856495897431941 -0.16667373054583379 0 0.1455867074470707 -0.16966277254471809 0 0.1456182603390257 -0.15815064513715851 0 0.15856495897431941 -0.16667373054583379 0 0.1455867074470707 -0.16966277254471809 0 0.1456182603390257 -0.15815064513715851 0 0.13680200101402229 -0.17186726395921409 0 0.1456182603390257 -0.15815064513715851 0 0.13680200101402229 -0.17186726395921409 0 0.1456182603390257 -0.15815064513715851 0 0.13680200101402229 -0.17186726395921409 0 0.13028110435273449 -0.16210793113304739 0 0.12817719042701259 -0.17220041259148461 0 0.13680200101402229 -0.17186726395921409 0 0.13028110435273449 -0.16210793113304739 0 0.1176399146522763 -0.1692425724924089 0 0.12817719042701259 -0.17220041259148461 0 0.13028110435273449 -0.16210793113304739 0 0.1456182603390257 -0.15815064513715851 0 0.1286729988221347 -0.14699522125271139 0 0.1456182603390257 -0.15815064513715851 0 0.13028110435273449 -0.16210793113304739 0 0.1286729988221347 -0.14699522125271139 0 0.1217991003066968 -0.15799651051727601 0 0.13028110435273449 -0.16210793113304739 0 0.1286729988221347 -0.14699522125271139 0 0.1456182603390257 -0.15815064513715851 0 0.1286729988221347 -0.14699522125271139 0 0.14410350761958879 -0.14046929291458171 0 0.13114775909195911 -0.1205588017539125 0 0.1286729988221347 -0.14699522125271139 0 0.14410350761958879 -0.14046929291458171 0 0.15403025153812569 -0.1203975911672322 0 0.14410350761958879 -0.14046929291458171 0 0.15948684264095811 -0.13657346029886649 0 0.13114775909195911 -0.1205588017539125 0 0.15403025153812569 -0.1203975911672322 0 0.14410350761958879 -0.14046929291458171 0 0.1456182603390257 -0.15815064513715851 0 0.14410350761958879 -0.14046929291458171 0 0.15948684264095811 -0.13657346029886649 0 0.1456182603390257 -0.15815064513715851 0 0.1621000602494285 -0.15476822070633689 0 0.15948684264095811 -0.13657346029886649 0 0.1456182603390257 -0.15815064513715851 0 0.15948684264095811 -0.13657346029886649 0 0.1621000602494285 -0.15476822070633689 0 0.15948684264095811 -0.13657346029886649 0 0.17808357016969881 -0.1511287846963949 0 0.1733554249428905 -0.11499627546057439 0 0.15948684264095811 -0.13657346029886649 0 0.18148397833791621 -0.13550664385479619 0 0.1733554249428905 -0.11499627546057439 0 0.15948684264095811 -0.13657346029886649 0 0.1733554249428905 -0.11499627546057439 0 0.20235825323530179 -0.13099159982484709 0 0.18148397833791621 -0.13550664385479619 0 0.1979831779233662 -0.1486492653411142 0 0.18148397833791621 -0.13550664385479619 0 0.17808357016969881 -0.1511287846963949 0 0.15948684264095811 -0.13657346029886649 0 0.18148397833791621 -0.13550664385479619 0 0.17808357016969881 -0.1511287846963949 0 0.19771496754817641 -0.1692241386930394 0 0.17808357016969881 -0.1511287846963949 0 0.17456549673618871 -0.1675936420628181 0 0.19771496754817641 -0.1692241386930394 0 0.17456549673618871 -0.1675936420628181 0 0.1785251047461375 -0.1867898521939996 0 0.17456549673618871 -0.1675936420628181 0 0.1785251047461375 -0.1867898521939996 0 0.16255288946441299 -0.17834760686983561 0 0.15933220057419251 -0.19292829879491019 0 0.1785251047461375 -0.1867898521939996 0 0.16255288946441299 -0.17834760686983561 0 0.15933220057419251 -0.19292829879491019 0 0.1508784609231609 -0.1819604709552726 0 0.16255288946441299 -0.17834760686983561 0 0.154395754202241 -0.17416114522891499 0 0.16255288946441299 -0.17834760686983561 0 0.15856495897431941 -0.16667373054583379 0 0.17456549673618871 -0.1675936420628181 0 0.16255288946441299 -0.17834760686983561 0 0.15856495897431941 -0.16667373054583379 0 0.1621000602494285 -0.15476822070633689 0 0.17808357016969881 -0.1511287846963949 0 0.17456549673618871 -0.1675936420628181 0 0.1621000602494285 -0.15476822070633689 0 0.17456549673618871 -0.1675936420628181 0 0.15856495897431941 -0.16667373054583379 0 
</DataArray>
</Points>
<Cells>
<DataArray type="UInt32" Name="connectivity" format="ascii">
0 1 2 3 4 5 6 7 8 9 10 11 12 13 14 15 16 17 18 19 20 21 22 23 24 25 26 27 28 29 30 31 32 33 34 35 36 37 38 39 40 41 42 43 44 45 46 47 48 49 50 51 52 53 54 55 56 57 58 59 60 61 62 63 64 65 66 67 68 69 70 71 72 73 74 75 76 77 78 79 80 81 82 83 84 85 86 87 88 89 90 91 92 93 94 95 96 97 98 99 100 101 102 103 104 105 106 107 108 109 110 111 112 113 114 115 116 117 118 119 120 121 122 123 124 125 126 127 128 129 130 131 132 133 134 135 136 137 138 139 140 141 142 143 144 145 146 147 148 149 150 151 152 153 154 155 156 157 158 159 160 161 162 163 164 165 166 167 168 169 170 171 172 173 174 175 176 177 178 179 180 181 182 183 184 185 186 187 188 189 190 191 192 193 194 195 196 197 198 199 200 201 202 203 204 205 206 207 208 209 210 211 212 213 214 215 216 217 218 219 220 221 222 223 224 225 226 227 228 229 230 231 232 233 234 235 236 237 238 239 240 241 242 243 244 245 246 247 248 249 250 251 252 253 254 255 256 257 258 259 260 261 262 263 264 265 266 267 268 269 270 271 272 273 274 275 276 277 278 279 280 281 282 283 284 285 286 287 288 289 290 291 292 293 294 295 296 297 298 299 300 301 302 303 304 305 306 307 308 309 310 311 312 313 314 315 316 317 318 319 320 321 322 323 324 325 326 327 328 329 330 331 332 333 334 335 336 337 338 339 340 341 342 343 344 345 346 347 348 349 350 351 352 353 354 355 356 357 358 359 360 361 362 363 364 365 366 367 368 369 370 371 372 373 374 375 376 377 378 379 380 381 382 383 384 385 386 387 388 389 390 391 392 393 394 395 396 397 398 399 400 401 402 403 404 405 406 407 408 409 410 411 412 413 414 415 416 417 418 419 420 421 422 423 424 425 426 427 428 429 430 431 432 433 434 435 436 437 438 439 440 441 442 443 444 445 446 447 448 449 450 451 452 453 454 455 456 457 458 459 460 461 462 463 464 465 466 467 468 469 470 471 472 473 474 475 476 477 478 479 480 481 482 483 484 485 486 487 488 489 490 491 492 493 494 495 496 497 498 499 500 501 502 503 504 505 506 507 508 509 510 511 512 513 514 515 516 517 518 519 520 521 522 523 524 525 526 527 528 529 530 531 532 533 534 535 536 537 538 539 540 541 542 543 544 545 546 547 548 549 550 551 552 553 554 555 556 557 558 559 560 561 562 563 564 565 566 567 568 569 570 571 572 573 574 575 576 577 578 579 580 581 582 583 584 585 586 587 588 589 590 591 592 593 594 595 596 597 598 599 600 601 602 603 604 605 606 607 608 609 610 611 612 613 614 615 616 617 618 619 620 621 622 623 624 625 626 627 628 629 630 631 632 633 634 635 636 637 638 639 640 641 642 643 644 645 646 647 648 649 650 651 652 653 654 655 656 657 658 659 660 661 662 663 664 665 666 667 668 669 670 671 672 673 674 675 676 677 678 679 680 681 682 683 684 685 686 687 688 689 690 691 692 693 694 695 696 697 698 699 700 701 702 703 704 705 706 707 708 709 710 711 712 713 714 715 716 717 718 719 720 721 722 723 724 725 726 727 728 729 730 731 732 733 734 735 736 737 738 739 740 741 742 743 744 745 746 747 748 749 750 751 752 753 754 755 756 757 758 759 760 761 762 763 764 765 766 767 768 769 770 771 772 773 774 775 776 777 778 779 780 781 782 783 784 785 786 787 788 789 790 791 792 793 794 795 796 797 798 799 800 801 802 803 804 805 806 807 808 809 810 811 812 813 814 815 816 817 818 819 820 821 822 823 824 825 826 827 828 829 830 831 832 833 834 835 836 837 838 839 840 841 842 843 844 845 846 847 848 849 850 851 852 853 854 855 856 857 858 859 860 861 862 863 864 865 866 867 868 869 870 871 872 873 874 875 876 877 878 879 880 881 882 883 884 885 886 887 888 889 890 891 892 893 894 895 896 897 898 899 900 901 902 903 904 905 906 907 908 909 910 911 912 913 914 915 916 917 918 919 920 921 922 923 924 925 926 927 928 929 930 931 932 933 934 935 936 937 938 939 940 941 942 943 944 945 946 947 948 949 950 951 952 953 954 955 956 957 958 959 960 961 962 963 964 965 966 967 968 969 970 971 972 973 974 975 976 977 978 979 980 981 982 983 984 985 986 987 988 989 990 991 992 993 994 995 996 997 998 999 1000 1001 1002 1003 1004 1005 1006 1007 1008 1009 1010 1011 1012 1013 1014 1015 1016 1017 1018 1019 1020 1021 1022 1023 1024 1025 1026 1027 1028 1029 1030 1031 1032 1033 1034 1035 1036 1037 1038 1039 1040 1041 1042 1043 1044 1045 1046 1047 1048 1049 1050 1051 1052 1053 1054 1055 1056 1057 1058 1059 1060 1061 1062 1063 1064 1065 1066 1067 1068 1069 1070 1071 1072 1073 1074 1075 1076 1077 1078 1079 1080 1081 1082 1083 1084 1085 1086 1087 1088 1089 1090 1091 1092 1093 1094 1095 1096 1097 1098 1099 1100 1101 1102 1103 1104 1105 1106 1107 1108 1109 1110 1111 1112 1113 1114 1115 1116 1117 1118 1119 1120 1121 1122 1123 1124 1125 1126 1127 1128 1129 1130 1131 1132 1133 1134 1135 1136 1137 1138 1139 1140 1141 1142 1143 1144 1145 1146 1147 1148 1149 1150 1151 1152 1153 1154 1155 1156 1157 1158 1159 1160 1161 1162 1163 1164 1165 1166 1167 1168 1169 1170 1171 1172 1173 1174 1175 1176 1177 1178 1179 1180 1181 1182 1183 1184 1185 1186 1187 1188 1189 1190 1191 1192 1193 1194 1195 1196 1197 1198 1199 1200 1201 1202 1203 1204 1205 1206 1207 1208 1209 1210 1211 1212 1213 1214 1215 1216 1217 1218 1219 1220 1221 1222 1223 1224 1225 1226 1227 1228 1229 1230 1231 1232 1233 1234 1235 1236 1237 1238 1239 1240 1241 1242 1243 1244 1245 1246 1247 1248 1249 1250 1251 1252 1253 1254 1255 1256 1257 1258 1259 1260 1261 1262 1263 1264 1265 1266 1267 1268 1269 1270 1271 1272 1273 1274 1275 1276 1277 1278 1279 1280 1281 1282 1283 1284 1285 1286 1287 1288 1289 1290 1291 1292 1293 1294 1295 1296 1297 1298 1299 1300 1301 1302 1303 1304 1305 1306 1307 1308 1309 1310 1311 1312 1313 1314 1315 1316 1317 1318 1319 1320 1321 1322 1323 1324 1325 1326 1327 1328 1329 1330 1331 1332 1333 1334 1335 1336 1337 1338 1339 1340 1341 1342 1343 1344 1345 1346 1347 1348 1349 1350 1351 1352 1353 1354 1355 1356 1357 1358 1359 1360 1361 1362 1363 1364 1365 1366 1367 1368 1369 1370 1371 1372 1373 1374 1375 1376 1377 1378 1379 1380 1381 1382 1383 1384 1385 1386 1387 1388 1389 1390 1391 1392 1393 1394 1395 1396 1397 1398 1399 1400 1401 1402 1403 1404 1405 1406 1407 1408 1409 1410 1411 1412 1413 1414 1415 1416 1417 1418 1419 1420 1421 1422 1423 1424 1425 1426 1427 1428 1429 1430 1431 1432 1433 1434 1435 1436 1437 1438 1439 1440 1441 1442 1443 1444 1445 1446 1447 1448 1449 1450 1451 1452 1453 1454 1455 1456 1457 1458 1459 1460 1461 1462 1463 1464 1465 1466 1467 1468 1469 1470 1471 1472 1473 1474 1475 1476 1477 1478 1479 1480 1481 1482 1483 1484 1485 1486 1487 1488 1489 1490 1491 1492 1493 1494 1495 1496 1497 1498 1499 1500 1501 1502 1503 1504 1505 1506 1507 1508 1509 1510 1511 1512 1513 1514 1515 1516 1517 1518 1519 1520 1521 1522 1523 1524 1525 1526 1527 1528 1529 1530 1531 1532 1533 1534 1535 1536 1537 1538 1539 1540 1541 1542 1543 1544 1545 1546 1547 1548 1549 1550 1551 1552 1553 1554 1555 1556 1557 1558 1559 1560 1561 1562 1563 1564 1565 1566 1567 1568 1569 1570 1571 1572 1573 1574 1575 1576 1577 1578 1579 1580 1581 1582 1583 1584 1585 1586 1587 1588 1589 1590 1591 1592 1593 1594 1595 1596 1597 1598 1599 1600 1601 1602 1603 1604 1605 1606 1607 1608 1609 1610 1611 1612 1613 1614 1615 1616 1617 1618 1619 1620 1621 1622 1623 1624 1625 1626 1627 1628 1629 1630 1631 1632 1633 1634 1635 1636 1637 1638 1639 1640 1641 1642 1643 1644 1645 1646 1647 1648 1649 1650 1651 1652 1653 1654 1655 1656 1657 1658 1659 1660 1661 1662 1663 1664 1665 1666 1667 1668 1669 1670 1671 1672 1673 1674 1675 1676 1677 1678 1679 1680 1681 1682 1683 1684 1685 1686 1687 1688 1689 1690 1691 1692 1693 1694 1695 1696 1697 1698 1699 1700 1701 1702 1703 1704 1705 1706 1707 1708 1709 1710 1711 1712 1713 1714 1715 1716 1717 1718 1719 1720 1721 1722 1723 1724 1725 1726 1727 1728 1729 1730 1731 1732 1733 1734 1735 1736 1737 1738 1739 1740 1741 1742 1743 1744 1745 1746 1747 1748 1749 1750 1751 1752 1753 1754 1755 1756 1757 1758 1759 1760 1761 1762 1763 1764 1765 1766 1767 1768 1769 1770 1771 1772 1773 1774 1775 1776 1777 1778 1779 1780 1781 1782 1783 1784 1785 1786 1787 1788 1789 1790 1791 1792 1793 1794 1795 1796 1797 1798 1799 1800 1801 1802 1803 1804 1805 1806 1807 1808 1809 1810 1811 1812 1813 1814 1815 1816 1817 1818 1819 1820 1821 1822 1823 1824 1825 1826 1827 1828 1829 1830 1831 1832 1833 1834 1835 1836 1837 1838 1839 1840 1841 1842 1843 1844 1845 1846 1847 1848 1849 1850 1851 1852 1853 1854 1855 1856 1857 1858 1859 1860 1861 1862 1863 1864 1865 1866 1867 1868 1869 1870 1871 1872 1873 1874 1875 1876 1877 1878 1879 1880 1881 1882 1883 1884 1885 1886 1887 1888 1889 1890 1891 1892 1893 1894 1895 1896 1897 1898 1899 1900 1901 1902 1903 1904 1905 1906 1907 1908 1909 1910 1911 1912 1913 1914 1915 1916 1917 1918 1919 1920 1921 1922 1923 1924 1925 1926 1927 1928 1929 1930 1931 1932 1933 1934 1935 1936 1937 1938 1939 1940 1941 1942 1943 1944 1945 1946 1947 1948 1949 1950 1951 1952 1953 1954 1955 1956 1957 1958 1959 1960 1961 1962 1963 1964 1965 1966 1967 1968 1969 1970 1971 1972 1973 1974 1975 1976 1977 1978 1979 1980 1981 1982 1983 1984 1985 1986 1987 1988 1989 1990 1991 1992 1993 1994 1995 1996 1997 1998 1999 2000 2001 2002 2003 2004 2005 2006 2007 2008 2009 2010 2011 2012 2013 2014 2015 2016 2017 2018 2019 2020 2021 2022 2023 2024 2025 2026 2027 2028 2029 2030 2031 2032 2033 2034 2035 2036 2037 2038 2039 2040 2041 2042 2043 2044 2045 2046 2047 2048 2049 2050 2051 2052 2053 2054 2055 2056 2057 2058 2059 2060 2061 2062 2063 2064 2065 2066 2067 2068 2069 2070 2071 2072 2073 2074 2075 2076 2077 2078 2079 2080 2081 2082 2083 2084 2085 2086 2087 2088 2089 2090 2091 2092 2093 2094 2095 2096 2097 2098 2099 2100 2101 2102 2103 2104 2105 2106 2107 2108 2109 2110 2111 2112 2113 2114 2115 2116 2117 2118 2119 2120 2121 2122 2123 2124 2125 2126 2127 2128 2129 2130 2131 2132 2133 2134 2135 2136 2137 2138 2139 2140 2141 2142 2143 2144 2145 2146 2147 2148 2149 2150 2151 2152 2153 2154 2155 2156 2157 2158 2159 2160 2161 2162 2163 2164 2165 2166 2167 2168 2169 2170 2171 2172 2173 2174 2175 2176 2177 2178 2179 2180 2181 2182 2183 2184 2185 2186 2187 2188 2189 2190 2191 2192 2193 2194 2195 2196 2197 2198 2199 2200 2201 2202 2203 2204 2205 2206 2207 2208 2209 2210 2211 2212 2213 2214 2215 2216 2217 2218 2219 2220 2221 2222 2223 2224 2225 2226 2227 2228 2229 2230 2231 2232 2233 2234 2235 2236 2237 2238 2239 2240 2241 2242 2243 2244 2245 2246 2247 2248 2249 2250 2251 2252 2253 2254 2255 2256 2257 2258 2259 2260 2261 2262 2263 2264 2265 2266 2267 2268 2269 2270 2271 2272 2273 2274 2275 2276 2277 2278 2279 2280 2281 2282 2283 2284 2285 2286 2287 2288 2289 2290 2291 2292 2293 2294 2295 2296 2297 2298 2299 2300 2301 2302 2303 2304 2305 2306 2307 2308 2309 2310 2311 2312 2313 2314 2315 2316 2317 2318 2319 2320 2321 2322 2323 2324 2325 2326 2327 2328 2329 2330 2331 2332 2333 2334 2335 2336 2337 2338 2339 2340 2341 2342 2343 2344 2345 2346 2347 2348 2349 2350 2351 2352 2353 2354 2355 2356 2357 2358 2359 2360 2361 2362 2363 2364 2365 2366 2367 2368 2369 2370 2371 2372 2373 2374 2375 2376 2377 2378 2379 2380 2381 2382 2383 2384 2385 2386 2387 2388 2389 2390 2391 2392 2393 2394 2395 2396 2397 2398 2399 2400 2401 2402 2403 2404 2405 2406 2407 2408 2409 2410 2411 2412 2413 2414 2415 2416 2417 2418 2419 2420 2421 2422 2423 2424 2425 2426 2427 2428 2429 2430 2431 2432 2433 2434 2435 2436 2437 2438 2439 2440 2441 2442 2443 2444 2445 2446 2447 2448 2449 2450 2451 2452 2453 2454 2455 2456 2457 2458 2459 2460 2461 2462 2463 2464 2465 2466 2467 2468 2469 2470 2471 2472 2473 2474 2475 2476 2477 2478 2479 2480 2481 2482 2483 2484 2485 2486 2487 2488 2489 2490 2491 2492 2493 2494 2495 2496 2497 2498 2499 2500 2501 2502 2503 2504 2505 2506 2507 2508 2509 2510 2511 2512 2513 2514 2515 2516 2517 2518 2519 2520 2521 2522 2523 2524 2525 2526 2527 2528 2529 2530 2531 2532 2533 2534 2535 2536 2537 2538 2539 2540 2541 2542 2543 2544 2545 2546 2547 2548 2549 2550 2551 2552 2553 2554 2555 2556 2557 2558 2559 2560 2561 2562 2563 2564 2565 2566 2567 2568 2569 2570 2571 2572 2573 2574 2575 2576 2577 2578 2579 2580 2581 2582 2583 2584 2585 2586 2587 2588 2589 2590 2591 2592 2593 2594 2595 2596 2597 2598 2599 2600 2601 2602 2603 2604 2605 2606 2607 2608 2609 2610 2611 2612 2613 2614 2615 2616 2617 2618 2619 2620 2621 2622 2623 2624 2625 2626 2627 2628 2629 2630 2631 2632 2633 2634 2635 2636 2637 2638 2639 2640 2641 2642 2643 2644 2645 2646 2647 2648 2649 2650 2651 2652 2653 2654 2655 2656 2657 2658 2659 2660 2661 2662 2663 2664 2665 2666 2667 2668 2669 2670 2671 2672 2673 2674 2675 2676 2677 2678 2679 2680 2681 2682 2683 2684 2685 2686 2687 2688 2689 2690 2691 2692 2693 2694 2695 2696 2697 2698 2699 2700 2701 2702 2703 2704 2705 2706 2707 2708 2709 2710 2711 2712 2713 2714 2715 2716 2717 2718 2719 2720 2721 2722 2723 2724 2725 2726 2727 2728 2729 2730 2731 2732 2733 2734 2735 2736 2737 2738 2739 2740 2741 2742 2743 2744 2745 2746 2747 2748 2749 2750 2751 2752 2753 2754 2755 2756 2757 2758 2759 2760 2761 2762 2763 2764 2765 2766 2767 2768 2769 2770 2771 2772 2773 2774 2775 2776 2777 2778 2779 2780 2781 2782 2783 2784 2785 2786 2787 2788 2789 2790 2791 2792 2793 2794 2795 2796 2797 2798 2799 2800 2801 2802 2803 2804 2805 2806 2807 2808 2809 2810 2811 2812 2813 2814 2815 2816 2817 2818 2819 2820 2821 2822 2823 2824 2825 2826 2827 2828 2829 2830 2831 2832 2833 2834 2835 2836 2837 2838 2839 2840 2841 2842 2843 2844 2845 2846 2847 2848 2849 2850 2851 2852 2853 2854 2855 2856 2857 2858 2859 2860 2861 2862 2863 2864 2865 2866 2867 2868 2869 2870 2871 2872 2873 2874 2875 2876 2877 2878 2879 2880 2881 2882 2883 2884 2885 2886 2887 2888 2889 2890 2891 2892 2893 2894 2895 2896 2897 2898 2899 2900 2901 2902 2903 2904 2905 2906 2907 2908 2909 2910 2911 2912 2913 2914 2915 2916 2917 2918 2919 2920 2921 2922 2923 2924 2925 2926 2927 2928 2929 2930 2931 2932 2933 2934 2935 2936 2937 2938 2939 2940 2941 2942 2943 2944 2945 2946 2947 2948 2949 2950 2951 2952 2953 2954 2955 2956 2957 2958 2959 2960 2961 2962 2963 2964 2965 2966 2967 2968 2969 2970 2971 2972 2973 2974 2975 2976 2977 2978 2979 2980 2981 2982 2983 2984 2985 2986 2987 2988 2989 2990 2991 2992 2993 2994 2995 2996 2997 2998 2999 3000 3001 3002 3003 3004 3005 3006 3007 3008 3009 3010 3011 3012 3013 3014 3015 3016 3017 3018 3019 3020 3021 3022 3023 3024 3025 3026 3027 3028 3029 3030 3031 3032 3033 3034 3035 3036 3037 3038 3039 3040 3041 3042 3043 3044 3045 3046 3047 3048 3049 3050 3051 3052 3053 3054 3055 3056 3057 3058 3059 3060 3061 3062 3063 3064 3065 3066 3067 3068 3069 3070 3071 3072 3073 3074 3075 3076 3077 3078 3079 3080 3081 3082 3083 3084 3085 3086 3087 3088 3089 3090 3091 3092 3093 3094 3095 3096 3097 3098 3099 3100 3101 3102 3103 3104 3105 3106 3107 3108 3109 3110 3111 3112 3113 3114 3115 3116 3117 3118 3119 3120 3121 3122 3123 3124 3125 3126 3127 3128 3129 3130 3131 3132 3133 3134 3135 3136 3137 3138 3139 3140 3141 3142 3143 3144 3145 3146 3147 3148 3149 3150 3151 3152 3153 3154 3155 3156 3157 3158 3159 3160 3161 3162 3163 3164 3165 3166 3167 3168 3169 3170 3171 3172 3173 3174 3175 3176 3177 3178 3179 3180 3181 3182 3183 3184 3185 3186 3187 3188 3189 3190 3191 3192 3193 3194 3195 3196 3197 3198 3199 3200 3201 3202 3203 3204 3205 3206 3207 3208 3209 3210 3211 3212 3213 3214 3215 3216 3217 3218 3219 3220 3221 3222 3223 3224 3225 3226 3227 3228 3229 3230 3231 3232 3233 3234 3235 3236 3237 3238 3239 3240 3241 3242 3243 3244 3245 3246 3247 3248 3249 3250 3251 3252 3253 3254 3255 3256 3257 3258 3259 3260 3261 3262 3263 3264 3265 3266 3267 3268 3269 3270 3271 3272 3273 3274 3275 3276 3277 3278 3279 3280 3281 3282 3283 3284 3285 3286 3287 3288 3289 3290 3291 3292 3293 3294 3295 3296 3297 3298 3299 3300 3301 3302 3303 3304 3305 3306 3307 3308 3309 3310 3311 3312 3313 3314 3315 3316 3317 3318 3319 3320 3321 3322 3323 3324 3325 3326 3327 3328 3329 3330 3331 3332 3333 3334 3335 3336 3337 3338 3339 3340 3341 3342 3343 3344 3345 3346 3347 3348 3349 3350 3351 3352 3353 3354 3355 3356 3357 3358 3359 3360 3361 3362 3363 3364 3365 3366 3367 3368 3369 3370 3371 3372 3373 3374 3375 3376 3377 3378 3379 3380 3381 3382 3383 3384 3385 3386 3387 3388 3389 3390 3391 3392 3393 3394 3395 3396 3397 3398 3399 3400 3401 3402 3403 3404 3405 3406 3407 3408 3409 3410 3411 3412 3413 3414 3415 3416 3417 3418 3419 3420 3421 3422 3423 3424 3425 3426 3427 3428 3429 3430 3431 3432 3433 3434 3435 3436 3437 3438 3439 3440 3441 3442 3443 3444 3445 3446 3447 3448 3449 3450 3451 3452 3453 3454 3455 3456 3457 3458 3459 3460 3461 3462 3463 3464 3465 3466 3467 3468 3469 3470 3471 3472 3473 3474 3475 3476 3477 3478 3479 3480 3481 3482 3483 3484 3485 3486 3487 3488 3489 3490 3491 3492 3493 3494 3495 3496 3497 3498 3499 3500 3501 3502 3503 3504 3505 3506 3507 3508 3509 3510 3511 3512 3513 3514 3515 3516 3517 3518 3519 3520 3521 3522 3523 3524 3525 3526 3527 3528 3529 3530 3531 3532 3533 3534 3535 3536 3537 3538 3539 3540 3541 3542 3543 3544 3545 3546 3547 3548 3549 3550 3551 3552 3553 3554 3555 3556 3557 3558 3559 3560 3561 3562 3563 3564 3565 3566 3567 3568 3569 3570 3571 3572 3573 3574 3575 3576 3577 3578 3579 3580 3581 3582 3583 3584 3585 3586 3587 3588 3589 3590 3591 3592 3593 3594 3595 3596 3597 3598 3599 3600 3601 3602 3603 3604 3605 3606 3607 3608 3609 3610 3611 3612 3613 3614 3615 3616 3617 3618 3619 3620 3621 3622 3623 3624 3625 3626 3627 3628 3629 3630 3631 3632 3633 3634 3635 3636 3637 3638 3639 3640 3641 3642 3643 3644 3645 3646 3647 3648 3649 3650 3651 3652 3653 3654 3655 3656 3657 3658 3659 3660 3661 3662 3663 3664 3665 3666 3667 3668 3669 3670 3671 3672 3673 3674 3675 3676 3677 3678 3679 3680 3681 3682 3683 3684 3685 3686 3687 3688 3689 3690 3691 3692 3693 3694 3695 3696 3697 3698 3699 3700 3701 3702 3703 3704 3705 3706 3707 3708 3709 3710 3711 3712 3713 3714 3715 3716 3717 3718 3719 3720 3721 3722 3723 3724 3725 3726 3727 3728 3729 3730 3731 3732 3733 3734 3735 3736 3737 3738 3739 3740 3741 3742 3743 3744 3745 3746 3747 3748 3749 3750 3751 3752 3753 3754 3755 3756 3757 3758 3759 3760 3761 3762 3763 3764 3765 3766 3767 3768 3769 3770 3771 3772 3773 3774 3775 3776 3777 3778 3779 3780 3781 3782 3783 3784 3785 3786 3787 3788 3789 3790 3791 3792 3793 3794 3795 3796 3797 3798 3799 3800 3801 3802 3803 3804 3805 3806 3807 3808 3809 3810 3811 3812 3813 3814 3815 3816 3817 3818 3819 3820 3821 3822 3823 3824 3825 3826 3827 3828 3829 3830 3831 3832 3833 3834 3835 3836 3837 3838 3839 3840 3841 3842 3843 3844 3845 3846 3847 3848 3849 3850 3851 3852 3853 3854 3855 3856 3857 3858 3859 3860 3861 3862 3863 3864 3865 3866 3867 3868 3869 3870 3871 3872 3873 3874 3875 3876 3877 3878 3879 3880 3881 3882 3883 3884 3885 3886 3887 3888 3889 3890 3891 3892 3893 3894 3895 3896 3897 3898 3899 3900 3901 3902 3903 3904 3905 3906 3907 3908 3909 3910 3911 3912 3913 3914 3915 3916 3917 3918 3919 3920 3921 3922 3923 3924 3925 3926 3927 3928 3929 3930 3931 3932 3933 3934 3935 3936 3937 3938 3939 3940 3941 3942 3943 3944 3945 3946 3947 3948 3949 3950 3951 3952 3953 3954 3955 3956 3957 3958 3959 3960 3961 3962 3963 3964 3965 3966 3967 3968 3969 3970 3971 3972 3973 3974 3975 3976 3977 3978 3979 3980 3981 3982 3983 3984 3985 3986 3987 3988 3989 3990 3991 3992 3993 3994 3995 3996 3997 3998 3999 4000 4001 4002 4003 4004 4005 4006 4007 4008 4009 4010 4011 4012 4013 4014 4015 4016 4017 4018 4019 4020 4021 4022 4023 4024 4025 4026 4027 4028 4029 4030 4031 4032 4033 4034 4035 4036 4037 4038 4039 4040 4041 4042 4043 4044 4045 4046 4047 4048 4049 4050 4051 4052 4053 4054 4055 4056 4057 4058 4059 4060 4061 4062 4063 4064 4065 4066 4067 4068 4069 4070 4071 4072 4073 4074 4075 4076 4077 4078 4079 4080 4081 4082 4083 4084 4085 4086 4087 4088 4089 4090 4091 4092 4093 4094 4095 4096 4097 4098 4099 4100 4101 4102 4103 4104 4105 4106 4107 4108 4109 4110 4111 4112 4113 4114 4115 4116 4117 4118 4119 4120 4121 4122 4123 4124 4125 4126 4127 4128 4129 4130 4131 4132 4133 4134 4135 4136 4137 4138 4139 4140 4141 4142 4143 4144 4145 4146 4147 4148 4149 4150 4151 4152 4153 4154 4155 4156 4157 4158 4159 4160 4161 4162 4163 4164 4165 4166 4167 4168 4169 4170 4171 4172 4173 4174 4175 4176 4177 4178 4179 4180 4181 4182 4183 4184 4185 4186 4187 4188 4189 4190 4191 4192 4193 4194 4195 4196 4197 4198 4199 4200 4201 4202 4203 4204 4205 4206 4207 4208 4209 4210 4211 4212 4213 4214 4215 4216 4217 4218 4219 4220 4221 4222 4223 4224 4225 4226 4227 4228 4229 4230 4231 4232 4233 4234 4235 4236 4237 4238 4239 4240 4241 4242 4243 4244 4245 4246 4247 4248 4249 4250 4251 4252 4253 4254 4255 4256 4257 4258 4259 4260 4261 4262 4263 4264 4265 4266 4267 4268 4269 4270 4271 4272 4273 4274 4275 4276 4277 4278 4279 4280 4281 4282 4283 4284 4285 4286 4287 4288 4289 4290 4291 4292 4293 4294 4295 4296 4297 4298 4299 4300 4301 4302 4303 4304 4305 4306 4307 4308 4309 4310 4311 4312 4313 4314 4315 4316 4317 4318 4319 4320 4321 4322 4323 4324 4325 4326 4327 4328 4329 4330 4331 4332 4333 4334 4335 4336 4337 4338 4339 4340 4341 4342 4343 4344 4345 4346 4347 4348 4349 4350 4351 4352 4353 4354 4355 4356 4357 4358 4359 4360 4361 4362 4363 4364 4365 4366 4367 4368 4369 4370 4371 4372 4373 4374 4375 4376 4377 4378 4379 4380 4381 4382 4383 4384 4385 4386 4387 4388 4389 4390 4391 4392 4393 4394 4395 4396 4397 4398 4399 4400 4401 4402 4403 4404 4405 4406 4407 4408 4409 4410 4411 4412 4413 4414 4415 4416 4417 4418 4419 4420 4421 4422 4423 4424 4425 4426 4427 4428 4429 4430 4431 4432 4433 4434 4435 4436 4437 4438 4439 4440 4441 4442 4443 4444 4445 4446 4447 4448 4449 4450 4451 4452 4453 4454 4455 4456 4457 4458 4459 4460 4461 4462 4463 4464 4465 4466 4467 4468 4469 4470 4471 4472 4473 4474 4475 4476 4477 4478 4479 4480 4481 4482 4483 4484 4485 4486 4487 4488 4489 4490 4491 4492 4493 4494 4495 4496 4497 4498 4499 4500 4501 4502 4503 4504 4505 4506 4507 4508 4509 4510 4511 4512 4513 4514 4515 4516 4517 4518 4519 4520 4521 4522 4523 4524 4525 4526 4527 4528 4529 4530 4531 4532 4533 4534 4535 4536 4537 4538 4539 4540 4541 4542 4543 4544 4545 4546 4547 4548 4549 4550 4551 4552 4553 4554 4555 4556 4557 4558 4559 4560 4561 4562 4563 4564 4565 4566 4567 4568 4569 4570 4571 4572 4573 4574 4575 4576 4577 4578 4579 4580 4581 4582 4583 4584 4585 4586 4587 4588 4589 4590 4591 4592 4593 4594 4595 4596 4597 4598 4599 4600 4601 4602 4603 4604 4605 4606 4607 4608 4609 4610 4611 4612 4613 4614 4615 4616 4617 4618 4619 4620 4621 4622 4623 4624 4625 4626 4627 4628 4629 4630 4631 4632 4633 4634 4635 4636 4637 4638 4639 4640 4641 4642 4643 4644 4645 4646 4647 4648 4649 4650 4651 4652 4653 4654 4655 4656 4657 4658 4659 4660 4661 4662 4663 4664 4665 4666 4667 4668 4669 4670 4671 4672 4673 4674 4675 4676 4677 4678 4679 4680 4681 4682 4683 4684 4685 4686 4687 4688 4689 4690 4691 4692 4693 4694 4695 4696 4697 4698 4699 4700 4701 4702 4703 4704 4705 4706 4707 4708 4709 4710 4711 4712 4713 4714 4715 4716 4717 4718 4719 4720 4721 4722 4723 4724 4725 4726 4727 4728 4729 4730 4731 4732 4733 4734 4735 4736 4737 4738 4739 4740 4741 4742 4743 4744 4745 4746 4747 4748 4749 4750 4751 4752 4753 4754 4755 4756 4757 4758 4759 4760 4761 4762 4763 4764 4765 4766 4767 4768 4769 4770 4771 4772 4773 4774 4775 4776 4777 4778 4779 4780 4781 4782 4783 4784 4785 4786 4787 4788 4789 4790 4791 4792 4793 4794 4795 4796 4797 4798 4799 4800 4801 4802 4803 4804 4805 4806 4807 4808 4809 4810 4811 4812 4813 4814 4815 4816 4817 4818 4819 4820 4821 4822 4823 4824 4825 4826 4827 4828 4829 4830 4831 4832 4833 4834 4835 4836 4837 4838 4839 4840 4841 4842 4843 4844 4845 4846 4847 4848 4849 4850 4851 4852 4853 4854 4855 4856 4857 4858 4859 4860 4861 4862 4863 4864 4865 4866 4867 4868 4869 4870 4871 4872 4873 4874 4875 4876 4877 4878 4879 4880 4881 4882 4883 4884 4885 4886 4887 4888 4889 4890 4891 4892 4893 4894 4895 4896 4897 4898 4899 4900 4901 4902 4903 4904 4905 4906 4907 4908 4909 4910 4911 4912 4913 4914 4915 4916 4917 4918 4919 4920 4921 4922 4923 4924 4925 4926 4927 4928 4929 4930 4931 4932 4933 4934 4935 4936 4937 4938 4939 4940 4941 4942 4943 4944 4945 4946 4947 4948 4949 4950 4951 4952 4953 4954 4955 4956 4957 4958 4959 4960 4961 4962 4963 4964 4965 4966 4967 4968 4969 4970 4971 4972 4973 4974 4975 4976 4977 4978 4979 4980 4981 4982 4983 4984 4985 4986 4987 4988 4989 4990 4991 4992 4993 4994 4995 4996 4997 4998 4999 5000 5001 5002 5003 5004 5005 5006 5007 5008 5009 5010 5011 5012 5013 5014 5015 5016 5017 5018 5019 5020 5021 5022 5023 5024 5025 5026 5027 5028 5029 5030 5031 5032 5033 5034 5035 5036 5037 5038 5039 5040 5041 5042 5043 5044 5045 5046 5047 5048 5049 5050 5051 5052 5053 5054 5055 5056 5057 5058 5059 5060 5061 5062 5063 5064 5065 5066 5067 5068 5069 5070 5071 5072 5073 5074 5075 5076 5077 5078 5079 5080 5081 5082 5083 5084 5085 5086 5087 5088 5089 5090 5091 5092 5093 5094 5095 5096 5097 5098 5099 5100 5101 5102 5103 5104 5105 5106 5107 5108 5109 5110 5111 5112 5113 5114 5115 5116 5117 5118 5119 5120 5121 5122 5123 5124 5125 5126 5127 5128 5129 5130 5131 5132 5133 5134 5135 5136 5137 5138 5139 5140 5141 5142 5143 5144 5145 5146 5147 5148 5149 5150 5151 5152 5153 5154 5155 5156 5157 5158 5159 5160 5161 5162 5163 5164 5165 5166 5167 5168 5169 5170 5171 5172 5173 5174 5175 5176 5177 5178 5179 5180 5181 5182 5183 5184 5185 5186 5187 5188 5189 5190 5191 5192 5193 5194 5195 5196 5197 5198 5199 5200 5201 5202 5203 5204 5205 5206 5207 5208 5209 5210 5211 5212 5213 5214 5215 5216 5217 5218 5219 5220 5221 5222 5223 5224 5225 5226 5227 5228 5229 5230 5231 5232 5233 5234 5235 5236 5237 5238 5239 5240 5241 5242 5243 5244 5245 5246 5247 5248 5249 5250 5251 5252 5253 5254 5255 5256 5257 5258 5259 5260 5261 5262 5263 5264 5265 5266 5267 5268 5269 5270 5271 5272 5273 5274 5275 5276 5277 5278 5279 5280 5281 5282 5283 5284 5285 5286 5287 5288 5289 5290 5291 5292 5293 5294 5295 5296 5297 5298 5299 5300 5301 5302 5303 5304 5305 5306 5307 5308 5309 5310 5311 5312 5313 5314 5315 5316 5317 5318 5319 5320 5321 5322 5323 5324 5325 5326 5327 5328 5329 5330 5331 5332 5333 5334 5335 5336 5337 5338 5339 5340 5341 5342 5343 5344 5345 5346 5347 5348 5349 5350 5351 5352 5353 5354 5355 5356 5357 5358 5359 5360 5361 5362 5363 5364 5365 5366 5367 5368 5369 5370 5371 5372 5373 5374 5375 5376 5377 5378 5379 5380 5381 5382 5383 5384 5385 5386 5387 5388 5389 5390 5391 5392 5393 5394 5395 5396 5397 5398 5399 5400 5401 5402 5403 5404 5405 5406 5407 5408 5409 5410 5411 5412 5413 5414 5415 5416 5417 5418 5419 5420 5421 5422 5423 5424 5425 5426 5427 5428 5429 5430 5431 5432 5433 5434 5435 5436 5437 5438 5439 5440 5441 5442 5443 5444 5445 5446 5447 5448 5449 5450 5451 5452 5453 5454 5455 5456 5457 5458 5459 5460 5461 5462 5463 5464 5465 5466 5467 5468 5469 5470 5471 5472 5473 5474 5475 5476 5477 5478 5479 5480 5481 5482 5483 5484 5485 5486 5487 5488 5489 5490 5491 5492 5493 5494 5495 5496 5497 5498 5499 5500 5501 5502 5503 5504 5505 5506 5507 5508 5509 5510 5511 5512 5513 5514 5515 5516 5517 5518 5519 5520 5521 5522 5523 5524 5525 5526 5527 5528 5529 5530 5531 5532 5533 5534 5535 5536 5537 5538 5539 5540 5541 5542 5543 5544 5545 5546 5547 5548 5549 5550 5551 5552 5553 5554 5555 5556 5557 5558 5559 5560 5561 5562 5563 5564 5565 5566 5567 5568 5569 5570 5571 5572 5573 5574 5575 5576 5577 5578 5579 5580 5581 5582 5583 5584 5585 5586 5587 5588 5589 5590 5591 5592 5593 5594 5595 5596 5597 5598 5599 5600 5601 5602 5603 5604 5605 5606 5607 5608 5609 5610 5611 5612 5613 5614 5615 5616 5617 5618 5619 5620 5621 5622 5623 5624 5625 5626 5627 5628 5629 5630 5631 5632 5633 5634 5635 5636 5637 5638 5639 5640 5641 5642 5643 5644 5645 5646 5647 5648 5649 5650 5651 5652 5653 5654 5655 5656 5657 5658 5659 5660 5661 5662 5663 5664 5665 5666 5667 5668 5669 5670 5671 5672 5673 5674 5675 5676 5677 5678 5679 5680 5681 5682 5683 5684 5685 5686 5687 5688 5689 5690 5691 5692 5693 5694 5695 5696 5697 5698 5699 5700 5701 5702 5703 5704 5705 5706 5707 5708 5709 5710 5711 5712 5713 5714 5715 5716 5717 5718 5719 5720 5721 5722 5723 5724 5725 5726 5727 5728 5729 5730 5731 5732 5733 5734 5735 5736 5737 5738 5739 5740 5741 5742 5743 5744 5745 5746 5747 5748 5749 5750 5751 5752 5753 5754 5755 5756 5757 5758 5759 5760 5761 5762 5763 5764 5765 5766 5767 5768 5769 5770 5771 5772 5773 5774 5775 5776 5777 5778 5779 5780 5781 5782 5783 5784 5785 5786 5787 5788 5789 5790 5791 5792 5793 5794 5795 5796 5797 5798 5799 5800 5801 5802 5803 5804 5805 5806 5807 5808 5809 5810 5811 5812 5813 5814 5815 5816 5817 5818 5819 5820 5821 5822 5823 5824 5825 5826 5827 5828 5829 5830 5831 5832 5833 5834 5835 5836 5837 5838 5839 5840 5841 5842 5843 5844 5845 5846 5847 5848 5849 5850 5851 5852 5853 5854 5855 5856 5857 5858 5859 5860 5861 5862 5863 5864 5865 5866 5867 5868 5869 5870 5871 5872 5873 5874 5875 5876 5877 5878 5879 5880 5881 5882 5883 5884 5885 5886 5887 5888 5889 5890 5891 5892 5893 5894 5895 5896 5897 5898 5899 5900 5901 5902 5903 5904 5905 5906 5907 5908 5909 5910 5911 5912 5913 5914 5915 5916 5917 5918 5919 5920 5921 5922 5923 5924 5925 5926 5927 5928 5929 5930 5931 5932 5933 5934 5935 5936 5937 5938 5939 5940 5941 5942 5943 5944 5945 5946 5947 5948 5949 5950 5951 5952 5953 5954 5955 5956 5957 5958 5959 5960 5961 5962 5963 5964 5965 5966 5967 5968 5969 5970 5971 5972 5973 5974 5975 5976 5977 5978 5979 5980 5981 5982 5983 5984 5985 5986 5987 5988 5989 5990 5991 5992 5993 5994 5995 5996 5997 5998 5999 6000 6001 6002 6003 6004 6005 6006 6007 6008 6009 6010 6011 6012 6013 6014 6015 6016 6017 6018 6019 6020 6021 6022 6023 6024 6025 6026 6027 6028 6029 6030 6031 6032 6033 6034 6035 6036 6037 6038 6039 6040 6041 6042 6043 6044 6045 6046 6047 6048 6049 6050 6051 6052 6053 6054 6055 6056 6057 6058 6059 6060 6061 6062 6063 6064 6065 6066 6067 6068 6069 6070 6071 6072 6073 6074 6075 6076 6077 6078 6079 6080 6081 6082 6083 6084 6085 6086 6087 6088 6089 6090 6091 6092 6093 6094 6095 6096 6097 6098 6099 6100 6101 6102 6103 6104 6105 6106 6107 6108 6109 6110 6111 6112 6113 6114 6115 6116 6117 6118 6119 6120 6121 6122 6123 6124 6125 6126 6127 6128 6129 6130 6131 6132 6133 6134 6135 6136 6137 6138 6139 6140 6141 6142 6143 6144 6145 6146 6147 6148 6149 6150 6151 6152 6153 6154 6155 6156 6157 6158 6159 6160 6161 6162 6163 6164 6165 6166 6167 6168 6169 6170 6171 6172 6173 6174 6175 6176 6177 6178 6179 6180 6181 6182 6183 6184 6185 6186 6187 6188 6189 6190 6191 6192 6193 6194 6195 6196 6197 6198 6199 6200 6201 6202 6203 6204 6205 6206 6207 6208 6209 6210 6211 6212 6213 6214 6215 6216 6217 6218 6219 6220 6221 6222 6223 6224 6225 6226 6227 6228 6229 6230 6231 6232 6233 6234 6235 6236 6237 6238 6239 6240 6241 6242 6243 6244 6245 6246 6247 6248 6249 6250 6251 6252 6253 6254 6255 6256 6257 6258 6259 6260 6261 6262 6263 6264 6265 6266 6267 6268 6269 6270 6271 6272 6273 6274 6275 6276 6277 6278 6279 6280 6281 6282 6283 6284 6285 6286 6287 6288 6289 6290 6291 6292 6293 6294 6295 6296 6297 6298 6299 6300 6301 6302 6303 6304 6305 6306 6307 6308 6309 6310 6311 6312 6313 6314 6315 6316 6317 6318 6319 6320 6321 6322 6323 6324 6325 6326 6327 6328 6329 6330 6331 6332 6333 6334 6335 6336 6337 6338 6339 6340 6341 6342 6343 6344 6345 6346 6347 6348 6349 6350 6351 6352 6353 6354 6355 6356 6357 6358 6359 6360 6361 6362 6363 6364 6365 6366 6367 6368 6369 6370 6371 6372 6373 6374 6375 6376 6377 6378 6379 6380 6381 6382 6383 6384 6385 6386 6387 6388 6389 6390 6391 6392 6393 6394 6395 6396 6397 6398 6399 6400 6401 6402 6403 6404 6405 6406 6407 6408 6409 6410 6411 6412 6413 6414 6415 6416 6417 6418 6419 6420 6421 6422 6423 6424 6425 6426 6427 6428 6429 6430 6431 6432 6433 6434 6435 6436 6437 6438 6439 6440 6441 6442 6443 6444 6445 6446 6447 6448 6449 6450 6451 6452 6453 6454 6455 6456 6457 6458 6459 6460 6461 6462 6463 6464 6465 6466 6467 6468 6469 6470 6471 6472 6473 6474 6475 6476 6477 6478 6479 6480 6481 6482 6483 6484 6485 6486 6487 6488 6489 6490 6491 6492 6493 6494 6495 6496 6497 6498 6499 6500 6501 6502 6503 6504 6505 6506 6507 6508 6509 6510 6511 6512 6513 6514 6515 6516 6517 6518 6519 6520 6521 6522 6523 6524 6525 6526 6527 6528 6529 6530 6531 6532 6533 6534 6535 6536 6537 6538 6539 6540 6541 6542 6543 6544 6545 6546 6547 6548 6549 6550 6551 6552 6553 6554 6555 6556 6557 6558 6559 6560 6561 6562 6563 6564 6565 6566 6567 6568 6569 6570 6571 6572 6573 6574 6575 6576 6577 6578 6579 6580 6581 6582 6583 6584 6585 6586 6587 6588 6589 6590 6591 6592 6593 6594 6595 6596 6597 6598 6599 6600 6601 6602 6603 6604 6605 6606 6607 6608 6609 6610 6611 6612 6613 6614 6615 6616 6617 6618 6619 6620 6621 6622 6623 6624 6625 6626 6627 6628 6629 6630 6631 6632 6633 6634 6635 6636 6637 6638 6639 6640 6641 6642 6643 6644 6645 6646 6647 6648 6649 6650 6651 6652 6653 6654 6655 6656 6657 6658 6659 6660 6661 6662 6663 6664 6665 6666 6667 6668 6669 6670 6671 6672 6673 6674 6675 6676 6677 6678 6679 6680 6681 6682 6683 6684 6685 6686 6687 6688 6689 6690 6691 6692 6693 6694 6695 6696 6697 6698 6699 6700 6701 6702 6703 6704 6705 6706 6707 6708 6709 6710 6711 6712 6713 6714 6715 6716 6717 6718 6719 6720 6721 6722 6723 6724 6725 6726 6727 6728 6729 6730 6731 6732 6733 6734 6735 6736 6737 6738 6739 6740 6741 6742 6743 6744 6745 6746 6747 6748 6749 6750 6751 6752 6753 6754 6755 6756 6757 6758 6759 6760 6761 6762 6763 6764 6765 6766 6767 6768 6769 6770 6771 6772 6773 6774 6775 6776 6777 6778 6779 6780 6781 6782 6783 6784 6785 6786 6787 6788 6789 6790 6791 6792 6793 6794 6795 6796 6797 6798 6799 6800 6801 6802 6803 6804 6805 6806 6807 6808 6809 6810 6811 6812 6813 6814 6815 6816 6817 6818 6819 6820 6821 6822 6823 6824 6825 6826 6827 6828 6829 6830 6831 6832 6833 6834 6835 6836 6837 6838 6839 6840 6841 6842 6843 6844 6845 6846 6847 6848 6849 6850 6851 6852 6853 6854 6855 6856 6857 6858 6859 6860 6861 6862 6863 6864 6865 6866 6867 6868 6869 6870 6871 6872 6873 6874 6875 6876 6877 6878 6879 6880 6881 6882 6883 6884 6885 6886 6887 6888 6889 6890 6891 6892 6893 6894 6895 6896 6897 6898 6899 6900 6901 6902 6903 6904 6905 6906 6907 6908 6909 6910 6911 6912 6913 6914 6915 6916 6917 6918 6919 6920 6921 6922 6923 6924 6925 6926 6927 6928 6929 6930 6931 6932 6933 6934 6935 6936 6937 6938 6939 6940 6941 6942 6943 6944 6945 6946 6947 6948 6949 6950 6951 6952 6953 6954 6955 6956 6957 6958 6959 6960 6961 6962 6963 6964 6965 6966 6967 6968 6969 6970 6971 6972 6973 6974 6975 6976 6977 6978 6979 6980 6981 6982 6983 6984 6985 6986 6987 6988 6989 6990 6991 6992 6993 6994 6995 6996 6997 6998 6999 7000 7001 7002 7003 7004 7005 7006 7007 7008 7009 7010 7011 7012 7013 7014 7015 7016 7017 7018 7019 7020 7021 7022 7023 7024 7025 7026 7027 7028 7029 7030 7031 7032 7033 7034 7035 7036 7037 7038 7039 7040 7041 7042 7043 7044 7045 7046 7047 7048 7049 7050 7051 7052 7053 7054 7055 7056 7057 7058 7059 7060 7061 7062 7063 7064 7065 7066 7067 7068 7069 7070 7071 7072 7073 7074 7075 7076 7077 7078 7079 7080 7081 7082 7083 7084 7085 7086 7087 7088 7089 7090 7091 7092 7093 7094 7095 7096 7097 7098 7099 7100 7101 7102 7103 7104 7105 7106 7107 7108 7109 7110 7111 7112 7113 7114 7115 7116 7117 7118 7119 7120 7121 7122 7123 7124 7125 7126 7127 7128 7129 7130 7131 7132 7133 7134 7135 7136 7137 7138 7139 7140 7141 7142 7143 7144 7145 7146 7147 7148 7149 7150 7151 7152 7153 7154 7155 7156 7157 7158 7159 7160 7161 7162 7163 7164 7165 7166 7167 7168 7169 7170 7171 7172 7173 7174 7175 7176 7177 7178 7179 7180 7181 7182 7183 7184 7185 7186 7187 7188 7189 7190 7191 7192 7193 7194 7195 7196 7197 7198 7199 7200 7201 7202 7203 7204 7205 7206 7207 7208 7209 7210 7211 7212 7213 7214 7215 7216 7217 7218 7219 7220 7221 7222 7223 7224 7225 7226 7227 7228 7229 7230 7231 7232 7233 7234 7235 7236 7237 7238 7239 7240 7241 7242 7243 7244 7245 7246 7247 7248 7249 7250 7251 7252 7253 7254 7255 7256 7257 7258 7259 7260 7261 7262 7263 7264 7265 7266 7267 7268 7269 7270 7271 7272 7273 7274 7275 7276 7277 7278 7279 7280 7281 7282 7283 7284 7285 7286 7287 7288 7289 7290 7291 7292 7293 7294 7295 7296 7297 7298 7299 7300 7301 7302 7303 7304 7305 7306 7307 7308 7309 7310 7311 7312 7313 7314 7315 7316 7317 7318 7319 7320 7321 7322 7323 7324 7325 7326 7327 7328 7329 7330 7331 7332 7333 7334 7335 7336 7337 7338 7339 7340 7341 7342 7343 7344 7345 7346 7347 7348 7349 7350 7351 7352 7353 7354 7355 7356 7357 7358 7359 7360 7361 7362 7363 7364 7365 7366 7367 7368 7369 7370 7371 7372 7373 7374 7375 7376 7377 7378 7379 7380 7381 7382 7383 7384 7385 7386 7387 7388 7389 7390 7391 7392 7393 7394 7395 7396 7397 7398 7399 7400 7401 7402 7403 7404 7405 7406 7407 7408 7409 7410 7411 7412 7413 7414 7415 7416 7417 7418 7419 7420 7421 7422 7423 7424 7425 7426 7427 7428 7429 7430 7431 7432 7433 7434 7435 7436 7437 7438 7439 7440 7441 7442 7443 7444 7445 7446 7447 7448 7449 7450 7451 7452 7453 7454 7455 7456 7457 7458 7459 7460 7461 7462 7463 7464 7465 7466 7467 7468 7469 7470 7471 7472 7473 7474 7475 7476 7477 7478 7479 7480 7481 7482 7483 7484 7485 7486 7487 7488 7489 7490 7491 7492 7493 7494 7495 7496 7497 7498 7499 7500 7501 7502 7503 7504 7505 7506 7507 7508 7509 7510 7511 7512 7513 7514 7515 7516 7517 7518 7519 7520 7521 7522 7523 7524 7525 7526 7527 7528 7529 7530 7531 7532 7533 7534 7535 7536 7537 7538 7539 7540 7541 7542 7543 7544 7545 7546 7547 7548 7549 7550 7551 7552 7553 7554 7555 7556 7557 7558 7559 7560 7561 7562 7563 7564 7565 7566 7567 7568 7569 7570 7571 7572 7573 7574 7575 7576 7577 7578 7579 7580 7581 7582 7583 7584 7585 7586 7587 7588 7589 7590 7591 7592 7593 7594 7595 7596 7597 7598 7599 7600 7601 7602 7603 7604 7605 7606 7607 7608 7609 7610 7611 7612 7613 7614 7615 7616 7617 7618 7619 7620 7621 7622 7623 7624 7625 7626 7627 7628 7629 7630 7631 7632 7633 7634 7635 7636 7637 7638 7639 7640 7641 7642 7643 7644 7645 7646 7647 7648 7649 7650 7651 7652 7653 7654 7655 7656 7657 7658 7659 7660 7661 7662 7663 7664 7665 7666 7667 7668 7669 7670 7671 7672 7673 7674 7675 7676 7677 7678 7679 7680 7681 7682 7683 7684 7685 7686 7687 7688 7689 7690 7691 7692 7693 7694 7695 7696 7697 7698 7699 7700 7701 7702 7703 7704 7705 7706 7707 7708 7709 7710 7711 7712 7713 7714 7715 7716 7717 7718 7719 7720 7721 7722 7723 7724 7725 7726 7727 7728 7729 7730 7731 7732 7733 7734 7735 7736 7737 7738 7739 7740 7741 7742 7743 7744 7745 7746 7747 7748 7749 7750 7751 7752 7753 7754 7755 7756 7757 7758 7759 7760 7761 7762 7763 7764 7765 7766 7767 7768 7769 7770 7771 7772 7773 7774 7775 7776 7777 7778 7779 7780 7781 7782 7783 7784 7785 7786 7787 7788 7789 7790 7791 7792 7793 7794 7795 7796 7797 7798 7799 7800 7801 7802 7803 7804 7805 7806 7807 7808 7809 7810 7811 7812 7813 7814 7815 7816 7817 7818 7819 7820 7821 7822 7823 7824 7825 7826 7827 7828 7829 7830 7831 7832 7833 7834 7835 7836 7837 7838 7839 7840 7841 7842 7843 7844 7845 7846 7847 7848 7849 7850 7851 7852 7853 7854 7855 7856 7857 7858 7859 7860 7861 7862 7863 7864 7865 7866 7867 7868 7869 7870 7871 7872 7873 7874 7875 7876 7877 7878 7879 7880 7881 7882 7883 7884 7885 7886 7887 7888 7889 7890 7891 7892 7893 7894 7895 7896 7897 7898 7899 7900 7901 7902 7903 7904 7905 7906 7907 7908 7909 7910 7911 7912 7913 7914 7915 7916 7917 7918 7919 7920 7921 7922 7923 7924 7925 7926 7927 7928 7929 7930 7931 7932 7933 7934 7935 7936 7937 7938 7939 7940 7941 7942 7943 7944 7945 7946 7947 7948 7949 7950 7951 7952 7953 7954 7955 7956 7957 7958 7959 7960 7961 7962 7963 7964 7965 7966 7967 7968 7969 7970 7971 7972 7973 7974 7975 7976 7977 7978 7979 7980 7981 7982 7983 7984 7985 7986 7987 7988 7989 7990 7991 7992 7993 7994 7995 7996 7997 7998 7999 8000 8001 8002 8003 8004 8005 8006 8007 8008 8009 8010 8011 8012 8013 8014 8015 8016 8017 8018 8019 8020 8021 8022 8023 8024 8025 8026 8027 8028 8029 8030 8031 8032 8033 8034 8035 8036 8037 8038 8039 8040 8041 8042 8043 8044 8045 8046 8047 8048 8049 8050 8051 8052 8053 8054 8055 8056 8057 8058 8059 8060 8061 8062 8063 8064 8065 8066 8067 8068 8069 8070 8071 8072 8073 8074 8075 8076 8077 8078 8079 8080 8081 8082 8083 8084 8085 8086 8087 8088 8089 8090 8091 8092 8093 8094 8095 8096 8097 8098 8099 8100 8101 8102 8103 8104 8105 8106 8107 8108 8109 8110 8111 8112 8113 8114 8115 8116 8117 8118 8119 8120 8121 8122 8123 8124 8125 8126 8127 8128 8129 8130 8131 8132 8133 8134 8135 8136 8137 8138 8139 8140 8141 8142 8143 8144 8145 8146 8147 8148 8149 8150 8151 8152 8153 8154 8155 8156 8157 8158 8159 8160 8161 8162 8163 8164 8165 8166 8167 8168 8169 8170 8171 8172 8173 8174 8175 8176 8177 8178 8179 8180 8181 8182 8183 8184 8185 8186 8187 8188 8189 8190 8191 8192 8193 8194 8195 8196 8197 8198 8199 8200 8201 8202 8203 8204 8205 8206 8207 8208 8209 8210 8211 8212 8213 8214 8215 8216 8217 8218 8219 8220 8221 8222 8223 8224 8225 8226 8227 8228 8229 8230 8231 8232 8233 8234 8235 8236 8237 8238 8239 8240 8241 8242 8243 8244 8245 8246 8247 8248 8249 8250 8251 8252 8253 8254 8255 8256 8257 8258 8259 8260 8261 8262 8263 8264 8265 8266 8267 8268 8269 8270 8271 8272 8273 8274 8275 8276 8277 8278 8279 8280 8281 8282 8283 8284 8285 8286 8287 8288 8289 8290 8291 8292 8293 8294 8295 8296 8297 8298 8299 8300 8301 8302 8303 8304 8305 8306 8307 8308 8309 8310 8311 8312 8313 8314 8315 8316 8317 8318 8319 8320 8321 8322 8323 8324 8325 8326 8327 8328 8329 8330 8331 8332 8333 8334 8335 8336 8337 8338 8339 8340 8341 8342 8343 8344 8345 8346 8347 8348 8349 8350 8351 8352 8353 8354 8355 8356 8357 8358 8359 8360 8361 8362 8363 8364 8365 8366 8367 8368 8369 8370 8371 8372 8373 8374 8375 8376 8377 8378 8379 8380 8381 8382 8383 8384 8385 8386 8387 8388 8389 8390 8391 8392 8393 8394 8395 8396 8397 8398 8399 8400 8401 8402 8403 8404 8405 8406 8407 8408 8409 8410 8411 8412 8413 8414 8415 8416 8417 8418 8419 8420 8421 8422 8423 8424 8425 8426 8427 8428 8429 8430 8431 8432 8433 8434 8435 8436 8437 8438 8439 8440 8441 8442 8443 8444 8445 8446 8447 8448 8449 8450 8451 8452 8453 8454 8455 8456 8457 8458 8459 8460 8461 8462 8463 8464 8465 8466 8467 8468 8469 8470 8471 8472 8473 8474 8475 8476 8477 8478 8479 8480 8481 8482 8483 8484 8485 8486 8487 8488 8489 8490 8491 8492 8493 8494 8495 8496 8497 8498 8499 8500 8501 8502 8503 8504 8505 8506 8507 8508 8509 8510 8511 8512 8513 8514 8515 8516 8517 8518 8519 8520 8521 8522 8523 8524 8525 8526 8527 8528 8529 8530 8531 8532 8533 8534 8535 8536 8537 8538 8539 8540 8541 8542 8543 8544 8545 8546 8547 8548 8549 8550 8551 8552 8553 8554 8555 8556 8557 8558 8559 8560 8561 8562 8563 8564 8565 8566 8567 8568 8569 8570 8571 8572 8573 8574 8575 8576 8577 8578 8579 8580 8581 8582 8583 8584 8585 8586 8587 8588 8589 8590 8591 8592 8593 8594 8595 8596 8597 8598 8599 8600 8601 8602 8603 8604 8605 8606 8607 8608 8609 8610 8611 8612 8613 8614 8615 8616 8617 8618 8619 8620 8621 8622 8623 8624 8625 8626 8627 8628 8629 8630 8631 8632 8633 8634 8635 8636 8637 8638 8639 8640 8641 8642 8643 8644 8645 8646 8647 8648 8649 8650 8651 8652 8653 8654 8655 8656 8657 8658 8659 8660 8661 8662 8663 8664 8665 8666 8667 8668 8669 8670 8671 8672 8673 8674 8675 8676 8677 8678 8679 8680 8681 8682 8683 8684 8685 8686 8687 8688 8689 8690 8691 8692 8693 8694 8695 8696 8697 8698 8699 8700 8701 8702 8703 8704 8705 8706 8707 8708 8709 8710 8711 8712 8713 8714 8715 8716 8717 8718 8719 8720 8721 8722 8723 8724 8725 8726 8727 8728 8729 8730 8731 8732 8733 8734 8735 8736 8737 8738 8739 8740 8741 8742 8743 8744 8745 8746 8747 8748 8749 8750 8751 8752 8753 8754 8755 8756 8757 8758 8759 8760 8761 8762 8763 8764 8765 8766 8767 8768 8769 8770 8771 8772 8773 8774 8775 8776 8777 8778 8779 8780 8781 8782 8783 8784 8785 8786 8787 8788 8789 8790 8791 8792 8793 8794 8795 8796 8797 8798 8799 8800 8801 8802 8803 8804 8805 8806 8807 8808 8809 8810 8811 8812 8813 8814 8815 8816 8817 8818 8819 8820 8821 8822 8823 8824 8825 8826 8827 8828 8829 8830 8831 8832 8833 8834 8835 8836 8837 8838 8839 8840 8841 8842 8843 8844 8845 8846 8847 8848 8849 8850 8851 8852 8853 8854 8855 8856 8857 8858 8859 8860 8861 8862 8863 8864 8865 8866 8867 8868 8869 8870 8871 8872 8873 8874 8875 8876 8877 8878 8879 8880 8881 8882 8883 8884 8885 8886 8887 8888 8889 8890 8891 8892 8893 8894 8895 8896 8897 8898 8899 8900 8901 8902 8903 8904 8905 8906 8907 8908 8909 8910 8911 8912 8913 8914 8915 8916 8917 8918 8919 8920 8921 8922 8923 8924 8925 8926 8927 8928 8929 8930 8931 8932 8933 8934 8935 8936 8937 8938 8939 8940 8941 8942 8943 8944 8945 8946 8947 8948 8949 8950 8951 8952 8953 8954 8955 8956 8957 8958 8959 8960 8961 8962 8963 8964 8965 8966 8967 8968 8969 8970 8971 8972 8973 8974 8975 8976 8977 8978 8979 8980 8981 8982 8983 8984 8985 8986 8987 8988 8989 8990 8991 8992 8993 8994 8995 8996 8997 8998 8999 9000 9001 9002 9003 9004 9005 9006 9007 9008 9009 9010 9011 9012 9013 9014 9015 9016 9017 9018 9019 9020 9021 9022 9023 9024 9025 9026 9027 9028 9029 9030 9031 9032 9033 9034 9035 9036 9037 9038 9039 9040 9041 9042 9043 9044 9045 9046 9047 9048 9049 9050 9051 9052 9053 9054 9055 9056 9057 9058 9059 9060 9061 9062 9063 9064 9065 9066 9067 9068 9069 9070 9071 9072 9073 9074 9075 9076 9077 9078 9079 9080 9081 9082 9083 9084 9085 9086 9087 9088 9089 9090 9091 9092 9093 9094 9095 9096 9097 9098 9099 9100 9101 9102 9103 9104 9105 9106 9107 9108 9109 9110 9111 9112 9113 9114 9115 9116 9117 9118 9119 9120 9121 9122 9123 9124 9125 9126 9127 9128 9129 9130 9131 9132 9133 9134 9135 9136 9137 9138 9139 9140 9141 9142 9143 9144 9145 9146 9147 9148 9149 9150 9151 9152 9153 9154 9155 9156 9157 9158 9159 9160 9161 9162 9163 9164 9165 9166 9167 9168 9169 9170 9171 9172 9173 9174 9175 9176 9177 9178 9179 9180 9181 9182 9183 9184 9185 9186 9187 9188 9189 9190 9191 9192 9193 9194 9195 9196 9197 9198 9199 9200 9201 9202 9203 9204 9205 9206 9207 9208 9209 9210 9211 9212 9213 9214 9215 9216 9217 9218 9219 9220 9221 9222 9223 9224 9225 9226 9227 9228 9229 9230 9231 9232 9233 9234 9235 9236 9237 9238 9239 9240 9241 9242 9243 9244 9245 9246 9247 9248 9249 9250 9251 9252 9253 9254 9255 9256 9257 9258 9259 9260 9261 9262 9263 9264 9265 9266 9267 9268 9269 9270 9271 9272 9273 9274 9275 9276 9277 9278 9279 9280 9281 9282 9283 9284 9285 9286 9287 9288 9289 9290 9291 9292 9293 9294 9295 9296 9297 9298 9299 9300 9301 9302 9303 9304 9305 9306 9307 9308 9309 9310 9311 9312 9313 9314 9315 9316 9317 9318 9319 9320 9321 9322 9323 9324 9325 9326 9327 9328 9329 9330 9331 9332 9333 9334 9335 9336 9337 9338 9339 9340 9341 9342 9343 9344 9345 9346 9347 9348 9349 9350 9351 9352 9353 9354 9355 9356 9357 9358 9359 9360 9361 9362 9363 9364 9365 9366 9367 9368 9369 9370 9371 9372 9373 9374 9375 9376 9377 9378 9379 9380 9381 9382 9383 9384 9385 9386 9387 9388 9389 9390 9391 9392 9393 9394 9395 9396 9397 9398 9399 9400 9401 9402 9403 9404 9405 9406 9407 9408 9409 9410 9411 9412 9413 9414 9415 9416 9417 9418 9419 9420 9421 9422 9423 9424 9425 9426 9427 9428 9429 9430 9431 9432 9433 9434 9435 9436 9437 9438 9439 9440 9441 9442 9443 9444 9445 9446 9447 9448 9449 9450 9451 9452 9453 9454 9455 9456 9457 9458 9459 9460 9461 9462 9463 9464 9465 9466 9467 9468 9469 9470 9471 9472 9473 9474 9475 9476 9477 9478 9479 9480 9481 9482 9483 9484 9485 9486 9487 9488 9489 9490 9491 9492 9493 9494 9495 9496 9497 9498 9499 9500 9501 9502 9503 9504 9505 9506 9507 9508 9509 9510 9511 9512 9513 9514 9515 9516 9517 9518 9519 9520 9521 9522 9523 9524 9525 9526 9527 9528 9529 9530 9531 9532 9533 9534 9535 9536 9537 9538 9539 9540 9541 9542 9543 9544 9545 9546 9547 9548 9549 9550 9551 9552 9553 9554 9555 9556 9557 9558 9559 9560 9561 9562 9563 9564 9565 9566 9567 9568 9569 9570 9571 9572 9573 9574 9575 9576 9577 9578 9579 9580 9581 9582 9583 9584 9585 9586 9587 9588 9589 9590 9591 9592 9593 9594 9595 9596 9597 9598 9599 9600 9601 9602 9603 9604 9605 9606 9607 9608 9609 9610 9611 9612 9613 9614 9615 9616 9617 9618 9619 9620 9621 9622 9623 9624 9625 9626 9627 9628 9629 9630 9631 9632 9633 9634 9635 9636 9637 9638 9639 9640 9641 9642 9643 9644 9645 9646 9647 9648 9649 9650 9651 9652 9653 9654 9655 9656 9657 9658 9659 9660 9661 9662 9663 9664 9665 9666 9667 9668 9669 9670 9671 9672 9673 9674 9675 9676 9677 9678 9679 9680 9681 9682 9683 9684 9685 9686 9687 9688 9689 9690 9691 9692 9693 9694 9695 9696 9697 9698 9699 9700 9701 9702 9703 9704 9705 9706 9707 9708 9709 9710 9711 9712 9713 9714 9715 9716 9717 9718 9719 9720 9721 9722 9723 9724 9725 9726 9727 9728 9729 9730 9731 9732 9733 9734 9735 9736 9737 9738 9739 9740 9741 9742 9743 9744 9745 9746 9747 9748 9749 9750 9751 9752 9753 9754 9755 9756 9757 9758 9759 9760 9761 9762 9763 9764 9765 9766 9767 9768 9769 9770 9771 9772 9773 9774 9775 9776 9777 9778 9779 9780 9781 9782 9783 9784 9785 9786 9787 9788 9789 9790 9791 9792 9793 9794 9795 9796 9797 9798 9799 9800 9801 9802 9803 9804 9805 9806 9807 9808 9809 9810 9811 9812 9813 9814 9815 9816 9817 9818 9819 9820 9821 9822 9823 9824 9825 9826 9827 9828 9829 9830 9831 9832 9833 9834 9835 9836 9837 9838 9839 9840 9841 9842 9843 9844 9845 9846 9847 9848 9849 9850 9851 9852 9853 9854 9855 9856 9857 9858 9859 9860 9861 9862 9863 9864 9865 9866 9867 9868 9869 9870 9871 9872 9873 9874 9875 9876 9877 9878 9879 9880 9881 9882 9883 9884 9885 9886 9887 9888 9889 9890 9891 9892 9893 9894 9895 9896 9897 9898 9899 9900 9901 9902 9903 9904 9905 9906 9907 9908 9909 9910 9911 9912 9913 9914 9915 9916 9917 9918 9919 9920 9921 9922 9923 9924 9925 9926 9927 9928 9929 9930 9931 9932 9933 9934 9935 9936 9937 9938 9939 9940 9941 9942 9943 9944 9945 9946 9947 9948 9949 9950 9951 9952 9953 9954 9955 9956 9957 9958 9959 9960 9961 9962 9963 9964 9965 9966 9967 9968 9969 9970 9971 9972 9973 9974 9975 9976 9977 9978 9979 9980 9981 9982 9983 9984 9985 9986 9987 9988 9989 9990 9991 9992 9993 9994 9995 9996 9997 9998 9999 10000 10001 10002 10003 10004 10005 10006 10007 10008 10009 10010 10011 10012 10013 10014 10015 10016 10017 10018 10019 10020 10021 10022 10023 10024 10025 10026 10027 10028 10029 10030 10031 10032 10033 10034 10035 10036 10037 10038 10039 10040 10041 10042 10043 10044 10045 10046 10047 10048 10049 10050 10051 10052 10053 10054 10055 10056 10057 10058 10059 10060 10061 10062 10063 10064 10065 10066 10067 10068 10069 10070 10071 10072 10073 10074 10075 10076 10077 10078 10079 10080 10081 10082 10083 10084 10085 10086 10087 10088 10089 10090 10091 10092 10093 10094 10095 10096 10097 10098 10099 10100 10101 10102 10103 10104 10105 10106 10107 10108 10109 10110 10111 10112 10113 10114 10115 10116 10117 10118 10119 10120 10121 10122 10123 10124 10125 10126 10127 10128 10129 10130 10131 10132 10133 10134 10135 10136 10137 10138 10139 10140 10141 10142 10143 10144 10145 10146 10147 10148 10149 10150 10151 10152 10153 10154 10155 10156 10157 10158 10159 10160 10161 10162 10163 10164 10165 10166 10167 10168 10169 10170 10171 10172 10173 10174 10175 10176 10177 10178 10179 10180 10181 10182 10183 10184 10185 10186 10187 10188 10189 10190 10191 10192 10193 10194 10195 10196 10197 10198 10199 10200 10201 10202 10203 10204 10205 10206 10207 10208 10209 10210 10211 10212 10213 10214 10215 10216 10217 10218 10219 10220 10221 10222 10223 10224 10225 10226 10227 10228 10229 10230 10231 10232 10233 10234 10235 10236 10237 10238 10239 10240 10241 10242 10243 10244 10245 10246 10247 10248 10249 10250 10251 10252 10253 10254 10255 10256 10257 10258 10259 10260 10261 10262 10263 10264 10265 10266 10267 10268 10269 10270 10271 10272 10273 10274 10275 10276 10277 10278 10279 10280 10281 10282 10283 10284 10285 10286 10287 10288 10289 10290 10291 10292 10293 10294 10295 10296 10297 10298 10299 10300 10301 10302 10303 10304 10305 10306 10307 10308 10309 10310 10311 10312 10313 10314 10315 10316 10317 10318 10319 10320 10321 10322 10323 10324 10325 10326 10327 10328 10329 10330 10331 10332 10333 10334 10335 10336 10337 10338 10339 10340 10341 10342 10343 10344 10345 10346 10347 10348 10349 10350 10351 10352 10353 10354 10355 10356 10357 10358 10359 10360 10361 10362 10363 10364 10365 10366 10367 10368 10369 10370 10371 10372 10373 10374 10375 10376 10377 10378 10379 10380 10381 10382 10383 10384 10385 10386 10387 10388 10389 10390 10391 10392 10393 10394 10395 10396 10397 10398 10399 10400 10401 10402 10403 10404 10405 10406 10407 10408 10409 10410 10411 10412 10413 10414 10415 10416 10417 10418 10419 10420 10421 10422 10423 10424 10425 10426 10427 10428 10429 10430 10431 10432 10433 10434 10435 10436 10437 10438 10439 10440 10441 10442 10443 10444 10445 10446 10447 10448 10449 10450 10451 10452 10453 10454 10455 10456 10457 10458 10459 10460 10461 10462 10463 10464 10465 10466 10467 10468 10469 10470 10471 10472 10473 10474 10475 10476 10477 10478 10479 10480 10481 10482 10483 10484 10485 10486 10487 10488 10489 10490 10491 10492 10493 10494 10495 10496 10497 10498 10499 10500 10501 10502 10503 10504 10505 10506 10507 10508 10509 10510 10511 10512 10513 10514 10515 10516 10517 10518 10519 10520 10521 10522 10523 10524 10525 10526 10527 10528 10529 10530 10531 10532 10533 10534 10535 10536 10537 10538 10539 10540 10541 10542 10543 10544 10545 10546 10547 10548 10549 10550 10551 10552 10553 10554 10555 10556 10557 10558 10559 10560 10561 10562 10563 10564 10565 10566 10567 10568 10569 10570 10571 10572 10573 10574 10575 10576 10577 10578 10579 10580 10581 10582 10583 10584 10585 10586 10587 10588 10589 10590 10591 10592 10593 10594 10595 10596 10597 10598 10599 10600 10601 10602 10603 10604 10605 10606 10607 10608 10609 10610 10611 10612 10613 10614 10615 10616 10617 10618 10619 10620 10621 10622 10623 10624 10625 10626 10627 10628 10629 10630 10631 10632 10633 10634 10635 10636 10637 10638 10639 10640 10641 10642 10643 10644 10645 10646 10647 10648 10649 10650 10651 10652 10653 10654 10655 10656 10657 10658 10659 10660 10661 10662 10663 10664 10665 10666 10667 10668 10669 10670 10671 10672 10673 10674 10675 10676 10677 10678 10679 10680 10681 10682 10683 10684 10685 10686 10687 10688 10689 10690 10691 10692 10693 10694 10695 10696 10697 10698 10699 10700 10701 10702 10703 10704 10705 10706 10707 10708 10709 10710 10711 10712 10713 10714 10715 10716 10717 10718 10719 10720 10721 10722 10723 10724 10725 10726 10727 10728 10729 10730 10731 10732 10733 10734 10735 10736 10737 10738 10739 10740 10741 10742 10743 10744 10745 10746 10747 10748 10749 10750 10751 10752 10753 10754 10755 10756 10757 10758 10759 10760 10761 10762 10763 10764 10765 10766 10767 10768 10769 10770 10771 10772 10773 10774 10775 10776 10777 10778 10779 10780 10781 10782 10783 10784 10785 10786 10787 10788 10789 10790 10791 10792 10793 10794 10795 10796 10797 10798 10799 10800 10801 10802 10803 10804 10805 10806 10807 10808 10809 10810 10811 10812 10813 10814 10815 10816 10817 10818 10819 10820 10821 10822 10823 10824 10825 10826 10827 10828 10829 10830 10831 10832 10833 10834 10835 10836 10837 10838 10839 10840 10841 10842 10843 10844 10845 10846 10847 10848 10849 10850 10851 10852 10853 10854 10855 10856 10857 10858 10859 10860 10861 10862 10863 10864 10865 10866 10867 10868 10869 10870 10871 10872 10873 10874 10875 10876 10877 10878 10879 10880 10881 10882 10883 10884 10885 10886 10887 10888 10889 10890 10891 10892 10893 10894 10895 10896 10897 10898 10899 10900 10901 10902 10903 10904 10905 10906 10907 10908 10909 10910 10911 10912 10913 10914 10915 10916 10917 10918 10919 10920 10921 10922 10923 10924 10925 10926 10927 10928 10929 10930 10931 10932 10933 10934 10935 10936 10937 10938 10939 10940 10941 10942 10943 10944 10945 10946 10947 10948 10949 10950 10951 10952 10953 10954 10955 10956 10957 10958 10959 10960 10961 10962 10963 10964 10965 10966 10967 10968 10969 10970 10971 10972 10973 10974 10975 10976 10977 10978 10979 10980 10981 10982 10983 10984 10985 10986 10987 10988 10989 10990 10991 10992 10993 10994 10995 10996 10997 10998 10999 11000 11001 11002 11003 11004 11005 11006 11007 11008 11009 11010 11011 11012 11013 11014 11015 11016 11017 11018 11019 11020 11021 11022 11023 11024 11025 11026 11027 11028 11029 11030 11031 11032 11033 11034 11035 11036 11037 11038 11039 11040 11041 11042 11043 11044 11045 11046 11047 11048 11049 11050 11051 11052 11053 11054 11055 11056 11057 11058 11059 11060 11061 11062 11063 11064 11065 11066 11067 11068 11069 11070 11071 11072 11073 11074 11075 11076 11077 11078 11079 11080 11081 11082 11083 11084 11085 11086 11087 11088 11089 11090 11091 11092 11093 11094 11095 11096 11097 11098 11099 11100 11101 11102 11103 11104 11105 11106 11107 11108 11109 11110 11111 11112 11113 11114 11115 11116 11117 11118 11119 11120 11121 11122 11123 11124 11125 11126 11127 11128 11129 11130 11131 11132 11133 11134 11135 11136 11137 11138 11139 11140 11141 11142 11143 11144 11145 11146 11147 11148 11149 11150 11151 11152 11153 11154 11155 11156 11157 11158 11159 11160 11161 11162 11163 11164 11165 11166 11167 11168 11169 11170 11171 11172 11173 11174 11175 11176 11177 11178 11179 11180 11181 11182 11183 11184 11185 11186 11187 11188 11189 11190 11191 11192 11193 11194 11195 11196 11197 11198 11199 11200 11201 11202 11203 11204 11205 11206 11207 11208 11209 11210 11211 11212 11213 11214 11215 11216 11217 11218 11219 11220 11221 11222 11223 11224 11225 11226 11227 11228 11229 11230 11231 11232 11233 11234 11235 11236 11237 11238 11239 11240 11241 11242 11243 11244 11245 11246 11247 11248 11249 11250 11251 11252 11253 11254 11255 11256 11257 11258 11259 11260 11261 11262 11263 11264 11265 11266 11267 11268 11269 11270 11271 11272 11273 11274 11275 11276 11277 11278 11279 11280 11281 11282 11283 11284 11285 11286 11287 11288 11289 11290 11291 11292 11293 11294 11295 11296 11297 11298 11299 11300 11301 11302 11303 11304 11305 11306 11307 11308 11309 11310 11311 11312 11313 11314 11315 11316 11317 11318 11319 11320 11321 11322 11323 11324 11325 11326 11327 11328 11329 11330 11331 11332 11333 11334 11335 11336 11337 11338 11339 11340 11341 11342 11343 11344 11345 11346 11347 11348 11349 11350 11351 11352 11353 11354 11355 11356 11357 11358 11359 11360 11361 11362 11363 11364 11365 11366 11367 11368 11369 11370 11371 11372 11373 11374 11375 11376 11377 11378 11379 11380 11381 11382 11383 11384 11385 11386 11387 11388 11389 11390 11391 11392 11393 11394 11395 11396 11397 11398 11399 11400 11401 11402 11403 11404 11405 11406 11407 11408 11409 11410 11411 11412 11413 11414 11415 11416 11417 11418 11419 11420 11421 11422 11423 11424 11425 11426 11427 11428 11429 11430 11431 11432 11433 11434 11435 11436 11437 11438 11439 11440 11441 11442 11443 11444 11445 11446 11447 11448 11449 11450 11451 11452 11453 11454 11455 11456 11457 11458 11459 11460 11461 11462 11463 11464 11465 11466 11467 11468 11469 11470 11471 11472 11473 11474 11475 11476 11477 11478 11479 11480 11481 11482 11483 11484 11485 11486 11487 11488 11489 11490 11491 11492 11493 11494 11495 11496 11497 11498 11499 11500 11501 11502 11503 11504 11505 11506 11507 11508 11509 11510 11511 11512 11513 11514 11515 11516 11517 11518 11519 11520 11521 11522 11523 11524 11525 11526 11527 11528 11529 11530 11531 11532 11533 11534 11535 11536 11537 11538 11539 11540 11541 11542 11543 11544 11545 11546 11547 11548 11549 11550 11551 11552 11553 11554 11555 11556 11557 11558 11559 11560 11561 11562 11563 11564 11565 11566 11567 11568 11569 11570 11571 11572 11573 11574 11575 11576 11577 11578 11579 11580 11581 11582 11583 11584 11585 11586 11587 11588 11589 11590 11591 11592 11593 11594 11595 11596 11597 11598 11599 11600 11601 11602 11603 11604 11605 11606 11607 11608 11609 11610 11611 11612 11613 11614 11615 11616 11617 11618 11619 11620 11621 11622 11623 11624 11625 11626 11627 11628 11629 11630 11631 11632 11633 11634 11635 11636 11637 11638 11639 11640 11641 11642 11643 11644 11645 11646 11647 11648 11649 11650 11651 11652 11653 11654 11655 11656 11657 11658 11659 11660 11661 11662 11663 11664 11665 11666 11667 11668 11669 11670 11671 11672 11673 11674 11675 11676 11677 11678 11679 11680 11681 11682 11683 11684 11685 11686 11687 11688 11689 11690 11691 11692 11693 11694 11695 11696 11697 11698 11699 11700 11701 11702 11703 11704 11705 11706 11707 11708 11709 11710 11711 11712 11713 11714 11715 11716 11717 11718 11719 11720 11721 11722 11723 11724 11725 11726 11727 11728 11729 11730 11731 11732 11733 11734 11735 11736 11737 11738 11739 11740 11741 11742 11743 11744 11745 11746 11747 11748 11749 11750 11751 11752 11753 11754 11755 11756 11757 11758 11759 11760 11761 11762 11763 11764 11765 11766 11767 11768 11769 11770 11771 11772 11773 11774 11775 11776 11777 11778 11779 11780 11781 11782 11783 11784 11785 11786 11787 11788 11789 11790 11791 11792 11793 11794 11795 11796 11797 11798 11799 11800 11801 11802 11803 11804 11805 11806 11807 11808 11809 11810 11811 11812 11813 11814 11815 11816 11817 11818 11819 11820 11821 11822 11823 11824 11825 11826 11827 11828 11829 11830 11831 11832 11833 11834 11835 11836 11837 11838 11839 11840 11841 11842 11843 11844 11845 11846 11847 11848 11849 11850 11851 11852 11853 11854 11855 11856 11857 11858 11859 11860 11861 11862 11863 11864 11865 11866 11867 11868 11869 11870 11871 11872 11873 11874 11875 11876 11877 11878 11879 11880 11881 11882 11883 11884 11885 11886 11887 11888 11889 11890 11891 11892 11893 11894 11895 11896 11897 11898 11899 11900 11901 11902 11903 11904 11905 11906 11907 11908 11909 11910 11911 11912 11913 11914 11915 11916 11917 11918 11919 11920 11921 11922 11923 11924 11925 11926 11927 11928 11929 11930 11931 11932 11933 11934 11935 11936 11937 11938 11939 11940 11941 11942 11943 11944 11945 11946 11947 11948 11949 11950 11951 11952 11953 11954 11955 11956 11957 11958 11959 11960 11961 11962 11963 11964 11965 11966 11967 11968 11969 11970 11971 11972 11973 11974 11975 11976 11977 11978 11979 11980 11981 11982 11983 11984 11985 11986 11987 11988 11989 11990 11991 11992 11993 11994 11995 11996 11997 11998 11999 12000 12001 12002 12003 12004 12005 12006 12007 12008 12009 12010 12011 12012 12013 12014 12015 12016 12017 12018 12019 12020 12021 12022 12023 12024 12025 12026 12027 12028 12029 12030 12031 12032 12033 12034 12035 12036 12037 12038 12039 12040 12041 12042 12043 12044 12045 12046 12047 12048 12049 12050 12051 12052 12053 12054 12055 12056 12057 12058 12059 12060 12061 12062 12063 12064 12065 12066 12067 12068 12069 12070 12071 12072 12073 12074 12075 12076 12077 12078 12079 12080 12081 12082 12083 12084 12085 12086 12087 12088 12089 12090 12091 12092 12093 12094 12095 12096 12097 12098 12099 12100 12101 12102 12103 12104 12105 12106 12107 12108 12109 12110 12111 12112 12113 12114 12115 12116 12117 12118 12119 12120 12121 12122 12123 12124 12125 12126 12127 12128 12129 12130 12131 12132 12133 12134 12135 12136 12137 12138 12139 12140 12141 12142 12143 12144 12145 12146 12147 12148 12149 12150 12151 12152 12153 12154 12155 12156 12157 12158 12159 12160 12161 12162 12163 12164 12165 12166 12167 12168 12169 12170 12171 12172 12173 12174 12175 12176 12177 12178 12179 12180 12181 12182 12183 12184 12185 12186 12187 12188 12189 12190 12191 12192 12193 12194 12195 12196 12197 12198 12199 12200 12201 12202 12203 12204 12205 12206 12207 12208 12209 12210 12211 12212 12213 12214 12215 12216 12217 12218 12219 12220 12221 12222 12223 12224 12225 12226 12227 12228 12229 12230 12231 12232 12233 12234 12235 12236 12237 12238 12239 12240 12241 12242 12243 12244 12245 12246 12247 12248 12249 12250 12251 12252 12253 12254 12255 12256 12257 12258 12259 12260 12261 12262 12263 12264 12265 12266 12267 12268 12269 12270 12271 12272 12273 12274 12275 12276 12277 12278 12279 12280 12281 12282 12283 12284 12285 12286 12287 12288 12289 12290 12291 12292 12293 12294 12295 12296 12297 12298 12299 12300 12301 12302 12303 12304 12305 12306 12307 12308 12309 12310 12311 12312 12313 12314 12315 12316 12317 12318 12319 12320 12321 12322 12323 12324 12325 12326 12327 12328 12329 12330 12331 12332 12333 12334 12335 12336 12337 12338 12339 12340 12341 12342 12343 12344 12345 12346 12347 12348 12349 12350 12351 12352 12353 12354 12355 12356 12357 12358 12359 12360 12361 12362 12363 12364 12365 12366 12367 12368 12369 12370 12371 12372 12373 12374 12375 12376 12377 12378 12379 12380 12381 12382 12383 12384 12385 12386 12387 12388 12389 12390 12391 12392 12393 12394 12395 12396 12397 12398 12399 12400 12401 12402 12403 12404 12405 12406 12407 12408 12409 12410 12411 12412 12413 12414 12415 12416 12417 12418 12419 12420 12421 12422 12423 12424 12425 12426 12427 12428 12429 12430 12431 12432 12433 12434 12435 12436 12437 12438 12439 12440 12441 12442 12443 12444 12445 12446 12447 12448 12449 12450 12451 12452 12453 12454 12455 12456 12457 12458 12459 12460 12461 12462 12463 12464 12465 12466 12467 12468 12469 12470 12471 12472 12473 12474 12475 12476 12477 12478 12479 12480 12481 12482 12483 12484 12485 12486 12487 12488 12489 12490 12491 12492 12493 12494 12495 12496 12497 12498 12499 12500 12501 12502 12503 12504 12505 12506 12507 12508 12509 12510 12511 12512 12513 12514 12515 12516 12517 12518 12519 12520 12521 12522 12523 12524 12525 12526 12527 12528 12529 12530 12531 12532 12533 12534 12535 12536 12537 12538 12539 12540 12541 12542 12543 12544 12545 12546 12547 12548 12549 12550 12551 12552 12553 12554 12555 12556 12557 12558 12559 12560 12561 12562 12563 12564 12565 12566 12567 12568 12569 12570 12571 12572 12573 12574 12575 12576 12577 12578 12579 12580 12581 12582 12583 12584 12585 12586 12587 12588 12589 12590 12591 12592 12593 12594 12595 12596 12597 12598 12599 12600 12601 12602 12603 12604 12605 12606 12607 12608 12609 12610 12611 12612 12613 12614 12615 12616 12617 12618 12619 12620 12621 12622 12623 12624 12625 12626 12627 12628 12629 12630 12631 12632 12633 12634 12635 12636 12637 12638 12639 12640 12641 12642 12643 12644 12645 12646 12647 12648 12649 12650 12651 12652 12653 12654 12655 12656 12657 12658 12659 12660 12661 12662 12663 12664 12665 12666 12667 12668 12669 12670 12671 12672 12673 12674 12675 12676 12677 12678 12679 12680 12681 12682 12683 12684 12685 12686 12687 12688 12689 12690 12691 12692 12693 12694 12695 12696 12697 12698 12699 12700 12701 12702 12703 12704 12705 12706 12707 12708 12709 12710 12711 12712 12713 12714 12715 12716 12717 12718 12719 12720 12721 12722 12723 12724 12725 12726 12727 12728 12729 12730 12731 12732 12733 12734 12735 12736 12737 12738 12739 12740 12741 12742 12743 12744 12745 12746 12747 12748 12749 12750 12751 12752 12753 12754 12755 12756 12757 12758 12759 12760 12761 12762 12763 12764 12765 12766 12767 12768 12769 12770 12771 12772 12773 12774 12775 12776 12777 12778 12779 12780 12781 12782 12783 12784 12785 12786 12787 12788 12789 12790 12791 12792 12793 12794 12795 12796 12797 12798 12799 12800 12801 12802 12803 12804 12805 12806 12807 12808 12809 12810 12811 12812 12813 12814 12815 12816 12817 12818 12819 12820 12821 12822 12823 12824 12825 12826 12827 12828 12829 12830 12831 12832 12833 12834 12835 12836 12837 12838 12839 12840 12841 12842 12843 12844 12845 12846 12847 12848 12849 12850 12851 12852 12853 12854 12855 12856 12857 12858 12859 12860 12861 12862 12863 12864 12865 12866 12867 12868 12869 12870 12871 12872 12873 12874 12875 12876 12877 12878 12879 12880 12881 12882 12883 12884 12885 12886 12887 12888 12889 12890 12891 12892 12893 12894 12895 12896 12897 12898 12899 12900 12901 12902 12903 12904 12905 12906 12907 12908 12909 12910 12911 12912 12913 12914 12915 12916 12917 12918 12919 12920 12921 12922 12923 12924 12925 12926 12927 12928 12929 12930 12931 12932 12933 12934 12935 12936 12937 12938 12939 12940 12941 12942 12943 12944 12945 12946 12947 12948 12949 12950 12951 12952 12953 12954 12955 12956 12957 12958 12959 12960 12961 12962 12963 12964 12965 12966 12967 12968 12969 12970 12971 12972 12973 12974 12975 12976 12977 12978 12979 12980 12981 12982 12983 12984 12985 12986 12987 12988 12989 12990 12991 12992 12993 12994 12995 12996 12997 12998 12999 13000 13001 13002 13003 13004 13005 13006 13007 13008 13009 13010 13011 13012 13013 13014 13015 13016 13017 13018 13019 13020 13021 13022 13023 13024 13025 13026 13027 13028 13029 13030 13031 13032 13033 13034 13035 13036 13037 13038 13039 13040 13041 13042 13043 13044 13045 13046 13047 13048 13049 13050 13051 13052 13053 13054 13055 13056 13057 13058 13059 13060 13061 13062 13063 13064 13065 13066 13067 13068 13069 13070 13071 13072 13073 13074 13075 13076 13077 13078 13079 13080 13081 13082 13083 13084 13085 13086 13087 13088 13089 13090 13091 13092 13093 13094 13095 13096 13097 13098 13099 13100 13101 13102 13103 13104 13105 13106 13107 13108 13109 13110 13111 13112 13113 13114 13115 13116 13117 13118 13119 13120 13121 13122 13123 13124 13125 13126 13127 13128 13129 13130 13131 13132 13133 13134 13135 13136 13137 13138 13139 13140 13141 13142 13143 13144 13145 13146 13147 13148 13149 13150 13151 13152 13153 13154 13155 13156 13157 13158 13159 13160 13161 13162 13163 13164 13165 13166 13167 13168 13169 13170 13171 13172 13173 13174 13175 13176 13177 13178 13179 13180 13181 13182 13183 13184 13185 13186 13187 13188 13189 13190 13191 13192 13193 13194 13195 13196 13197 13198 13199 13200 13201 13202 13203 13204 13205 13206 13207 13208 13209 13210 13211 13212 13213 13214 13215 13216 13217 13218 13219 13220 13221 13222 13223 13224 13225 13226 13227 13228 13229 13230 13231 13232 13233 13234 13235 13236 13237 13238 13239 13240 13241 13242 13243 13244 13245 13246 13247 13248 13249 13250 13251 13252 13253 13254 13255 13256 13257 13258 13259 13260 13261 13262 13263 13264 13265 13266 13267 13268 13269 13270 13271 13272 13273 13274 13275 13276 13277 13278 13279 13280 13281 13282 13283 13284 13285 13286 13287 13288 13289 13290 13291 13292 13293 13294 13295 13296 13297 13298 13299 13300 13301 13302 13303 13304 13305 13306 13307 13308 13309 13310 13311 13312 13313 13314 13315 13316 13317 13318 13319 13320 13321 13322 13323 13324 13325 13326 13327 13328 13329 13330 13331 13332 13333 13334 13335 13336 13337 13338 13339 13340 13341 13342 13343 13344 13345 13346 13347 13348 13349 13350 13351 13352 13353 13354 13355 13356 13357 13358 13359 13360 13361 13362 13363 13364 13365 13366 13367 13368 13369 13370 13371 13372 13373 13374 13375 13376 13377 13378 13379 13380 13381 13382 13383 13384 13385 13386 13387 13388 13389 13390 13391 13392 13393 13394 13395 13396 13397 13398 13399 13400 13401 13402 13403 13404 13405 13406 13407 13408 13409 13410 13411 13412 13413 13414 13415 13416 13417 13418 13419 13420 13421 13422 13423 13424 13425 13426 13427 13428 13429 13430 13431 13432 13433 13434 13435 13436 13437 13438 13439 13440 13441 13442 13443 13444 13445 13446 13447 13448 13449 13450 13451 13452 13453 13454 13455 13456 13457 13458 13459 13460 13461 13462 13463 13464 13465 13466 13467 13468 13469 13470 13471 13472 13473 13474 13475 13476 13477 13478 13479 13480 13481 13482 13483 13484 13485 13486 13487 13488 13489 13490 13491 13492 13493 13494 13495 13496 13497 13498 13499 13500 13501 13502 13503 13504 13505 13506 13507 13508 13509 13510 13511 13512 13513 13514 13515 13516 13517 13518 13519 13520 13521 13522 13523 13524 13525 13526 13527 13528 13529 13530 13531 13532 13533 13534 13535 13536 13537 13538 13539 13540 13541 13542 13543 13544 13545 13546 13547 13548 13549 13550 13551 13552 13553 13554 13555 13556 13557 13558 13559 13560 13561 13562 13563 13564 13565 13566 13567 13568 13569 13570 13571 13572 13573 13574 13575 13576 13577 13578 13579 13580 13581 13582 13583 13584 13585 13586 13587 13588 13589 13590 13591 13592 13593 13594 13595 13596 13597 13598 13599 13600 13601 13602 13603 13604 13605 13606 13607 13608 13609 13610 13611 13612 13613 13614 13615 13616 13617 13618 13619 13620 13621 13622 13623 13624 13625 13626 13627 13628 13629 13630 13631 13632 13633 13634 13635 13636 13637 13638 13639 13640 13641 13642 13643 13644 13645 13646 13647 13648 13649 13650 13651 13652 13653 13654 13655 13656 13657 13658 13659 13660 13661 13662 13663 13664 13665 13666 13667 13668 13669 13670 13671 13672 13673 13674 13675 13676 13677 13678 13679 13680 13681 13682 13683 13684 13685 13686 13687 13688 13689 13690 13691 13692 13693 13694 13695 13696 13697 13698 13699 13700 13701 13702 13703 13704 13705 13706 13707 13708 13709 13710 13711 13712 13713 13714 13715 13716 13717 13718 13719 13720 13721 13722 13723 13724 13725 13726 13727 13728 13729 13730 13731 13732 13733 13734 13735 13736 13737 13738 13739 13740 13741 13742 13743 13744 13745 13746 13747 13748 13749 13750 13751 13752 13753 13754 13755 13756 13757 13758 13759 13760 13761 13762 13763 13764 13765 13766 13767 13768 13769 13770 13771 13772 13773 13774 13775 13776 13777 13778 13779 13780 13781 13782 13783 13784 13785 13786 13787 13788 13789 13790 13791 13792 13793 13794 13795 13796 13797 13798 13799 13800 13801 13802 13803 13804 13805 13806 13807 13808 13809 13810 13811 13812 13813 13814 13815 13816 13817 13818 13819 13820 13821 13822 13823 13824 13825 13826 13827 13828 13829 13830 13831 13832 13833 13834 13835 13836 13837 13838 13839 13840 13841 13842 13843 13844 13845 13846 13847 13848 13849 13850 13851 13852 13853 13854 13855 13856 13857 13858 13859 13860 13861 13862 13863 13864 13865 13866 13867 13868 13869 13870 13871 13872 13873 13874 13875 13876 13877 13878 13879 13880 13881 13882 13883 13884 13885 13886 13887 13888 13889 13890 13891 13892 13893 13894 13895 13896 13897 13898 13899 13900 13901 13902 13903 13904 13905 13906 13907 13908 13909 13910 13911 13912 13913 13914 13915 13916 13917 13918 13919 13920 13921 13922 13923 13924 13925 13926 13927 13928 13929 13930 13931 13932 13933 13934 13935 13936 13937 13938 13939 13940 13941 13942 13943 13944 13945 13946 13947 13948 13949 13950 13951 13952 13953 13954 13955 13956 13957 13958 13959 13960 13961 13962 13963 13964 13965 13966 13967 13968 13969 13970 13971 13972 13973 13974 13975 13976 13977 13978 13979 13980 13981 13982 13983 13984 13985 13986 13987 13988 13989 13990 13991 13992 13993 13994 13995 13996 13997 13998 13999 14000 14001 14002 14003 14004 14005 14006 14007 14008 14009 14010 14011 14012 14013 14014 14015 14016 14017 14018 14019 14020 14021 14022 14023 14024 14025 14026 14027 14028 14029 14030 14031 14032 14033 14034 14035 14036 14037 14038 14039 14040 14041 14042 14043 14044 14045 14046 14047 14048 14049 14050 14051 14052 14053 14054 14055 14056 14057 14058 14059 14060 14061 14062 14063 14064 14065 14066 14067 14068 14069 14070 14071 14072 14073 14074 14075 14076 14077 14078 14079 14080 14081 14082 14083 14084 14085 14086 14087 14088 14089 14090 14091 14092 14093 14094 14095 14096 14097 14098 14099 14100 14101 14102 14103 14104 14105 14106 14107 14108 14109 14110 14111 14112 14113 14114 14115 14116 14117 14118 14119 14120 14121 14122 14123 14124 14125 14126 14127 14128 14129 14130 14131 14132 14133 14134 14135 14136 14137 14138 14139 14140 14141 14142 14143 14144 14145 14146 14147 14148 14149 14150 14151 14152 14153 14154 14155 14156 14157 14158 14159 14160 14161 14162 14163 14164 14165 14166 14167 14168 14169 14170 14171 14172 14173 14174 14175 14176 14177 14178 14179 14180 14181 14182 14183 14184 14185 14186 14187 14188 14189 14190 14191 14192 14193 14194 14195 14196 14197 14198 14199 14200 14201 14202 14203 14204 14205 14206 14207 14208 14209 14210 14211 14212 14213 14214 14215 14216 14217 14218 14219 14220 14221 14222 14223 14224 14225 14226 14227 14228 14229 14230 14231 14232 14233 14234 14235 14236 14237 14238 14239 14240 14241 14242 14243 14244 14245 14246 14247 14248 14249 14250 14251 14252 14253 14254 14255 14256 14257 14258 14259 14260 14261 14262 14263 14264 14265 14266 14267 14268 14269 14270 14271 14272 14273 14274 14275 14276 14277 14278 14279 14280 14281 14282 14283 14284 14285 14286 14287 14288 14289 14290 14291 14292 14293 14294 14295 14296 14297 14298 14299 14300 14301 14302 14303 14304 14305 14306 14307 14308 14309 14310 14311 14312 14313 14314 14315 14316 14317 14318 14319 14320 14321 14322 14323 14324 14325 14326 14327 14328 14329 14330 14331 14332 14333 14334 14335 14336 14337 14338 14339 14340 14341 14342 14343 14344 14345 14346 14347 14348 14349 14350 14351 14352 14353 14354 14355 14356 14357 14358 14359 14360 14361 14362 14363 14364 14365 14366 14367 14368 14369 14370 14371 14372 14373 14374 14375 14376 14377 14378 14379 14380 14381 14382 14383 14384 14385 14386 14387 14388 14389 14390 14391 14392 14393 14394 14395 14396 14397 14398 14399 14400 14401 14402 14403 14404 14405 14406 14407 14408 14409 14410 14411 14412 14413 14414 14415 14416 14417 14418 14419 14420 14421 14422 14423 14424 14425 14426 14427 14428 14429 14430 14431 14432 14433 14434 14435 14436 14437 14438 14439 14440 14441 14442 14443 14444 14445 14446 14447 14448 14449 14450 14451 14452 14453 14454 14455 14456 14457 14458 14459 14460 14461 14462 14463 14464 14465 14466 14467 14468 14469 14470 14471 14472 14473 14474 14475 14476 14477 14478 14479 14480 14481 14482 14483 14484 14485 14486 14487 14488 14489 14490 14491 14492 14493 14494 14495 14496 14497 14498 14499 14500 14501 14502 14503 14504 14505 14506 14507 14508 14509 14510 14511 14512 14513 14514 14515 14516 14517 14518 14519 14520 14521 14522 14523 14524 14525 14526 14527 14528 14529 14530 14531 14532 14533 14534 14535 14536 14537 14538 14539 14540 14541 14542 14543 14544 14545 14546 14547 14548 14549 14550 14551 14552 14553 14554 14555 14556 14557 14558 14559 14560 14561 14562 14563 14564 14565 14566 14567 14568 14569 14570 14571 14572 14573 14574 14575 14576 14577 14578 14579 14580 14581 14582 14583 14584 14585 14586 14587 14588 14589 14590 14591 14592 14593 14594 14595 14596 14597 14598 14599 14600 14601 14602 14603 14604 14605 14606 14607 14608 14609 14610 14611 14612 14613 14614 14615 14616 14617 14618 14619 14620 14621 14622 14623 14624 14625 14626 14627 14628 14629 14630 14631 14632 14633 14634 14635 14636 14637 14638 14639 14640 14641 14642 14643 14644 14645 14646 14647 14648 14649 14650 14651 14652 14653 14654 14655 14656 14657 14658 14659 14660 14661 14662 14663 14664 14665 14666 14667 14668 14669 14670 14671 14672 14673 14674 14675 14676 14677 14678 14679 14680 14681 14682 14683 14684 14685 14686 14687 14688 14689 14690 14691 14692 14693 14694 14695 14696 14697 14698 14699 14700 14701 14702 14703 14704 14705 14706 14707 14708 14709 14710 14711 14712 14713 14714 14715 14716 14717 14718 14719 14720 14721 14722 14723 14724 14725 14726 14727 14728 14729 14730 14731 14732 14733 14734 14735 14736 14737 14738 14739 14740 14741 14742 14743 14744 14745 14746 14747 14748 14749 14750 14751 14752 14753 14754 14755 14756 14757 14758 14759 14760 14761 14762 14763 14764 14765 14766 14767 14768 14769 14770 14771 14772 14773 14774 14775 14776 14777 14778 14779 14780 14781 14782 14783 14784 14785 14786 14787 14788 14789 14790 14791 14792 14793 14794 14795 14796 14797 14798 14799 14800 14801 14802 14803 14804 14805 14806 14807 14808 14809 14810 14811 14812 14813 14814 14815 14816 14817 14818 14819 14820 14821 14822 14823 14824 14825 14826 14827 14828 14829 14830 14831 14832 14833 14834 14835 14836 14837 14838 14839 14840 14841 14842 14843 14844 14845 14846 14847 14848 14849 14850 14851 14852 14853 14854 14855 14856 14857 14858 14859 14860 14861 14862 14863 14864 14865 14866 14867 14868 14869 14870 14871 14872 14873 14874 14875 14876 14877 14878 14879 14880 14881 14882 14883 14884 14885 14886 14887 14888 14889 14890 14891 14892 14893 14894 14895 14896 14897 14898 14899 14900 14901 14902 14903 14904 14905 14906 14907 14908 14909 14910 14911 14912 14913 14914 14915 14916 14917 14918 14919 14920 14921 14922 14923 14924 14925 14926 14927 14928 14929 14930 14931 14932 14933 14934 14935 14936 14937 14938 14939 14940 14941 14942 14943 14944 14945 14946 14947 14948 14949 14950 14951 14952 14953 14954 14955 14956 14957 14958 14959 14960 14961 14962 14963 14964 14965 14966 14967 14968 14969 14970 14971 14972 14973 14974 14975 14976 14977 14978 14979 14980 14981 14982 14983 14984 14985 14986 14987 14988 14989 14990 14991 14992 14993 14994 14995 14996 14997 14998 14999 15000 15001 15002 15003 15004 15005 15006 15007 15008 15009 15010 15011 15012 15013 15014 15015 15016 15017 15018 15019 15020 15021 15022 15023 15024 15025 15026 15027 15028 15029 15030 15031 15032 15033 15034 15035 15036 15037 15038 15039 15040 15041 15042 15043 15044 15045 15046 15047 15048 15049 15050 15051 15052 15053 15054 15055 15056 15057 15058 15059 15060 15061 15062 15063 15064 15065 15066 15067 15068 15069 15070 15071 15072 15073 15074 15075 15076 15077 15078 15079 15080 15081 15082 15083 15084 15085 15086 15087 15088 15089 15090 15091 15092 15093 15094 15095 15096 15097 15098 15099 15100 15101 15102 15103 15104 15105 15106 15107 15108 15109 15110 15111 15112 15113 15114 15115 15116 15117 15118 15119 15120 15121 15122 15123 15124 15125 15126 15127 15128 15129 15130 15131 15132 15133 15134 15135 15136 15137 15138 15139 15140 15141 15142 15143 15144 15145 15146 15147 15148 15149 15150 15151 15152 15153 15154 15155 15156 15157 15158 15159 15160 15161 15162 15163 15164 15165 15166 15167 15168 15169 15170 15171 15172 15173 15174 15175 15176 15177 15178 15179 15180 15181 15182 15183 15184 15185 15186 15187 15188 15189 15190 15191 15192 15193 15194 15195 15196 15197 15198 15199 15200 15201 15202 15203 15204 15205 15206 15207 15208 15209 15210 15211 15212 15213 15214 15215 15216 15217 15218 15219 15220 15221 15222 15223 15224 15225 15226 15227 15228 15229 15230 15231 15232 15233 15234 15235 15236 15237 15238 15239 15240 15241 15242 15243 15244 15245 15246 15247 15248 15249 15250 15251 15252 15253 15254 15255 15256 15257 15258 15259 15260 15261 15262 15263 15264 15265 15266 15267 15268 15269 15270 15271 15272 15273 15274 15275 15276 15277 15278 15279 15280 15281 15282 15283 15284 15285 15286 15287 15288 15289 15290 15291 15292 15293 15294 15295 15296 15297 15298 15299 15300 15301 15302 15303 15304 15305 15306 15307 15308 15309 15310 15311 15312 15313 15314 15315 15316 15317 15318 15319 15320 15321 15322 15323 15324 15325 15326 15327 15328 15329 15330 15331 15332 15333 15334 15335 15336 15337 15338 15339 15340 15341 15342 15343 15344 15345 15346 15347 15348 15349 15350 15351 15352 15353 15354 15355 15356 15357 15358 15359 15360 15361 15362 15363 15364 15365 15366 15367 15368 15369 15370 15371 15372 15373 15374 15375 15376 15377 15378 15379 15380 15381 15382 15383 15384 15385 15386 15387 15388 15389 15390 15391 15392 15393 15394 15395 15396 15397 15398 15399 15400 15401 15402 15403 15404 15405 15406 15407 15408 15409 15410 15411 15412 15413 15414 15415 15416 15417 15418 15419 15420 15421 15422 15423 15424 15425 15426 15427 15428 15429 15430 15431 15432 15433 15434 15435 15436 15437 15438 15439 15440 15441 15442 15443 15444 15445 15446 15447 15448 15449 15450 15451 15452 15453 15454 15455 15456 15457 15458 15459 15460 15461 15462 15463 15464 15465 15466 15467 15468 15469 15470 15471 15472 15473 15474 15475 15476 15477 15478 15479 15480 15481 15482 15483 15484 15485 15486 15487 15488 15489 15490 15491 15492 15493 15494 15495 15496 15497 15498 15499 15500 15501 15502 15503 15504 15505 15506 15507 15508 15509 15510 15511 15512 15513 15514 15515 15516 15517 15518 15519 15520 15521 15522 15523 15524 15525 15526 15527 15528 15529 15530 15531 15532 15533 15534 15535 15536 15537 15538 15539 15540 15541 15542 15543 15544 15545 15546 15547 15548 15549 15550 15551 15552 15553 15554 15555 15556 15557 15558 15559 15560 15561 15562 15563 15564 15565 15566 15567 15568 15569 15570 15571 15572 15573 15574 15575 15576 15577 15578 15579 15580 15581 15582 15583 15584 15585 15586 15587 15588 15589 15590 15591 15592 15593 15594 15595 15596 15597 15598 15599 15600 15601 15602 15603 15604 15605 15606 15607 15608 15609 15610 15611 15612 15613 15614 15615 15616 15617 15618 15619 15620 15621 15622 15623 15624 15625 15626 15627 15628 15629 15630 15631 15632 15633 15634 15635 15636 15637 15638 15639 15640 15641 15642 15643 15644 15645 15646 15647 15648 15649 15650 15651 15652 15653 15654 15655 15656 15657 15658 15659 15660 15661 15662 15663 15664 15665 15666 15667 15668 15669 15670 15671 15672 15673 15674 15675 15676 15677 15678 15679 15680 15681 15682 15683 15684 15685 15686 15687 15688 15689 15690 15691 15692 15693 15694 15695 15696 15697 15698 15699 15700 15701 15702 15703 15704 15705 15706 15707 15708 15709 15710 15711 15712 15713 15714 15715 15716 15717 15718 15719 15720 15721 15722 15723 15724 15725 15726 15727 15728 15729 15730 15731 15732 15733 15734 15735 15736 15737 15738 15739 15740 15741 15742 15743 15744 15745 15746 15747 15748 15749 15750 15751 15752 15753 15754 15755 15756 15757 15758 15759 15760 15761 15762 15763 15764 15765 15766 15767 15768 15769 15770 15771 15772 15773 15774 15775 15776 15777 15778 15779 15780 15781 15782 15783 15784 15785 15786 15787 15788 15789 15790 15791 15792 15793 15794 15795 15796 15797 15798 15799 15800 15801 15802 15803 15804 15805 15806 15807 15808 15809 15810 15811 15812 15813 15814 15815 15816 15817 15818 15819 15820 15821 15822 15823 15824 15825 15826 15827 15828 15829 15830 15831 15832 15833 15834 15835 15836 15837 15838 15839 15840 15841 15842 15843 15844 15845 15846 15847 15848 15849 15850 15851 15852 15853 15854 15855 15856 15857 15858 15859 15860 15861 15862 15863 15864 15865 15866 15867 15868 15869 15870 15871 15872 15873 15874 15875 15876 15877 15878 15879 15880 15881 15882 15883 15884 15885 15886 15887 15888 15889 15890 15891 15892 15893 15894 15895 15896 15897 15898 15899 15900 15901 15902 15903 15904 15905 15906 15907 15908 15909 15910 15911 15912 15913 15914 15915 15916 15917 15918 15919 15920 15921 15922 15923 15924 15925 15926 15927 15928 15929 15930 15931 15932 15933 15934 15935 15936 15937 15938 15939 15940 15941 15942 15943 15944 15945 15946 15947 15948 15949 15950 15951 15952 15953 15954 15955 15956 15957 15958 15959 15960 15961 15962 15963 15964 15965 15966 15967 15968 15969 15970 15971 15972 15973 15974 15975 15976 15977 15978 15979 15980 15981 15982 15983 15984 15985 15986 15987 15988 15989 15990 15991 15992 15993 15994 15995 15996 15997 15998 15999 16000 16001 16002 16003 16004 16005 16006 16007 16008 16009 16010 16011 16012 16013 16014 16015 16016 16017 16018 16019 16020 16021 16022 16023 16024 16025 16026 16027 16028 16029 16030 16031 16032 16033 16034 16035 16036 16037 16038 16039 16040 16041 16042 16043 16044 16045 16046 16047 16048 16049 16050 16051 16052 16053 16054 16055 16056 16057 16058 16059 16060 16061 16062 16063 16064 16065 16066 16067 16068 16069 16070 16071 16072 16073 16074 16075 16076 16077 16078 16079 16080 16081 16082 16083 16084 16085 16086 16087 16088 16089 16090 16091 16092 16093 16094 16095 16096 16097 16098 16099 16100 16101 16102 16103 16104 16105 16106 16107 16108 16109 16110 16111 16112 16113 16114 16115 16116 16117 16118 16119 16120 16121 16122 16123 16124 16125 16126 16127 16128 16129 16130 16131 16132 16133 16134 16135 16136 16137 16138 16139 16140 16141 16142 16143 16144 16145 16146 16147 16148 16149 16150 16151 16152 16153 16154 16155 16156 16157 16158 16159 16160 16161 16162 16163 16164 16165 16166 16167 16168 16169 16170 16171 16172 16173 16174 16175 16176 16177 16178 16179 16180 16181 16182 16183 16184 16185 16186 16187 16188 16189 16190 16191 16192 16193 16194 16195 16196 16197 16198 16199 16200 16201 16202 16203 16204 16205 16206 16207 16208 16209 16210 16211 16212 16213 16214 16215 16216 16217 16218 16219 16220 16221 16222 16223 16224 16225 16226 16227 16228 16229 16230 16231 16232 16233 16234 16235 16236 16237 16238 16239 16240 16241 16242 16243 16244 16245 16246 16247 16248 16249 16250 16251 16252 16253 16254 16255 16256 16257 16258 16259 16260 16261 16262 16263 16264 16265 16266 16267 16268 16269 16270 16271 16272 16273 16274 16275 16276 16277 16278 16279 16280 16281 16282 16283 16284 16285 16286 16287 16288 16289 16290 16291 16292 16293 16294 16295 16296 16297 16298 16299 16300 16301 16302 16303 16304 16305 16306 16307 16308 16309 16310 16311 16312 16313 16314 16315 16316 16317 16318 16319 16320 16321 16322 16323 16324 16325 16326 16327 16328 16329 16330 16331 16332 16333 16334 16335 16336 16337 16338 16339 16340 16341 16342 16343 16344 16345 16346 16347 16348 16349 16350 16351 16352 16353 16354 16355 16356 16357 16358 16359 16360 16361 16362 16363 16364 16365 16366 16367 16368 16369 16370 16371 16372 16373 16374 16375 16376 16377 16378 16379 16380 16381 16382 16383 16384 16385 16386 16387 16388 16389 16390 16391 16392 16393 16394 16395 16396 16397 16398 16399 16400 16401 16402 16403 16404 16405 16406 16407 16408 16409 16410 16411 16412 16413 16414 16415 16416 16417 16418 16419 16420 16421 16422 16423 16424 16425 16426 16427 16428 16429 16430 16431 16432 16433 16434 16435 16436 16437 16438 16439 16440 16441 16442 16443 16444 16445 16446 16447 16448 16449 16450 16451 16452 16453 16454 16455 16456 16457 16458 16459 16460 16461 16462 16463 16464 16465 16466 16467 16468 16469 16470 16471 16472 16473 16474 16475 16476 16477 16478 16479 16480 16481 16482 16483 16484 16485 16486 16487 16488 16489 16490 16491 16492 16493 16494 16495 16496 16497 16498 16499 16500 16501 16502 16503 16504 16505 16506 16507 16508 16509 16510 16511 16512 16513 16514 16515 16516 16517 16518 16519 16520 16521 16522 16523 16524 16525 16526 16527 16528 16529 16530 16531 16532 16533 16534 16535 16536 16537 16538 16539 16540 16541 16542 16543 16544 16545 16546 16547 16548 16549 16550 16551 16552 16553 16554 16555 16556 16557 16558 16559 16560 16561 16562 16563 16564 16565 16566 16567 16568 16569 16570 16571 16572 16573 16574 16575 16576 16577 16578 16579 16580 16581 16582 16583 16584 16585 16586 16587 16588 16589 16590 16591 16592 16593 16594 16595 16596 16597 16598 16599 16600 16601 16602 16603 16604 16605 16606 16607 16608 16609 16610 16611 16612 16613 16614 16615 16616 16617 16618 16619 16620 16621 16622 16623 16624 16625 16626 16627 16628 16629 16630 16631 16632 16633 16634 16635 16636 16637 16638 16639 16640 16641 16642 16643 16644 16645 16646 16647 16648 16649 16650 16651 16652 16653 16654 16655 16656 16657 16658 16659 16660 16661 16662 16663 16664 16665 16666 16667 16668 16669 16670 16671 16672 16673 16674 16675 16676 16677 16678 16679 16680 16681 16682 16683 16684 16685 16686 16687 16688 16689 16690 16691 16692 16693 16694 16695 16696 16697 16698 16699 16700 16701 16702 16703 16704 16705 16706 16707 16708 16709 16710 16711 16712 16713 16714 16715 16716 16717 16718 16719 16720 16721 16722 16723 16724 16725 16726 16727 16728 16729 16730 16731 16732 16733 16734 16735 16736 16737 16738 16739 16740 16741 16742 16743 16744 16745 16746 16747 16748 16749 16750 16751 16752 16753 16754 16755 16756 16757 16758 16759 16760 16761 16762 16763 16764 16765 16766 16767 16768 16769 16770 16771 16772 16773 16774 16775 16776 16777 16778 16779 16780 16781 16782 16783 16784 16785 16786 16787 16788 16789 16790 16791 16792 16793 16794 16795 16796 16797 16798 16799 16800 16801 16802 16803 16804 16805 16806 16807 16808 16809 16810 16811 16812 16813 16814 16815 16816 16817 16818 16819 16820 16821 16822 16823 16824 16825 16826 16827 16828 16829 16830 16831 16832 16833 16834 16835 16836 16837 16838 16839 16840 16841 16842 16843 16844 16845 16846 16847 16848 16849 16850 16851 16852 16853 16854 16855 16856 16857 16858 16859 16860 16861 16862 16863 16864 16865 16866 16867 16868 16869 16870 16871 16872 16873 16874 16875 16876 16877 16878 16879 16880 16881 16882 16883 16884 16885 16886 16887 16888 16889 16890 16891 16892 16893 16894 16895 16896 16897 16898 16899 16900 16901 16902 16903 16904 16905 16906 16907 16908 16909 16910 16911 16912 16913 16914 16915 16916 16917 16918 16919 16920 16921 16922 16923 16924 16925 16926 16927 16928 16929 16930 16931 16932 16933 16934 16935 16936 16937 16938 16939 16940 16941 16942 16943 16944 16945 16946 16947 16948 16949 16950 16951 16952 16953 16954 16955 16956 16957 16958 16959 16960 16961 16962 16963 16964 16965 16966 16967 16968 16969 16970 16971 16972 16973 16974 16975 16976 16977 16978 16979 16980 16981 16982 16983 16984 16985 16986 16987 16988 16989 16990 16991 16992 16993 16994 16995 16996 16997 16998 16999 17000 17001 17002 17003 17004 17005 17006 17007 17008 17009 17010 17011 17012 17013 17014 17015 17016 17017 17018 17019 17020 17021 17022 17023 17024 17025 17026 17027 17028 17029 17030 17031 17032 17033 17034 17035 17036 17037 17038 17039 17040 17041 17042 17043 17044 17045 17046 17047 17048 17049 17050 17051 17052 17053 17054 17055 17056 17057 17058 17059 17060 17061 17062 17063 17064 17065 17066 17067 17068 17069 17070 17071 17072 17073 17074 17075 17076 17077 17078 17079 17080 17081 17082 17083 17084 17085 17086 17087 17088 17089 17090 17091 17092 17093 17094 17095 17096 17097 17098 17099 17100 17101 17102 17103 17104 17105 17106 17107 17108 17109 17110 17111 17112 17113 17114 17115 17116 17117 17118 17119 17120 17121 17122 17123 17124 17125 17126 17127 17128 17129 17130 17131 17132 17133 17134 17135 17136 17137 17138 17139 17140 17141 17142 17143 17144 17145 17146 17147 17148 17149 17150 17151 17152 17153 17154 17155 17156 17157 17158 17159 17160 17161 17162 17163 17164 17165 17166 17167 17168 17169 17170 17171 17172 17173 17174 17175 17176 17177 17178 17179 17180 17181 17182 17183 17184 17185 17186 17187 17188 17189 17190 17191 17192 17193 17194 17195 17196 17197 17198 17199 17200 17201 17202 17203 17204 17205 17206 17207 17208 17209 17210 17211 17212 17213 17214 17215 17216 17217 17218 17219 17220 17221 17222 17223 17224 17225 17226 17227 17228 17229 17230 17231 17232 17233 17234 17235 17236 17237 17238 17239 17240 17241 17242 17243 17244 17245 17246 17247 17248 17249 17250 17251 17252 17253 17254 17255 17256 17257 17258 17259 17260 17261 17262 17263 17264 17265 17266 17267 17268 17269 17270 17271 17272 17273 17274 17275 17276 17277 17278 17279 17280 17281 17282 17283 17284 17285 17286 17287 17288 17289 17290 17291 17292 17293 17294 17295 17296 17297 17298 17299 17300 17301 17302 17303 17304 17305 17306 17307 17308 17309 17310 17311 17312 17313 17314 17315 17316 17317 17318 17319 17320 17321 17322 17323 17324 17325 17326 17327 17328 17329 17330 17331 17332 17333 17334 17335 17336 17337 17338 17339 17340 17341 17342 17343 17344 17345 17346 17347 17348 17349 17350 17351 17352 17353 17354 17355 17356 17357 17358 17359 17360 17361 17362 17363 17364 17365 17366 17367 17368 17369 17370 17371 17372 17373 17374 17375 17376 17377 17378 17379 17380 17381 17382 17383 17384 17385 17386 17387 17388 17389 17390 17391 17392 17393 17394 17395 17396 17397 17398 17399 17400 17401 17402 17403 17404 17405 17406 17407 17408 17409 17410 17411 17412 17413 17414 17415 17416 17417 17418 17419 17420 17421 17422 17423 17424 17425 17426 17427 17428 17429 17430 17431 17432 17433 17434 17435 17436 17437 17438 17439 17440 17441 17442 17443 17444 17445 17446 17447 17448 17449 17450 17451 17452 17453 17454 17455 17456 17457 17458 17459 17460 17461 17462 17463 17464 17465 17466 17467 17468 17469 17470 17471 17472 17473 17474 17475 17476 17477 17478 17479 17480 17481 17482 17483 17484 17485 17486 17487 17488 17489 17490 17491 17492 17493 17494 17495 17496 17497 17498 17499 17500 17501 17502 17503 17504 17505 17506 17507 17508 17509 17510 17511 17512 17513 17514 17515 17516 17517 17518 17519 17520 17521 17522 17523 17524 17525 17526 17527 17528 17529 17530 17531 17532 17533 17534 17535 17536 17537 17538 17539 17540 17541 17542 17543 17544 17545 17546 17547 17548 17549 17550 17551 17552 17553 17554 17555 17556 17557 17558 17559 17560 17561 17562 17563 17564 17565 17566 17567 17568 17569 17570 17571 17572 17573 17574 17575 17576 17577 17578 17579 17580 17581 17582 17583 17584 17585 17586 17587 17588 17589 17590 17591 17592 17593 17594 17595 17596 17597 17598 17599 17600 17601 17602 17603 17604 17605 17606 17607 17608 17609 17610 17611 17612 17613 17614 17615 17616 17617 17618 17619 17620 17621 17622 17623 17624 17625 17626 17627 17628 17629 17630 17631 17632 17633 17634 17635 17636 17637 17638 17639 17640 17641 17642 17643 17644 17645 17646 17647 17648 17649 17650 17651 17652 17653 17654 17655 17656 17657 17658 17659 17660 17661 17662 17663 17664 17665 17666 17667 17668 17669 17670 17671 17672 17673 17674 17675 17676 17677 17678 17679 17680 17681 17682 17683 17684 17685 17686 17687 17688 17689 17690 17691 17692 17693 17694 17695 17696 17697 17698 17699 17700 17701 17702 17703 17704 17705 17706 17707 17708 17709 17710 17711 17712 17713 17714 17715 17716 17717 17718 17719 17720 17721 17722 17723 17724 17725 17726 17727 17728 17729 17730 17731 17732 17733 17734 17735 17736 17737 17738 17739 17740 17741 17742 17743 17744 17745 17746 17747 17748 17749 17750 17751 17752 17753 17754 17755 17756 17757 17758 17759 17760 17761 17762 17763 17764 17765 17766 17767 17768 17769 17770 17771 17772 17773 17774 17775 17776 17777 17778 17779 17780 17781 17782 17783 17784 17785 17786 17787 17788 17789 17790 17791 17792 17793 17794 17795 17796 17797 17798 17799 17800 17801 17802 17803 17804 17805 17806 17807 17808 17809 17810 17811 17812 17813 17814 17815 17816 17817 17818 17819 17820 17821 17822 17823 17824 17825 17826 17827 17828 17829 17830 17831 17832 17833 17834 17835 17836 17837 17838 17839 17840 17841 17842 17843 17844 17845 17846 17847 17848 17849 17850 17851 17852 17853 17854 17855 17856 17857 17858 17859 17860 17861 17862 17863 17864 17865 17866 17867 17868 17869 17870 17871 17872 17873 17874 17875 17876 17877 17878 17879 17880 17881 17882 17883 17884 17885 17886 17887 17888 17889 17890 17891 17892 17893 17894 17895 17896 17897 17898 17899 17900 17901 17902 17903 17904 17905 17906 17907 17908 17909 17910 17911 17912 17913 17914 17915 17916 17917 17918 17919 17920 17921 17922 17923 17924 17925 17926 17927 17928 17929 17930 17931 17932 17933 17934 17935 17936 17937 17938 17939 17940 17941 17942 17943 17944 17945 17946 17947 17948 17949 17950 17951 17952 17953 17954 17955 17956 17957 17958 17959 17960 17961 17962 17963 17964 17965 17966 17967 17968 17969 17970 17971 17972 17973 17974 17975 17976 17977 17978 17979 17980 17981 17982 17983 17984 17985 17986 17987 17988 17989 17990 17991 17992 17993 17994 17995 17996 17997 17998 17999 18000 18001 18002 18003 18004 18005 18006 18007 18008 18009 18010 18011 18012 18013 18014 18015 18016 18017 18018 18019 18020 18021 18022 18023 18024 18025 18026 18027 18028 18029 18030 18031 18032 18033 18034 18035 18036 18037 18038 18039 18040 18041 18042 18043 18044 18045 18046 18047 18048 18049 18050 18051 18052 18053 18054 18055 18056 18057 18058 18059 18060 18061 18062 18063 18064 18065 18066 18067 18068 18069 18070 18071 18072 18073 18074 18075 18076 18077 18078 18079 18080 18081 18082 18083 18084 18085 18086 18087 18088 18089 18090 18091 18092 18093 18094 18095 18096 18097 18098 18099 18100 18101 18102 18103 18104 18105 18106 18107 18108 18109 18110 18111 18112 18113 18114 18115 18116 18117 18118 18119 18120 18121 18122 18123 18124 18125 18126 18127 18128 18129 18130 18131 18132 18133 18134 18135 18136 18137 18138 18139 18140 18141 18142 18143 18144 18145 18146 18147 18148 18149 18150 18151 18152 18153 18154 18155 18156 18157 18158 18159 18160 18161 18162 18163 18164 18165 18166 18167 18168 18169 18170 18171 18172 18173 18174 18175 18176 18177 18178 18179 18180 18181 18182 18183 18184 18185 18186 18187 18188 18189 18190 18191 18192 18193 18194 18195 18196 18197 18198 18199 18200 18201 18202 18203 18204 18205 18206 18207 18208 18209 18210 18211 18212 18213 18214 18215 18216 18217 18218 18219 18220 18221 18222 18223 18224 18225 18226 18227 18228 18229 18230 18231 18232 18233 18234 18235 18236 18237 18238 18239 18240 18241 18242 18243 18244 18245 18246 18247 18248 18249 18250 18251 18252 18253 18254 18255 18256 18257 18258 18259 18260 18261 18262 18263 18264 18265 18266 18267 18268 18269 18270 18271 18272 18273 18274 18275 18276 18277 18278 18279 18280 18281 18282 18283 18284 18285 18286 18287 18288 18289 18290 18291 18292 18293 18294 18295 18296 18297 18298 18299 18300 18301 18302 18303 18304 18305 18306 18307 18308 18309 18310 18311 18312 18313 18314 18315 18316 18317 18318 18319 18320 18321 18322 18323 18324 18325 18326 18327 18328 18329 18330 18331 18332 18333 18334 18335 18336 18337 18338 18339 18340 18341 18342 18343 18344 18345 18346 18347 18348 18349 18350 18351 18352 18353 18354 18355 18356 18357 18358 18359 18360 18361 18362 18363 18364 18365 18366 18367 18368 18369 18370 18371 18372 18373 18374 18375 18376 18377 18378 18379 18380 18381 18382 18383 18384 18385 18386 18387 18388 18389 18390 18391 18392 18393 18394 18395 18396 18397 18398 18399 18400 18401 18402 18403 18404 18405 18406 18407 18408 18409 18410 18411 18412 18413 18414 18415 18416 18417 18418 18419 18420 18421 18422 18423 18424 18425 18426 18427 18428 18429 18430 18431 18432 18433 18434 18435 18436 18437 18438 18439 18440 18441 18442 18443 18444 18445 18446 18447 18448 18449 18450 18451 18452 18453 18454 18455 18456 18457 18458 18459 18460 18461 18462 18463 18464 18465 18466 18467 18468 18469 18470 18471 18472 18473 18474 18475 18476 18477 18478 18479 18480 18481 18482 18483 18484 18485 18486 18487 18488 18489 18490 18491 18492 18493 18494 18495 18496 18497 18498 18499 18500 18501 18502 18503 18504 18505 18506 18507 18508 18509 18510 18511 18512 18513 18514 18515 18516 18517 18518 18519 18520 18521 18522 18523 18524 18525 18526 18527 18528 18529 18530 18531 18532 18533 18534 18535 18536 18537 18538 18539 18540 18541 18542 18543 18544 18545 18546 18547 18548 18549 18550 18551 18552 18553 18554 18555 18556 18557 18558 18559 18560 18561 18562 18563 18564 18565 18566 18567 18568 18569 18570 18571 18572 18573 18574 18575 18576 18577 18578 18579 18580 18581 18582 18583 18584 18585 18586 18587 18588 18589 18590 18591 18592 18593 18594 18595 18596 18597 18598 18599 18600 18601 18602 18603 18604 18605 18606 18607 18608 18609 18610 18611 18612 18613 18614 18615 18616 18617 18618 18619 18620 18621 18622 18623 18624 18625 18626 18627 18628 18629 18630 18631 18632 18633 18634 18635 18636 18637 18638 18639 18640 18641 18642 18643 18644 18645 18646 18647 18648 18649 18650 18651 18652 18653 18654 18655 18656 18657 18658 18659 18660 18661 18662 18663 18664 18665 18666 18667 18668 18669 18670 18671 18672 18673 18674 18675 18676 18677 18678 18679 18680 18681 18682 18683 18684 18685 18686 18687 18688 18689 18690 18691 18692 18693 18694 18695 18696 18697 18698 18699 18700 18701 18702 18703 18704 18705 18706 18707 18708 18709 18710 18711 18712 18713 18714 18715 18716 18717 18718 18719 18720 18721 18722 18723 18724 18725 18726 18727 18728 18729 18730 18731 18732 18733 18734 18735 18736 18737 18738 18739 18740 18741 18742 18743 18744 18745 18746 18747 18748 18749 18750 18751 18752 18753 18754 18755 18756 18757 18758 18759 18760 18761 18762 18763 18764 18765 18766 18767 18768 18769 18770 18771 18772 18773 18774 18775 18776 18777 18778 18779 18780 18781 18782 18783 18784 18785 18786 18787 18788 18789 18790 18791 18792 18793 18794 18795 18796 18797 18798 18799 18800 18801 18802 18803 18804 18805 18806 18807 18808 18809 18810 18811 18812 18813 18814 18815 18816 18817 18818 18819 18820 18821 18822 18823 18824 18825 18826 18827 18828 18829 18830 18831 18832 18833 18834 18835 18836 18837 18838 18839 18840 18841 18842 18843 18844 18845 18846 18847 18848 18849 18850 18851 18852 18853 18854 18855 18856 18857 18858 18859 18860 18861 18862 18863 18864 18865 18866 18867 18868 18869 18870 18871 18872 18873 18874 18875 18876 18877 18878 18879 18880 18881 18882 18883 18884 18885 18886 18887 18888 18889 18890 18891 18892 18893 18894 18895 18896 18897 18898 18899 18900 18901 18902 18903 18904 18905 18906 18907 18908 18909 18910 18911 18912 18913 18914 18915 18916 18917 18918 18919 18920 18921 18922 18923 18924 18925 18926 18927 18928 18929 18930 18931 18932 18933 18934 18935 18936 18937 18938 18939 18940 18941 18942 18943 18944 18945 18946 18947 18948 18949 18950 18951 18952 18953 18954 18955 18956 18957 18958 18959 18960 18961 18962 18963 18964 18965 18966 18967 18968 18969 18970 18971 18972 18973 18974 18975 18976 18977 18978 18979 18980 18981 18982 18983 18984 18985 18986 18987 18988 18989 18990 18991 18992 18993 18994 18995 18996 18997 18998 18999 19000 19001 19002 19003 19004 19005 19006 19007 19008 19009 19010 19011 19012 19013 19014 19015 19016 19017 19018 19019 19020 19021 19022 19023 19024 19025 19026 19027 19028 19029 19030 19031 19032 19033 19034 19035 19036 19037 19038 19039 19040 19041 19042 19043 19044 19045 19046 19047 19048 19049 19050 19051 19052 19053 19054 19055 19056 19057 19058 19059 19060 19061 19062 19063 19064 19065 19066 19067 19068 19069 19070 19071 19072 19073 19074 19075 19076 19077 19078 19079 19080 19081 19082 19083 19084 19085 19086 19087 19088 19089 19090 19091 19092 19093 19094 19095 19096 19097 19098 19099 19100 19101 19102 19103 19104 19105 19106 19107 19108 19109 19110 19111 19112 19113 19114 19115 19116 19117 19118 19119 19120 19121 19122 19123 19124 19125 19126 19127 19128 19129 19130 19131 19132 19133 19134 19135 19136 19137 19138 19139 19140 19141 19142 19143 19144 19145 19146 19147 19148 19149 19150 19151 19152 19153 19154 19155 19156 19157 19158 19159 19160 19161 19162 19163 19164 19165 19166 19167 19168 19169 19170 19171 19172 19173 19174 19175 19176 19177 19178 19179 19180 19181 19182 19183 19184 19185 19186 19187 19188 19189 19190 19191 19192 19193 19194 19195 19196 19197 19198 19199 19200 19201 19202 19203 19204 19205 19206 19207 19208 19209 19210 19211 19212 19213 19214 19215 19216 19217 19218 19219 19220 19221 19222 19223 19224 19225 19226 19227 19228 19229 19230 19231 19232 19233 19234 19235 19236 19237 19238 19239 19240 19241 19242 19243 19244 19245 19246 19247 19248 19249 19250 19251 19252 19253 19254 19255 19256 19257 19258 19259 19260 19261 19262 19263 19264 19265 19266 19267 19268 19269 19270 19271 19272 19273 19274 19275 19276 19277 19278 19279 19280 19281 19282 19283 19284 19285 19286 19287 19288 19289 19290 19291 19292 19293 19294 19295 19296 19297 19298 19299 19300 19301 19302 19303 19304 19305 19306 19307 19308 19309 19310 19311 19312 19313 19314 19315 19316 19317 19318 19319 19320 19321 19322 19323 19324 19325 19326 19327 19328 19329 19330 19331 19332 19333 19334 19335 19336 19337 19338 19339 19340 19341 19342 19343 19344 19345 19346 19347 19348 19349 19350 19351 19352 19353 19354 19355 19356 19357 19358 19359 19360 19361 19362 19363 19364 19365 19366 19367 19368 19369 19370 19371 19372 19373 19374 19375 19376 19377 19378 19379 19380 19381 19382 19383 19384 19385 19386 19387 19388 19389 19390 19391 19392 19393 19394 19395 19396 19397 19398 19399 19400 19401 19402 19403 19404 19405 19406 19407 19408 19409 19410 19411 19412 19413 19414 19415 19416 19417 19418 19419 19420 19421 19422 19423 19424 19425 19426 19427 19428 19429 19430 19431 19432 19433 19434 19435 19436 19437 19438 19439 19440 19441 19442 19443 19444 19445 19446 19447 19448 19449 19450 19451 19452 19453 19454 19455 19456 19457 19458 19459 19460 19461 19462 19463 19464 19465 19466 19467 19468 19469 19470 19471 19472 19473 19474 19475 19476 19477 19478 19479 19480 19481 19482 19483 19484 19485 19486 19487 19488 19489 19490 19491 19492 19493 19494 19495 19496 19497 19498 19499 19500 19501 19502 19503 19504 19505 19506 19507 19508 19509 19510 19511 19512 19513 19514 19515 19516 19517 19518 19519 19520 19521 19522 19523 19524 19525 19526 19527 19528 19529 19530 19531 19532 19533 19534 19535 19536 19537 19538 19539 19540 19541 19542 19543 19544 19545 19546 19547 19548 19549 19550 19551 19552 19553 19554 19555 19556 19557 19558 19559 19560 19561 19562 19563 19564 19565 19566 19567 19568 19569 19570 19571 19572 19573 19574 19575 19576 19577 19578 19579 19580 19581 19582 19583 19584 19585 19586 19587 19588 19589 19590 19591 19592 19593 19594 19595 19596 19597 19598 19599 19600 19601 19602 19603 19604 19605 19606 19607 19608 19609 19610 19611 19612 19613 19614 19615 19616 19617 19618 19619 19620 19621 19622 19623 19624 19625 19626 19627 19628 19629 19630 19631 19632 19633 19634 19635 19636 19637 19638 19639 19640 19641 19642 19643 19644 19645 19646 19647 19648 19649 19650 19651 19652 19653 19654 19655 19656 19657 19658 19659 19660 19661 19662 19663 19664 19665 19666 19667 19668 19669 19670 19671 19672 19673 19674 19675 19676 19677 19678 19679 19680 19681 19682 19683 19684 19685 19686 19687 19688 19689 19690 19691 19692 19693 19694 19695 19696 19697 19698 19699 19700 19701 19702 19703 19704 19705 19706 19707 19708 19709 19710 19711 19712 19713 19714 19715 19716 19717 19718 19719 19720 19721 19722 19723 19724 19725 19726 19727 19728 19729 19730 19731 19732 19733 19734 19735 19736 19737 19738 19739 19740 19741 19742 19743 19744 19745 19746 19747 19748 19749 19750 19751 19752 19753 19754 19755 19756 19757 19758 19759 19760 19761 19762 19763 19764 19765 19766 19767 19768 19769 19770 19771 19772 19773 19774 19775 19776 19777 19778 19779 19780 19781 19782 19783 19784 19785 19786 19787 19788 19789 19790 19791 19792 19793 19794 19795 19796 19797 19798 19799 19800 19801 19802 19803 19804 19805 19806 19807 19808 19809 19810 19811 19812 19813 19814 19815 19816 19817 19818 19819 19820 19821 19822 19823 19824 19825 19826 19827 19828 19829 19830 19831 19832 19833 19834 19835 19836 19837 19838 19839 19840 19841 19842 19843 19844 19845 19846 19847 19848 19849 19850 19851 19852 19853 19854 19855 19856 19857 19858 19859 19860 19861 19862 19863 19864 19865 19866 19867 19868 19869 19870 19871 19872 19873 19874 19875 19876 19877 19878 19879 19880 19881 19882 19883 19884 19885 19886 19887 19888 19889 19890 19891 19892 19893 19894 19895 19896 19897 19898 19899 19900 19901 19902 19903 19904 19905 19906 19907 19908 19909 19910 19911 19912 19913 19914 19915 19916 19917 19918 19919 19920 19921 19922 19923 19924 19925 19926 19927 19928 19929 19930 19931 19932 19933 19934 19935 19936 19937 19938 19939 19940 19941 19942 19943 19944 19945 19946 19947 19948 19949 19950 19951 19952 19953 19954 19955 19956 19957 19958 19959 19960 19961 19962 19963 19964 19965 19966 19967 19968 19969 19970 19971 19972 19973 19974 19975 19976 19977 19978 19979 19980 19981 19982 19983 19984 19985 19986 19987 19988 19989 19990 19991 19992 19993 19994 19995 19996 19997 19998 19999 20000 20001 20002 20003 20004 20005 20006 20007 20008 20009 20010 20011 20012 20013 20014 20015 20016 20017 20018 20019 20020 20021 20022 20023 20024 20025 20026 20027 20028 20029 20030 20031 20032 20033 20034 20035 20036 20037 20038 20039 20040 20041 20042 20043 20044 20045 20046 20047 20048 20049 20050 20051 20052 20053 20054 20055 20056 20057 20058 20059 20060 20061 20062 20063 20064 20065 20066 20067 20068 20069 20070 20071 20072 20073 20074 20075 20076 20077 20078 20079 20080 20081 20082 20083 20084 20085 20086 20087 20088 20089 20090 20091 20092 20093 20094 20095 20096 20097 20098 20099 20100 20101 20102 20103 20104 20105 20106 20107 20108 20109 20110 20111 20112 20113 20114 20115 20116 20117 20118 20119 20120 20121 20122 20123 20124 20125 20126 20127 20128 20129 20130 20131 20132 20133 20134 20135 20136 20137 20138 20139 20140 20141 20142 20143 20144 20145 20146 20147 20148 20149 20150 20151 20152 20153 20154 20155 20156 20157 20158 20159 20160 20161 20162 20163 20164 20165 20166 20167 20168 20169 20170 20171 20172 20173 20174 20175 20176 20177 20178 20179 20180 20181 20182 20183 20184 20185 20186 20187 20188 20189 20190 20191 20192 20193 20194 20195 20196 20197 20198 20199 20200 20201 20202 20203 20204 20205 20206 20207 20208 20209 20210 20211 20212 20213 20214 20215 20216 20217 20218 20219 20220 20221 20222 20223 20224 20225 20226 20227 20228 20229 20230 20231 20232 20233 20234 20235 20236 20237 20238 20239 20240 20241 20242 20243 20244 20245 20246 20247 20248 20249 20250 20251 20252 20253 20254 20255 20256 20257 20258 20259 20260 20261 20262 20263 20264 20265 20266 20267 20268 20269 20270 20271 20272 20273 20274 20275 20276 20277 20278 20279 20280 20281 20282 20283 20284 20285 20286 20287 20288 20289 20290 20291 20292 20293 20294 20295 20296 20297 20298 20299 20300 20301 20302 20303 20304 20305 20306 20307 20308 20309 20310 20311 20312 20313 20314 20315 20316 20317 20318 20319 20320 20321 20322 20323 20324 20325 20326 20327 20328 20329 20330 20331 20332 20333 20334 20335 20336 20337 20338 20339 20340 20341 20342 20343 20344 20345 20346 20347 20348 20349 20350 20351 20352 20353 20354 20355 20356 20357 20358 20359 20360 20361 20362 20363 20364 20365 20366 20367 20368 20369 20370 20371 20372 20373 20374 20375 20376 20377 20378 20379 20380 20381 20382 20383 20384 20385 20386 20387 20388 20389 20390 20391 20392 20393 20394 20395 20396 20397 20398 20399 20400 20401 20402 20403 20404 20405 20406 20407 20408 20409 20410 20411 20412 20413 20414 20415 20416 20417 20418 20419 20420 20421 20422 20423 20424 20425 20426 20427 20428 20429 20430 20431 20432 20433 20434 20435 20436 20437 20438 20439 20440 20441 20442 20443 20444 20445 20446 20447 20448 20449 20450 20451 20452 20453 20454 20455 20456 20457 20458 20459 20460 20461 20462 20463 20464 20465 20466 20467 20468 20469 20470 20471 20472 20473 20474 20475 20476 20477 20478 20479 20480 20481 20482 20483 20484 20485 20486 20487 20488 20489 20490 20491 20492 20493 20494 20495 20496 20497 20498 20499 20500 20501 20502 20503 20504 20505 20506 20507 20508 20509 20510 20511 20512 20513 20514 20515 20516 20517 20518 20519 20520 20521 20522 20523 20524 20525 20526 20527 20528 20529 20530 20531 20532 20533 20534 20535 20536 20537 20538 20539 20540 20541 20542 20543 20544 20545 20546 20547 20548 20549 20550 20551 20552 20553 20554 20555 20556 20557 20558 20559 20560 20561 20562 20563 20564 20565 20566 20567 20568 20569 20570 20571 20572 20573 20574 20575 20576 20577 20578 20579 20580 20581 20582 20583 20584 20585 20586 20587 20588 20589 20590 20591 20592 20593 20594 20595 20596 20597 20598 20599 20600 20601 20602 20603 20604 20605 20606 20607 20608 20609 20610 20611 20612 20613 20614 20615 20616 20617 20618 20619 20620 20621 20622 20623 20624 20625 20626 20627 20628 20629 20630 20631 20632 20633 20634 20635 20636 20637 20638 20639 20640 20641 20642 20643 20644 20645 20646 20647 20648 20649 20650 20651 20652 20653 20654 20655 20656 20657 20658 20659 20660 20661 20662 20663 20664 20665 20666 20667 20668 20669 20670 20671 20672 20673 20674 20675 20676 20677 20678 20679 20680 20681 20682 20683 20684 20685 20686 20687 20688 20689 20690 20691 20692 20693 20694 20695 20696 20697 20698 20699 20700 20701 20702 20703 20704 20705 20706 20707 20708 20709 20710 20711 20712 20713 20714 20715 20716 20717 20718 20719 20720 20721 20722 20723 20724 20725 20726 20727 20728 20729 20730 20731 20732 20733 20734 20735 20736 20737 20738 20739 20740 20741 20742 20743 20744 20745 20746 20747 20748 20749 20750 20751 20752 20753 20754 20755 20756 20757 20758 20759 20760 20761 20762 20763 20764 20765 20766 20767 20768 20769 20770 20771 20772 20773 20774 20775 20776 20777 20778 20779 20780 20781 20782 20783 20784 20785 20786 20787 20788 20789 20790 20791 20792 20793 20794 20795 20796 20797 20798 20799 20800 20801 20802 20803 20804 20805 20806 20807 20808 20809 20810 20811 20812 20813 20814 20815 20816 20817 20818 20819 20820 20821 20822 20823 20824 20825 20826 20827 20828 20829 20830 20831 20832 20833 20834 20835 20836 20837 20838 20839 20840 20841 20842 20843 20844 20845 20846 20847 20848 20849 20850 20851 20852 20853 20854 20855 20856 20857 20858 20859 20860 20861 20862 20863 20864 20865 20866 20867 20868 20869 20870 20871 20872 20873 20874 20875 20876 20877 20878 20879 20880 20881 20882 20883 20884 20885 20886 20887 20888 20889 20890 20891 20892 20893 20894 20895 20896 20897 20898 20899 20900 20901 20902 20903 20904 20905 20906 20907 20908 20909 20910 20911 20912 20913 20914 20915 20916 20917 20918 20919 20920 20921 20922 20923 20924 20925 20926 20927 20928 20929 20930 20931 20932 20933 20934 20935 20936 20937 20938 20939 20940 20941 20942 20943 20944 20945 20946 20947 20948 20949 20950 20951 20952 20953 20954 20955 20956 20957 20958 20959 20960 20961 20962 20963 20964 20965 20966 20967 20968 20969 20970 20971 20972 20973 20974 20975 20976 20977 20978 20979 20980 20981 20982 20983 20984 20985 20986 20987 20988 20989 20990 20991 20992 20993 20994 20995 20996 20997 20998 20999 21000 21001 21002 21003 21004 21005 21006 21007 21008 21009 21010 21011 21012 21013 21014 21015 21016 21017 21018 21019 21020 21021 21022 21023 21024 21025 21026 21027 21028 21029 21030 21031 21032 21033 21034 21035 21036 21037 21038 21039 21040 21041 21042 21043 21044 21045 21046 21047 21048 21049 21050 21051 21052 21053 21054 21055 21056 21057 21058 21059 21060 21061 21062 21063 21064 21065 21066 21067 21068 21069 21070 21071 21072 21073 21074 21075 21076 21077 21078 21079 21080 21081 21082 21083 21084 21085 21086 21087 21088 21089 21090 21091 21092 21093 21094 21095 21096 21097 21098 21099 21100 21101 21102 21103 21104 21105 21106 21107 21108 21109 21110 21111 21112 21113 21114 21115 21116 21117 21118 21119 21120 21121 21122 21123 21124 21125 21126 21127 21128 21129 21130 21131 21132 21133 21134 21135 21136 21137 21138 21139 21140 21141 21142 21143 21144 21145 21146 21147 21148 21149 21150 21151 21152 21153 21154 21155 21156 21157 21158 21159 21160 21161 21162 21163 21164 21165 21166 21167 21168 21169 21170 21171 21172 21173 21174 21175 21176 21177 21178 21179 21180 21181 21182 21183 21184 21185 21186 21187 21188 21189 21190 21191 21192 21193 21194 21195 21196 21197 21198 21199 21200 21201 21202 21203 21204 21205 21206 21207 21208 21209 21210 21211 21212 21213 21214 21215 21216 21217 21218 21219 21220 21221 21222 21223 21224 21225 21226 21227 21228 21229 21230 21231 21232 21233 21234 21235 21236 21237 21238 21239 21240 21241 21242 21243 21244 21245 21246 21247 21248 21249 21250 21251 21252 21253 21254 21255 21256 21257 21258 21259 21260 21261 21262 21263 21264 21265 21266 21267 21268 21269 21270 21271 21272 21273 21274 21275 21276 21277 21278 21279 21280 21281 21282 21283 21284 21285 21286 21287 21288 21289 21290 21291 21292 21293 21294 21295 21296 21297 21298 21299 21300 21301 21302 21303 21304 21305 21306 21307 21308 21309 21310 21311 21312 21313 21314 21315 21316 21317 21318 21319 21320 21321 21322 21323 21324 21325 21326 21327 21328 21329 21330 21331 21332 21333 21334 21335 21336 21337 21338 21339 21340 21341 21342 21343 21344 21345 21346 21347 21348 21349 21350 21351 21352 21353 21354 21355 21356 21357 21358 21359 21360 21361 21362 21363 21364 21365 21366 21367 21368 21369 21370 21371 21372 21373 21374 21375 21376 21377 21378 21379 21380 21381 21382 21383 21384 21385 21386 21387 21388 21389 21390 21391 21392 21393 21394 21395 21396 21397 21398 21399 21400 21401 21402 21403 21404 21405 21406 21407 21408 21409 21410 21411 21412 21413 21414 21415 21416 21417 21418 21419 21420 21421 21422 21423 21424 21425 21426 21427 21428 21429 21430 21431 21432 21433 21434 21435 21436 21437 21438 21439 21440 21441 21442 21443 21444 21445 21446 21447 21448 21449 21450 21451 21452 21453 21454 21455 21456 21457 21458 21459 21460 21461 21462 21463 21464 21465 21466 21467 21468 21469 21470 21471 21472 21473 21474 21475 21476 21477 21478 21479 21480 21481 21482 21483 21484 21485 21486 21487 21488 21489 21490 21491 21492 21493 21494 21495 21496 21497 21498 21499 21500 21501 21502 21503 21504 21505 21506 21507 21508 21509 21510 21511 21512 21513 21514 21515 21516 21517 21518 21519 21520 21521 21522 21523 21524 21525 21526 21527 21528 21529 21530 21531 21532 21533 21534 21535 21536 21537 21538 21539 21540 21541 21542 21543 21544 21545 21546 21547 21548 21549 21550 21551 21552 21553 21554 21555 21556 21557 21558 21559 21560 21561 21562 21563 21564 21565 21566 21567 21568 21569 21570 21571 21572 21573 21574 21575 21576 21577 21578 21579 21580 21581 21582 21583 21584 21585 21586 21587 21588 21589 21590 21591 21592 21593 21594 21595 21596 21597 21598 21599 21600 21601 21602 21603 21604 21605 21606 21607 21608 21609 21610 21611 21612 21613 21614 21615 21616 21617 21618 21619 21620 21621 21622 21623 21624 21625 21626 21627 21628 21629 21630 21631 21632 21633 21634 21635 21636 21637 21638 21639 21640 21641 21642 21643 21644 21645 21646 21647 21648 21649 21650 21651 21652 21653 21654 21655 21656 21657 21658 21659 21660 21661 21662 21663 21664 21665 21666 21667 21668 21669 21670 21671 21672 21673 21674 21675 21676 21677 21678 21679 21680 21681 21682 21683 21684 21685 21686 21687 21688 21689 21690 21691 21692 21693 21694 21695 21696 21697 21698 21699 21700 21701 21702 21703 21704 21705 21706 21707 21708 21709 21710 21711 21712 21713 21714 21715 21716 21717 21718 21719 21720 21721 21722 21723 21724 21725 21726 21727 21728 21729 21730 21731 21732 21733 21734 21735 21736 21737 21738 21739 21740 21741 21742 21743 21744 21745 21746 21747 21748 21749 21750 21751 21752 21753 21754 21755 21756 21757 21758 21759 21760 21761 21762 21763 21764 21765 21766 21767 21768 21769 21770 21771 21772 21773 21774 21775 21776 21777 21778 21779 21780 21781 21782 21783 21784 21785 21786 21787 21788 21789 21790 21791 21792 21793 21794 21795 21796 21797 21798 21799 21800 21801 21802 21803 21804 21805 21806 21807 21808 21809 21810 21811 21812 21813 21814 21815 21816 21817 21818 21819 21820 21821 21822 21823 21824 21825 21826 21827 21828 21829 21830 21831 21832 21833 21834 21835 21836 21837 21838 21839 21840 21841 21842 21843 21844 21845 21846 21847 21848 21849 21850 21851 21852 21853 21854 21855 21856 21857 21858 21859 21860 21861 21862 21863 21864 21865 21866 21867 21868 21869 21870 21871 21872 21873 21874 21875 21876 21877 21878 21879 21880 21881 21882 21883 21884 21885 21886 21887 21888 21889 21890 21891 21892 21893 21894 21895 21896 21897 21898 21899 21900 21901 21902 21903 21904 21905 21906 21907 21908 21909 21910 21911 21912 21913 21914 21915 21916 21917 21918 21919 21920 21921 21922 21923 21924 21925 21926 21927 21928 21929 21930 21931 21932 21933 21934 21935 21936 21937 21938 21939 21940 21941 21942 21943 21944 21945 21946 21947 21948 21949 21950 21951 21952 21953 21954 21955 21956 21957 21958 21959 21960 21961 21962 21963 21964 21965 21966 21967 21968 21969 21970 21971 21972 21973 21974 21975 21976 21977 21978 21979 21980 21981 21982 21983 21984 21985 21986 21987 21988 21989 21990 21991 21992 21993 21994 21995 21996 21997 21998 21999 22000 22001 22002 22003 22004 22005 22006 22007 22008 22009 22010 22011 22012 22013 22014 22015 22016 22017 22018 22019 22020 22021 22022 22023 22024 22025 22026 22027 22028 22029 22030 22031 22032 22033 22034 22035 22036 22037 22038 22039 22040 22041 22042 22043 22044 22045 22046 22047 22048 22049 22050 22051 22052 22053 22054 22055 22056 22057 22058 22059 22060 22061 22062 22063 22064 22065 22066 22067 22068 22069 22070 22071 22072 22073 22074 22075 22076 22077 22078 22079 22080 22081 22082 22083 22084 22085 22086 22087 22088 22089 22090 22091 22092 22093 22094 22095 22096 22097 22098 22099 22100 22101 22102 22103 22104 22105 22106 22107 22108 22109 22110 22111 22112 22113 22114 22115 22116 22117 22118 22119 22120 22121 22122 22123 22124 22125 22126 22127 22128 22129 22130 22131 22132 22133 22134 22135 22136 22137 22138 22139 22140 22141 22142 22143 22144 22145 22146 22147 22148 22149 22150 22151 22152 22153 22154 22155 22156 22157 22158 22159 22160 22161 22162 22163 22164 22165 22166 22167 22168 22169 22170 22171 22172 22173 22174 22175 22176 22177 22178 22179 22180 22181 22182 22183 22184 22185 22186 22187 22188 22189 22190 22191 22192 22193 22194 22195 22196 22197 22198 22199 22200 22201 22202 22203 22204 22205 22206 22207 22208 22209 22210 22211 22212 22213 22214 22215 22216 22217 22218 22219 22220 22221 22222 22223 22224 22225 22226 22227 22228 22229 22230 22231 22232 22233 22234 22235 22236 22237 22238 22239 22240 22241 22242 22243 22244 22245 22246 22247 22248 22249 22250 22251 22252 22253 22254 22255 22256 22257 22258 22259 22260 22261 22262 22263 22264 22265 22266 22267 22268 22269 22270 22271 22272 22273 22274 22275 22276 22277 22278 22279 22280 22281 22282 22283 22284 22285 22286 22287 22288 22289 22290 22291 22292 22293 22294 22295 22296 22297 22298 22299 22300 22301 22302 22303 22304 22305 22306 22307 22308 22309 22310 22311 22312 22313 22314 22315 22316 22317 22318 22319 22320 22321 22322 22323 22324 22325 22326 22327 22328 22329 22330 22331 22332 22333 22334 22335 22336 22337 22338 22339 22340 22341 22342 22343 22344 22345 22346 22347 22348 22349 22350 22351 22352 22353 22354 22355 22356 22357 22358 22359 22360 22361 22362 22363 22364 22365 22366 22367 22368 22369 22370 22371 22372 22373 22374 22375 22376 22377 22378 22379 22380 22381 22382 22383 22384 22385 22386 22387 22388 22389 22390 22391 22392 22393 22394 22395 22396 22397 22398 22399 22400 22401 22402 22403 22404 22405 22406 22407 22408 22409 22410 22411 22412 22413 22414 22415 22416 22417 22418 22419 22420 22421 22422 22423 22424 22425 22426 22427 22428 22429 22430 22431 22432 22433 22434 22435 22436 22437 22438 22439 22440 22441 22442 22443 22444 22445 22446 22447 22448 22449 22450 22451 22452 22453 22454 22455 22456 22457 22458 22459 22460 22461 22462 22463 22464 22465 22466 22467 22468 22469 22470 22471 22472 22473 22474 22475 22476 22477 22478 22479 22480 22481 22482 22483 22484 22485 22486 22487 22488 22489 22490 22491 22492 22493 22494 22495 22496 22497 22498 22499 22500 22501 22502 22503 22504 22505 22506 22507 22508 22509 22510 22511 22512 22513 22514 22515 22516 22517 22518 22519 22520 22521 22522 22523 22524 22525 22526 22527 22528 22529 22530 22531 22532 22533 22534 22535 22536 22537 22538 22539 22540 22541 22542 22543 22544 22545 22546 22547 22548 22549 22550 22551 22552 22553 22554 22555 22556 22557 22558 22559 22560 22561 22562 22563 22564 22565 22566 22567 22568 22569 22570 22571 22572 22573 22574 22575 22576 22577 22578 22579 22580 22581 22582 22583 22584 22585 22586 22587 22588 22589 22590 22591 22592 22593 22594 22595 22596 22597 22598 22599 22600 22601 22602 22603 22604 22605 22606 22607 22608 22609 22610 22611 22612 22613 22614 22615 22616 22617 22618 22619 22620 22621 22622 22623 22624 22625 22626 22627 22628 22629 22630 22631 22632 22633 22634 22635 22636 22637 22638 22639 22640 22641 22642 22643 22644 22645 22646 22647 22648 22649 22650 22651 22652 22653 22654 22655 22656 22657 22658 22659 22660 22661 22662 22663 22664 22665 22666 22667 22668 22669 22670 22671 22672 22673 22674 22675 22676 22677 22678 22679 22680 22681 22682 22683 22684 22685 22686 22687 22688 22689 22690 22691 22692 22693 22694 22695 22696 22697 22698 22699 22700 22701 22702 22703 22704 22705 22706 22707 22708 22709 22710 22711 22712 22713 22714 22715 22716 22717 22718 22719 22720 22721 22722 22723 22724 22725 22726 22727 22728 22729 22730 22731 22732 22733 22734 22735 22736 22737 22738 22739 22740 22741 22742 22743 22744 22745 22746 22747 22748 22749 22750 22751 22752 22753 22754 22755 22756 22757 22758 22759 22760 22761 22762 22763 22764 22765 22766 22767 22768 22769 22770 22771 22772 22773 22774 22775 22776 22777 22778 22779 22780 22781 22782 22783 22784 22785 22786 22787 22788 22789 22790 22791 22792 22793 22794 22795 22796 22797 22798 22799 22800 22801 22802 22803 22804 22805 22806 22807 22808 22809 22810 22811 22812 22813 22814 22815 22816 22817 22818 22819 22820 22821 22822 22823 22824 22825 22826 22827 22828 22829 22830 22831 22832 22833 22834 22835 22836 22837 22838 22839 22840 22841 22842 22843 22844 22845 22846 22847 22848 22849 22850 22851 22852 22853 22854 22855 22856 22857 22858 22859 22860 22861 22862 22863 22864 22865 22866 22867 22868 22869 22870 22871 22872 22873 22874 22875 22876 22877 22878 22879 22880 22881 22882 22883 22884 22885 22886 22887 22888 22889 22890 22891 22892 22893 22894 22895 22896 22897 22898 22899 22900 22901 22902 22903 22904 22905 22906 22907 22908 22909 22910 22911 22912 22913 22914 22915 22916 22917 22918 22919 22920 22921 22922 22923 22924 22925 22926 22927 22928 22929 22930 22931 22932 22933 22934 22935 22936 22937 22938 22939 22940 22941 22942 22943 22944 22945 22946 22947 22948 22949 22950 22951 22952 22953 22954 22955 22956 22957 22958 22959 22960 22961 22962 22963 22964 22965 22966 22967 22968 22969 22970 22971 22972 22973 22974 22975 22976 22977 22978 22979 22980 22981 22982 22983 22984 22985 22986 22987 22988 22989 22990 22991 22992 22993 22994 22995 22996 22997 22998 22999 23000 23001 23002 23003 23004 23005 23006 23007 23008 23009 23010 23011 23012 23013 23014 23015 23016 23017 23018 23019 23020 23021 23022 23023 23024 23025 23026 23027 23028 23029 23030 23031 23032 23033 23034 23035 23036 23037 23038 23039 23040 23041 23042 23043 23044 23045 23046 23047 23048 23049 23050 23051 23052 23053 23054 23055 23056 23057 23058 23059 23060 23061 23062 23063 23064 23065 23066 23067 23068 23069 23070 23071 23072 23073 23074 23075 23076 23077 23078 23079 23080 23081 23082 23083 23084 23085 23086 23087 23088 23089 23090 23091 23092 23093 23094 23095 23096 23097 23098 23099 23100 23101 23102 23103 23104 23105 23106 23107 23108 23109 23110 23111 23112 23113 23114 23115 23116 23117 23118 23119 23120 23121 23122 23123 23124 23125 23126 23127 23128 23129 23130 23131 23132 23133 23134 23135 23136 23137 23138 23139 23140 23141 23142 23143 23144 23145 23146 23147 23148 23149 23150 23151 23152 23153 23154 23155 23156 23157 23158 23159 23160 23161 23162 23163 23164 23165 23166 23167 23168 23169 23170 23171 23172 23173 23174 23175 23176 23177 23178 23179 23180 23181 23182 23183 23184 23185 23186 23187 23188 23189 23190 23191 23192 23193 23194 23195 23196 23197 23198 23199 23200 23201 23202 23203 23204 23205 23206 23207 23208 23209 23210 23211 23212 23213 23214 23215 23216 23217 23218 23219 23220 23221 23222 23223 23224 23225 23226 23227 23228 23229 23230 23231 23232 23233 23234 23235 23236 23237 23238 23239 23240 23241 23242 23243 23244 23245 23246 23247 23248 23249 23250 23251 23252 23253 23254 23255 23256 23257 23258 23259 23260 23261 23262 23263 23264 23265 23266 23267 23268 23269 23270 23271 23272 23273 23274 23275 23276 23277 23278 23279 23280 23281 23282 23283 23284 23285 23286 23287 23288 23289 23290 23291 23292 23293 23294 23295 23296 23297 23298 23299 23300 23301 23302 23303 23304 23305 23306 23307 23308 23309 23310 23311 23312 23313 23314 23315 23316 23317 23318 23319 23320 23321 23322 23323 23324 23325 23326 23327 23328 23329 23330 23331 23332 23333 23334 23335 23336 23337 23338 23339 23340 23341 23342 23343 23344 23345 23346 23347 23348 23349 23350 23351 23352 23353 23354 23355 23356 23357 23358 23359 23360 23361 23362 23363 23364 23365 23366 23367 23368 23369 23370 23371 23372 23373 23374 23375 23376 23377 23378 23379 23380 23381 23382 23383 23384 23385 23386 23387 23388 23389 23390 23391 23392 23393 23394 23395 23396 23397 23398 23399 23400 23401 23402 23403 23404 23405 23406 23407 23408 23409 23410 23411 23412 23413 23414 23415 23416 23417 23418 23419 23420 23421 23422 23423 23424 23425 23426 23427 23428 23429 23430 23431 23432 23433 23434 23435 23436 23437 23438 23439 23440 23441 23442 23443 23444 23445 23446 23447 23448 23449 23450 23451 23452 23453 23454 23455 23456 23457 23458 23459 23460 23461 23462 23463 23464 23465 23466 23467 23468 23469 23470 23471 23472 23473 23474 23475 23476 23477 23478 23479 23480 23481 23482 23483 23484 23485 23486 23487 23488 23489 23490 23491 23492 23493 23494 23495 23496 23497 23498 23499 23500 23501 23502 23503 23504 23505 23506 23507 23508 23509 23510 23511 23512 23513 23514 23515 23516 23517 23518 23519 23520 23521 23522 23523 23524 23525 23526 23527 23528 23529 23530 23531 23532 23533 23534 23535 23536 23537 23538 23539 23540 23541 23542 23543 23544 23545 23546 23547 23548 23549 23550 23551 23552 23553 23554 23555 23556 23557 23558 23559 23560 23561 23562 23563 23564 23565 23566 23567 23568 23569 23570 23571 23572 23573 23574 23575 23576 23577 23578 23579 23580 23581 23582 23583 23584 23585 23586 23587 23588 23589 23590 23591 23592 23593 23594 23595 23596 23597 23598 23599 23600 23601 23602 23603 23604 23605 23606 23607 23608 23609 23610 23611 23612 23613 23614 23615 23616 23617 23618 23619 23620 23621 23622 23623 23624 23625 23626 23627 23628 23629 23630 23631 23632 23633 23634 23635 23636 23637 23638 23639 23640 23641 23642 23643 23644 23645 23646 23647 23648 23649 23650 23651 23652 23653 23654 23655 23656 23657 23658 23659 23660 23661 23662 23663 23664 23665 23666 23667 23668 23669 23670 23671 23672 23673 23674 23675 23676 23677 23678 23679 23680 23681 23682 23683 23684 23685 23686 23687 23688 23689 23690 23691 23692 23693 23694 23695 23696 23697 23698 23699 23700 23701 23702 23703 23704 23705 23706 23707 23708 23709 23710 23711 23712 23713 23714 23715 23716 23717 23718 23719 23720 23721 23722 23723 23724 23725 23726 23727 23728 23729 23730 23731 23732 23733 23734 23735 23736 23737 23738 23739 23740 23741 23742 23743 23744 23745 23746 23747 23748 23749 23750 23751 23752 23753 23754 23755 23756 23757 23758 23759 23760 23761 23762 23763 23764 23765 23766 23767 23768 23769 23770 23771 23772 23773 23774 23775 23776 23777 23778 23779 23780 23781 23782 23783 23784 23785 23786 23787 23788 23789 23790 23791 23792 23793 23794 23795 23796 23797 23798 23799 23800 23801 23802 23803 23804 23805 23806 23807 23808 23809 23810 23811 23812 23813 23814 23815 23816 23817 23818 23819 23820 23821 23822 23823 23824 23825 23826 23827 23828 23829 23830 23831 23832 23833 23834 23835 23836 23837 23838 23839 23840 23841 23842 23843 23844 23845 23846 23847 23848 23849 23850 23851 23852 23853 23854 23855 23856 23857 23858 23859 23860 23861 23862 23863 23864 23865 23866 23867 23868 23869 23870 23871 23872 23873 23874 23875 23876 23877 23878 23879 23880 23881 23882 23883 23884 23885 23886 23887 23888 23889 23890 23891 23892 23893 23894 23895 23896 23897 23898 23899 23900 23901 23902 23903 23904 23905 23906 23907 23908 23909 23910 23911 23912 23913 23914 23915 23916 23917 23918 23919 23920 23921 23922 23923 23924 23925 23926 23927 23928 23929 23930 23931 23932 23933 23934 23935 23936 23937 23938 23939 23940 23941 23942 23943 23944 23945 23946 23947 23948 23949 23950 23951 23952 23953 23954 23955 23956 23957 23958 23959 23960 23961 23962 23963 23964 23965 23966 23967 23968 23969 23970 23971 23972 23973 23974 23975 23976 23977 23978 23979 23980 23981 23982 23983 23984 23985 23986 23987 23988 23989 23990 23991 23992 23993 23994 23995 23996 23997 23998 23999 24000 24001 24002 24003 24004 24005 24006 24007 24008 24009 24010 24011 24012 24013 24014 24015 24016 24017 24018 24019 24020 24021 24022 24023 24024 24025 24026 24027 24028 24029 24030 24031 24032 24033 24034 24035 24036 24037 24038 24039 24040 24041 24042 24043 24044 24045 24046 24047 24048 24049 24050 24051 24052 24053 24054 24055 24056 24057 24058 24059 24060 24061 24062 24063 24064 24065 24066 24067 24068 24069 24070 24071 24072 24073 24074 24075 24076 24077 24078 24079 24080 24081 24082 24083 24084 24085 24086 24087 24088 24089 24090 24091 24092 24093 24094 24095 24096 24097 24098 24099 24100 24101 24102 24103 24104 24105 24106 24107 24108 24109 24110 24111 24112 24113 24114 24115 24116 24117 24118 24119 24120 24121 24122 24123 24124 24125 24126 24127 24128 24129 24130 24131 24132 24133 24134 24135 24136 24137 24138 24139 24140 24141 24142 24143 24144 24145 24146 24147 24148 24149 24150 24151 24152 24153 24154 24155 24156 24157 24158 24159 24160 24161 24162 24163 24164 24165 24166 24167 24168 24169 24170 24171 24172 24173 24174 24175 24176 24177 24178 24179 24180 24181 24182 24183 24184 24185 24186 24187 24188 24189 24190 24191 24192 24193 24194 24195 24196 24197 24198 24199 24200 24201 24202 24203 24204 24205 24206 24207 24208 24209 24210 24211 24212 24213 24214 24215 24216 24217 24218 24219 24220 24221 24222 24223 24224 24225 24226 24227 24228 24229 24230 24231 24232 24233 24234 24235 24236 24237 24238 24239 24240 24241 24242 24243 24244 24245 24246 24247 24248 24249 24250 24251 24252 24253 24254 24255 24256 24257 24258 24259 24260 24261 24262 24263 24264 24265 24266 24267 24268 24269 24270 24271 24272 24273 24274 24275 24276 24277 24278 24279 24280 24281 24282 24283 24284 24285 24286 24287 24288 24289 24290 24291 24292 24293 24294 24295 24296 24297 24298 24299 24300 24301 24302 24303 24304 24305 24306 24307 24308 24309 24310 24311 24312 24313 24314 24315 24316 24317 24318 24319 24320 24321 24322 24323 24324 24325 24326 24327 24328 24329 24330 24331 24332 24333 24334 24335 24336 24337 24338 24339 24340 24341 24342 24343 24344 24345 24346 24347 24348 24349 24350 24351 24352 24353 24354 24355 24356 24357 24358 24359 24360 24361 24362 24363 24364 24365 24366 24367 24368 24369 24370 24371 24372 24373 24374 24375 24376 24377 24378 24379 24380 24381 24382 24383 24384 24385 24386 24387 24388 24389 24390 24391 24392 24393 24394 24395 24396 24397 24398 24399 24400 24401 24402 24403 24404 24405 24406 24407 24408 24409 24410 24411 24412 24413 24414 24415 24416 24417 24418 24419 24420 24421 24422 24423 24424 24425 24426 24427 24428 24429 24430 24431 24432 24433 24434 24435 24436 24437 24438 24439 24440 24441 24442 24443 24444 24445 24446 24447 24448 24449 24450 24451 24452 24453 24454 24455 24456 24457 24458 24459 24460 24461 24462 24463 24464 24465 24466 24467 24468 24469 24470 24471 24472 24473 24474 24475 24476 24477 24478 24479 24480 24481 24482 24483 24484 24485 24486 24487 24488 24489 24490 24491 24492 24493 24494 24495 24496 24497 24498 24499 24500 24501 24502 24503 24504 24505 24506 24507 24508 24509 24510 24511 24512 24513 24514 24515 24516 24517 24518 24519 24520 24521 24522 24523 24524 24525 24526 24527 24528 24529 24530 24531 24532 24533 24534 24535 24536 24537 24538 24539 24540 24541 24542 24543 24544 24545 24546 24547 24548 24549 24550 24551 24552 24553 24554 24555 24556 24557 24558 24559 24560 24561 24562 24563 24564 24565 24566 24567 24568 24569 24570 24571 24572 24573 24574 24575 24576 24577 24578 24579 24580 24581 24582 24583 24584 24585 24586 24587 24588 24589 24590 24591 24592 24593 24594 24595 24596 24597 24598 24599 24600 24601 24602 24603 24604 24605 24606 24607 24608 24609 24610 24611 24612 24613 24614 24615 24616 24617 24618 24619 24620 24621 24622 24623 24624 24625 24626 24627 24628 24629 24630 24631 24632 24633 24634 24635 24636 24637 24638 24639 24640 24641 24642 24643 24644 24645 24646 24647 24648 24649 24650 24651 24652 24653 24654 24655 24656 24657 24658 24659 24660 24661 24662 24663 24664 24665 24666 24667 24668 24669 24670 24671 24672 24673 24674 24675 24676 24677 24678 24679 24680 24681 24682 24683 24684 24685 24686 24687 24688 24689 24690 24691 24692 24693 24694 24695 24696 24697 24698 24699 24700 24701 24702 24703 24704 24705 24706 24707 24708 24709 24710 24711 24712 24713 24714 24715 24716 24717 24718 24719 24720 24721 24722 24723 24724 24725 24726 24727 24728 24729 24730 24731 24732 24733 24734 24735 24736 24737 24738 24739 24740 24741 24742 24743 24744 24745 24746 24747 24748 24749 24750 24751 24752 24753 24754 24755 24756 24757 24758 24759 24760 24761 24762 24763 24764 24765 24766 24767 24768 24769 24770 24771 24772 24773 24774 24775 24776 24777 24778 24779 24780 24781 24782 24783 24784 24785 24786 24787 24788 24789 24790 24791 24792 24793 24794 24795 24796 24797 24798 24799 24800 24801 24802 24803 24804 24805 24806 24807 24808 24809 24810 24811 24812 24813 24814 24815 24816 24817 24818 24819 24820 24821 24822 24823 24824 24825 24826 24827 24828 24829 24830 24831 24832 24833 24834 24835 24836 24837 24838 24839 24840 24841 24842 24843 24844 24845 24846 24847 24848 24849 24850 24851 24852 24853 24854 24855 24856 24857 24858 24859 24860 24861 24862 24863 24864 24865 24866 24867 24868 24869 24870 24871 24872 24873 24874 24875 24876 24877 24878 24879 24880 24881 24882 24883 24884 24885 24886 24887 24888 24889 24890 24891 24892 24893 24894 24895 24896 24897 24898 24899 24900 24901 24902 24903 24904 24905 24906 24907 24908 24909 24910 24911 24912 24913 24914 24915 24916 24917 24918 24919 24920 24921 24922 24923 24924 24925 24926 24927 24928 24929 24930 24931 24932 24933 24934 24935 24936 24937 24938 24939 24940 24941 24942 24943 24944 24945 24946 24947 24948 24949 24950 24951 24952 24953 24954 24955 24956 24957 24958 24959 24960 24961 24962 24963 24964 24965 24966 24967 24968 24969 24970 24971 24972 24973 24974 24975 24976 24977 24978 24979 24980 24981 24982 24983 24984 24985 24986 24987 24988 24989 24990 24991 24992 24993 24994 24995 24996 24997 24998 24999 25000 25001 25002 25003 25004 25005 25006 25007 25008 25009 25010 25011 25012 25013 25014 25015 25016 25017 25018 25019 25020 25021 25022 25023 25024 25025 25026 25027 25028 25029 25030 25031 25032 25033 25034 25035 25036 25037 25038 25039 25040 25041 25042 25043 25044 25045 25046 25047 25048 25049 25050 25051 25052 25053 25054 25055 25056 25057 25058 25059 25060 25061 25062 25063 25064 25065 25066 25067 25068 25069 25070 25071 25072 25073 25074 25075 25076 25077 25078 25079 25080 25081 25082 25083 25084 25085 25086 25087 25088 25089 25090 25091 25092 25093 25094 25095 25096 25097 25098 25099 25100 25101 25102 25103 25104 25105 25106 25107 25108 25109 25110 25111 25112 25113 25114 25115 25116 25117 25118 25119 25120 25121 25122 25123 25124 25125 25126 25127 25128 25129 25130 25131 25132 25133 25134 25135 25136 25137 25138 25139 25140 25141 25142 25143 25144 25145 25146 25147 25148 25149 25150 25151 25152 25153 25154 25155 25156 25157 25158 25159 25160 25161 25162 25163 25164 25165 25166 25167 25168 25169 25170 25171 25172 25173 25174 25175 25176 25177 25178 25179 25180 25181 25182 25183 25184 25185 25186 25187 25188 25189 25190 25191 25192 25193 25194 25195 25196 25197 25198 25199 25200 25201 25202 25203 25204 25205 25206 25207 25208 25209 25210 25211 25212 25213 25214 25215 25216 25217 25218 25219 25220 25221 25222 25223 25224 25225 25226 25227 25228 25229 25230 25231 25232 25233 25234 25235 25236 25237 25238 25239 25240 25241 25242 25243 25244 25245 25246 25247 25248 25249 25250 25251 25252 25253 25254 25255 25256 25257 25258 25259 25260 25261 25262 25263 25264 25265 25266 25267 25268 25269 25270 25271 25272 25273 25274 25275 25276 25277 25278 25279 25280 25281 25282 25283 25284 25285 25286 25287 25288 25289 25290 25291 25292 25293 25294 25295 25296 25297 25298 25299 25300 25301 25302 25303 25304 25305 25306 25307 25308 25309 25310 25311 25312 25313 25314 25315 25316 25317 25318 25319 25320 25321 25322 25323 25324 25325 25326 25327 25328 25329 25330 25331 25332 25333 25334 25335 25336 25337 25338 25339 25340 25341 25342 25343 25344 25345 25346 25347 25348 25349 25350 25351 25352 25353 25354 25355 25356 25357 25358 25359 25360 25361 25362 25363 25364 25365 25366 25367 25368 25369 25370 25371 25372 25373 25374 25375 25376 25377 25378 25379 25380 25381 25382 25383 25384 25385 25386 25387 25388 25389 25390 25391 25392 25393 25394 25395 25396 25397 25398 25399 25400 25401 25402 25403 25404 25405 25406 25407 25408 25409 25410 25411 25412 25413 25414 25415 25416 25417 25418 25419 25420 25421 25422 25423 25424 25425 25426 25427 25428 25429 25430 25431 25432 25433 25434 25435 25436 25437 25438 25439 25440 25441 25442 25443 25444 25445 25446 25447 25448 25449 25450 25451 25452 25453 25454 25455 25456 25457 25458 25459 25460 25461 25462 25463 25464 25465 25466 25467 25468 25469 25470 25471 25472 25473 25474 25475 25476 25477 25478 25479 25480 25481 25482 25483 25484 25485 25486 25487 25488 25489 25490 25491 25492 25493 25494 25495 25496 25497 25498 25499 25500 25501 25502 25503 25504 25505 25506 25507 25508 25509 25510 25511 25512 25513 25514 25515 25516 25517 25518 25519 25520 25521 25522 25523 25524 25525 25526 25527 25528 25529 25530 25531 25532 25533 25534 25535 25536 25537 25538 25539 25540 25541 25542 25543 25544 25545 25546 25547 25548 25549 25550 25551 25552 25553 25554 25555 25556 25557 25558 25559 25560 25561 25562 25563 25564 25565 25566 25567 25568 25569 25570 25571 25572 25573 25574 25575 25576 25577 25578 25579 25580 25581 25582 25583 25584 25585 25586 25587 25588 25589 25590 25591 25592 25593 25594 25595 25596 25597 25598 25599 25600 25601 25602 25603 25604 25605 25606 25607 25608 25609 25610 25611 25612 25613 25614 25615 25616 25617 25618 25619 25620 25621 25622 25623 25624 25625 25626 25627 25628 25629 25630 25631 25632 25633 25634 25635 25636 25637 25638 25639 25640 25641 25642 25643 25644 25645 25646 25647 25648 25649 25650 25651 25652 25653 25654 25655 25656 25657 25658 25659 25660 25661 25662 25663 25664 25665 25666 25667 25668 25669 25670 25671 25672 25673 25674 25675 25676 25677 25678 25679 25680 25681 25682 25683 25684 25685 25686 25687 25688 25689 25690 25691 25692 25693 25694 25695 25696 25697 25698 25699 25700 25701 25702 25703 25704 25705 25706 25707 25708 25709 25710 25711 25712 25713 25714 25715 25716 25717 25718 25719 25720 25721 25722 25723 25724 25725 25726 25727 25728 25729 25730 25731 25732 25733 25734 25735 25736 25737 25738 25739 25740 25741 25742 25743 25744 25745 25746 25747 25748 25749 25750 25751 25752 25753 25754 25755 25756 25757 25758 25759 25760 25761 25762 25763 25764 25765 25766 25767 25768 25769 25770 25771 25772 25773 25774 25775 25776 25777 25778 25779 25780 25781 25782 25783 25784 25785 25786 25787 25788 25789 25790 25791 25792 25793 25794 25795 25796 25797 25798 25799 25800 25801 25802 25803 25804 25805 25806 25807 25808 25809 25810 25811 25812 25813 25814 25815 25816 25817 25818 25819 25820 25821 25822 25823 25824 25825 25826 25827 25828 25829 25830 25831 25832 25833 25834 25835 25836 25837 25838 25839 25840 25841 25842 25843 25844 25845 25846 25847 25848 25849 25850 25851 25852 25853 25854 25855 25856 25857 25858 25859 25860 25861 25862 25863 25864 25865 25866 25867 25868 25869 25870 25871 25872 25873 25874 25875 25876 25877 25878 25879 25880 25881 25882 25883 25884 25885 25886 25887 25888 25889 25890 25891 25892 25893 25894 25895 25896 25897 25898 25899 25900 25901 25902 25903 25904 25905 25906 25907 25908 25909 25910 25911 25912 25913 25914 25915 25916 25917 25918 25919 25920 25921 25922 25923 25924 25925 25926 25927 25928 25929 25930 25931 25932 25933 25934 25935 25936 25937 25938 25939 25940 25941 25942 25943 25944 25945 25946 25947 25948 25949 25950 25951 25952 25953 25954 25955 25956 25957 25958 25959 25960 25961 25962 25963 25964 25965 25966 25967 25968 25969 25970 25971 25972 25973 25974 25975 25976 25977 25978 25979 25980 25981 25982 25983 25984 25985 25986 25987 25988 25989 25990 25991 25992 25993 25994 25995 25996 25997 25998 25999 26000 26001 26002 26003 26004 26005 26006 26007 26008 26009 26010 26011 26012 26013 26014 26015 26016 26017 26018 26019 26020 26021 26022 26023 26024 26025 26026 26027 26028 26029 26030 26031 26032 26033 26034 26035 26036 26037 26038 26039 26040 26041 26042 26043 26044 26045 26046 26047 26048 26049 26050 26051 26052 26053 26054 26055 26056 26057 26058 26059 26060 26061 26062 26063 26064 26065 26066 26067 26068 26069 26070 26071 26072 26073 26074 26075 26076 26077 26078 26079 26080 26081 26082 26083 26084 26085 26086 26087 26088 26089 26090 26091 26092 26093 26094 26095 26096 26097 26098 26099 26100 26101 26102 26103 26104 26105 26106 26107 26108 26109 26110 26111 26112 26113 26114 26115 26116 26117 26118 26119 26120 26121 26122 26123 26124 26125 26126 26127 26128 26129 26130 26131 26132 26133 26134 26135 26136 26137 26138 26139 26140 26141 26142 26143 26144 26145 26146 26147 26148 26149 26150 26151 26152 26153 26154 26155 26156 26157 26158 26159 26160 26161 26162 26163 26164 26165 26166 26167 26168 26169 26170 26171 26172 26173 26174 26175 26176 26177 26178 26179 26180 26181 26182 26183 26184 26185 26186 26187 26188 26189 26190 26191 26192 26193 26194 26195 26196 26197 26198 26199 26200 26201 26202 26203 26204 26205 26206 26207 26208 26209 26210 26211 26212 26213 26214 26215 26216 26217 26218 26219 26220 26221 26222 26223 26224 26225 26226 26227 26228 26229 26230 26231 26232 26233 26234 26235 26236 26237 26238 26239 26240 26241 26242 26243 26244 26245 26246 26247 26248 26249 26250 26251 26252 26253 26254 26255 26256 26257 26258 26259 26260 26261 26262 26263 26264 26265 26266 26267 26268 26269 26270 26271 26272 26273 26274 26275 26276 26277 26278 26279 26280 26281 26282 26283 26284 26285 26286 26287 26288 26289 26290 26291 26292 26293 26294 26295 26296 26297 26298 26299 26300 26301 26302 26303 26304 26305 26306 26307 26308 26309 26310 26311 26312 26313 26314 26315 26316 26317 26318 26319 26320 26321 26322 26323 26324 26325 26326 26327 26328 26329 26330 26331 26332 26333 26334 26335 26336 26337 26338 26339 26340 26341 26342 26343 26344 26345 26346 26347 26348 26349 26350 26351 26352 26353 26354 26355 26356 26357 26358 26359 26360 26361 26362 26363 26364 26365 26366 26367 26368 26369 26370 26371 26372 26373 26374 26375 26376 26377 26378 26379 26380 26381 26382 26383 26384 26385 26386 26387 26388 26389 26390 26391 26392 26393 26394 26395 26396 26397 26398 26399 26400 26401 26402 26403 26404 26405 26406 26407 26408 26409 26410 26411 26412 26413 26414 26415 26416 26417 26418 26419 26420 26421 26422 26423 26424 26425 26426 26427 26428 26429 26430 26431 26432 26433 26434 26435 26436 26437 26438 26439 26440 26441 26442 26443 26444 26445 26446 26447 26448 26449 26450 26451 26452 26453 26454 26455 26456 26457 26458 26459 26460 26461 26462 26463 26464 26465 26466 26467 26468 26469 26470 26471 26472 26473 26474 26475 26476 26477 26478 26479 26480 26481 26482 26483 26484 26485 26486 26487 26488 26489 26490 26491 26492 26493 26494 26495 26496 26497 26498 26499 26500 26501 26502 26503 26504 26505 26506 26507 26508 26509 26510 26511 26512 26513 26514 26515 26516 26517 26518 26519 26520 26521 26522 26523 26524 26525 26526 26527 26528 26529 26530 26531 26532 26533 26534 26535 26536 26537 26538 26539 26540 26541 26542 26543 26544 26545 26546 26547 26548 26549 26550 26551 26552 26553 26554 26555 26556 26557 26558 26559 26560 26561 26562 26563 26564 26565 26566 26567 26568 26569 26570 26571 26572 26573 26574 26575 26576 26577 26578 26579 26580 26581 26582 26583 26584 26585 26586 26587 26588 26589 26590 26591 26592 26593 26594 26595 26596 26597 26598 26599 26600 26601 26602 26603 26604 26605 26606 26607 26608 26609 26610 26611 26612 26613 26614 26615 26616 26617 26618 26619 26620 26621 26622 26623 26624 26625 26626 26627 26628 26629 26630 26631 26632 26633 26634 26635 26636 26637 26638 26639 26640 26641 26642 26643 26644 26645 26646 26647 26648 26649 26650 26651 26652 26653 26654 26655 26656 26657 26658 26659 26660 26661 26662 26663 26664 26665 26666 26667 26668 26669 26670 26671 26672 26673 26674 26675 26676 26677 26678 26679 26680 26681 26682 26683 26684 26685 26686 26687 26688 26689 26690 26691 26692 26693 26694 26695 26696 26697 26698 26699 26700 26701 26702 26703 26704 26705 26706 26707 26708 26709 26710 26711 26712 26713 26714 26715 26716 26717 26718 26719 26720 26721 26722 26723 26724 26725 26726 26727 26728 26729 26730 26731 26732 26733 26734 26735 26736 26737 26738 26739 26740 26741 26742 26743 26744 26745 26746 26747 26748 26749 26750 26751 26752 26753 26754 26755 26756 26757 26758 26759 26760 26761 26762 26763 26764 26765 26766 26767 26768 26769 26770 26771 26772 26773 26774 26775 26776 26777 26778 26779 26780 26781 26782 26783 26784 26785 26786 26787 26788 26789 26790 26791 26792 26793 26794 26795 26796 26797 26798 26799 26800 26801 26802 26803 26804 26805 26806 26807 26808 26809 26810 26811 26812 26813 26814 26815 26816 26817 26818 26819 26820 26821 26822 26823 26824 26825 26826 26827 26828 26829 26830 26831 26832 26833 26834 26835 26836 26837 26838 26839 26840 26841 26842 26843 26844 26845 26846 26847 26848 26849 26850 26851 26852 26853 26854 26855 26856 26857 26858 26859 26860 26861 26862 26863 26864 26865 26866 26867 26868 26869 26870 26871 26872 26873 26874 26875 26876 26877 26878 26879 26880 26881 26882 26883 26884 26885 26886 26887 26888 26889 26890 26891 26892 26893 26894 26895 26896 26897 26898 26899 26900 26901 26902 26903 26904 26905 26906 26907 26908 26909 26910 26911 26912 26913 26914 26915 26916 26917 26918 26919 26920 26921 26922 26923 26924 26925 26926 26927 26928 26929 26930 26931 26932 26933 26934 26935 26936 26937 26938 26939 26940 26941 26942 26943 26944 26945 26946 26947 26948 26949 26950 26951 26952 26953 26954 26955 26956 26957 26958 26959 26960 26961 26962 26963 26964 26965 26966 26967 26968 26969 26970 26971 26972 26973 26974 26975 26976 26977 26978 26979 26980 26981 26982 26983 26984 26985 26986 26987 26988 26989 26990 26991 26992 26993 26994 26995 26996 26997 26998 26999 27000 27001 27002 27003 27004 27005 27006 27007 27008 27009 27010 27011 27012 27013 27014 27015 27016 27017 27018 27019 27020 27021 27022 27023 27024 27025 27026 27027 27028 27029 27030 27031 27032 27033 27034 27035 27036 27037 27038 27039 27040 27041 27042 27043 27044 27045 27046 27047 27048 27049 27050 27051 27052 27053 27054 27055 27056 27057 27058 27059 27060 27061 27062 27063 27064 27065 27066 27067 27068 27069 27070 27071 27072 27073 27074 27075 27076 27077 27078 27079 27080 27081 27082 27083 27084 27085 27086 27087 27088 27089 27090 27091 27092 27093 27094 27095 27096 27097 27098 27099 27100 27101 27102 27103 27104 27105 27106 27107 27108 27109 27110 27111 27112 27113 27114 27115 27116 27117 27118 27119 27120 27121 27122 27123 27124 27125 27126 27127 27128 27129 27130 27131 27132 27133 27134 27135 27136 27137 27138 27139 27140 27141 27142 27143 27144 27145 27146 27147 27148 27149 27150 27151 27152 27153 27154 27155 27156 27157 27158 27159 27160 27161 27162 27163 27164 27165 27166 27167 27168 27169 27170 27171 27172 27173 27174 27175 27176 27177 27178 27179 27180 27181 27182 27183 27184 27185 27186 27187 27188 27189 27190 27191 27192 27193 27194 27195 27196 27197 27198 27199 27200 27201 27202 27203 27204 27205 27206 27207 27208 27209 27210 27211 27212 27213 27214 27215 27216 27217 27218 27219 27220 27221 27222 27223 27224 27225 27226 27227 27228 27229 27230 27231 27232 27233 27234 27235 27236 27237 27238 27239 27240 27241 27242 27243 27244 27245 27246 27247 27248 27249 27250 27251 27252 27253 27254 27255 27256 27257 27258 27259 27260 27261 27262 27263 27264 27265 27266 27267 27268 27269 27270 27271 27272 27273 27274 27275 27276 27277 27278 27279 27280 27281 27282 27283 27284 27285 27286 27287 27288 27289 27290 27291 27292 27293 27294 27295 27296 27297 27298 27299 27300 27301 27302 27303 27304 27305 27306 27307 27308 27309 27310 27311 27312 27313 27314 27315 27316 27317 27318 27319 27320 27321 27322 27323 27324 27325 27326 27327 27328 27329 27330 27331 27332 27333 27334 27335 27336 27337 27338 27339 27340 27341 27342 27343 27344 27345 27346 27347 27348 27349 27350 27351 27352 27353 27354 27355 27356 27357 27358 27359 27360 27361 27362 27363 27364 27365 27366 27367 27368 27369 27370 27371 27372 27373 27374 27375 27376 27377 27378 27379 27380 27381 27382 27383 27384 27385 27386 27387 27388 27389 27390 27391 27392 27393 27394 27395 27396 27397 27398 27399 27400 27401 27402 27403 27404 27405 27406 27407 27408 27409 27410 27411 27412 27413 27414 27415 27416 27417 27418 27419 27420 27421 27422 27423 27424 27425 27426 27427 27428 27429 27430 27431 27432 27433 27434 27435 27436 27437 27438 27439 27440 27441 27442 27443 27444 27445 27446 27447 27448 27449 27450 27451 27452 27453 27454 27455 27456 27457 27458 27459 27460 27461 27462 27463 27464 27465 27466 27467 27468 27469 27470 27471 27472 27473 27474 27475 27476 27477 27478 27479 27480 27481 27482 27483 27484 27485 27486 27487 27488 27489 27490 27491 27492 27493 27494 27495 27496 27497 27498 27499 27500 27501 27502 27503 27504 27505 27506 27507 27508 27509 27510 27511 27512 27513 27514 27515 27516 27517 27518 27519 27520 27521 27522 27523 27524 27525 27526 27527 27528 27529 27530 27531 27532 27533 27534 27535 27536 27537 27538 27539 27540 27541 27542 27543 27544 27545 27546 27547 27548 27549 27550 27551 27552 27553 27554 27555 27556 27557 27558 27559 27560 27561 27562 27563 27564 27565 27566 27567 27568 27569 27570 27571 27572 27573 27574 27575 27576 27577 27578 27579 27580 27581 27582 27583 27584 27585 27586 27587 27588 27589 27590 27591 27592 27593 27594 27595 27596 27597 27598 27599 27600 27601 27602 27603 27604 27605 27606 27607 27608 27609 27610 27611 27612 27613 27614 27615 27616 27617 27618 27619 27620 27621 27622 27623 27624 27625 27626 27627 27628 27629 27630 27631 27632 27633 27634 27635 27636 27637 27638 27639 27640 27641 27642 27643 27644 27645 27646 27647 27648 27649 27650 27651 27652 27653 27654 27655 27656 27657 27658 27659 27660 27661 27662 27663 27664 27665 27666 27667 27668 27669 27670 27671 27672 27673 27674 27675 27676 27677 27678 27679 27680 27681 27682 27683 27684 27685 27686 27687 27688 27689 27690 27691 27692 27693 27694 27695 27696 27697 27698 27699 27700 27701 27702 27703 27704 27705 27706 27707 27708 27709 27710 27711 27712 27713 27714 27715 27716 27717 27718 27719 27720 27721 27722 27723 27724 27725 27726 27727 27728 27729 27730 27731 27732 27733 27734 27735 27736 27737 27738 27739 27740 27741 27742 27743 27744 27745 27746 27747 27748 27749 27750 27751 27752 27753 27754 27755 27756 27757 27758 27759 27760 27761 27762 27763 27764 27765 27766 27767 27768 27769 27770 27771 27772 27773 27774 27775 27776 27777 27778 27779 27780 27781 27782 27783 27784 27785 27786 27787 27788 27789 27790 27791 27792 27793 27794 27795 27796 27797 27798 27799 27800 27801 27802 27803 27804 27805 27806 27807 27808 27809 27810 27811 27812 27813 27814 27815 27816 27817 27818 27819 27820 27821 27822 27823 27824 27825 27826 27827 27828 27829 27830 27831 27832 27833 27834 27835 27836 27837 27838 27839 27840 27841 27842 27843 27844 27845 27846 27847 27848 27849 27850 27851 27852 27853 27854 27855 27856 27857 27858 27859 27860 27861 27862 27863 27864 27865 27866 27867 27868 27869 27870 27871 27872 27873 27874 27875 27876 27877 27878 27879 27880 27881 27882 27883 27884 27885 27886 27887 27888 27889 27890 27891 27892 27893 27894 27895 27896 27897 27898 27899 27900 27901 27902 27903 27904 27905 27906 27907 27908 27909 27910 27911 27912 27913 27914 27915 27916 27917 27918 27919 27920 27921 27922 27923 27924 27925 27926 27927 27928 27929 27930 27931 27932 27933 27934 27935 27936 27937 27938 27939 27940 27941 27942 27943 27944 27945 27946 27947 27948 27949 27950 27951 27952 27953 27954 27955 27956 27957 27958 27959 27960 27961 27962 27963 27964 27965 27966 27967 27968 27969 27970 27971 27972 27973 27974 27975 27976 27977 27978 27979 27980 27981 27982 27983 27984 27985 27986 27987 27988 27989 27990 27991 27992 27993 27994 27995 27996 27997 27998 27999 28000 28001 28002 28003 28004 28005 28006 28007 28008 28009 28010 28011 28012 28013 28014 28015 28016 28017 28018 28019 28020 28021 28022 28023 28024 28025 28026 28027 28028 28029 28030 28031 28032 28033 28034 28035 28036 28037 28038 28039 28040 28041 28042 28043 28044 28045 28046 28047 28048 28049 28050 28051 28052 28053 28054 28055 28056 28057 28058 28059 28060 28061 28062 28063 28064 28065 28066 28067 28068 28069 28070 28071 28072 28073 28074 28075 28076 28077 28078 28079 28080 28081 28082 28083 28084 28085 28086 28087 28088 28089 28090 28091 28092 28093 28094 28095 28096 28097 28098 28099 28100 28101 28102 28103 28104 28105 28106 28107 28108 28109 28110 28111 28112 28113 28114 28115 28116 28117 28118 28119 28120 28121 28122 28123 28124 28125 28126 28127 28128 28129 28130 28131 28132 28133 28134 28135 28136 28137 28138 28139 28140 28141 28142 28143 28144 28145 28146 28147 28148 28149 28150 28151 28152 28153 28154 28155 28156 28157 28158 28159 28160 28161 28162 28163 28164 28165 28166 28167 28168 28169 28170 28171 28172 28173 28174 28175 28176 28177 28178 28179 28180 28181 28182 28183 28184 28185 28186 28187 28188 28189 28190 28191 28192 28193 28194 28195 28196 28197 28198 28199 28200 28201 28202 28203 28204 28205 28206 28207 28208 28209 28210 28211 28212 28213 28214 28215 28216 28217 28218 28219 28220 28221 28222 28223 28224 28225 28226 28227 28228 28229 28230 28231 28232 28233 28234 28235 28236 28237 28238 28239 28240 28241 28242 28243 28244 28245 28246 28247 28248 28249 28250 28251 28252 28253 28254 28255 28256 28257 28258 28259 28260 28261 28262 28263 28264 28265 28266 28267 28268 28269 28270 28271 28272 28273 28274 28275 28276 28277 28278 28279 28280 28281 28282 28283 28284 28285 28286 28287 28288 28289 28290 28291 28292 28293 28294 28295 28296 28297 28298 28299 28300 28301 28302 28303 28304 28305 28306 28307 28308 28309 28310 28311 28312 28313 28314 28315 28316 28317 28318 28319 28320 28321 28322 28323 28324 28325 28326 28327 28328 28329 28330 28331 28332 28333 28334 28335 28336 28337 28338 28339 28340 28341 28342 28343 28344 28345 28346 28347 28348 28349 28350 28351 28352 28353 28354 28355 28356 28357 28358 28359 28360 28361 28362 28363 28364 28365 28366 28367 28368 28369 28370 28371 28372 28373 28374 28375 28376 28377 28378 28379 28380 28381 28382 28383 28384 28385 28386 28387 28388 28389 28390 28391 28392 28393 28394 28395 28396 28397 28398 28399 28400 28401 28402 28403 28404 28405 28406 28407 28408 28409 28410 28411 28412 28413 28414 28415 28416 28417 28418 28419 28420 28421 28422 28423 28424 28425 28426 28427 28428 28429 28430 28431 28432 28433 28434 28435 28436 28437 28438 28439 28440 28441 28442 28443 28444 28445 28446 28447 28448 28449 28450 28451 28452 28453 28454 28455 28456 28457 28458 28459 28460 28461 28462 28463 28464 28465 28466 28467 28468 28469 28470 28471 28472 28473 28474 28475 28476 28477 28478 28479 28480 28481 28482 28483 28484 28485 28486 28487 28488 28489 28490 28491 28492 28493 28494 28495 28496 28497 28498 28499 28500 28501 28502 28503 28504 28505 28506 28507 28508 28509 28510 28511 28512 28513 28514 28515 28516 28517 28518 28519 28520 28521 28522 28523 28524 28525 28526 28527 28528 28529 28530 28531 28532 28533 28534 28535 28536 28537 28538 28539 28540 28541 28542 28543 28544 28545 28546 28547 28548 28549 28550 28551 28552 28553 28554 28555 28556 28557 28558 28559 28560 28561 28562 28563 28564 28565 28566 28567 28568 28569 28570 28571 28572 28573 28574 28575 28576 28577 28578 28579 28580 28581 28582 28583 28584 28585 28586 28587 28588 28589 28590 28591 28592 28593 28594 28595 28596 28597 28598 28599 28600 28601 28602 28603 28604 28605 28606 28607 28608 28609 28610 28611 28612 28613 28614 28615 28616 28617 28618 28619 28620 28621 28622 28623 28624 28625 28626 28627 28628 28629 28630 28631 28632 28633 28634 28635 28636 28637 28638 28639 28640 28641 28642 28643 28644 28645 28646 28647 28648 28649 28650 28651 28652 28653 28654 28655 28656 28657 28658 28659 28660 28661 28662 28663 28664 28665 28666 28667 28668 28669 28670 28671 28672 28673 28674 28675 28676 28677 28678 28679 28680 28681 28682 28683 28684 28685 28686 28687 28688 28689 28690 28691 28692 28693 28694 28695 28696 28697 28698 28699 28700 28701 28702 28703 28704 28705 28706 28707 28708 28709 28710 28711 28712 28713 28714 28715 28716 28717 28718 28719 28720 28721 28722 28723 28724 28725 28726 28727 28728 28729 28730 28731 28732 28733 28734 28735 28736 28737 28738 28739 28740 28741 28742 28743 28744 28745 28746 28747 28748 28749 28750 28751 28752 28753 28754 28755 28756 28757 28758 28759 28760 28761 28762 28763 28764 28765 28766 28767 28768 28769 28770 28771 28772 28773 28774 28775 28776 28777 28778 28779 28780 28781 28782 28783 28784 28785 28786 28787 28788 28789 28790 28791 28792 28793 28794 28795 28796 28797 28798 28799 28800 28801 28802 28803 28804 28805 28806 28807 28808 28809 28810 28811 28812 28813 28814 28815 28816 28817 28818 28819 28820 28821 28822 28823 28824 28825 28826 28827 28828 28829 28830 28831 28832 28833 28834 28835 28836 28837 28838 28839 28840 28841 28842 28843 28844 28845 28846 28847 28848 28849 28850 28851 28852 28853 28854 28855 28856 28857 28858 28859 28860 28861 28862 28863 28864 28865 28866 28867 28868 28869 28870 28871 28872 28873 28874 28875 28876 28877 28878 28879 28880 28881 28882 28883 28884 28885 28886 28887 28888 28889 28890 28891 28892 28893 28894 28895 28896 28897 28898 28899 28900 28901 28902 28903 28904 28905 28906 28907 28908 28909 28910 28911 28912 28913 28914 28915 28916 28917 28918 28919 28920 28921 28922 28923 28924 28925 28926 28927 28928 28929 28930 28931 28932 28933 28934 28935 28936 28937 28938 28939 28940 28941 28942 28943 28944 28945 28946 28947 28948 28949 28950 28951 28952 28953 28954 28955 28956 28957 28958 28959 28960 28961 28962 28963 28964 28965 28966 28967 28968 28969 28970 28971 28972 28973 28974 28975 28976 28977 28978 28979 28980 28981 28982 28983 28984 28985 28986 28987 28988 28989 28990 28991 28992 28993 28994 28995 28996 28997 28998 28999 29000 29001 29002 29003 29004 29005 29006 29007 29008 29009 29010 29011 29012 29013 29014 29015 29016 29017 29018 29019 29020 29021 29022 29023 29024 29025 29026 29027 29028 29029 29030 29031 29032 29033 29034 29035 29036 29037 29038 29039 29040 29041 29042 29043 29044 29045 29046 29047 29048 29049 29050 29051 29052 29053 29054 29055 29056 29057 29058 29059 29060 29061 29062 29063 29064 29065 29066 29067 29068 29069 29070 29071 29072 29073 29074 29075 29076 29077 29078 29079 29080 29081 29082 29083 29084 29085 29086 29087 29088 29089 29090 29091 29092 29093 29094 29095 29096 29097 29098 29099 29100 29101 29102 29103 29104 29105 29106 29107 29108 29109 29110 29111 29112 29113 29114 29115 29116 29117 29118 29119 29120 29121 29122 29123 29124 29125 29126 29127 29128 29129 29130 29131 29132 29133 29134 29135 29136 29137 29138 29139 29140 29141 29142 29143 29144 29145 29146 29147 29148 29149 29150 29151 29152 29153 29154 29155 29156 29157 29158 29159 29160 29161 29162 29163 29164 29165 29166 29167 29168 29169 29170 29171 29172 29173 29174 29175 29176 29177 29178 29179 29180 29181 29182 29183 29184 29185 29186 29187 29188 29189 29190 29191 29192 29193 29194 29195 29196 29197 29198 29199 29200 29201 29202 29203 29204 29205 29206 29207 29208 29209 29210 29211 29212 29213 29214 29215 29216 29217 29218 29219 29220 29221 29222 29223 29224 29225 29226 29227 29228 29229 29230 29231 29232 29233 29234 29235 29236 29237 29238 29239 29240 29241 29242 29243 29244 29245 29246 29247 29248 29249 29250 29251 29252 29253 29254 29255 29256 29257 29258 29259 29260 29261 29262 29263 29264 29265 29266 29267 29268 29269 29270 29271 29272 29273 29274 29275 29276 29277 29278 29279 29280 29281 29282 29283 29284 29285 29286 29287 29288 29289 29290 
</DataArray>
<DataArray type="UInt32" Name="offsets" format="ascii">
2 5 8 11 14 17 20 23 26 29 32 35 38 41 44 47 50 53 55 58 61 64 66 69 71 74 77 80 83 86 88 91 94 97 100 103 106 108 111 114 116 118 121 124 127 130 133 136 139 141 144 147 150 153 155 158 161 164 167 169 172 175 178 181 184 187 190 193 196 199 202 205 208 211 214 217 220 222 225 228 231 234 237 240 243 246 249 252 255 258 260 263 266 269 272 275 277 280 283 286 289 292 295 298 301 304 306 309 312 315 318 321 324 327 330 333 336 339 342 345 348 351 353 356 359 362 365 368 371 374 376 379 382 385 388 391 394 397 399 402 405 408 411 414 416 419 422 424 427 430 433 436 439 442 445 448 451 454 457 460 463 466 469 472 475 478 481 484 487 490 493 496 499 502 504 507 510 513 515 518 521 524 527 530 533 536 539 542 544 547 550 553 556 559 562 565 568 570 573 576 579 582 584 587 590 593 595 598 601 603 606 609 612 615 618 620 623 625 628 631 634 637 639 642 644 647 650 653 655 658 661 663 665 668 670 672 675 678 680 682 685 688 691 693 696 698 701 703 706 709 712 715 718 720 722 725 728 731 734 737 740 743 746 749 752 754 757 760 763 766 769 772 775 777 779 782 785 788 791 794 797 800 803 805 808 811 814 817 819 822 825 827 830 833 836 838 841 844 847 850 853 856 859 862 864 867 869 872 875 878 881 884 886 889 892 895 898 901 904 907 910 913 916 919 922 925 928 931 933 936 938 940 943 945 948 951 953 956 959 962 965 968 971 974 977 980 982 985 988 990 992 995 998 1001 1004 1006 1008 1011 1013 1016 1019 1022 1024 1027 1030 1033 1036 1038 1041 1044 1047 1049 1052 1054 1056 1059 1062 1064 1067 1070 1072 1075 1078 1080 1083 1086 1089 1092 1095 1098 1101 1104 1107 1110 1113 1116 1119 1122 1124 1127 1130 1133 1136 1138 1141 1144 1147 1150 1153 1156 1158 1161 1164 1167 1170 1173 1176 1179 1182 1185 1188 1191 1194 1197 1200 1203 1206 1209 1212 1215 1218 1221 1224 1227 1230 1233 1236 1239 1242 1245 1248 1251 1254 1257 1260 1263 1266 1269 1272 1275 1278 1281 1284 1287 1290 1293 1296 1299 1301 1304 1307 1310 1313 1316 1319 1321 1324 1326 1329 1332 1334 1337 1340 1343 1345 1348 1351 1354 1357 1359 1362 1365 1368 1371 1374 1377 1380 1383 1386 1389 1392 1395 1398 1401 1403 1406 1409 1412 1415 1418 1421 1424 1426 1429 1432 1435 1437 1440 1443 1446 1449 1452 1454 1457 1460 1463 1466 1469 1471 1474 1477 1480 1483 1486 1489 1492 1494 1496 1499 1502 1505 1508 1511 1514 1516 1519 1521 1524 1526 1529 1532 1535 1537 1540 1543 1546 1549 1551 1554 1557 1560 1563 1566 1569 1572 1575 1578 1580 1583 1586 1588 1591 1594 1596 1599 1601 1604 1607 1609 1612 1615 1618 1621 1624 1627 1630 1633 1635 1638 1641 1644 1647 1650 1653 1656 1658 1661 1664 1667 1669 1672 1675 1678 1681 1684 1687 1690 1693 1696 1699 1702 1705 1708 1711 1714 1717 1720 1723 1726 1729 1732 1735 1738 1741 1744 1747 1750 1753 1756 1758 1761 1764 1767 1770 1772 1775 1778 1781 1784 1787 1790 1793 1796 1798 1801 1804 1806 1809 1812 1815 1818 1820 1823 1826 1829 1832 1835 1837 1840 1843 1846 1849 1852 1855 1858 1861 1864 1867 1870 1873 1876 1879 1882 1885 1888 1891 1894 1897 1900 1903 1906 1909 1912 1915 1918 1921 1924 1927 1930 1933 1936 1939 1942 1945 1948 1951 1954 1957 1960 1963 1966 1969 1972 1975 1978 1981 1984 1987 1990 1993 1996 1999 2002 2005 2008 2011 2014 2017 2020 2023 2026 2029 2032 2035 2038 2041 2044 2047 2050 2053 2056 2059 2062 2065 2068 2071 2074 2077 2080 2083 2086 2089 2092 2095 2098 2101 2103 2106 2109 2112 2114 2117 2119 2121 2124 2126 2129 2132 2135 2138 2141 2144 2147 2150 2153 2156 2159 2162 2165 2168 2171 2174 2177 2180 2183 2186 2189 2192 2195 2198 2201 2204 2207 2210 2213 2216 2219 2222 2225 2228 2231 2234 2237 2240 2242 2244 2247 2250 2253 2256 2258 2261 2264 2267 2270 2273 2276 2279 2282 2285 2288 2291 2294 2297 2300 2303 2306 2308 2311 2314 2317 2320 2323 2326 2329 2332 2335 2338 2341 2344 2347 2350 2353 2356 2359 2362 2365 2368 2371 2374 2377 2380 2383 2386 2388 2391 2394 2397 2399 2402 2405 2408 2411 2413 2416 2419 2421 2424 2427 2429 2432 2435 2438 2440 2443 2446 2449 2452 2455 2458 2461 2464 2467 2470 2473 2476 2479 2482 2485 2488 2491 2493 2496 2499 2502 2505 2508 2511 2514 2517 2520 2522 2525 2528 2531 2534 2537 2540 2543 2546 2549 2551 2554 2557 2560 2563 2565 2568 2571 2574 2577 2580 2583 2586 2589 2592 2595 2597 2600 2603 2606 2609 2612 2615 2618 2621 2624 2626 2629 2631 2634 2637 2640 2642 2645 2648 2650 2653 2655 2658 2661 2663 2666 2668 2671 2674 2677 2680 2683 2685 2687 2690 2693 2696 2699 2702 2705 2708 2711 2714 2717 2720 2723 2726 2729 2732 2735 2738 2741 2744 2747 2750 2753 2756 2759 2762 2765 2768 2771 2774 2776 2779 2781 2784 2787 2790 2793 2796 2799 2801 2804 2807 2810 2813 2816 2819 2821 2823 2826 2829 2831 2834 2837 2839 2842 2845 2847 2850 2853 2856 2859 2861 2864 2867 2870 2873 2875 2878 2881 2883 2886 2888 2891 2894 2897 2900 2903 2906 2909 2912 2915 2918 2921 2924 2927 2930 2933 2936 2939 2942 2945 2948 2951 2954 2957 2960 2963 2966 2969 2972 2975 2977 2980 2983 2986 2989 2992 2995 2998 3001 3004 3007 3010 3012 3015 3018 3021 3023 3026 3029 3031 3033 3036 3039 3042 3044 3047 3050 3052 3054 3057 3060 3063 3066 3069 3072 3075 3077 3080 3083 3086 3089 3092 3094 3097 3099 3102 3104 3107 3110 3113 3116 3119 3122 3124 3127 3130 3132 3135 3138 3141 3144 3147 3150 3153 3155 3158 3161 3164 3167 3170 3172 3175 3178 3181 3184 3187 3190 3193 3196 3199 3202 3205 3208 3211 3214 3216 3219 3222 3225 3228 3231 3234 3236 3239 3242 3245 3247 3249 3252 3255 3258 3261 3263 3266 3269 3272 3275 3278 3280 3282 3285 3288 3291 3293 3296 3299 3302 3305 3308 3311 3313 3316 3318 3321 3324 3326 3329 3331 3334 3337 3340 3343 3346 3349 3351 3354 3357 3360 3363 3366 3369 3372 3375 3378 3381 3384 3387 3390 3393 3396 3399 3402 3404 3407 3410 3413 3416 3419 3421 3424 3427 3429 3432 3435 3438 3441 3444 3447 3450 3453 3456 3459 3462 3465 3468 3471 3474 3477 3480 3483 3486 3489 3492 3495 3498 3501 3503 3506 3509 3512 3514 3517 3520 3523 3525 3527 3530 3532 3535 3538 3540 3543 3546 3548 3551 3554 3556 3559 3562 3565 3568 3571 3574 3577 3580 3583 3586 3589 3592 3595 3597 3600 3603 3605 3608 3611 3613 3616 3619 3622 3625 3628 3631 3634 3637 3639 3641 3644 3647 3649 3652 3655 3658 3660 3663 3666 3669 3671 3674 3677 3680 3683 3686 3689 3692 3695 3698 3701 3704 3707 3710 3713 3716 3719 3721 3724 3727 3729 3732 3735 3738 3741 3744 3746 3749 3751 3754 3756 3758 3761 3763 3766 3769 3771 3774 3776 3779 3781 3784 3787 3790 3793 3796 3799 3801 3804 3807 3810 3813 3816 3819 3822 3825 3828 3830 3833 3835 3838 3841 3844 3847 3850 3853 3856 3859 3862 3865 3868 3871 3874 3877 3880 3882 3885 3888 3891 3893 3896 3899 3902 3905 3908 3911 3914 3917 3920 3923 3926 3929 3932 3935 3938 3941 3943 3946 3949 3952 3954 3957 3959 3962 3965 3968 3971 3974 3977 3980 3983 3986 3989 3992 3995 3997 4000 4003 4006 4009 4012 4014 4017 4019 4022 4024 4027 4030 4032 4035 4038 4041 4043 4045 4048 4051 4053 4056 4058 4060 4062 4065 4067 4070 4072 4075 4077 4079 4082 4085 4088 4091 4094 4096 4098 4101 4104 4107 4110 4113 4115 4118 4121 4124 4126 4129 4131 4134 4136 4138 4141 4144 4147 4149 4152 4154 4157 4160 4163 4165 4168 4171 4174 4176 4178 4181 4184 4186 4189 4192 4195 4198 4200 4203 4205 4208 4211 4213 4216 4218 4221 4224 4226 4229 4232 4235 4238 4241 4243 4246 4249 4252 4254 4257 4260 4263 4265 4268 4271 4274 4276 4279 4281 4284 4287 4290 4293 4296 4299 4302 4305 4308 4311 4314 4317 4319 4322 4325 4328 4330 4333 4336 4339 4342 4345 4348 4351 4353 4356 4359 4362 4365 4368 4371 4374 4377 4380 4383 4386 4389 4392 4395 4398 4401 4404 4407 4410 4413 4416 4419 4422 4425 4428 4431 4434 4437 4440 4443 4446 4449 4452 4455 4458 4461 4464 4467 4470 4472 4475 4478 4481 4484 4486 4489 4492 4495 4498 4501 4504 4507 4510 4513 4515 4518 4521 4524 4527 4530 4533 4536 4538 4541 4544 4547 4549 4552 4555 4558 4560 4563 4566 4568 4571 4574 4577 4579 4582 4585 4588 4591 4594 4597 4599 4602 4604 4607 4610 4612 4615 4618 4621 4624 4627 4630 4633 4636 4638 4641 4644 4647 4649 4652 4655 4658 4661 4664 4667 4670 4673 4676 4679 4681 4684 4687 4689 4692 4695 4698 4701 4704 4707 4710 4712 4715 4718 4721 4724 4727 4730 4733 4736 4739 4742 4745 4748 4750 4753 4756 4759 4762 4764 4767 4770 4772 4775 4778 4781 4783 4786 4789 4792 4795 4798 4801 4804 4807 4810 4813 4816 4819 4822 4825 4828 4831 4834 4837 4840 4843 4846 4849 4851 4854 4857 4860 4863 4866 4869 4872 4875 4878 4881 4884 4887 4890 4893 4896 4899 4901 4904 4907 4910 4913 4916 4919 4922 4925 4928 4930 4933 4936 4939 4942 4945 4948 4951 4954 4957 4960 4963 4966 4969 4972 4975 4978 4981 4983 4985 4987 4989 4992 4995 4998 5001 5003 5006 5008 5011 5014 5016 5018 5021 5023 5026 5029 5031 5034 5037 5039 5042 5045 5047 5050 5053 5055 5058 5061 5064 5067 5070 5073 5076 5078 5081 5084 5087 5090 5093 5096 5099 5102 5105 5108 5111 5113 5116 5119 5122 5124 5127 5130 5133 5135 5138 5141 5144 5147 5150 5152 5155 5158 5161 5163 5165 5168 5171 5174 5176 5179 5181 5184 5187 5190 5193 5196 5198 5201 5204 5207 5210 5213 5216 5219 5222 5225 5228 5231 5234 5237 5240 5243 5246 5249 5252 5255 5257 5260 5262 5265 5268 5271 5274 5276 5279 5282 5285 5288 5290 5293 5296 5299 5301 5304 5307 5310 5313 5315 5318 5321 5323 5326 5328 5331 5334 5337 5340 5343 5345 5347 5350 5352 5354 5357 5360 5362 5365 5368 5371 5374 5377 5380 5383 5386 5389 5392 5394 5397 5400 5403 5406 5409 5412 5415 5418 5420 5423 5426 5429 5432 5435 5438 5441 5444 5446 5449 5452 5455 5458 5460 5463 5466 5469 5471 5474 5477 5480 5483 5486 5489 5492 5495 5498 5501 5504 5507 5510 5513 5516 5519 5522 5525 5528 5531 5534 5537 5540 5543 5546 5549 5552 5555 5558 5561 5564 5567 5570 5573 5576 5578 5581 5583 5586 5589 5592 5595 5598 5601 5604 5607 5610 5613 5616 5619 5622 5625 5628 5631 5634 5637 5639 5642 5645 5648 5651 5654 5656 5659 5662 5665 5667 5670 5673 5675 5678 5681 5684 5687 5690 5692 5695 5697 5700 5703 5706 5709 5712 5714 5717 5720 5723 5725 5728 5731 5733 5736 5738 5741 5744 5746 5749 5752 5755 5757 5759 5762 5765 5768 5770 5773 5776 5779 5782 5785 5788 5791 5794 5797 5800 5802 5804 5807 5810 5812 5815 5818 5820 5823 5826 5829 5832 5835 5837 5840 5843 5846 5848 5850 5853 5856 5859 5862 5864 5866 5868 5871 5873 5876 5879 5882 5885 5888 5891 5894 5896 5899 5902 5905 5908 5911 5914 5917 5920 5923 5926 5929 5932 5935 5938 5940 5943 5946 5949 5952 5955 5957 5960 5963 5966 5969 5971 5974 5977 5980 5983 5986 5989 5991 5994 5997 6000 6003 6006 6009 6012 6015 6017 6020 6023 6026 6029 6032 6035 6037 6040 6043 6046 6049 6051 6054 6057 6060 6063 6066 6069 6072 6075 6078 6081 6084 6086 6089 6092 6095 6098 6101 6103 6106 6109 6111 6114 6117 6120 6122 6125 6127 6130 6133 6135 6137 6140 6143 6146 6148 6151 6154 6157 6160 6162 6165 6168 6171 6174 6177 6180 6183 6186 6189 6192 6195 6198 6201 6204 6206 6208 6211 6214 6217 6219 6222 6224 6227 6229 6232 6234 6237 6240 6243 6245 6248 6251 6254 6256 6259 6262 6265 6267 6269 6272 6274 6277 6280 6283 6286 6288 6291 6293 6296 6299 6302 6305 6308 6311 6314 6317 6320 6323 6326 6328 6331 6334 6337 6340 6343 6346 6348 6351 6353 6356 6359 6361 6364 6367 6369 6372 6375 6378 6381 6384 6387 6390 6393 6396 6398 6401 6404 6407 6410 6413 6416 6419 6422 6425 6428 6431 6434 6437 6440 6443 6445 6447 6450 6453 6456 6459 6461 6464 6467 6470 6473 6476 6479 6481 6484 6487 6490 6493 6495 6498 6501 6504 6507 6510 6513 6515 6518 6521 6523 6526 6529 6532 6535 6538 6540 6543 6546 6549 6551 6554 6557 6560 6563 6566 6568 6571 6573 6576 6578 6581 6584 6587 6590 6593 6596 6599 6602 6605 6608 6611 6614 6617 6619 6622 6625 6628 6630 6633 6636 6639 6642 6645 6648 6651 6653 6656 6659 6662 6665 6668 6671 6674 6677 6679 6682 6685 6687 6690 6693 6695 6698 6701 6704 6707 6710 6713 6716 6719 6721 6724 6727 6730 6733 6736 6739 6741 6744 6747 6750 6753 6756 6759 6762 6765 6768 6770 6773 6776 6779 6782 6785 6787 6790 6793 6796 6799 6802 6805 6808 6811 6814 6816 6819 6822 6825 6828 6831 6834 6836 6839 6842 6845 6848 6851 6854 6857 6860 6862 6865 6868 6871 6873 6876 6879 6882 6885 6888 6891 6894 6897 6900 6903 6906 6909 6912 6915 6918 6921 6924 6927 6930 6933 6936 6939 6942 6945 6948 6951 6954 6957 6960 6963 6966 6969 6972 6975 6978 6981 6984 6987 6990 6992 6995 6998 7001 7003 7006 7009 7011 7014 7017 7020 7023 7026 7029 7032 7035 7038 7041 7044 7047 7050 7053 7056 7059 7062 7065 7068 7071 7074 7077 7080 7083 7086 7089 7092 7094 7097 7099 7102 7105 7108 7111 7114 7117 7120 7122 7125 7128 7130 7133 7136 7139 7141 7144 7147 7150 7153 7156 7158 7161 7164 7167 7170 7173 7176 7179 7182 7185 7188 7191 7194 7196 7199 7202 7205 7207 7210 7213 7215 7218 7221 7224 7227 7230 7233 7236 7239 7242 7245 7248 7251 7253 7256 7258 7261 7264 7267 7270 7273 7276 7279 7282 7285 7287 7290 7293 7296 7299 7302 7305 7308 7311 7313 7316 7319 7322 7325 7328 7330 7333 7336 7339 7342 7345 7348 7351 7354 7357 7360 7363 7366 7369 7371 7374 7376 7378 7381 7384 7387 7390 7393 7396 7398 7401 7404 7407 7410 7412 7415 7418 7421 7423 7426 7429 7432 7435 7438 7441 7444 7447 7450 7453 7455 7458 7461 7464 7467 7469 7472 7475 7477 7480 7482 7485 7488 7491 7494 7496 7499 7502 7505 7508 7511 7513 7515 7518 7521 7524 7527 7530 7533 7535 7538 7541 7543 7546 7549 7551 7554 7557 7560 7563 7566 7568 7571 7574 7577 7580 7583 7586 7589 7592 7595 7598 7600 7603 7606 7609 7612 7615 7618 7621 7624 7627 7630 7633 7636 7639 7642 7645 7647 7650 7653 7656 7658 7661 7664 7666 7669 7672 7675 7678 7681 7684 7686 7689 7691 7694 7697 7700 7703 7706 7709 7712 7715 7718 7720 7722 7725 7728 7730 7733 7735 7737 7740 7743 7746 7749 7752 7755 7758 7761 7764 7766 7769 7772 7775 7778 7781 7784 7787 7790 7793 7796 7799 7802 7805 7808 7811 7814 7817 7819 7822 7825 7828 7831 7834 7837 7840 7843 7846 7849 7852 7855 7858 7861 7864 7867 7870 7873 7875 7878 7881 7884 7886 7889 7892 7895 7897 7900 7902 7905 7908 7910 7913 7916 7919 7921 7924 7927 7929 7932 7934 7937 7940 7942 7945 7947 7950 7953 7955 7958 7961 7964 7967 7970 7973 7975 7978 7981 7983 7986 7989 7992 7995 7998 8001 8004 8007 8010 8013 8015 8018 8020 8023 8026 8029 8031 8033 8036 8039 8042 8045 8047 8050 8053 8056 8059 8062 8064 8067 8070 8073 8076 8079 8081 8084 8087 8090 8092 8095 8098 8100 8103 8106 8109 8112 8115 8118 8121 8123 8126 8129 8132 8134 8137 8140 8143 8145 8148 8151 8154 8157 8160 8163 8165 8168 8171 8173 8176 8179 8182 8185 8187 8190 8192 8195 8198 8200 8203 8206 8209 8212 8214 8217 8220 8223 8226 8229 8232 8235 8238 8241 8244 8247 8250 8253 8256 8259 8262 8265 8268 8271 8274 8277 8280 8283 8286 8289 8292 8295 8298 8301 8304 8307 8310 8313 8316 8319 8322 8324 8327 8330 8333 8335 8338 8341 8344 8347 8350 8353 8356 8359 8362 8365 8368 8371 8374 8377 8380 8382 8385 8388 8391 8394 8397 8400 8403 8405 8408 8411 8414 8417 8420 8423 8426 8429 8432 8435 8438 8441 8443 8446 8448 8451 8454 8457 8460 8463 8465 8468 8471 8473 8476 8479 8481 8483 8486 8489 8491 8494 8497 8499 8502 8505 8507 8510 8513 8516 8519 8522 8524 8527 8530 8533 8536 8539 8542 8545 8548 8550 8553 8556 8559 8562 8565 8568 8571 8574 8576 8579 8582 8585 8588 8591 8593 8596 8599 8602 8605 8608 8611 8614 8617 8620 8623 8626 8629 8632 8635 8638 8641 8643 8646 8649 8651 8654 8657 8660 8663 8666 8669 8672 8675 8678 8681 8684 8687 8690 8693 8696 8698 8701 8704 8707 8710 8713 8716 8719 8721 8724 8727 8730 8733 8736 8739 8742 8745 8748 8751 8754 8757 8760 8762 8765 8768 8771 8774 8777 8780 8783 8785 8787 8790 8793 8796 8799 8802 8805 8807 8810 8813 8816 8819 8822 8825 8828 8831 8834 8837 8840 8843 8846 8849 8852 8854 8857 8860 8863 8866 8869 8872 8875 8878 8881 8884 8886 8889 8892 8895 8898 8901 8904 8907 8910 8913 8916 8918 8921 8924 8926 8929 8932 8935 8938 8941 8944 8947 8950 8953 8956 8958 8960 8963 8966 8968 8971 8974 8977 8980 8983 8986 8988 8991 8993 8996 8999 9002 9005 9008 9010 9013 9016 9019 9022 9025 9028 9031 9034 9037 9040 9042 9045 9048 9051 9054 9057 9059 9062 9065 9068 9071 9074 9077 9080 9083 9086 9089 9092 9095 9098 9101 9104 9107 9110 9113 9116 9119 9122 9125 9128 9131 9134 9137 9140 9143 9146 9149 9151 9153 9156 9159 9162 9165 9167 9170 9173 9176 9179 9182 9185 9188 9191 9194 9197 9200 9203 9206 9209 9212 9215 9218 9221 9224 9227 9230 9233 9236 9239 9242 9245 9248 9251 9253 9256 9259 9262 9265 9268 9271 9274 9277 9280 9283 9286 9289 9292 9295 9298 9301 9304 9307 9310 9313 9316 9319 9321 9324 9326 9329 9332 9335 9338 9341 9344 9347 9350 9353 9356 9359 9362 9365 9368 9371 9374 9377 9380 9382 9385 9388 9390 9393 9396 9399 9402 9405 9408 9411 9413 9415 9417 9420 9423 9426 9429 9432 9434 9437 9440 9443 9446 9449 9452 9455 9458 9461 9464 9467 9470 9473 9476 9479 9482 9485 9488 9491 9494 9497 9500 9503 9506 9509 9512 9515 9517 9520 9523 9526 9529 9531 9534 9537 9539 9542 9545 9547 9550 9553 9555 9558 9560 9563 9566 9569 9572 9575 9578 9581 9584 9587 9590 9593 9596 9598 9601 9604 9607 9609 9612 9615 9618 9621 9624 9627 9630 9633 9636 9639 9641 9644 9647 9649 9651 9654 9657 9660 9662 9664 9666 9669 9672 9675 9678 9681 9683 9686 9688 9690 9693 9696 9698 9700 9703 9705 9708 9711 9713 9716 9719 9722 9724 9726 9728 9730 9733 9736 9739 9742 9745 9748 9751 9754 9757 9760 9763 9766 9769 9772 9775 9778 9781 9784 9787 9790 9793 9796 9798 9801 9804 9807 9809 9812 9815 9818 9821 9824 9827 9830 9833 9836 9839 9842 9845 9848 9851 9854 9857 9860 9863 9866 9869 9872 9875 9878 9881 9884 9886 9889 9892 9895 9897 9900 9903 9906 9909 9911 9914 9917 9920 9922 9925 9928 9931 9934 9937 9940 9943 9946 9949 9952 9955 9958 9961 9963 9966 9968 9971 9974 9977 9980 9983 9986 9989 9992 9995 9998 10001 10004 10007 10010 10013 10016 10019 10022 10025 10028 10031 10034 10037 10040 10042 10044 10046 10049 10052 10055 10058 10061 10064 10066 10069 10072 10075 10078 10081 10084 10087 10090 10093 10096 10099 10101 10104 10107 10110 10113 10116 10119 10122 10125 10128 10131 10134 10137 10140 10143 10146 10148 10151 10154 10156 10158 10161 10164 10166 10169 10172 10175 10178 10181 10184 10187 10190 10193 10196 10199 10202 10205 10208 10211 10214 10217 10220 10223 10226 10229 10232 10234 10237 10240 10242 10245 10248 10251 10254 10257 10260 10263 10266 10269 10272 10275 10278 10280 10283 10286 10289 10292 10295 10298 10301 10304 10307 10310 10312 10315 10318 10321 10324 10327 10330 10333 10336 10339 10341 10344 10347 10349 10352 10355 10358 10360 10363 10366 10369 10371 10374 10377 10380 10383 10386 10389 10391 10394 10397 10400 10403 10406 10409 10412 10415 10418 10420 10423 10426 10428 10431 10433 10436 10439 10441 10444 10447 10450 10453 10456 10459 10462 10465 10468 10471 10474 10477 10480 10482 10485 10488 10491 10494 10497 10500 10503 10506 10509 10512 10515 10517 10520 10523 10526 10529 10532 10534 10536 10538 10541 10544 10547 10550 10553 10556 10559 10562 10565 10568 10571 10574 10577 10580 10583 10586 10589 10592 10595 10598 10601 10604 10607 10610 10613 10615 10618 10620 10623 10626 10628 10631 10634 10637 10640 10643 10646 10649 10651 10654 10657 10660 10663 10666 10669 10672 10675 10678 10680 10683 10686 10688 10691 10694 10697 10700 10703 10706 10709 10712 10714 10717 10720 10723 10726 10728 10731 10734 10737 10740 10743 10746 10749 10752 10755 10758 10761 10764 10767 10770 10773 10776 10779 10782 10785 10788 10791 10794 10797 10800 10803 10806 10809 10812 10814 10817 10820 10822 10825 10828 10831 10834 10837 10840 10843 10845 10848 10851 10854 10857 10860 10863 10865 10868 10871 10874 10877 10880 10883 10886 10889 10892 10895 10897 10900 10903 10906 10909 10912 10915 10918 10921 10924 10927 10929 10932 10935 10938 10941 10944 10946 10949 10952 10954 10957 10960 10963 10966 10969 10972 10975 10978 10981 10984 10987 10990 10993 10996 10999 11002 11004 11007 11010 11013 11016 11019 11022 11025 11028 11031 11034 11037 11040 11043 11046 11049 11052 11055 11058 11061 11063 11066 11069 11072 11075 11077 11080 11083 11086 11088 11091 11094 11097 11099 11102 11105 11108 11110 11113 11115 11118 11121 11124 11127 11130 11133 11136 11139 11142 11145 11148 11151 11154 11157 11160 11163 11166 11169 11172 11175 11178 11180 11183 11186 11189 11191 11194 11197 11200 11203 11206 11208 11211 11214 11217 11219 11222 11225 11228 11231 11234 11237 11240 11243 11246 11249 11252 11254 11256 11259 11262 11265 11268 11271 11273 11276 11279 11282 11285 11287 11290 11293 11295 11298 11301 11304 11307 11310 11313 11316 11319 11322 11325 11328 11331 11334 11337 11340 11343 11346 11349 11352 11355 11358 11361 11364 11367 11370 11373 11376 11379 11382 11385 11388 11391 11394 11397 11400 11403 11406 11408 11411 11414 11417 11420 11423 11425 11428 11430 11433 11436 11439 11442 11445 11448 11451 11454 11457 11460 11463 11466 11469 11472 11475 11478 11481 11484 11487 11490 11493 11496 11498 11501 11504 11507 11509 11511 11514 11517 11519 11522 11525 11528 11531 11534 11537 11540 11543 11546 11549 11552 11555 11557 11559 11562 11565 11568 11571 11574 11577 11579 11582 11585 11588 11591 11593 11596 11599 11602 11605 11607 11610 11613 11616 11619 11621 11624 11627 11630 11633 11636 11639 11641 11643 11646 11649 11652 11655 11657 11660 11663 11666 11669 11672 11675 11678 11681 11684 11687 11689 11692 11695 11698 11700 11703 11706 11709 11712 11714 11716 11719 11722 11725 11728 11731 11734 11737 11740 11743 11746 11749 11751 11754 11757 11760 11762 11765 11768 11771 11774 11777 11780 11783 11786 11788 11791 11794 11797 11800 11803 11806 11809 11812 11815 11818 11821 11824 11827 11830 11833 11836 11839 11842 11845 11848 11851 11854 11857 11860 11863 11866 11869 11872 11875 11878 11881 11884 11887 11890 11893 11896 11899 11902 11905 11908 11910 11913 11916 11919 11922 11925 11928 11931 11934 11937 11940 11943 11946 11949 11952 11955 11958 11961 11964 11967 11970 11973 11976 11979 11982 11985 11988 11991 11994 11997 12000 12003 12006 12009 12011 12014 12017 12020 12022 12025 12028 12031 12034 12037 12040 12043 12045 12048 12050 12053 12056 12059 12062 12065 12068 12071 12074 12077 12080 12082 12085 12088 12091 12094 12096 12099 12101 12104 12107 12110 12113 12116 12119 12122 12125 12128 12131 12134 12137 12140 12143 12146 12149 12152 12155 12158 12161 12164 12167 12170 12173 12176 12179 12182 12185 12188 12191 12194 12197 12200 12203 12206 12209 12212 12215 12218 12221 12224 12227 12230 12233 12236 12239 12242 12245 12248 12251 12254 12256 12259 12262 12265 12268 12271 12274 12277 12280 12283 12286 12289 12292 12294 12297 12300 12303 12305 12308 12310 12312 12315 12318 12321 12324 12327 12330 12333 12336 12338 12341 12344 12346 12349 12352 12355 12357 12360 12363 12366 12369 12372 12375 12378 12381 12383 12386 12389 12391 12394 12397 12400 12403 12406 12409 12412 12414 12416 12419 12422 12425 12428 12431 12433 12436 12439 12442 12444 12447 12450 12453 12456 12459 12462 12465 12468 12470 12473 12476 12479 12481 12484 12487 12490 12493 12496 12498 12501 12504 12507 12509 12512 12515 12518 12521 12524 12527 12530 12533 12536 12539 12542 12545 12548 12551 12554 12557 12560 12563 12566 12569 12572 12575 12578 12581 12584 12587 12590 12593 12596 12599 12602 12605 12608 12611 12614 12617 12620 12623 12626 12629 12632 12635 12638 12641 12644 12647 12650 12653 12656 12658 12661 12664 12667 12669 12672 12675 12678 12680 12683 12686 12689 12692 12695 12698 12701 12704 12706 12709 12712 12714 12717 12720 12723 12726 12729 12732 12735 12738 12741 12744 12747 12749 12752 12755 12758 12761 12764 12767 12770 12773 12776 12778 12781 12783 12786 12788 12790 12793 12796 12799 12802 12805 12808 12811 12814 12817 12820 12823 12826 12829 12832 12835 12838 12841 12844 12847 12850 12853 12856 12859 12862 12865 12868 12871 12874 12877 12880 12883 12886 12889 12892 12895 12898 12901 12904 12907 12910 12913 12916 12919 12922 12925 12928 12931 12934 12937 12940 12943 12946 12949 12952 12955 12958 12961 12964 12967 12970 12973 12976 12979 12982 12985 12988 12991 12994 12997 13000 13003 13006 13009 13012 13015 13018 13021 13024 13027 13030 13033 13036 13039 13042 13045 13048 13051 13054 13057 13060 13063 13066 13069 13072 13075 13078 13081 13084 13087 13090 13093 13096 13098 13101 13104 13106 13109 13112 13114 13117 13120 13122 13125 13128 13131 13134 13137 13140 13143 13146 13149 13152 13155 13158 13161 13164 13167 13170 13173 13176 13179 13182 13185 13188 13191 13194 13197 13200 13202 13204 13207 13210 13213 13216 13219 13222 13225 13228 13231 13234 13237 13240 13242 13245 13248 13251 13253 13256 13258 13261 13264 13267 13269 13272 13275 13278 13281 13284 13287 13289 13292 13295 13298 13301 13304 13307 13310 13313 13316 13318 13321 13324 13327 13330 13333 13336 13338 13341 13344 13346 13349 13352 13355 13358 13361 13364 13366 13369 13372 13375 13378 13381 13384 13387 13390 13393 13396 13399 13402 13405 13408 13411 13414 13417 13420 13423 13426 13429 13431 13434 13436 13439 13442 13445 13448 13451 13454 13457 13460 13463 13466 13469 13472 13475 13478 13480 13483 13486 13489 13491 13494 13497 13500 13503 13506 13509 13512 13515 13518 13520 13523 13526 13529 13532 13535 13538 13541 13544 13547 13549 13552 13555 13558 13561 13564 13567 13570 13573 13576 13579 13582 13585 13588 13591 13594 13597 13600 13603 13606 13609 13612 13615 13618 13621 13624 13626 13629 13632 13635 13638 13641 13644 13647 13650 13653 13656 13658 13661 13664 13666 13669 13672 13675 13678 13681 13684 13687 13690 13693 13696 13699 13702 13705 13708 13711 13714 13717 13720 13723 13725 13728 13731 13734 13737 13740 13743 13746 13749 13752 13755 13758 13761 13764 13767 13770 13773 13776 13779 13782 13785 13788 13791 13794 13797 13800 13803 13806 13809 13812 13815 13818 13821 13824 13827 13830 13832 13835 13838 13840 13843 13846 13849 13852 13854 13857 13860 13863 13865 13868 13871 13874 13877 13880 13883 13886 13889 13892 13895 13898 13900 13903 13906 13909 13912 13915 13918 13921 13924 13927 13930 13933 13936 13939 13942 13945 13948 13951 13954 13956 13959 13961 13964 13967 13970 13973 13976 13979 13982 13985 13988 13991 13994 13997 14000 14003 14006 14008 14011 14014 14016 14019 14022 14025 14027 14030 14033 14036 14039 14041 14044 14047 14049 14052 14055 14058 14061 14064 14067 14070 14073 14075 14078 14081 14084 14086 14089 14092 14094 14097 14100 14103 14106 14109 14112 14115 14118 14121 14124 14127 14130 14133 14136 14139 14142 14144 14147 14150 14153 14156 14158 14161 14164 14167 14170 14173 14176 14179 14182 14185 14188 14190 14193 14196 14198 14201 14204 14207 14210 14213 14216 14218 14221 14224 14227 14230 14233 14236 14239 14242 14244 14246 14249 14252 14255 14258 14261 14264 14266 14269 14272 14275 14278 14281 14284 14287 14290 14293 14296 14299 14302 14305 14308 14310 14313 14315 14318 14321 14324 14327 14330 14333 14336 14339 14342 14345 14348 14351 14353 14356 14359 14362 14365 14368 14371 14374 14377 14380 14383 14386 14389 14391 14394 14397 14400 14403 14406 14409 14412 14414 14417 14420 14423 14426 14429 14432 14435 14438 14440 14443 14446 14448 14451 14454 14457 14460 14463 14466 14468 14471 14474 14477 14480 14483 14486 14489 14492 14495 14498 14500 14503 14506 14509 14512 14515 14518 14520 14523 14526 14529 14532 14535 14538 14540 14543 14546 14549 14551 14554 14557 14560 14563 14566 14569 14572 14575 14578 14581 14584 14586 14589 14592 14595 14598 14601 14604 14606 14609 14612 14615 14618 14621 14623 14626 14629 14632 14635 14638 14640 14643 14646 14649 14652 14655 14658 14661 14664 14666 14669 14672 14675 14678 14681 14684 14687 14689 14692 14695 14697 14700 14703 14706 14709 14712 14715 14718 14721 14724 14727 14730 14733 14736 14739 14742 14745 14748 14751 14754 14757 14760 14763 14765 14768 14771 14773 14776 14779 14781 14784 14787 14790 14793 14796 14799 14802 14805 14808 14811 14814 14817 14820 14823 14826 14829 14832 14835 14838 14841 14844 14847 14850 14853 14856 14859 14862 14865 14868 14871 14874 14877 14880 14883 14886 14889 14892 14895 14898 14901 14904 14907 14910 14913 14916 14919 14922 14925 14928 14931 14934 14937 14940 14943 14946 14949 14952 14955 14958 14961 14964 14967 14970 14973 14976 14979 14981 14984 14987 14990 14993 14995 14998 15001 15004 15007 15010 15013 15015 15018 15021 15024 15027 15030 15033 15036 15039 15042 15045 15048 15050 15053 15056 15059 15062 15065 15067 15070 15073 15076 15079 15082 15085 15088 15091 15094 15097 15100 15103 15106 15109 15112 15115 15118 15121 15124 15126 15129 15132 15135 15138 15141 15144 15146 15149 15152 15155 15158 15161 15163 15166 15169 15172 15175 15178 15181 15184 15187 15190 15193 15195 15198 15201 15204 15207 15210 15213 15216 15219 15222 15225 15228 15230 15233 15236 15239 15242 15245 15248 15251 15254 15256 15259 15262 15265 15267 15270 15273 15276 15279 15281 15284 15287 15290 15293 15296 15299 15302 15304 15307 15309 15312 15314 15317 15320 15323 15326 15329 15332 15335 15338 15341 15344 15347 15350 15353 15355 15358 15361 15364 15367 15370 15373 15376 15379 15382 15384 15387 15390 15393 15396 15399 15402 15405 15408 15411 15414 15417 15420 15423 15426 15429 15432 15435 15438 15441 15444 15446 15449 15452 15455 15457 15460 15463 15466 15469 15472 15475 15478 15481 15484 15487 15490 15493 15496 15498 15501 15504 15507 15509 15512 15515 15517 15520 15523 15526 15528 15530 15533 15536 15539 15541 15544 15547 15550 15552 15555 15557 15559 15562 15564 15566 15568 15571 15574 15577 15580 15583 15586 15588 15591 15594 15596 15599 15602 15604 15607 15610 15613 15616 15619 15622 15625 15628 15631 15633 15636 15638 15641 15644 15647 15650 15653 15656 15659 15662 15665 15668 15671 15674 15677 15680 15682 15685 15688 15691 15694 15696 15699 15702 15705 15708 15710 15713 15715 15718 15721 15724 15727 15730 15732 15735 15738 15740 15743 15746 15749 15751 15754 15757 15760 15763 15766 15768 15771 15773 15775 15778 15781 15784 15786 15789 15792 15794 15796 15799 15802 15805 15808 15810 15813 15815 15818 15821 15824 15827 15830 15833 15835 15838 15841 15844 15847 15850 15853 15856 15859 15862 15865 15868 15871 15874 15877 15880 15882 15885 15888 15891 15893 15896 15898 15900 15903 15905 15908 15910 15913 15916 15918 15921 15924 15927 15929 15932 15935 15938 15941 15943 15946 15949 15952 15955 15958 15961 15963 15965 15968 15971 15974 15976 15978 15981 15984 15986 15989 15991 15994 15996 15998 16001 16004 16007 16010 16013 16016 16019 16022 16025 16028 16031 16034 16037 16039 16042 16045 16048 16051 16054 16057 16060 16063 16066 16069 16072 16075 16078 16080 16083 16086 16089 16091 16093 16096 16099 16102 16105 16108 16111 16114 16117 16120 16123 16126 16129 16132 16134 16137 16140 16143 16146 16149 16151 16154 16157 16160 16163 16166 16169 16172 16174 16177 16180 16182 16185 16188 16191 16194 16197 16200 16203 16206 16209 16212 16214 16217 16220 16223 16225 16228 16230 16233 16236 16239 16242 16245 16248 16251 16254 16257 16260 16263 16266 16269 16272 16275 16278 16281 16283 16285 16288 16291 16294 16297 16299 16302 16305 16308 16311 16314 16317 16319 16322 16325 16328 16331 16333 16335 16338 16341 16344 16346 16349 16352 16354 16357 16360 16363 16366 16369 16372 16375 16377 16380 16383 16385 16388 16390 16392 16395 16398 16400 16402 16405 16407 16410 16413 16416 16419 16422 16425 16428 16431 16434 16437 16439 16442 16445 16448 16450 16452 16455 16457 16460 16463 16466 16469 16472 16475 16477 16480 16482 16485 16488 16491 16494 16497 16500 16503 16506 16509 16512 16515 16517 16520 16523 16526 16529 16532 16535 16538 16541 16544 16547 16550 16553 16556 16559 16562 16565 16568 16571 16573 16576 16579 16582 16585 16587 16590 16593 16595 16597 16600 16603 16606 16609 16611 16614 16617 16620 16623 16626 16629 16632 16634 16637 16640 16643 16645 16648 16651 16654 16657 16660 16662 16665 16668 16671 16674 16677 16679 16682 16685 16688 16691 16694 16696 16699 16702 16705 16708 16711 16714 16717 16720 16723 16725 16728 16731 16734 16737 16739 16742 16744 16747 16749 16752 16755 16758 16760 16763 16765 16768 16771 16773 16776 16779 16782 16785 16788 16791 16793 16796 16799 16801 16804 16806 16809 16812 16815 16818 16821 16824 16827 16830 16832 16835 16838 16841 16844 16847 16850 16853 16856 16859 16861 16864 16867 16870 16873 16876 16878 16881 16883 16886 16889 16892 16895 16898 16901 16904 16907 16910 16913 16916 16919 16922 16925 16928 16931 16934 16937 16940 16943 16946 16949 16952 16955 16957 16960 16963 16966 16968 16971 16974 16976 16979 16982 16985 16988 16991 16994 16996 16999 17002 17005 17008 17011 17014 17017 17020 17023 17026 17029 17032 17034 17036 17039 17042 17045 17047 17050 17052 17055 17058 17061 17063 17066 17069 17072 17075 17077 17080 17082 17085 17088 17091 17094 17097 17100 17102 17105 17108 17111 17114 17117 17120 17122 17125 17127 17130 17133 17136 17139 17141 17144 17147 17150 17153 17156 17159 17162 17165 17168 17170 17173 17175 17178 17181 17184 17187 17190 17193 17196 17199 17202 17205 17208 17211 17214 17217 17220 17223 17226 17229 17232 17235 17238 17241 17244 17247 17250 17253 17255 17258 17261 17263 17266 17269 17272 17275 17278 17281 17284 17287 17290 17293 17296 17299 17302 17305 17308 17311 17314 17317 17320 17323 17326 17329 17332 17335 17338 17341 17344 17347 17350 17353 17355 17358 17361 17364 17367 17370 17373 17376 17379 17382 17385 17388 17391 17394 17397 17400 17403 17405 17408 17411 17414 17417 17420 17423 17426 17429 17432 17435 17438 17441 17444 17447 17449 17452 17455 17458 17461 17464 17467 17470 17473 17476 17479 17482 17485 17488 17491 17494 17497 17500 17503 17506 17509 17512 17515 17518 17521 17524 17527 17529 17532 17535 17538 17541 17544 17547 17550 17553 17556 17559 17562 17565 17568 17571 17574 17576 17579 17582 17585 17587 17590 17593 17596 17599 17602 17605 17608 17611 17614 17617 17620 17623 17626 17629 17632 17635 17638 17640 17643 17646 17649 17651 17654 17657 17660 17663 17665 17668 17671 17673 17676 17679 17682 17685 17688 17691 17694 17697 17700 17703 17706 17708 17711 17714 17717 17719 17722 17724 17727 17730 17733 17736 17739 17742 17745 17747 17750 17753 17756 17759 17762 17764 17767 17770 17773 17776 17779 17781 17784 17787 17790 17793 17796 17798 17801 17804 17807 17810 17813 17816 17819 17822 17825 17828 17831 17834 17837 17840 17842 17845 17848 17851 17854 17856 17859 17861 17864 17867 17870 17873 17876 17878 17881 17884 17887 17890 17892 17895 17898 17901 17904 17907 17910 17912 17915 17918 17920 17923 17926 17929 17932 17935 17938 17940 17943 17946 17949 17952 17954 17957 17960 17963 17965 17968 17971 17974 17977 17980 17983 17985 17988 17991 17994 17997 18000 18003 18006 18009 18012 18015 18018 18021 18024 18027 18030 18033 18036 18039 18042 18045 18048 18051 18053 18056 18058 18061 18064 18067 18070 18073 18076 18079 18082 18085 18088 18091 18094 18097 18100 18103 18106 18109 18112 18115 18117 18119 18122 18125 18128 18131 18134 18137 18140 18143 18145 18148 18151 18154 18157 18160 18163 18166 18169 18172 18175 18178 18180 18183 18186 18189 18191 18194 18197 18199 18202 18205 18208 18211 18214 18217 18220 18223 18226 18229 18232 18235 18238 18241 18244 18246 18249 18252 18255 18258 18260 18263 18266 18269 18271 18274 18277 18280 18283 18286 18289 18292 18295 18298 18300 18303 18306 18309 18312 18315 18318 18321 18324 18327 18330 18333 18336 18339 18342 18345 18348 18351 18354 18357 18360 18362 18365 18368 18371 18373 18376 18379 18382 18384 18387 18390 18393 18396 18399 18401 18404 18407 18409 18412 18415 18417 18419 18422 18425 18427 18430 18433 18436 18439 18442 18445 18447 18450 18453 18455 18458 18461 18463 18466 18469 18472 18475 18478 18481 18483 18486 18489 18492 18495 18498 18501 18504 18507 18510 18513 18516 18519 18522 18525 18528 18531 18534 18537 18539 18542 18545 18548 18551 18553 18556 18559 18562 18565 18568 18571 18574 18577 18580 18583 18586 18589 18592 18595 18598 18601 18604 18607 18610 18613 18616 18619 18622 18625 18628 18631 18634 18637 18640 18643 18646 18649 18652 18655 18657 18660 18663 18665 18668 18671 18674 18677 18679 18682 18685 18688 18691 18694 18697 18699 18702 18705 18708 18711 18714 18717 18720 18723 18726 18729 18732 18735 18738 18741 18744 18747 18750 18753 18756 18758 18761 18764 18766 18769 18771 18774 18777 18779 18782 18785 18788 18791 18794 18797 18800 18803 18806 18809 18812 18815 18817 18820 18823 18826 18829 18832 18834 18837 18840 18843 18846 18849 18852 18855 18858 18861 18864 18867 18870 18873 18876 18879 18882 18885 18888 18891 18894 18897 18899 18901 18904 18907 18910 18913 18916 18919 18922 18925 18928 18930 18933 18935 18938 18941 18943 18946 18948 18951 18954 18957 18960 18963 18966 18968 18970 18973 18976 18979 18982 18984 18987 18990 18993 18996 18999 19001 19004 19006 19009 19012 19015 19018 19021 19024 19027 19030 19033 19036 19039 19042 19045 19048 19050 19053 19056 19059 19062 19065 19068 19070 19073 19076 19079 19082 19085 19087 19090 19093 19096 19099 19102 19105 19108 19111 19114 19117 19120 19123 19126 19129 19132 19135 19138 19141 19144 19147 19150 19153 19156 19159 19162 19164 19167 19170 19173 19176 19179 19182 19185 19188 19191 19194 19197 19200 19203 19206 19209 19212 19215 19218 19221 19224 19227 19230 19233 19236 19239 19242 19245 19248 19251 19254 19257 19260 19263 19266 19269 19272 19275 19278 19281 19284 19287 19290 19293 19296 19299 19302 19305 19308 19311 19314 19316 19319 19322 19325 19328 19330 19333 19336 19339 19342 19345 19348 19351 19354 19357 19360 19363 19366 19369 19372 19375 19378 19381 19384 19387 19390 19392 19395 19398 19400 19403 19406 19409 19412 19414 19417 19420 19423 19426 19429 19432 19434 19437 19440 19443 19446 19449 19452 19455 19458 19461 19464 19467 19470 19472 19475 19477 19480 19483 19486 19489 19492 19495 19498 19501 19504 19507 19510 19513 19515 19518 19521 19524 19527 19530 19532 19535 19538 19541 19543 19545 19548 19551 19554 19557 19559 19562 19565 19568 19571 19574 19577 19580 19582 19585 19588 19591 19594 19597 19600 19603 19606 19609 19612 19614 19617 19620 19623 19626 19629 19632 19635 19638 19641 19644 19647 19650 19652 19654 19657 19660 19663 19666 19668 19670 19673 19676 19679 19682 19685 19688 19691 19693 19696 19699 19701 19704 19707 19710 19713 19715 19718 19721 19724 19727 19730 19733 19736 19738 19741 19744 19746 19748 19751 19754 19757 19760 19763 19766 19769 19772 19774 19776 19779 19781 19783 19786 19789 19792 19794 19797 19799 19802 19805 19808 19811 19814 19817 19820 19823 19826 19829 19832 19835 19838 19841 19844 19847 19850 19853 19856 19859 19862 19865 19868 19871 19874 19877 19880 19883 19886 19889 19892 19895 19898 19901 19903 19905 19908 19911 19914 19917 19920 19923 19926 19929 19932 19935 19938 19941 19943 19946 19949 19952 19955 19958 19961 19964 19966 19969 19972 19975 19978 19981 19984 19987 19989 19992 19995 19998 20001 20004 20007 20010 20013 20016 20018 20021 20024 20027 20030 20032 20034 20037 20040 20043 20046 20049 20052 20055 20058 20061 20064 20067 20070 20073 20075 20078 20081 20084 20087 20090 20093 20096 20099 20102 20105 20108 20111 20114 20117 20120 20123 20126 20129 20132 20135 20138 20141 20144 20147 20150 20153 20156 20159 20162 20164 20167 20169 20172 20175 20178 20180 20183 20185 20188 20191 20194 20197 20200 20203 20206 20209 20212 20215 20218 20221 20224 20227 20230 20233 20235 20238 20241 20244 20247 20250 20253 20256 20259 20262 20265 20268 20271 20274 20277 20280 20283 20286 20289 20292 20295 20298 20300 20303 20305 20308 20311 20314 20317 20320 20323 20326 20329 20332 20334 20337 20340 20342 20345 20348 20350 20353 20356 20358 20361 20364 20367 20370 20373 20376 20379 20382 20385 20388 20391 20394 20397 20400 20403 20406 20409 20412 20415 20417 20420 20423 20426 20428 20431 20434 20437 20440 20443 20446 20449 20452 20455 20458 20461 20464 20467 20470 20473 20476 20479 20482 20485 20488 20491 20494 20497 20500 20503 20506 20509 20512 20515 20518 20521 20524 20527 20530 20533 20536 20539 20542 20545 20548 20551 20554 20557 20560 20563 20566 20569 20572 20575 20578 20581 20584 20587 20590 20593 20596 20599 20602 20605 20607 20610 20613 20616 20619 20622 20625 20628 20631 20634 20637 20640 20643 20646 20649 20652 20655 20658 20661 20664 20667 20670 20673 20675 20678 20681 20684 20687 20690 20693 20696 20699 20702 20705 20708 20711 20713 20716 20719 20722 20725 20727 20730 20733 20736 20739 20742 20745 20748 20751 20754 20756 20759 20762 20765 20768 20771 20774 20777 20780 20783 20786 20789 20792 20795 20798 20801 20804 20807 20810 20813 20816 20818 20821 20824 20827 20830 20833 20836 20839 20842 20845 20848 20851 20854 20857 20860 20863 20866 20868 20871 20873 20876 20879 20882 20885 20888 20891 20894 20897 20900 20903 20906 20909 20912 20915 20918 20921 20924 20927 20930 20933 20936 20939 20942 20945 20948 20951 20954 20957 20960 20963 20966 20969 20972 20975 20978 20981 20984 20987 20990 20993 20996 20999 21002 21005 21008 21011 21014 21017 21020 21023 21026 21029 21032 21035 21038 21041 21044 21047 21050 21053 21056 21059 21062 21065 21068 21071 21074 21077 21080 21082 21085 21088 21091 21094 21097 21099 21102 21105 21108 21111 21114 21117 21120 21123 21126 21129 21132 21135 21138 21140 21143 21146 21149 21152 21155 21158 21161 21164 21166 21169 21172 21175 21178 21180 21182 21185 21188 21190 21193 21195 21198 21201 21204 21207 21210 21213 21215 21218 21221 21223 21226 21229 21232 21235 21238 21241 21243 21246 21249 21252 21255 21258 21261 21264 21267 21270 21273 21276 21279 21282 21285 21288 21291 21294 21297 21299 21302 21305 21308 21311 21314 21317 21320 21323 21325 21328 21331 21334 21337 21339 21342 21345 21348 21351 21354 21357 21360 21363 21366 21369 21372 21375 21378 21380 21383 21386 21389 21392 21394 21397 21400 21403 21406 21409 21412 21415 21417 21420 21423 21426 21429 21431 21434 21437 21440 21443 21446 21449 21451 21454 21457 21460 21463 21465 21468 21471 21474 21477 21480 21483 21486 21489 21492 21495 21498 21500 21503 21506 21509 21512 21515 21518 21521 21524 21527 21529 21532 21535 21538 21540 21543 21546 21549 21551 21554 21557 21560 21563 21566 21569 21572 21574 21577 21580 21583 21585 21588 21591 21594 21597 21600 21603 21606 21608 21611 21614 21616 21619 21622 21625 21628 21631 21634 21637 21640 21642 21645 21648 21651 21654 21657 21660 21663 21665 21668 21671 21673 21676 21679 21682 21685 21688 21691 21694 21697 21700 21702 21705 21708 21711 21714 21716 21719 21722 21724 21727 21730 21733 21736 21738 21741 21744 21747 21750 21753 21755 21758 21761 21764 21767 21770 21773 21776 21779 21782 21785 21788 21791 21794 21797 21799 21802 21805 21808 21811 21814 21817 21820 21823 21826 21828 21831 21834 21837 21840 21843 21846 21848 21851 21854 21857 21860 21863 21866 21869 21872 21875 21878 21881 21884 21887 21890 21893 21896 21899 21902 21905 21908 21911 21914 21917 21920 21923 21926 21929 21932 21935 21938 21941 21944 21947 21950 21953 21956 21959 21962 21965 21968 21971 21974 21977 21979 21982 21985 21988 21991 21994 21996 21999 22002 22005 22008 22011 22013 22016 22019 22022 22025 22028 22031 22034 22037 22040 22043 22046 22049 22052 22055 22058 22061 22064 22067 22070 22073 22076 22078 22081 22083 22086 22089 22092 22094 22097 22099 22102 22105 22108 22110 22113 22116 22119 22122 22125 22128 22131 22134 22137 22140 22143 22145 22147 22150 22153 22156 22159 22162 22165 22168 22171 22174 22176 22178 22181 22184 22187 22190 22193 22196 22199 22202 22205 22208 22210 22213 22216 22219 22222 22225 22228 22231 22234 22236 22238 22241 22244 22247 22250 22253 22255 22258 22261 22264 22267 22270 22272 22275 22277 22280 22283 22286 22289 22292 22294 22297 22300 22303 22306 22309 22312 22314 22317 22320 22323 22326 22329 22332 22335 22338 22341 22344 22346 22349 22351 22354 22356 22359 22362 22365 22368 22371 22374 22377 22380 22383 22386 22389 22392 22394 22397 22400 22403 22405 22408 22411 22413 22416 22419 22422 22425 22428 22430 22433 22436 22439 22442 22445 22448 22451 22454 22457 22460 22463 22466 22469 22472 22475 22478 22481 22484 22487 22490 22492 22495 22498 22501 22504 22507 22510 22513 22516 22519 22522 22525 22528 22531 22534 22537 22540 22543 22546 22549 22552 22555 22558 22561 22564 22567 22570 22573 22575 22578 22581 22584 22587 22590 22593 22596 22599 22602 22604 22607 22610 22613 22616 22619 22621 22624 22627 22630 22633 22636 22639 22642 22645 22648 22651 22654 22657 22660 22663 22666 22669 22672 22675 22678 22681 22684 22687 22690 22692 22695 22697 22700 22703 22706 22709 22712 22715 22718 22721 22723 22726 22729 22732 22734 22737 22740 22742 22745 22747 22750 22753 22756 22759 22762 22765 22767 22769 22771 22774 22777 22780 22782 22785 22788 22791 22794 22797 22800 22803 22806 22809 22811 22814 22817 22820 22822 22825 22828 22831 22834 22836 22839 22842 22845 22848 22851 22854 22857 22860 22863 22866 22869 22872 22875 22878 22881 22884 22887 22889 22892 22895 22898 22901 22904 22906 22909 22912 22914 22916 22919 22922 22924 22927 22930 22933 22936 22939 22942 22945 22948 22951 22953 22956 22958 22961 22963 22966 22969 22972 22975 22977 22980 22983 22985 22988 22991 22994 22996 22999 23002 23005 23008 23011 23013 23016 23019 23022 23024 23027 23030 23033 23036 23039 23041 23044 23047 23050 23053 23056 23059 23062 23065 23068 23070 23073 23076 23079 23081 23084 23087 23090 23093 23096 23099 23102 23105 23108 23111 23114 23116 23119 23122 23125 23128 23130 23133 23135 23138 23141 23144 23147 23150 23152 23154 23157 23160 23163 23166 23169 23172 23175 23178 23181 23183 23186 23189 23192 23195 23198 23200 23203 23206 23209 23212 23215 23218 23221 23224 23226 23229 23231 23234 23237 23239 23242 23245 23248 23251 23254 23257 23260 23263 23265 23268 23271 23273 23276 23279 23282 23285 23287 23290 23293 23296 23299 23302 23305 23308 23311 23314 23317 23320 23323 23326 23329 23332 23335 23338 23340 23343 23346 23349 23352 23355 23358 23361 23364 23367 23370 23373 23376 23378 23381 23384 23386 23388 23390 23393 23395 23398 23401 23404 23407 23410 23413 23415 23418 23420 23423 23426 23429 23432 23435 23438 23441 23444 23447 23450 23452 23455 23458 23461 23464 23467 23470 23472 23475 23478 23481 23483 23486 23489 23491 23493 23496 23499 23502 23505 23508 23510 23513 23516 23519 23521 23524 23527 23530 23533 23536 23539 23542 23545 23548 23551 23554 23557 23559 23562 23565 23568 23571 23574 23577 23580 23582 23585 23588 23591 23594 23597 23600 23603 23606 23609 23612 23614 23617 23620 23623 23626 23628 23631 23633 23636 23639 23642 23644 23647 23650 23653 23655 23658 23661 23664 23667 23670 23673 23676 23679 23682 23685 23688 23691 23694 23696 23699 23702 23705 23708 23710 23713 23716 23719 23722 23725 23728 23731 23734 23737 23740 23743 23746 23748 23751 23754 23756 23759 23762 23765 23768 23771 23774 23777 23780 23783 23786 23789 23791 23793 23796 23799 23802 23805 23808 23811 23814 23817 23820 23823 23826 23829 23832 23835 23838 23841 23844 23847 23850 23853 23856 23859 23861 23864 23867 23870 23873 23876 23879 23882 23885 23888 23891 23894 23897 23900 23903 23906 23909 23912 23915 23918 23921 23924 23927 23930 23933 23936 23938 23941 23944 23947 23950 23953 23956 23959 23962 23965 23968 23971 23974 23977 23979 23981 23984 23987 23990 23993 23996 23999 24001 24004 24007 24010 24012 24014 24017 24020 24023 24026 24029 24032 24034 24037 24040 24043 24046 24048 24051 24054 24057 24059 24062 24064 24067 24070 24073 24076 24079 24082 24085 24088 24091 24094 24097 24100 24102 24105 24108 24110 24113 24116 24119 24122 24125 24128 24131 24134 24137 24139 24142 24145 24148 24150 24152 24155 24158 24161 24164 24167 24170 24173 24176 24179 24182 24185 24187 24190 24192 24195 24198 24201 24204 24207 24210 24212 24215 24218 24220 24223 24226 24229 24232 24235 24238 24241 24243 24246 24249 24252 24255 24258 24261 24264 24267 24269 24272 24275 24278 24281 24284 24287 24290 24293 24296 24299 24302 24305 24307 24309 24312 24315 24318 24321 24323 24326 24329 24331 24334 24337 24340 24343 24346 24349 24352 24355 24358 24360 24363 24366 24369 24372 24374 24377 24380 24383 24386 24389 24392 24395 24398 24401 24404 24406 24409 24412 24415 24417 24420 24423 24426 24429 24432 24434 24437 24440 24443 24446 24449 24452 24455 24458 24461 24463 24466 24469 24472 24475 24478 24481 24484 24487 24490 24493 24496 24499 24502 24505 24508 24511 24514 24517 24520 24523 24526 24529 24532 24535 24538 24541 24544 24547 24550 24552 24554 24557 24560 24563 24566 24569 24572 24575 24578 24581 24584 24587 24590 24592 24595 24598 24601 24604 24607 24610 24613 24616 24619 24622 24625 24628 24631 24634 24637 24640 24643 24646 24649 24652 24654 24657 24660 24663 24666 24669 24672 24675 24678 24681 24684 24687 24690 24693 24696 24699 24701 24704 24707 24710 24713 24716 24719 24722 24725 24728 24731 24734 24737 24740 24742 24744 24747 24750 24753 24756 24759 24762 24765 24768 24771 24774 24777 24780 24783 24786 24789 24792 24795 24798 24801 24804 24807 24810 24813 24816 24819 24822 24825 24828 24831 24834 24837 24840 24843 24846 24849 24852 24855 24858 24861 24863 24866 24869 24872 24875 24877 24880 24883 24886 24889 24892 24895 24898 24901 24904 24907 24910 24913 24916 24919 24922 24925 24928 24931 24933 24936 24938 24941 24943 24946 24949 24952 24955 24958 24961 24964 24967 24970 24973 24976 24979 24982 24985 24987 24990 24993 24996 24999 25002 25005 25008 25011 25014 25017 25020 25022 25024 25027 25030 25033 25036 25039 25042 25045 25048 25051 25054 25057 25060 25063 25066 25069 25072 25075 25078 25081 25084 25087 25090 25093 25095 25098 25101 25104 25107 25110 25113 25115 25118 25121 25124 25127 25130 25133 25136 25139 25141 25144 25147 25150 25153 25155 25158 25161 25164 25167 25170 25173 25176 25179 25182 25185 25188 25191 25194 25196 25199 25202 25204 25207 25210 25213 25216 25219 25222 25224 25227 25230 25233 25236 25239 25242 25245 25248 25251 25254 25256 25259 25262 25265 25268 25270 25273 25276 25279 25282 25285 25288 25291 25294 25297 25300 25303 25306 25309 25312 25314 25317 25320 25322 25325 25328 25331 25334 25337 25340 25343 25345 25348 25351 25354 25356 25359 25361 25364 25367 25370 25373 25375 25378 25381 25384 25386 25389 25392 25395 25397 25400 25403 25406 25409 25412 25415 25418 25421 25424 25427 25429 25431 25434 25437 25439 25441 25444 25447 25450 25453 25456 25458 25461 25463 25465 25468 25471 25474 25477 25480 25483 25486 25489 25491 25494 25496 25499 25502 25505 25508 25511 25514 25517 25520 25523 25526 25529 25532 25535 25538 25541 25544 25547 25550 25553 25556 25559 25562 25565 25568 25571 25574 25577 25580 25583 25586 25589 25592 25595 25598 25601 25604 25607 25610 25613 25616 25619 25622 25625 25628 25631 25634 25637 25640 25643 25646 25649 25652 25655 25658 25661 25664 25667 25670 25673 25676 25679 25682 25685 25688 25691 25693 25696 25698 25701 25704 25707 25710 25713 25716 25719 25721 25724 25727 25730 25732 25735 25738 25741 25744 25747 25750 25753 25756 25759 25762 25765 25768 25770 25773 25776 25779 25782 25785 25788 25791 25793 25795 25798 25801 25804 25807 25810 25813 25816 25819 25821 25824 25827 25830 25833 25836 25838 25841 25844 25846 25849 25852 25855 25858 25861 25864 25867 25870 25873 25876 25879 25882 25885 25888 25891 25894 25897 25900 25903 25906 25909 25912 25915 25918 25920 25922 25924 25927 25930 25933 25936 25939 25942 25944 25947 25949 25952 25955 25958 25961 25964 25967 25970 25973 25976 25978 25981 25984 25986 25989 25992 25994 25996 25999 26002 26005 26007 26010 26012 26015 26018 26020 26022 26025 26028 26031 26034 26037 26039 26042 26044 26047 26050 26052 26055 26058 26060 26063 26065 26068 26070 26072 26075 26077 26080 26082 26084 26087 26090 26093 26096 26099 26101 26104 26106 26108 26111 26114 26116 26119 26121 26124 26126 26129 26131 26134 26137 26140 26142 26145 26148 26151 26154 26156 26159 26162 26165 26168 26171 26173 26176 26179 26182 26184 26186 26189 26192 26195 26198 26201 26204 26207 26210 26213 26216 26219 26221 26224 26226 26228 26230 26233 26236 26239 26242 26245 26248 26251 26254 26256 26259 26262 26265 26267 26270 26273 26276 26279 26282 26285 26288 26291 26294 26297 26300 26302 26304 26307 26310 26313 26316 26318 26320 26322 26325 26327 26330 26333 26335 26338 26341 26344 26347 26350 26353 26356 26358 26361 26364 26367 26369 26372 26375 26378 26381 26384 26387 26390 26393 26396 26399 26402 26405 26407 26410 26413 26416 26418 26421 26424 26427 26430 26433 26436 26438 26441 26444 26447 26450 26453 26456 26458 26461 26463 26466 26469 26472 26475 26478 26481 26484 26487 26490 26493 26496 26499 26502 26505 26508 26511 26514 26517 26520 26523 26526 26529 26532 26535 26538 26541 26544 26547 26550 26553 26556 26559 26562 26565 26568 26571 26574 26577 26580 26583 26586 26588 26590 26593 26596 26599 26602 26605 26608 26611 26613 26616 26619 26621 26624 26627 26630 26633 26636 26638 26641 26644 26647 26650 26653 26656 26659 26662 26665 26667 26670 26672 26675 26677 26680 26683 26686 26689 26692 26695 26698 26701 26704 26707 26710 26713 26716 26719 26722 26725 26728 26731 26734 26737 26739 26742 26745 26748 26750 26753 26756 26759 26761 26763 26766 26768 26770 26773 26776 26778 26781 26783 26786 26789 26791 26794 26797 26800 26803 26806 26809 26812 26815 26818 26821 26823 26826 26829 26832 26835 26837 26840 26843 26846 26849 26852 26855 26858 26861 26864 26867 26870 26873 26876 26879 26881 26884 26887 26890 26893 26896 26899 26901 26904 26907 26910 26913 26916 26919 26922 26925 26928 26931 26934 26936 26939 26941 26944 26946 26949 26952 26954 26957 26960 26962 26964 26967 26969 26972 26975 26978 26981 26984 26987 26990 26992 26994 26997 27000 27003 27006 27009 27012 27014 27017 27019 27022 27025 27027 27030 27033 27036 27039 27041 27044 27047 27050 27053 27056 27059 27062 27065 27068 27070 27073 27076 27079 27082 27084 27087 27090 27093 27096 27098 27101 27104 27107 27109 27112 27115 27118 27121 27124 27126 27129 27132 27135 27138 27141 27144 27146 27149 27152 27155 27158 27161 27163 27166 27169 27172 27175 27178 27181 27184 27187 27190 27193 27195 27198 27201 27204 27207 27210 27213 27216 27219 27222 27225 27228 27230 27233 27236 27239 27242 27245 27248 27251 27254 27257 27260 27263 27266 27269 27272 27275 27278 27281 27284 27286 27289 27292 27295 27298 27301 27304 27307 27310 27313 27316 27319 27322 27325 27328 27331 27333 27336 27339 27342 27345 27347 27350 27353 27355 27358 27361 27364 27367 27370 27372 27375 27378 27381 27384 27386 27388 27391 27394 27397 27400 27403 27406 27409 27411 27413 27416 27419 27422 27425 27428 27430 27433 27435 27438 27441 27443 27446 27449 27452 27455 27458 27461 27464 27467 27469 27472 27475 27478 27481 27484 27487 27490 27492 27495 27498 27501 27504 27507 27510 27512 27515 27518 27521 27524 27526 27529 27532 27535 27538 27541 27544 27547 27550 27553 27556 27559 27562 27564 27567 27570 27573 27576 27579 27582 27585 27588 27591 27594 27597 27600 27603 27606 27609 27612 27615 27618 27621 27624 27627 27630 27633 27636 27639 27642 27645 27648 27650 27653 27656 27659 27662 27665 27668 27671 27674 27677 27680 27683 27686 27689 27692 27695 27698 27701 27703 27706 27709 27712 27715 27718 27721 27724 27727 27729 27731 27734 27737 27740 27743 27746 27749 27752 27755 27758 27761 27764 27767 27769 27772 27775 27778 27781 27784 27787 27790 27793 27796 27799 27802 27805 27808 27811 27814 27817 27820 27823 27826 27829 27832 27835 27838 27841 27844 27847 27850 27853 27855 27857 27860 27863 27866 27869 27872 27874 27877 27880 27883 27885 27887 27890 27893 27896 27899 27902 27905 27908 27911 27914 27917 27920 27923 27926 27929 27931 27933 27936 27939 27941 27944 27947 27950 27952 27954 27956 27959 27962 27965 27968 27971 27974 27977 27980 27983 27985 27988 27991 27993 27996 27999 28002 28004 28006 28009 28011 28014 28017 28020 28023 28026 28029 28032 28035 28038 28041 28043 28046 28048 28051 28054 28057 28060 28063 28065 28068 28070 28073 28076 28078 28081 28084 28087 28090 28093 28096 28099 28102 28105 28108 28111 28114 28116 28119 28122 28125 28128 28131 28134 28137 28140 28143 28146 28149 28152 28155 28158 28161 28163 28166 28169 28172 28175 28178 28181 28184 28187 28190 28193 28196 28199 28202 28205 28208 28211 28214 28217 28219 28222 28225 28227 28229 28232 28234 28237 28240 28243 28246 28249 28252 28255 28258 28261 28264 28267 28270 28272 28275 28278 28281 28284 28286 28289 28292 28295 28298 28301 28304 28307 28310 28313 28316 28319 28322 28324 28327 28330 28333 28336 28339 28342 28345 28348 28351 28354 28357 28360 28363 28366 28369 28372 28375 28378 28381 28384 28387 28390 28393 28396 28399 28401 28404 28407 28410 28413 28416 28419 28422 28425 28428 28431 28434 28437 28440 28443 28446 28449 28452 28455 28458 28461 28464 28467 28470 28473 28476 28479 28482 28485 28488 28490 28493 28496 28498 28501 28504 28507 28510 28513 28516 28519 28522 28525 28528 28530 28533 28536 28539 28542 28545 28548 28551 28554 28557 28560 28563 28566 28569 28572 28575 28578 28581 28584 28587 28590 28593 28596 28599 28602 28605 28608 28611 28614 28617 28620 28623 28626 28629 28632 28635 28638 28641 28644 28647 28650 28653 28656 28659 28662 28665 28668 28671 28673 28676 28679 28682 28684 28687 28690 28693 28696 28699 28702 28705 28708 28711 28714 28717 28720 28723 28726 28729 28732 28735 28738 28741 28744 28747 28750 28753 28756 28759 28762 28765 28768 28771 28774 28776 28779 28782 28785 28788 28790 28793 28796 28799 28802 28805 28808 28811 28814 28817 28820 28823 28826 28829 28832 28835 28837 28840 28843 28846 28849 28852 28855 28858 28861 28864 28867 28870 28873 28876 28879 28882 28885 28888 28891 28894 28896 28899 28902 28905 28907 28910 28913 28916 28919 28922 28925 28928 28931 28934 28937 28940 28943 28946 28949 28952 28955 28958 28961 28963 28966 28969 28972 28975 28978 28980 28983 28986 28989 28991 28994 28997 29000 29003 29006 29009 29012 29015 29018 29021 29023 29026 29029 29032 29035 29038 29041 29044 29047 29050 29053 29056 29059 29062 29065 29068 29070 29073 29076 29079 29082 29084 29087 29090 29093 29096 29099 29102 29105 29108 29111 29114 29117 29120 29122 29125 29128 29130 29133 29136 29139 29142 29145 29148 29150 29153 29156 29159 29162 29165 29168 29170 29173 29175 29178 29181 29183 29186 29188 29191 29194 29197 29199 29202 29205 29208 29210 29213 29216 29219 29221 29224 29227 29230 29233 29236 29239 29242 29245 29247 29250 29253 29255 29258 29261 29264 29267 29270 29273 29276 29279 29282 29285 29288 29291 
</DataArray>
<DataArray type="UInt32" Name="types" format="ascii">
3 5 5 5 5 5 5 5 5 5 5 5 5 5 5 5 5 5 3 5 5 5 3 5 3 5 5 5 5 5 3 5 5 5 5 5 5 3 5 5 3 3 5 5 5 5 5 5 5 3 5 5 5 5 3 5 5 5 5 3 5 5 5 5 5 5 5 5 5 5 5 5 5 5 5 5 5 3 5 5 5 5 5 5 5 5 5 5 5 5 3 5 5 5 5 5 3 5 5 5 5 5 5 5 5 5 3 5 5 5 5 5 5 5 5 5 5 5 5 5 5 5 3 5 5 5 5 5 5 5 3 5 5 5 5 5 5 5 3 5 5 5 5 5 3 5 5 3 5 5 5 5 5 5 5 5 5 5 5 5 5 5 5 5 5 5 5 5 5 5 5 5 5 5 3 5 5 5 3 5 5 5 5 5 5 5 5 5 3 5 5 5 5 5 5 5 5 3 5 5 5 5 3 5 5 5 3 5 5 3 5 5 5 5 5 3 5 3 5 5 5 5 3 5 3 5 5 5 3 5 5 3 3 5 3 3 5 5 3 3 5 5 5 3 5 3 5 3 5 5 5 5 5 3 3 5 5 5 5 5 5 5 5 5 5 3 5 5 5 5 5 5 5 3 3 5 5 5 5 5 5 5 5 3 5 5 5 5 3 5 5 3 5 5 5 3 5 5 5 5 5 5 5 5 3 5 3 5 5 5 5 5 3 5 5 5 5 5 5 5 5 5 5 5 5 5 5 5 3 5 3 3 5 3 5 5 3 5 5 5 5 5 5 5 5 5 3 5 5 3 3 5 5 5 5 3 3 5 3 5 5 5 3 5 5 5 5 3 5 5 5 3 5 3 3 5 5 3 5 5 3 5 5 3 5 5 5 5 5 5 5 5 5 5 5 5 5 5 3 5 5 5 5 3 5 5 5 5 5 5 3 5 5 5 5 5 5 5 5 5 5 5 5 5 5 5 5 5 5 5 5 5 5 5 5 5 5 5 5 5 5 5 5 5 5 5 5 5 5 5 5 5 5 5 5 5 5 5 3 5 5 5 5 5 5 3 5 3 5 5 3 5 5 5 3 5 5 5 5 3 5 5 5 5 5 5 5 5 5 5 5 5 5 5 3 5 5 5 5 5 5 5 3 5 5 5 3 5 5 5 5 5 3 5 5 5 5 5 3 5 5 5 5 5 5 5 3 3 5 5 5 5 5 5 3 5 3 5 3 5 5 5 3 5 5 5 5 3 5 5 5 5 5 5 5 5 5 3 5 5 3 5 5 3 5 3 5 5 3 5 5 5 5 5 5 5 5 3 5 5 5 5 5 5 5 3 5 5 5 3 5 5 5 5 5 5 5 5 5 5 5 5 5 5 5 5 5 5 5 5 5 5 5 5 5 5 5 5 5 3 5 5 5 5 3 5 5 5 5 5 5 5 5 3 5 5 3 5 5 5 5 3 5 5 5 5 5 3 5 5 5 5 5 5 5 5 5 5 5 5 5 5 5 5 5 5 5 5 5 5 5 5 5 5 5 5 5 5 5 5 5 5 5 5 5 5 5 5 5 5 5 5 5 5 5 5 5 5 5 5 5 5 5 5 5 5 5 5 5 5 5 5 5 5 5 5 5 5 5 5 5 5 5 5 5 5 5 5 5 5 5 5 5 5 5 5 3 5 5 5 3 5 3 3 5 3 5 5 5 5 5 5 5 5 5 5 5 5 5 5 5 5 5 5 5 5 5 5 5 5 5 5 5 5 5 5 5 5 5 5 5 5 5 5 3 3 5 5 5 5 3 5 5 5 5 5 5 5 5 5 5 5 5 5 5 5 5 3 5 5 5 5 5 5 5 5 5 5 5 5 5 5 5 5 5 5 5 5 5 5 5 5 5 5 3 5 5 5 3 5 5 5 5 3 5 5 3 5 5 3 5 5 5 3 5 5 5 5 5 5 5 5 5 5 5 5 5 5 5 5 5 3 5 5 5 5 5 5 5 5 5 3 5 5 5 5 5 5 5 5 5 3 5 5 5 5 3 5 5 5 5 5 5 5 5 5 5 3 5 5 5 5 5 5 5 5 5 3 5 3 5 5 5 3 5 5 3 5 3 5 5 3 5 3 5 5 5 5 5 3 3 5 5 5 5 5 5 5 5 5 5 5 5 5 5 5 5 5 5 5 5 5 5 5 5 5 5 5 5 5 3 5 3 5 5 5 5 5 5 3 5 5 5 5 5 5 3 3 5 5 3 5 5 3 5 5 3 5 5 5 5 3 5 5 5 5 3 5 5 3 5 3 5 5 5 5 5 5 5 5 5 5 5 5 5 5 5 5 5 5 5 5 5 5 5 5 5 5 5 5 5 3 5 5 5 5 5 5 5 5 5 5 5 3 5 5 5 3 5 5 3 3 5 5 5 3 5 5 3 3 5 5 5 5 5 5 5 3 5 5 5 5 5 3 5 3 5 3 5 5 5 5 5 5 3 5 5 3 5 5 5 5 5 5 5 3 5 5 5 5 5 3 5 5 5 5 5 5 5 5 5 5 5 5 5 5 3 5 5 5 5 5 5 3 5 5 5 3 3 5 5 5 5 3 5 5 5 5 5 3 3 5 5 5 3 5 5 5 5 5 5 3 5 3 5 5 3 5 3 5 5 5 5 5 5 3 5 5 5 5 5 5 5 5 5 5 5 5 5 5 5 5 5 3 5 5 5 5 5 3 5 5 3 5 5 5 5 5 5 5 5 5 5 5 5 5 5 5 5 5 5 5 5 5 5 5 5 3 5 5 5 3 5 5 5 3 3 5 3 5 5 3 5 5 3 5 5 3 5 5 5 5 5 5 5 5 5 5 5 5 5 3 5 5 3 5 5 3 5 5 5 5 5 5 5 5 3 3 5 5 3 5 5 5 3 5 5 5 3 5 5 5 5 5 5 5 5 5 5 5 5 5 5 5 5 3 5 5 3 5 5 5 5 5 3 5 3 5 3 3 5 3 5 5 3 5 3 5 3 5 5 5 5 5 5 3 5 5 5 5 5 5 5 5 5 3 5 3 5 5 5 5 5 5 5 5 5 5 5 5 5 5 5 3 5 5 5 3 5 5 5 5 5 5 5 5 5 5 5 5 5 5 5 5 3 5 5 5 3 5 3 5 5 5 5 5 5 5 5 5 5 5 5 3 5 5 5 5 5 3 5 3 5 3 5 5 3 5 5 5 3 3 5 5 3 5 3 3 3 5 3 5 3 5 3 3 5 5 5 5 5 3 3 5 5 5 5 5 3 5 5 5 3 5 3 5 3 3 5 5 5 3 5 3 5 5 5 3 5 5 5 3 3 5 5 3 5 5 5 5 3 5 3 5 5 3 5 3 5 5 3 5 5 5 5 5 3 5 5 5 3 5 5 5 3 5 5 5 3 5 3 5 5 5 5 5 5 5 5 5 5 5 5 3 5 5 5 3 5 5 5 5 5 5 5 3 5 5 5 5 5 5 5 5 5 5 5 5 5 5 5 5 5 5 5 5 5 5 5 5 5 5 5 5 5 5 5 5 5 5 5 5 5 5 5 3 5 5 5 5 3 5 5 5 5 5 5 5 5 5 3 5 5 5 5 5 5 5 3 5 5 5 3 5 5 5 3 5 5 3 5 5 5 3 5 5 5 5 5 5 3 5 3 5 5 3 5 5 5 5 5 5 5 5 3 5 5 5 3 5 5 5 5 5 5 5 5 5 5 3 5 5 3 5 5 5 5 5 5 5 3 5 5 5 5 5 5 5 5 5 5 5 5 3 5 5 5 5 3 5 5 3 5 5 5 3 5 5 5 5 5 5 5 5 5 5 5 5 5 5 5 5 5 5 5 5 5 5 3 5 5 5 5 5 5 5 5 5 5 5 5 5 5 5 5 3 5 5 5 5 5 5 5 5 5 3 5 5 5 5 5 5 5 5 5 5 5 5 5 5 5 5 5 3 3 3 3 5 5 5 5 3 5 3 5 5 3 3 5 3 5 5 3 5 5 3 5 5 3 5 5 3 5 5 5 5 5 5 5 3 5 5 5 5 5 5 5 5 5 5 5 3 5 5 5 3 5 5 5 3 5 5 5 5 5 3 5 5 5 3 3 5 5 5 3 5 3 5 5 5 5 5 3 5 5 5 5 5 5 5 5 5 5 5 5 5 5 5 5 5 5 5 3 5 3 5 5 5 5 3 5 5 5 5 3 5 5 5 3 5 5 5 5 3 5 5 3 5 3 5 5 5 5 5 3 3 5 3 3 5 5 3 5 5 5 5 5 5 5 5 5 5 3 5 5 5 5 5 5 5 5 3 5 5 5 5 5 5 5 5 3 5 5 5 5 3 5 5 5 3 5 5 5 5 5 5 5 5 5 5 5 5 5 5 5 5 5 5 5 5 5 5 5 5 5 5 5 5 5 5 5 5 5 5 5 3 5 3 5 5 5 5 5 5 5 5 5 5 5 5 5 5 5 5 5 5 3 5 5 5 5 5 3 5 5 5 3 5 5 3 5 5 5 5 5 3 5 3 5 5 5 5 5 3 5 5 5 3 5 5 3 5 3 5 5 3 5 5 5 3 3 5 5 5 3 5 5 5 5 5 5 5 5 5 5 3 3 5 5 3 5 5 3 5 5 5 5 5 3 5 5 5 3 3 5 5 5 5 3 3 3 5 3 5 5 5 5 5 5 5 3 5 5 5 5 5 5 5 5 5 5 5 5 5 5 3 5 5 5 5 5 3 5 5 5 5 3 5 5 5 5 5 5 3 5 5 5 5 5 5 5 5 3 5 5 5 5 5 5 3 5 5 5 5 3 5 5 5 5 5 5 5 5 5 5 5 3 5 5 5 5 5 3 5 5 3 5 5 5 3 5 3 5 5 3 3 5 5 5 3 5 5 5 5 3 5 5 5 5 5 5 5 5 5 5 5 5 5 5 3 3 5 5 5 3 5 3 5 3 5 3 5 5 5 3 5 5 5 3 5 5 5 3 3 5 3 5 5 5 5 3 5 3 5 5 5 5 5 5 5 5 5 5 5 3 5 5 5 5 5 5 3 5 3 5 5 3 5 5 3 5 5 5 5 5 5 5 5 5 3 5 5 5 5 5 5 5 5 5 5 5 5 5 5 5 3 3 5 5 5 5 3 5 5 5 5 5 5 3 5 5 5 5 3 5 5 5 5 5 5 3 5 5 3 5 5 5 5 5 3 5 5 5 3 5 5 5 5 5 3 5 3 5 3 5 5 5 5 5 5 5 5 5 5 5 5 5 3 5 5 5 3 5 5 5 5 5 5 5 3 5 5 5 5 5 5 5 5 3 5 5 3 5 5 3 5 5 5 5 5 5 5 5 3 5 5 5 5 5 5 3 5 5 5 5 5 5 5 5 5 3 5 5 5 5 5 3 5 5 5 5 5 5 5 5 5 3 5 5 5 5 5 5 3 5 5 5 5 5 5 5 5 3 5 5 5 3 5 5 5 5 5 5 5 5 5 5 5 5 5 5 5 5 5 5 5 5 5 5 5 5 5 5 5 5 5 5 5 5 5 5 5 5 5 5 5 3 5 5 5 3 5 5 3 5 5 5 5 5 5 5 5 5 5 5 5 5 5 5 5 5 5 5 5 5 5 5 5 5 5 5 3 5 3 5 5 5 5 5 5 5 3 5 5 3 5 5 5 3 5 5 5 5 5 3 5 5 5 5 5 5 5 5 5 5 5 5 3 5 5 5 3 5 5 3 5 5 5 5 5 5 5 5 5 5 5 5 3 5 3 5 5 5 5 5 5 5 5 5 3 5 5 5 5 5 5 5 5 3 5 5 5 5 5 3 5 5 5 5 5 5 5 5 5 5 5 5 5 3 5 3 3 5 5 5 5 5 5 3 5 5 5 5 3 5 5 5 3 5 5 5 5 5 5 5 5 5 5 3 5 5 5 5 3 5 5 3 5 3 5 5 5 5 3 5 5 5 5 5 3 3 5 5 5 5 5 5 3 5 5 3 5 5 3 5 5 5 5 5 3 5 5 5 5 5 5 5 5 5 5 3 5 5 5 5 5 5 5 5 5 5 5 5 5 5 5 3 5 5 5 3 5 5 3 5 5 5 5 5 5 3 5 3 5 5 5 5 5 5 5 5 5 3 3 5 5 3 5 3 3 5 5 5 5 5 5 5 5 5 3 5 5 5 5 5 5 5 5 5 5 5 5 5 5 5 5 5 3 5 5 5 5 5 5 5 5 5 5 5 5 5 5 5 5 5 5 3 5 5 5 3 5 5 5 3 5 3 5 5 3 5 5 5 3 5 5 3 5 3 5 5 3 5 3 5 5 3 5 5 5 5 5 5 3 5 5 3 5 5 5 5 5 5 5 5 5 5 3 5 3 5 5 5 3 3 5 5 5 5 3 5 5 5 5 5 3 5 5 5 5 5 3 5 5 5 3 5 5 3 5 5 5 5 5 5 5 3 5 5 5 3 5 5 5 3 5 5 5 5 5 5 3 5 5 3 5 5 5 5 3 5 3 5 5 3 5 5 5 5 3 5 5 5 5 5 5 5 5 5 5 5 5 5 5 5 5 5 5 5 5 5 5 5 5 5 5 5 5 5 5 5 5 5 5 5 5 3 5 5 5 3 5 5 5 5 5 5 5 5 5 5 5 5 5 5 5 3 5 5 5 5 5 5 5 3 5 5 5 5 5 5 5 5 5 5 5 5 3 5 3 5 5 5 5 5 3 5 5 3 5 5 3 3 5 5 3 5 5 3 5 5 3 5 5 5 5 5 3 5 5 5 5 5 5 5 5 3 5 5 5 5 5 5 5 5 3 5 5 5 5 5 3 5 5 5 5 5 5 5 5 5 5 5 5 5 5 5 5 3 5 5 3 5 5 5 5 5 5 5 5 5 5 5 5 5 5 5 3 5 5 5 5 5 5 5 3 5 5 5 5 5 5 5 5 5 5 5 5 5 3 5 5 5 5 5 5 5 3 3 5 5 5 5 5 5 3 5 5 5 5 5 5 5 5 5 5 5 5 5 5 5 3 5 5 5 5 5 5 5 5 5 5 3 5 5 5 5 5 5 5 5 5 5 3 5 5 3 5 5 5 5 5 5 5 5 5 5 3 3 5 5 3 5 5 5 5 5 5 3 5 3 5 5 5 5 5 3 5 5 5 5 5 5 5 5 5 5 3 5 5 5 5 5 3 5 5 5 5 5 5 5 5 5 5 5 5 5 5 5 5 5 5 5 5 5 5 5 5 5 5 5 5 5 5 3 3 5 5 5 5 3 5 5 5 5 5 5 5 5 5 5 5 5 5 5 5 5 5 5 5 5 5 5 5 5 5 5 5 5 3 5 5 5 5 5 5 5 5 5 5 5 5 5 5 5 5 5 5 5 5 5 5 3 5 3 5 5 5 5 5 5 5 5 5 5 5 5 5 5 5 5 5 5 3 5 5 3 5 5 5 5 5 5 5 3 3 3 5 5 5 5 5 3 5 5 5 5 5 5 5 5 5 5 5 5 5 5 5 5 5 5 5 5 5 5 5 5 5 5 5 3 5 5 5 5 3 5 5 3 5 5 3 5 5 3 5 3 5 5 5 5 5 5 5 5 5 5 5 5 3 5 5 5 3 5 5 5 5 5 5 5 5 5 5 3 5 5 3 3 5 5 5 3 3 3 5 5 5 5 5 3 5 3 3 5 5 3 3 5 3 5 5 3 5 5 5 3 3 3 3 5 5 5 5 5 5 5 5 5 5 5 5 5 5 5 5 5 5 5 5 5 5 3 5 5 5 3 5 5 5 5 5 5 5 5 5 5 5 5 5 5 5 5 5 5 5 5 5 5 5 5 5 3 5 5 5 3 5 5 5 5 3 5 5 5 3 5 5 5 5 5 5 5 5 5 5 5 5 5 3 5 3 5 5 5 5 5 5 5 5 5 5 5 5 5 5 5 5 5 5 5 5 5 5 5 5 3 3 3 5 5 5 5 5 5 3 5 5 5 5 5 5 5 5 5 5 5 3 5 5 5 5 5 5 5 5 5 5 5 5 5 5 5 3 5 5 3 3 5 5 3 5 5 5 5 5 5 5 5 5 5 5 5 5 5 5 5 5 5 5 5 5 5 3 5 5 3 5 5 5 5 5 5 5 5 5 5 5 5 3 5 5 5 5 5 5 5 5 5 5 3 5 5 5 5 5 5 5 5 5 3 5 5 3 5 5 5 3 5 5 5 3 5 5 5 5 5 5 3 5 5 5 5 5 5 5 5 5 3 5 5 3 5 3 5 5 3 5 5 5 5 5 5 5 5 5 5 5 5 5 3 5 5 5 5 5 5 5 5 5 5 5 3 5 5 5 5 5 3 3 3 5 5 5 5 5 5 5 5 5 5 5 5 5 5 5 5 5 5 5 5 5 5 5 5 5 3 5 3 5 5 3 5 5 5 5 5 5 5 3 5 5 5 5 5 5 5 5 5 3 5 5 3 5 5 5 5 5 5 5 5 3 5 5 5 5 3 5 5 5 5 5 5 5 5 5 5 5 5 5 5 5 5 5 5 5 5 5 5 5 5 5 5 5 5 3 5 5 3 5 5 5 5 5 5 5 3 5 5 5 5 5 5 3 5 5 5 5 5 5 5 5 5 5 3 5 5 5 5 5 5 5 5 5 5 3 5 5 5 5 5 3 5 5 3 5 5 5 5 5 5 5 5 5 5 5 5 5 5 5 5 3 5 5 5 5 5 5 5 5 5 5 5 5 5 5 5 5 5 5 5 3 5 5 5 5 3 5 5 5 3 5 5 5 3 5 5 5 3 5 3 5 5 5 5 5 5 5 5 5 5 5 5 5 5 5 5 5 5 5 5 5 3 5 5 5 3 5 5 5 5 5 3 5 5 5 3 5 5 5 5 5 5 5 5 5 5 5 3 3 5 5 5 5 5 3 5 5 5 5 3 5 5 3 5 5 5 5 5 5 5 5 5 5 5 5 5 5 5 5 5 5 5 5 5 5 5 5 5 5 5 5 5 5 5 5 5 5 5 5 5 3 5 5 5 5 5 3 5 3 5 5 5 5 5 5 5 5 5 5 5 5 5 5 5 5 5 5 5 5 5 5 3 5 5 5 3 3 5 5 3 5 5 5 5 5 5 5 5 5 5 5 5 3 3 5 5 5 5 5 5 3 5 5 5 5 3 5 5 5 5 3 5 5 5 5 3 5 5 5 5 5 5 3 3 5 5 5 5 3 5 5 5 5 5 5 5 5 5 5 3 5 5 5 3 5 5 5 5 3 3 5 5 5 5 5 5 5 5 5 5 5 3 5 5 5 3 5 5 5 5 5 5 5 5 3 5 5 5 5 5 5 5 5 5 5 5 5 5 5 5 5 5 5 5 5 5 5 5 5 5 5 5 5 5 5 5 5 5 5 5 5 5 5 5 5 3 5 5 5 5 5 5 5 5 5 5 5 5 5 5 5 5 5 5 5 5 5 5 5 5 5 5 5 5 5 5 5 5 5 3 5 5 5 3 5 5 5 5 5 5 5 3 5 3 5 5 5 5 5 5 5 5 5 5 3 5 5 5 5 3 5 3 5 5 5 5 5 5 5 5 5 5 5 5 5 5 5 5 5 5 5 5 5 5 5 5 5 5 5 5 5 5 5 5 5 5 5 5 5 5 5 5 5 5 5 5 5 5 5 5 5 5 5 3 5 5 5 5 5 5 5 5 5 5 5 5 3 5 5 5 3 5 3 3 5 5 5 5 5 5 5 5 3 5 5 3 5 5 5 3 5 5 5 5 5 5 5 5 3 5 5 3 5 5 5 5 5 5 5 3 3 5 5 5 5 5 3 5 5 5 3 5 5 5 5 5 5 5 5 3 5 5 5 3 5 5 5 5 5 3 5 5 5 3 5 5 5 5 5 5 5 5 5 5 5 5 5 5 5 5 5 5 5 5 5 5 5 5 5 5 5 5 5 5 5 5 5 5 5 5 5 5 5 5 5 5 5 5 5 5 5 5 5 3 5 5 5 3 5 5 5 3 5 5 5 5 5 5 5 5 3 5 5 3 5 5 5 5 5 5 5 5 5 5 5 3 5 5 5 5 5 5 5 5 5 3 5 3 5 3 3 5 5 5 5 5 5 5 5 5 5 5 5 5 5 5 5 5 5 5 5 5 5 5 5 5 5 5 5 5 5 5 5 5 5 5 5 5 5 5 5 5 5 5 5 5 5 5 5 5 5 5 5 5 5 5 5 5 5 5 5 5 5 5 5 5 5 5 5 5 5 5 5 5 5 5 5 5 5 5 5 5 5 5 5 5 5 5 5 5 5 5 5 5 5 5 5 5 5 5 5 5 5 3 5 5 3 5 5 3 5 5 3 5 5 5 5 5 5 5 5 5 5 5 5 5 5 5 5 5 5 5 5 5 5 5 5 5 5 3 3 5 5 5 5 5 5 5 5 5 5 5 5 3 5 5 5 3 5 3 5 5 5 3 5 5 5 5 5 5 3 5 5 5 5 5 5 5 5 5 3 5 5 5 5 5 5 3 5 5 3 5 5 5 5 5 5 3 5 5 5 5 5 5 5 5 5 5 5 5 5 5 5 5 5 5 5 5 5 3 5 3 5 5 5 5 5 5 5 5 5 5 5 5 5 5 3 5 5 5 3 5 5 5 5 5 5 5 5 5 3 5 5 5 5 5 5 5 5 5 3 5 5 5 5 5 5 5 5 5 5 5 5 5 5 5 5 5 5 5 5 5 5 5 5 5 3 5 5 5 5 5 5 5 5 5 5 3 5 5 3 5 5 5 5 5 5 5 5 5 5 5 5 5 5 5 5 5 5 5 3 5 5 5 5 5 5 5 5 5 5 5 5 5 5 5 5 5 5 5 5 5 5 5 5 5 5 5 5 5 5 5 5 5 5 5 3 5 5 3 5 5 5 5 3 5 5 5 3 5 5 5 5 5 5 5 5 5 5 5 3 5 5 5 5 5 5 5 5 5 5 5 5 5 5 5 5 5 5 3 5 3 5 5 5 5 5 5 5 5 5 5 5 5 5 5 5 3 5 5 3 5 5 5 3 5 5 5 5 3 5 5 3 5 5 5 5 5 5 5 5 3 5 5 5 3 5 5 3 5 5 5 5 5 5 5 5 5 5 5 5 5 5 5 5 3 5 5 5 5 3 5 5 5 5 5 5 5 5 5 5 3 5 5 3 5 5 5 5 5 5 3 5 5 5 5 5 5 5 5 3 3 5 5 5 5 5 5 3 5 5 5 5 5 5 5 5 5 5 5 5 5 5 3 5 3 5 5 5 5 5 5 5 5 5 5 5 5 3 5 5 5 5 5 5 5 5 5 5 5 5 3 5 5 5 5 5 5 5 3 5 5 5 5 5 5 5 5 3 5 5 3 5 5 5 5 5 5 3 5 5 5 5 5 5 5 5 5 5 3 5 5 5 5 5 5 3 5 5 5 5 5 5 3 5 5 5 3 5 5 5 5 5 5 5 5 5 5 5 3 5 5 5 5 5 5 3 5 5 5 5 5 3 5 5 5 5 5 3 5 5 5 5 5 5 5 5 3 5 5 5 5 5 5 5 3 5 5 3 5 5 5 5 5 5 5 5 5 5 5 5 5 5 5 5 5 5 5 5 5 5 3 5 5 3 5 5 3 5 5 5 5 5 5 5 5 5 5 5 5 5 5 5 5 5 5 5 5 5 5 5 5 5 5 5 5 5 5 5 5 5 5 5 5 5 5 5 5 5 5 5 5 5 5 5 5 5 5 5 5 5 5 5 5 5 5 5 5 5 5 5 5 5 5 3 5 5 5 5 3 5 5 5 5 5 5 3 5 5 5 5 5 5 5 5 5 5 5 3 5 5 5 5 5 3 5 5 5 5 5 5 5 5 5 5 5 5 5 5 5 5 5 5 5 3 5 5 5 5 5 5 3 5 5 5 5 5 3 5 5 5 5 5 5 5 5 5 5 3 5 5 5 5 5 5 5 5 5 5 5 3 5 5 5 5 5 5 5 5 3 5 5 5 3 5 5 5 5 3 5 5 5 5 5 5 5 3 5 3 5 3 5 5 5 5 5 5 5 5 5 5 5 5 5 3 5 5 5 5 5 5 5 5 5 3 5 5 5 5 5 5 5 5 5 5 5 5 5 5 5 5 5 5 5 5 3 5 5 5 3 5 5 5 5 5 5 5 5 5 5 5 5 5 3 5 5 5 3 5 5 3 5 5 5 3 3 5 5 5 3 5 5 5 3 5 3 3 5 3 3 3 5 5 5 5 5 5 3 5 5 3 5 5 3 5 5 5 5 5 5 5 5 5 3 5 3 5 5 5 5 5 5 5 5 5 5 5 5 5 5 3 5 5 5 5 3 5 5 5 5 3 5 3 5 5 5 5 5 3 5 5 3 5 5 5 3 5 5 5 5 5 3 5 3 3 5 5 5 3 5 5 3 3 5 5 5 5 3 5 3 5 5 5 5 5 5 3 5 5 5 5 5 5 5 5 5 5 5 5 5 5 5 3 5 5 5 3 5 3 3 5 3 5 3 5 5 3 5 5 5 3 5 5 5 5 3 5 5 5 5 5 5 3 3 5 5 5 3 3 5 5 3 5 3 5 3 3 5 5 5 5 5 5 5 5 5 5 5 5 5 3 5 5 5 5 5 5 5 5 5 5 5 5 5 3 5 5 5 3 3 5 5 5 5 5 5 5 5 5 5 5 5 5 3 5 5 5 5 5 3 5 5 5 5 5 5 5 3 5 5 3 5 5 5 5 5 5 5 5 5 5 3 5 5 5 3 5 3 5 5 5 5 5 5 5 5 5 5 5 5 5 5 5 5 5 3 3 5 5 5 5 3 5 5 5 5 5 5 3 5 5 5 5 3 3 5 5 5 3 5 5 3 5 5 5 5 5 5 5 3 5 5 3 5 3 3 5 5 3 3 5 3 5 5 5 5 5 5 5 5 5 5 3 5 5 5 3 3 5 3 5 5 5 5 5 5 3 5 3 5 5 5 5 5 5 5 5 5 5 5 3 5 5 5 5 5 5 5 5 5 5 5 5 5 5 5 5 5 5 3 5 5 5 5 3 5 5 3 3 5 5 5 5 3 5 5 5 5 5 5 5 3 5 5 5 3 5 5 5 5 5 3 5 5 5 5 5 3 5 5 5 5 5 3 5 5 5 5 5 5 5 5 5 3 5 5 5 5 3 5 3 5 3 5 5 5 3 5 3 5 5 3 5 5 5 5 5 5 3 5 5 3 5 3 5 5 5 5 5 5 5 5 3 5 5 5 5 5 5 5 5 5 3 5 5 5 5 5 3 5 3 5 5 5 5 5 5 5 5 5 5 5 5 5 5 5 5 5 5 5 5 5 5 5 5 3 5 5 5 3 5 5 3 5 5 5 5 5 5 3 5 5 5 5 5 5 5 5 5 5 5 5 3 3 5 5 5 3 5 3 5 5 5 3 5 5 5 5 3 5 3 5 5 5 5 5 5 3 5 5 5 5 5 5 3 5 3 5 5 5 5 3 5 5 5 5 5 5 5 5 5 3 5 3 5 5 5 5 5 5 5 5 5 5 5 5 5 5 5 5 5 5 5 5 5 5 5 5 5 5 3 5 5 3 5 5 5 5 5 5 5 5 5 5 5 5 5 5 5 5 5 5 5 5 5 5 5 5 5 5 5 5 5 5 3 5 5 5 5 5 5 5 5 5 5 5 5 5 5 5 5 3 5 5 5 5 5 5 5 5 5 5 5 5 5 5 3 5 5 5 5 5 5 5 5 5 5 5 5 5 5 5 5 5 5 5 5 5 5 5 5 5 5 3 5 5 5 5 5 5 5 5 5 5 5 5 5 5 5 3 5 5 5 3 5 5 5 5 5 5 5 5 5 5 5 5 5 5 5 5 5 3 5 5 5 3 5 5 5 5 3 5 5 3 5 5 5 5 5 5 5 5 5 5 5 3 5 5 5 3 5 3 5 5 5 5 5 5 5 3 5 5 5 5 5 3 5 5 5 5 5 3 5 5 5 5 5 3 5 5 5 5 5 5 5 5 5 5 5 5 5 5 3 5 5 5 5 3 5 3 5 5 5 5 5 3 5 5 5 5 3 5 5 5 5 5 5 3 5 5 3 5 5 5 5 5 5 3 5 5 5 5 3 5 5 5 3 5 5 5 5 5 5 3 5 5 5 5 5 5 5 5 5 5 5 5 5 5 5 5 5 5 5 5 5 5 3 5 3 5 5 5 5 5 5 5 5 5 5 5 5 5 5 5 5 5 5 5 3 3 5 5 5 5 5 5 5 5 3 5 5 5 5 5 5 5 5 5 5 5 3 5 5 5 3 5 5 3 5 5 5 5 5 5 5 5 5 5 5 5 5 5 5 3 5 5 5 5 3 5 5 5 3 5 5 5 5 5 5 5 5 5 3 5 5 5 5 5 5 5 5 5 5 5 5 5 5 5 5 5 5 5 5 3 5 5 5 3 5 5 5 3 5 5 5 5 5 3 5 5 3 5 5 3 3 5 5 3 5 5 5 5 5 5 3 5 5 3 5 5 3 5 5 5 5 5 5 3 5 5 5 5 5 5 5 5 5 5 5 5 5 5 5 5 5 5 3 5 5 5 5 3 5 5 5 5 5 5 5 5 5 5 5 5 5 5 5 5 5 5 5 5 5 5 5 5 5 5 5 5 5 5 5 5 5 5 3 5 5 3 5 5 5 5 3 5 5 5 5 5 5 3 5 5 5 5 5 5 5 5 5 5 5 5 5 5 5 5 5 5 5 3 5 5 3 5 3 5 5 3 5 5 5 5 5 5 5 5 5 5 5 5 3 5 5 5 5 5 3 5 5 5 5 5 5 5 5 5 5 5 5 5 5 5 5 5 5 5 5 5 3 3 5 5 5 5 5 5 5 5 5 3 5 3 5 5 3 5 3 5 5 5 5 5 5 3 3 5 5 5 5 3 5 5 5 5 5 3 5 3 5 5 5 5 5 5 5 5 5 5 5 5 5 5 3 5 5 5 5 5 5 3 5 5 5 5 5 3 5 5 5 5 5 5 5 5 5 5 5 5 5 5 5 5 5 5 5 5 5 5 5 5 5 3 5 5 5 5 5 5 5 5 5 5 5 5 5 5 5 5 5 5 5 5 5 5 5 5 5 5 5 5 5 5 5 5 5 5 5 5 5 5 5 5 5 5 5 5 5 5 5 5 5 5 3 5 5 5 5 3 5 5 5 5 5 5 5 5 5 5 5 5 5 5 5 5 5 5 5 5 3 5 5 3 5 5 5 5 3 5 5 5 5 5 5 3 5 5 5 5 5 5 5 5 5 5 5 5 3 5 3 5 5 5 5 5 5 5 5 5 5 5 5 3 5 5 5 5 5 3 5 5 5 3 3 5 5 5 5 3 5 5 5 5 5 5 5 3 5 5 5 5 5 5 5 5 5 5 3 5 5 5 5 5 5 5 5 5 5 5 5 3 3 5 5 5 5 3 3 5 5 5 5 5 5 5 3 5 5 3 5 5 5 5 3 5 5 5 5 5 5 5 3 5 5 3 3 5 5 5 5 5 5 5 5 3 3 5 3 3 5 5 5 3 5 3 5 5 5 5 5 5 5 5 5 5 5 5 5 5 5 5 5 5 5 5 5 5 5 5 5 5 5 5 5 5 5 5 5 5 3 3 5 5 5 5 5 5 5 5 5 5 5 5 3 5 5 5 5 5 5 5 3 5 5 5 5 5 5 5 3 5 5 5 5 5 5 5 5 5 3 5 5 5 5 3 3 5 5 5 5 5 5 5 5 5 5 5 5 5 3 5 5 5 5 5 5 5 5 5 5 5 5 5 5 5 5 5 5 5 5 5 5 5 5 5 5 5 5 5 3 5 3 5 5 5 3 5 3 5 5 5 5 5 5 5 5 5 5 5 5 5 5 5 5 3 5 5 5 5 5 5 5 5 5 5 5 5 5 5 5 5 5 5 5 5 5 3 5 3 5 5 5 5 5 5 5 5 5 3 5 5 3 5 5 3 5 5 3 5 5 5 5 5 5 5 5 5 5 5 5 5 5 5 5 5 5 5 3 5 5 5 3 5 5 5 5 5 5 5 5 5 5 5 5 5 5 5 5 5 5 5 5 5 5 5 5 5 5 5 5 5 5 5 5 5 5 5 5 5 5 5 5 5 5 5 5 5 5 5 5 5 5 5 5 5 5 5 5 5 5 5 3 5 5 5 5 5 5 5 5 5 5 5 5 5 5 5 5 5 5 5 5 5 5 3 5 5 5 5 5 5 5 5 5 5 5 5 3 5 5 5 5 3 5 5 5 5 5 5 5 5 5 3 5 5 5 5 5 5 5 5 5 5 5 5 5 5 5 5 5 5 5 5 3 5 5 5 5 5 5 5 5 5 5 5 5 5 5 5 5 3 5 3 5 5 5 5 5 5 5 5 5 5 5 5 5 5 5 5 5 5 5 5 5 5 5 5 5 5 5 5 5 5 5 5 5 5 5 5 5 5 5 5 5 5 5 5 5 5 5 5 5 5 5 5 5 5 5 5 5 5 5 5 5 5 5 5 5 5 5 5 5 3 5 5 5 5 5 3 5 5 5 5 5 5 5 5 5 5 5 5 5 3 5 5 5 5 5 5 5 5 3 5 5 5 5 3 3 5 5 3 5 3 5 5 5 5 5 5 3 5 5 3 5 5 5 5 5 5 3 5 5 5 5 5 5 5 5 5 5 5 5 5 5 5 5 5 5 3 5 5 5 5 5 5 5 5 3 5 5 5 5 3 5 5 5 5 5 5 5 5 5 5 5 5 5 3 5 5 5 5 3 5 5 5 5 5 5 5 3 5 5 5 5 3 5 5 5 5 5 5 3 5 5 5 5 3 5 5 5 5 5 5 5 5 5 5 5 3 5 5 5 5 5 5 5 5 5 3 5 5 5 3 5 5 5 3 5 5 5 5 5 5 5 3 5 5 5 3 5 5 5 5 5 5 5 3 5 5 3 5 5 5 5 5 5 5 5 3 5 5 5 5 5 5 5 3 5 5 3 5 5 5 5 5 5 5 5 5 3 5 5 5 5 3 5 5 3 5 5 5 5 3 5 5 5 5 5 3 5 5 5 5 5 5 5 5 5 5 5 5 5 5 3 5 5 5 5 5 5 5 5 5 3 5 5 5 5 5 5 3 5 5 5 5 5 5 5 5 5 5 5 5 5 5 5 5 5 5 5 5 5 5 5 5 5 5 5 5 5 5 5 5 5 5 5 5 5 5 5 5 5 5 5 3 5 5 5 5 5 3 5 5 5 5 5 3 5 5 5 5 5 5 5 5 5 5 5 5 5 5 5 5 5 5 5 5 5 3 5 3 5 5 5 3 5 3 5 5 5 3 5 5 5 5 5 5 5 5 5 5 5 3 3 5 5 5 5 5 5 5 5 5 3 3 5 5 5 5 5 5 5 5 5 5 3 5 5 5 5 5 5 5 5 3 3 5 5 5 5 5 3 5 5 5 5 5 3 5 3 5 5 5 5 5 3 5 5 5 5 5 5 3 5 5 5 5 5 5 5 5 5 5 3 5 3 5 3 5 5 5 5 5 5 5 5 5 5 5 5 3 5 5 5 3 5 5 3 5 5 5 5 5 3 5 5 5 5 5 5 5 5 5 5 5 5 5 5 5 5 5 5 5 5 3 5 5 5 5 5 5 5 5 5 5 5 5 5 5 5 5 5 5 5 5 5 5 5 5 5 5 5 3 5 5 5 5 5 5 5 5 5 3 5 5 5 5 5 3 5 5 5 5 5 5 5 5 5 5 5 5 5 5 5 5 5 5 5 5 5 5 5 3 5 3 5 5 5 5 5 5 5 5 3 5 5 5 3 5 5 3 5 3 5 5 5 5 5 5 3 3 3 5 5 5 3 5 5 5 5 5 5 5 5 5 3 5 5 5 3 5 5 5 5 3 5 5 5 5 5 5 5 5 5 5 5 5 5 5 5 5 5 3 5 5 5 5 5 3 5 5 3 3 5 5 3 5 5 5 5 5 5 5 5 5 3 5 3 5 3 5 5 5 5 3 5 5 3 5 5 5 3 5 5 5 5 5 3 5 5 5 3 5 5 5 5 5 3 5 5 5 5 5 5 5 5 5 3 5 5 5 3 5 5 5 5 5 5 5 5 5 5 5 3 5 5 5 5 3 5 3 5 5 5 5 5 3 3 5 5 5 5 5 5 5 5 5 3 5 5 5 5 5 3 5 5 5 5 5 5 5 5 3 5 3 5 5 3 5 5 5 5 5 5 5 5 3 5 5 3 5 5 5 5 3 5 5 5 5 5 5 5 5 5 5 5 5 5 5 5 5 5 3 5 5 5 5 5 5 5 5 5 5 5 5 3 5 5 3 3 3 5 3 5 5 5 5 5 5 3 5 3 5 5 5 5 5 5 5 5 5 5 3 5 5 5 5 5 5 3 5 5 5 3 5 5 3 3 5 5 5 5 5 3 5 5 5 3 5 5 5 5 5 5 5 5 5 5 5 5 3 5 5 5 5 5 5 5 3 5 5 5 5 5 5 5 5 5 5 3 5 5 5 5 3 5 3 5 5 5 3 5 5 5 3 5 5 5 5 5 5 5 5 5 5 5 5 5 3 5 5 5 5 3 5 5 5 5 5 5 5 5 5 5 5 5 3 5 5 3 5 5 5 5 5 5 5 5 5 5 5 3 3 5 5 5 5 5 5 5 5 5 5 5 5 5 5 5 5 5 5 5 5 5 5 3 5 5 5 5 5 5 5 5 5 5 5 5 5 5 5 5 5 5 5 5 5 5 5 5 5 3 5 5 5 5 5 5 5 5 5 5 5 5 5 3 3 5 5 5 5 5 5 3 5 5 5 3 3 5 5 5 5 5 5 3 5 5 5 5 3 5 5 5 3 5 3 5 5 5 5 5 5 5 5 5 5 5 5 3 5 5 3 5 5 5 5 5 5 5 5 5 3 5 5 5 3 3 5 5 5 5 5 5 5 5 5 5 5 3 5 3 5 5 5 5 5 5 3 5 5 3 5 5 5 5 5 5 5 3 5 5 5 5 5 5 5 5 3 5 5 5 5 5 5 5 5 5 5 5 5 3 3 5 5 5 5 3 5 5 3 5 5 5 5 5 5 5 5 5 3 5 5 5 5 3 5 5 5 5 5 5 5 5 5 5 3 5 5 5 3 5 5 5 5 5 3 5 5 5 5 5 5 5 5 5 3 5 5 5 5 5 5 5 5 5 5 5 5 5 5 5 5 5 5 5 5 5 5 5 5 5 5 5 5 5 3 3 5 5 5 5 5 5 5 5 5 5 5 5 3 5 5 5 5 5 5 5 5 5 5 5 5 5 5 5 5 5 5 5 5 3 5 5 5 5 5 5 5 5 5 5 5 5 5 5 5 3 5 5 5 5 5 5 5 5 5 5 5 5 5 3 3 5 5 5 5 5 5 5 5 5 5 5 5 5 5 5 5 5 5 5 5 5 5 5 5 5 5 5 5 5 5 5 5 5 5 5 5 5 5 5 3 5 5 5 5 3 5 5 5 5 5 5 5 5 5 5 5 5 5 5 5 5 5 5 3 5 3 5 3 5 5 5 5 5 5 5 5 5 5 5 5 5 5 3 5 5 5 5 5 5 5 5 5 5 5 3 3 5 5 5 5 5 5 5 5 5 5 5 5 5 5 5 5 5 5 5 5 5 5 5 3 5 5 5 5 5 5 3 5 5 5 5 5 5 5 5 3 5 5 5 5 3 5 5 5 5 5 5 5 5 5 5 5 5 5 3 5 5 3 5 5 5 5 5 5 3 5 5 5 5 5 5 5 5 5 5 3 5 5 5 5 3 5 5 5 5 5 5 5 5 5 5 5 5 5 5 3 5 5 3 5 5 5 5 5 5 5 3 5 5 5 3 5 3 5 5 5 5 3 5 5 5 3 5 5 5 3 5 5 5 5 5 5 5 5 5 5 3 3 5 5 3 3 5 5 5 5 5 3 5 3 3 5 5 5 5 5 5 5 5 3 5 3 5 5 5 5 5 5 5 5 5 5 5 5 5 5 5 5 5 5 5 5 5 5 5 5 5 5 5 5 5 5 5 5 5 5 5 5 5 5 5 5 5 5 5 5 5 5 5 5 5 5 5 5 5 5 5 5 5 5 5 5 5 5 5 5 5 3 5 3 5 5 5 5 5 5 5 3 5 5 5 3 5 5 5 5 5 5 5 5 5 5 5 5 3 5 5 5 5 5 5 5 3 3 5 5 5 5 5 5 5 5 3 5 5 5 5 5 3 5 5 3 5 5 5 5 5 5 5 5 5 5 5 5 5 5 5 5 5 5 5 5 5 5 5 5 3 3 3 5 5 5 5 5 5 3 5 3 5 5 5 5 5 5 5 5 5 3 5 5 3 5 5 3 3 5 5 5 3 5 3 5 5 3 3 5 5 5 5 5 3 5 3 5 5 3 5 5 3 5 3 5 3 3 5 3 5 3 3 5 5 5 5 5 3 5 3 3 5 5 3 5 3 5 3 5 3 5 5 5 3 5 5 5 5 3 5 5 5 5 5 3 5 5 5 3 3 5 5 5 5 5 5 5 5 5 5 5 3 5 3 3 3 5 5 5 5 5 5 5 5 3 5 5 5 3 5 5 5 5 5 5 5 5 5 5 5 3 3 5 5 5 5 3 3 3 5 3 5 5 3 5 5 5 5 5 5 5 3 5 5 5 3 5 5 5 5 5 5 5 5 5 5 5 5 3 5 5 5 3 5 5 5 5 5 5 3 5 5 5 5 5 5 3 5 3 5 5 5 5 5 5 5 5 5 5 5 5 5 5 5 5 5 5 5 5 5 5 5 5 5 5 5 5 5 5 5 5 5 5 5 5 5 5 5 5 5 3 3 5 5 5 5 5 5 5 3 5 5 3 5 5 5 5 5 3 5 5 5 5 5 5 5 5 5 3 5 3 5 3 5 5 5 5 5 5 5 5 5 5 5 5 5 5 5 5 5 5 5 5 3 5 5 5 3 5 5 5 3 3 5 3 3 5 5 3 5 3 5 5 3 5 5 5 5 5 5 5 5 5 5 3 5 5 5 5 3 5 5 5 5 5 5 5 5 5 5 5 5 5 5 3 5 5 5 5 5 5 3 5 5 5 5 5 5 5 5 5 5 5 3 5 3 5 3 5 5 3 5 5 3 3 5 3 5 5 5 5 5 5 5 3 3 5 5 5 5 5 5 3 5 3 5 5 3 5 5 5 5 3 5 5 5 5 5 5 5 5 5 3 5 5 5 5 3 5 5 5 5 3 5 5 5 3 5 5 5 5 5 3 5 5 5 5 5 5 3 5 5 5 5 5 3 5 5 5 5 5 5 5 5 5 5 3 5 5 5 5 5 5 5 5 5 5 5 3 5 5 5 5 5 5 5 5 5 5 5 5 5 5 5 5 5 5 3 5 5 5 5 5 5 5 5 5 5 5 5 5 5 5 3 5 5 5 5 3 5 5 3 5 5 5 5 5 3 5 5 5 5 3 3 5 5 5 5 5 5 5 3 3 5 5 5 5 5 3 5 3 5 5 3 5 5 5 5 5 5 5 5 3 5 5 5 5 5 5 5 3 5 5 5 5 5 5 3 5 5 5 5 3 5 5 5 5 5 5 5 5 5 5 5 5 3 5 5 5 5 5 5 5 5 5 5 5 5 5 5 5 5 5 5 5 5 5 5 5 5 5 5 5 5 3 5 5 5 5 5 5 5 5 5 5 5 5 5 5 5 5 5 3 5 5 5 5 5 5 5 5 3 3 5 5 5 5 5 5 5 5 5 5 5 5 3 5 5 5 5 5 5 5 5 5 5 5 5 5 5 5 5 5 5 5 5 5 5 5 5 5 5 5 5 3 3 5 5 5 5 5 3 5 5 5 3 3 5 5 5 5 5 5 5 5 5 5 5 5 5 5 3 3 5 5 3 5 5 5 3 3 3 5 5 5 5 5 5 5 5 5 3 5 5 3 5 5 5 3 3 5 3 5 5 5 5 5 5 5 5 5 5 3 5 3 5 5 5 5 5 3 5 3 5 5 3 5 5 5 5 5 5 5 5 5 5 5 5 3 5 5 5 5 5 5 5 5 5 5 5 5 5 5 5 3 5 5 5 5 5 5 5 5 5 5 5 5 5 5 5 5 5 5 3 5 5 3 3 5 3 5 5 5 5 5 5 5 5 5 5 5 5 3 5 5 5 5 3 5 5 5 5 5 5 5 5 5 5 5 5 3 5 5 5 5 5 5 5 5 5 5 5 5 5 5 5 5 5 5 5 5 5 5 5 5 5 3 5 5 5 5 5 5 5 5 5 5 5 5 5 5 5 5 5 5 5 5 5 5 5 5 5 5 5 5 5 3 5 5 3 5 5 5 5 5 5 5 5 5 5 3 5 5 5 5 5 5 5 5 5 5 5 5 5 5 5 5 5 5 5 5 5 5 5 5 5 5 5 5 5 5 5 5 5 5 5 5 5 5 5 5 5 5 5 5 5 5 5 3 5 5 5 3 5 5 5 5 5 5 5 5 5 5 5 5 5 5 5 5 5 5 5 5 5 5 5 5 5 5 5 5 5 5 3 5 5 5 5 3 5 5 5 5 5 5 5 5 5 5 5 5 5 5 5 3 5 5 5 5 5 5 5 5 5 5 5 5 5 5 5 5 5 5 5 3 5 5 5 3 5 5 5 5 5 5 5 5 5 5 5 5 5 5 5 5 5 5 3 5 5 5 5 5 3 5 5 5 3 5 5 5 5 5 5 5 5 5 5 3 5 5 5 5 5 5 5 5 5 5 5 5 5 5 5 3 5 5 5 5 3 5 5 5 5 5 5 5 5 5 5 5 5 3 5 5 3 5 5 5 5 5 5 3 5 5 5 5 5 5 3 5 3 5 5 3 5 3 5 5 5 3 5 5 5 3 5 5 5 3 5 5 5 5 5 5 5 5 3 5 5 3 5 5 5 5 5 5 5 5 5 5 5 5 
</DataArray>
</Cells>
<PointData Scalars="" Vectors="displacement," Tensors="">
<DataArray type="Float64" Name="displacement" NumberOfComponents="3" format="ascii">
-0.004969231144807614 -0.0048974115757687026 0 -0.0050227949203235592 -0.0049573774050243359 0 -0.0049999766650179519 -0.004882568475659768 0 -0.005194453549152653 -0.0048475314221034516 0 -0.0051335341789708836 -0.0047783491495845282 0 -0.0049999782465431917 -0.0049996708102966374 0 -0.0049998667962683502 -0.0048833202417862941 0 -0.0047955601833377043 -0.00506478223159875 0 -0.0049999782465431917 -0.0049996708102966374 0 -0.0047955601833377043 -0.00506478223159875 0 -0.004684703477190859 -0.005000054293627842 0 -0.005194453549152653 -0.0048475314221034516 0 -0.0052064685170803869 -0.0047302887393538091 0 -0.0052842731653904946 -0.0047598571197336381 0 -0.005194453549152653 -0.0048475314221034516 0 -0.0052064685170803869 -0.0047302887393538091 0 -0.0051335341789708836 -0.0047783491495845282 0 -0.0052064685170803869 -0.0047302887393538091 0 -0.0051335341789708836 -0.0047783491495845282 0 -0.0051227747071035641 -0.0046631048350669084 0 -0.0052064685170803869 -0.0047302887393538091 0 -0.0052891435780645585 -0.004683875073813311 0 -0.0052842731653904946 -0.0047598571197336381 0 -0.0052064685170803869 -0.0047302887393538091 0 -0.005213390798820286 -0.0046081510570660667 0 -0.0052891435780645585 -0.004683875073813311 0 -0.0049999766650179519 -0.004882568475659768 0 -0.0051335341789708836 -0.0047783491495845282 0 -0.0051227747071035641 -0.0046631048350669084 0 -0.0049999766650179519 -0.004882568475659768 0 -0.0051227747071035641 -0.0046631048350669084 0 -0.004999985661981783 -0.0043614467880084698 0 -0.005213390798820286 -0.0046081510570660667 0 -0.0052133754636502902 -0.0044637388989382642 0 -0.0053254767454928307 -0.0045996004768395554 0 -0.005213390798820286 -0.0046081510570660667 0 -0.0051395458512317471 -0.0045254851427078214 0 -0.0052133754636502902 -0.0044637388989382642 0 -0.0052064685170803869 -0.0047302887393538091 0 -0.0051227747071035641 -0.0046631048350669084 0 -0.005213390798820286 -0.0046081510570660667 0 -0.0051227747071035641 -0.0046631048350669084 0 -0.005213390798820286 -0.0046081510570660667 0 -0.0051395458512317471 -0.0045254851427078214 0 -0.0052084614632251997 -0.0044464711442347331 0 -0.0053735447487209603 -0.0044024122925050511 0 -0.0051959114815409201 -0.0043376939085653229 0 -0.0052084614632251997 -0.0044464711442347331 0 -0.0049999957655724658 -0.004361326289374118 0 -0.0051959114815409201 -0.0043376939085653229 0 -0.0051395458512317471 -0.0045254851427078214 0 -0.0052133754636502902 -0.0044637388989382642 0 -0.004999985661981783 -0.0043614467880084698 0 -0.0052125203088662503 -0.0044547708164206007 0 -0.0050000337986031802 -0.0043613811660934082 0 -0.0051227747071035641 -0.0046631048350669084 0 -0.0051395458512317471 -0.0045254851427078214 0 -0.004999985661981783 -0.0043614467880084698 0 -0.0053735447487209603 -0.0044024122925050511 0 -0.0053985857510374605 -0.0045291255446854957 0 -0.0055432498907812319 -0.0044477697868369843 0 -0.0053621808746017107 -0.0043066636355436078 0 -0.0055230308880615704 -0.0043592000168231997 0 -0.0055279456395461871 -0.0042445474388318792 0 -0.0053666051624792739 -0.0043543219465148799 0 -0.0055383587855614884 -0.0044044545288220186 0 -0.0052084614632251997 -0.0044464711442347331 0 -0.0053735447487209603 -0.0044024122925050511 0 -0.0053985857510374605 -0.0045291255446854957 0 -0.0052125203088662503 -0.0044547708164206007 0 -0.0053892289030676365 -0.0045253730980201077 0 -0.0052133754636502902 -0.0044637388989382642 0 -0.0053254767454928307 -0.0045996004768395554 0 -0.0053985857510374605 -0.0045291255446854957 0 -0.005213390798820286 -0.0046081510570660667 0 -0.0053254767454928307 -0.0045996004768395554 0 -0.0052891435780645585 -0.004683875073813311 0 -0.0053254767454928307 -0.0045996004768395554 0 -0.0054622524068638871 -0.0046081232558501982 0 -0.0053718036192041589 -0.0047004511629950025 0 -0.0053254767454928307 -0.0045996004768395554 0 -0.0054622524068638871 -0.0046081232558501982 0 -0.0053985857510374605 -0.0045291255446854957 0 -0.0054622524068638871 -0.0046081232558501982 0 -0.0053985857510374605 -0.0045291255446854957 0 -0.0055432498907812319 -0.0044477697868369843 0 -0.0047918806925402206 -0.0048020485055364284 0 -0.0051242869565751147 -0.0044920750588428012 0 -0.0053718036192041589 -0.0047004511629950025 0 -0.0053582808914712267 -0.0048368529478752262 0 -0.0055219854434349954 -0.0047005733838107692 0 -0.0054622524068638871 -0.0046081232558501982 0 -0.0053718036192041589 -0.0047004511629950025 0 -0.0055219854434349954 -0.0047005733838107692 0 -0.0053718036192041589 -0.0047004511629950025 0 -0.0052842731653904946 -0.0047598571197336381 0 -0.0053582808914712267 -0.0048368529478752262 0 -0.0052891435780645585 -0.004683875073813311 0 -0.0053718036192041589 -0.0047004511629950025 0 -0.0052842731653904946 -0.0047598571197336381 0 -0.0053254767454928307 -0.0045996004768395554 0 -0.0052891435780645585 -0.004683875073813311 0 -0.0053718036192041589 -0.0047004511629950025 0 -0.0045601458357912919 -0.005086853940279472 0 -0.0046845199403116001 -0.0049999999644599006 0 -0.0043988063203921372 -0.0049999970707044058 0 -0.0050227949203235592 -0.0049573774050243359 0 -0.0047918806925402206 -0.0048020485055364284 0 -0.0047955601833377043 -0.00506478223159875 0 -0.0045745499361217424 -0.005077159135726427 0 -0.004684703477190859 -0.005000054293627842 0 -0.005194453549152653 -0.0048475314221034516 0 -0.0052842731653904946 -0.0047598571197336381 0 -0.0053582808914712267 -0.0048368529478752262 0 -0.0047918806925402206 -0.0048020485055364284 0 -0.0045809554198756345 -0.0050622300670600338 0 -0.0047918806925402206 -0.0048020485055364284 0 -0.0044497495197566911 -0.0047532026439436846 0 -0.0045342029506219841 -0.0044397188847861849 0 -0.0046696148969701014 -0.0044452149046971378 0 -0.0046580514122324581 -0.0043472661158276147 0 -0.0045601458357912919 -0.005086853940279472 0 -0.0043988063203921372 -0.0049999970707044058 0 -0.0043271101487947277 -0.0050708370993732621 0 -0.0043988063203921372 -0.0049999970707044058 0 -0.0040942564047963034 -0.0050550817107334802 0 -0.0038610137831342349 -0.0050391407293996554 0 -0.0043988063203921372 -0.0049999970707044058 0 -0.0038610137831342349 -0.0050391407293996554 0 -0.0036369744392210821 -0.0049999923290118282 0 -0.0043988063203921372 -0.0049999970707044058 0 -0.0043271101487947277 -0.0050708370993732621 0 -0.0040942564047963034 -0.0050550817107334802 0 -0.0047256767122874199 -0.0043998244728184043 0 -0.0046696148969701014 -0.0044452149046971378 0 -0.0048164138474042712 -0.0044587503169594466 0 -0.0047256767122874199 -0.0043998244728184043 0 -0.0046696148969701014 -0.0044452149046971378 0 -0.0046580514122324581 -0.0043472661158276147 0 -0.0044497495197566911 -0.0047532026439436846 0 -0.0044513588961543286 -0.0047559104691702091 0 -0.0047256767122874199 -0.0043998244728184043 0 -0.0048164138474042712 -0.0044587503169594466 0 -0.0047609828912730757 -0.0043507449356404325 0 -0.0048164138474042712 -0.0044587503169594466 0 -0.0047609828912730757 -0.0043507449356404325 0 -0.00484064844342952 -0.0043282048941756697 0 -0.0047609828912730757 -0.0043507449356404325 0 -0.00484064844342952 -0.0043282048941756697 0 -0.0047927256052764152 -0.0042428862778049565 0 -0.0047256767122874199 -0.0043998244728184043 0 -0.0047609828912730757 -0.0043507449356404325 0 -0.0046580514122324581 -0.0043472661158276147 0 -0.0051242869565751147 -0.0044920750588428012 0 -0.0052333841972721932 -0.0044116096234274177 0 -0.0047609828912730757 -0.0043507449356404325 0 -0.0046580514122324581 -0.0043472661158276147 0 -0.0047927256052764152 -0.0042428862778049565 0 -0.0049758631492057134 -0.0044747026164606183 0 -0.0049044512180783867 -0.00438002004179666 0 -0.0049863501108613891 -0.0043458399650181815 0 -0.0049758631492057134 -0.0044747026164606183 0 -0.0049863501108613891 -0.0043458399650181815 0 -0.0050889459186022213 -0.0043647674662001647 0 -0.0048164138474042712 -0.0044587503169594466 0 -0.0049758631492057134 -0.0044747026164606183 0 -0.0049044512180783867 -0.00438002004179666 0 -0.0044513588961543286 -0.0047559104691702091 0 -0.0044887981717429319 -0.0047723597072383203 0 -0.0048164138474042712 -0.0044587503169594466 0 -0.00484064844342952 -0.0043282048941756697 0 -0.0049044512180783867 -0.00438002004179666 0 -0.00484064844342952 -0.0043282048941756697 0 -0.0049187244657838752 -0.0043052588174804047 0 -0.0049044512180783867 -0.00438002004179666 0 -0.00484064844342952 -0.0043282048941756697 0 -0.0049187244657838752 -0.0043052588174804047 0 -0.0048774105304062471 -0.004261213363127043 0 -0.0049187244657838752 -0.0043052588174804047 0 -0.0049044512180783867 -0.00438002004179666 0 -0.0049863501108613891 -0.0043458399650181815 0 -0.0049187244657838752 -0.0043052588174804047 0 -0.0049863501108613891 -0.0043458399650181815 0 -0.0049793417156464232 -0.0042654210944082591 0 -0.0049863501108613891 -0.0043458399650181815 0 -0.0050533525772798061 -0.0042798795902978283 0 -0.0049793417156464232 -0.0042654210944082591 0 -0.0049863501108613891 -0.0043458399650181815 0 -0.0050533525772798061 -0.0042798795902978283 0 -0.0050889459186022213 -0.0043647674662001647 0 -0.0050232434819043074 -0.0042124979686905531 0 -0.005040160283515103 -0.0041528317225532794 0 -0.0050855948602861883 -0.0042045790353654267 0 -0.0050232434819043074 -0.0042124979686905531 0 -0.004997598020741097 -0.0041781446089399947 0 -0.005040160283515103 -0.0041528317225532794 0 -0.0050533525772798061 -0.0042798795902978283 0 -0.0050232434819043074 -0.0042124979686905531 0 -0.0049793417156464232 -0.0042654210944082591 0 -0.0050533525772798061 -0.0042798795902978283 0 -0.0050232434819043074 -0.0042124979686905531 0 -0.0050855948602861883 -0.0042045790353654267 0 -0.0050232434819043074 -0.0042124979686905531 0 -0.0049793417156464232 -0.0042654210944082591 0 -0.0049644995210679672 -0.0042077776237863474 0 -0.0049793417156464232 -0.0042654210944082591 0 -0.0049644995210679672 -0.0042077776237863474 0 -0.0049272080233942854 -0.0042498404195361727 0 -0.0050232434819043074 -0.0042124979686905531 0 -0.0049644995210679672 -0.0042077776237863474 0 -0.004997598020741097 -0.0041781446089399947 0 -0.004997598020741097 -0.0041781446089399947 0 -0.004961657918908749 -0.0041727305908257012 0 -0.0049920453602187616 -0.0041373015352702469 0 -0.0049644995210679672 -0.0042077776237863474 0 -0.004961657918908749 -0.0041727305908257012 0 -0.0049433343613571297 -0.0041864771175977901 0 -0.0049644995210679672 -0.0042077776237863474 0 -0.004997598020741097 -0.0041781446089399947 0 -0.004961657918908749 -0.0041727305908257012 0 -0.0053346633763482745 -0.0042062500224716876 0 -0.0052333841972721932 -0.0044116096234274177 0 -0.0049099866320140512 -0.0042110877302083249 0 -0.0048774105304062471 -0.004261213363127043 0 -0.0047927256052764152 -0.0042428862778049565 0 -0.0049099866320140512 -0.0042110877302083249 0 -0.0049373602632263895 -0.0041542040206995418 0 -0.0047927256052764152 -0.0042428862778049565 0 -0.0058497686581355747 -0.0044016675774538327 0 -0.0056744355724828348 -0.0045552479784025865 0 -0.0057062374111152957 -0.0044503580127324919 0 -0.004940356994559243 -0.0041312508266403607 0 -0.0049373602632263895 -0.0041542040206995418 0 -0.0047927256052764152 -0.0042428862778049565 0 -0.0049433343613571297 -0.0041864771175977901 0 -0.0049099866320140512 -0.0042110877302083249 0 -0.0049373602632263895 -0.0041542040206995418 0 -0.004961657918908749 -0.0041727305908257012 0 -0.0049433343613571297 -0.0041864771175977901 0 -0.0049373602632263895 -0.0041542040206995418 0 -0.0049644995210679672 -0.0042077776237863474 0 -0.0049433343613571297 -0.0041864771175977901 0 -0.0049099866320140512 -0.0042110877302083249 0 -0.0049644995210679672 -0.0042077776237863474 0 -0.0049099866320140512 -0.0042110877302083249 0 -0.0049272080233942854 -0.0042498404195361727 0 -0.0049187244657838752 -0.0043052588174804047 0 -0.0049793417156464232 -0.0042654210944082591 0 -0.0049272080233942854 -0.0042498404195361727 0 -0.0049187244657838752 -0.0043052588174804047 0 -0.0049272080233942854 -0.0042498404195361727 0 -0.0048774105304062471 -0.004261213363127043 0 -0.0049099866320140512 -0.0042110877302083249 0 -0.0049272080233942854 -0.0042498404195361727 0 -0.0048774105304062471 -0.004261213363127043 0 -0.0058497686581355747 -0.0044016675774538327 0 -0.0057062374111152957 -0.0044503580127324919 0 -0.0057410907423260391 -0.0042698744583365943 0 -0.0053346633763482745 -0.0042062500224716876 0 -0.0052981275131996752 -0.0041987230624255575 0 -0.0049398779992826936 -0.0041288936113188009 0 -0.0049373602632263895 -0.0041542040206995418 0 -0.0049577439194426823 -0.0041484000039397175 0 -0.0049398779992826936 -0.0041288936113188009 0 -0.0049920453602187616 -0.0041373015352702469 0 -0.0050548087835096834 -0.0040474127832187679 0 -0.0049398779992826936 -0.0041288936113188009 0 -0.0049577439194426823 -0.0041484000039397175 0 -0.0049920453602187616 -0.0041373015352702469 0 -0.004961657918908749 -0.0041727305908257012 0 -0.0049577439194426823 -0.0041484000039397175 0 -0.0049920453602187616 -0.0041373015352702469 0 -0.004961657918908749 -0.0041727305908257012 0 -0.0049373602632263895 -0.0041542040206995418 0 -0.0049577439194426823 -0.0041484000039397175 0 -0.0053346633763482745 -0.0042062500224716876 0 -0.0052388798160263482 -0.004085167835021602 0 -0.0049920453602187616 -0.0041373015352702469 0 -0.0050548087835096834 -0.0040474127832187679 0 -0.005040160283515103 -0.0041528317225532794 0 -0.0050548087835096834 -0.0040474127832187679 0 -0.005040160283515103 -0.0041528317225532794 0 -0.0050974275057043507 -0.0041300913410772504 0 -0.004997598020741097 -0.0041781446089399947 0 -0.0049920453602187616 -0.0041373015352702469 0 -0.005040160283515103 -0.0041528317225532794 0 -0.0054622524068638871 -0.0046081232558501982 0 -0.0055690439780601139 -0.0045595888988488598 0 -0.0055432498907812319 -0.0044477697868369843 0 -0.0055690439780601139 -0.0045595888988488598 0 -0.0057062374111152957 -0.0044503580127324919 0 -0.0055432498907812319 -0.0044477697868369843 0 -0.0055219854434349954 -0.0047005733838107692 0 -0.0055690439780601139 -0.0045595888988488598 0 -0.0056744355724828348 -0.0045552479784025865 0 -0.0054622524068638871 -0.0046081232558501982 0 -0.0055219854434349954 -0.0047005733838107692 0 -0.0055690439780601139 -0.0045595888988488598 0 -0.0055690439780601139 -0.0045595888988488598 0 -0.0056744355724828348 -0.0045552479784025865 0 -0.0057062374111152957 -0.0044503580127324919 0 -0.00484064844342952 -0.0043282048941756697 0 -0.0048774105304062471 -0.004261213363127043 0 -0.0047927256052764152 -0.0042428862778049565 0 -0.0056988394316193087 -0.0044490422435750623 0 -0.0055383587855614884 -0.0044044545288220186 0 -0.0057062374111152957 -0.0044503580127324919 0 -0.0056270079426970418 -0.0043041348124132506 0 -0.0057410907423260391 -0.0042698744583365943 0 -0.0057062374111152957 -0.0044503580127324919 0 -0.0056270079426970418 -0.0043041348124132506 0 -0.0055230308880615704 -0.0043592000168231997 0 -0.0056270079426970418 -0.0043041348124132506 0 -0.0055230308880615704 -0.0043592000168231997 0 -0.0055279456395461871 -0.0042445474388318792 0 -0.0055279456395461871 -0.0042445474388318792 0 -0.0056528866285940546 -0.0042044135063370285 0 -0.0055765758739107071 -0.0041375945450038065 0 -0.0055279456395461871 -0.0042445474388318792 0 -0.0055765758739107071 -0.0041375945450038065 0 -0.0054370967676870543 -0.00415250461094976 0 -0.0056270079426970418 -0.0043041348124132506 0 -0.0055279456395461871 -0.0042445474388318792 0 -0.0056528866285940546 -0.0042044135063370285 0 -0.0056528866285940546 -0.0042044135063370285 0 -0.0057082424708955496 -0.0041136590212408532 0 -0.0057410907423260391 -0.0042698744583365943 0 -0.0056270079426970418 -0.0043041348124132506 0 -0.0056528866285940546 -0.0042044135063370285 0 -0.0057410907423260391 -0.0042698744583365943 0 -0.0056528866285940546 -0.0042044135063370285 0 -0.0057082424708955496 -0.0041136590212408532 0 -0.0055765758739107071 -0.0041375945450038065 0 -0.0057082424708955496 -0.0041136590212408532 0 -0.005730233639146212 -0.0039726751189646456 0 -0.0056331643847247984 -0.0040330592276235575 0 -0.0057082424708955496 -0.0041136590212408532 0 -0.0055765758739107071 -0.0041375945450038065 0 -0.0056331643847247984 -0.0040330592276235575 0 -0.0055765758739107071 -0.0041375945450038065 0 -0.0056331643847247984 -0.0040330592276235575 0 -0.0054934878676649685 -0.0040321209357751346 0 -0.0055765758739107071 -0.0041375945450038065 0 -0.0054934878676649685 -0.0040321209357751346 0 -0.0054370967676870543 -0.00415250461094976 0 -0.0054178698300370691 -0.0041325510746976568 0 -0.0054461032731967559 -0.0041130389110016858 0 -0.0054256963281242628 -0.0040875020770418354 0 -0.0054461032731967559 -0.0041130389110016858 0 -0.0054256963281242628 -0.0040875020770418354 0 -0.0054534001261166412 -0.0040940202398199385 0 -0.0053346633763482745 -0.0042062500224716876 0 -0.0056642553077978965 -0.0041405684896050786 0 -0.0054256963281242628 -0.0040875020770418354 0 -0.0054482524571762957 -0.0040781990593217752 0 -0.0054534001261166412 -0.0040940202398199385 0 -0.0057082424708955496 -0.0041136590212408532 0 -0.0058487488037672983 -0.0041695993083901576 0 -0.0057410907423260391 -0.0042698744583365943 0 -0.0058497686581355747 -0.0044016675774538327 0 -0.0058487488037672983 -0.0041695993083901576 0 -0.0057410907423260391 -0.0042698744583365943 0 -0.0057082424708955496 -0.0041136590212408532 0 -0.0058487488037672983 -0.0041695993083901576 0 -0.0057679853114954412 -0.0040560892278185432 0 -0.0057082424708955496 -0.0041136590212408532 0 -0.0057679853114954412 -0.0040560892278185432 0 -0.005730233639146212 -0.0039726751189646456 0 -0.0058487488037672983 -0.0041695993083901576 0 -0.0057679853114954412 -0.0040560892278185432 0 -0.0057888814002841496 -0.0039932564409483296 0 -0.0054256963281242628 -0.0040875020770418354 0 -0.0054440039866847567 -0.0040644323147755578 0 -0.0054334110238936761 -0.0040445236860610079 0 -0.0056642553077978965 -0.0041405684896050786 0 -0.0056067760876937723 -0.0040242976546010336 0 -0.0054440039866847567 -0.0040644323147755578 0 -0.0054482524571762957 -0.0040781990593217752 0 -0.0054527536873974804 -0.0040683861396969851 0 -0.0054256963281242628 -0.0040875020770418354 0 -0.0054440039866847567 -0.0040644323147755578 0 -0.0054482524571762957 -0.0040781990593217752 0 -0.0054334110238936761 -0.0040445236860610079 0 -0.0054406650638807166 -0.0040026662432649284 0 -0.0054569288785560367 -0.0040491124283747407 0 -0.0054440039866847567 -0.0040644323147755578 0 -0.0054334110238936761 -0.0040445236860610079 0 -0.0054569288785560367 -0.0040491124283747407 0 -0.0057888814002841496 -0.0039932564409483296 0 -0.005730233639146212 -0.0039726751189646456 0 -0.0057395720847125079 -0.0039723375178627217 0 -0.0057679853114954412 -0.0040560892278185432 0 -0.0057888814002841496 -0.0039932564409483296 0 -0.005730233639146212 -0.0039726751189646456 0 -0.005730233639146212 -0.0039726751189646456 0 -0.0057131236681496273 -0.0038053306291336571 0 -0.0057811377671645719 -0.0036953047016775068 0 -0.0057068659783900055 -0.0039519615387641708 0 -0.0058312065565328097 -0.0038703633205224215 0 -0.005730233639146212 -0.0039726751189646456 0 -0.0057212260778436328 -0.0039690754914275782 0 -0.0057075793042044749 -0.003972862285277514 0 -0.0057212260778436328 -0.0039690754914275782 0 -0.0057090296633263999 -0.0039669753676311289 0 -0.0057087530821334836 -0.0039710931748306172 0 -0.0057212260778436328 -0.0039690754914275782 0 -0.0057087530821334836 -0.0039710931748306172 0 -0.0057075793042044749 -0.003972862285277514 0 -0.005730233639146212 -0.0039726751189646456 0 -0.0057212260778436328 -0.0039690754914275782 0 -0.0057395720847125079 -0.0039723375178627217 0 -0.0057212260778436328 -0.0039690754914275782 0 -0.0057395720847125079 -0.0039723375178627217 0 -0.0057090296633263999 -0.0039669753676311289 0 -0.0055367452384454015 -0.0039908711048771547 0 -0.005477228627841042 -0.0040181833434195817 0 -0.0055743400388238336 -0.0039603639702315728 0 -0.0056647771059429169 -0.0039612218254120096 0 -0.0054561987263394901 -0.0039564200296811685 0 -0.0057888814002841496 -0.0039932564409483296 0 -0.0057395720847125079 -0.0039723375178627217 0 -0.0056647771059429169 -0.0039612218254120096 0 -0.0056067760876937723 -0.0040242976546010336 0 -0.0055367452384454015 -0.0039908711048771547 0 -0.0057395720847125079 -0.0039723375178627217 0 -0.0057090296633263999 -0.0039669753676311289 0 -0.0056647771059429169 -0.0039612218254120096 0 -0.0057090296633263999 -0.0039669753676311289 0 -0.0056647771059429169 -0.0039612218254120096 0 -0.0056979394952079831 -0.0039681458393737677 0 -0.0057090296633263999 -0.0039669753676311289 0 -0.0056979394952079831 -0.0039681458393737677 0 -0.0057087530821334836 -0.0039710931748306172 0 -0.0055776115077549914 -0.0039273353370335691 0 -0.0054401589216967923 -0.0038620320194492387 0 -0.0054934878676649685 -0.0040321209357751346 0 -0.0055776115077549914 -0.0039273353370335691 0 -0.0056331643847247984 -0.0040330592276235575 0 -0.0054934878676649685 -0.0040321209357751346 0 -0.005730233639146212 -0.0039726751189646456 0 -0.0055776115077549914 -0.0039273353370335691 0 -0.0056331643847247984 -0.0040330592276235575 0 -0.005730233639146212 -0.0039726751189646456 0 -0.0055776115077549914 -0.0039273353370335691 0 -0.0056430300837865544 -0.0038515409271890496 0 -0.005730233639146212 -0.0039726751189646456 0 -0.0056430300837865544 -0.0038515409271890496 0 -0.0057131236681496273 -0.0038053306291336571 0 -0.0056430300837865544 -0.0038515409271890496 0 -0.0057131236681496273 -0.0038053306291336571 0 -0.0056733069058205699 -0.0037438034987000903 0 -0.0056430300837865544 -0.0038515409271890496 0 -0.005540455644976139 -0.0038135485412850671 0 -0.0056733069058205699 -0.0037438034987000903 0 -0.0055776115077549914 -0.0039273353370335691 0 -0.005540455644976139 -0.0038135485412850671 0 -0.0054401589216967923 -0.0038620320194492387 0 -0.0055776115077549914 -0.0039273353370335691 0 -0.0056430300837865544 -0.0038515409271890496 0 -0.005540455644976139 -0.0038135485412850671 0 -0.0054401589216967923 -0.0038620320194492387 0 -0.0053126622836156476 -0.0037870728561021148 0 -0.0054571061389911968 -0.0037040548092019984 0 -0.005540455644976139 -0.0038135485412850671 0 -0.0054401589216967923 -0.0038620320194492387 0 -0.0054571061389911968 -0.0037040548092019984 0 -0.0054401589216967923 -0.0038620320194492387 0 -0.0054934878676649685 -0.0040321209357751346 0 -0.0053582394352676057 -0.004003626663288351 0 -0.0053582394352676057 -0.004003626663288351 0 -0.0051929339983095325 -0.0038884804158417171 0 -0.0052523052185891829 -0.0040627076213801934 0 -0.0053582394352676057 -0.004003626663288351 0 -0.0053126622836156476 -0.0037870728561021148 0 -0.0051929339983095325 -0.0038884804158417171 0 -0.0054401589216967923 -0.0038620320194492387 0 -0.0053582394352676057 -0.004003626663288351 0 -0.0053126622836156476 -0.0037870728561021148 0 -0.0053126622836156476 -0.0037870728561021148 0 -0.0051929339983095325 -0.0038884804158417171 0 -0.0051608820859101803 -0.0037134782062045826 0 -0.0051929339983095325 -0.0038884804158417171 0 -0.0049999837752572234 -0.0040002066947500492 0 -0.0049999872534479354 -0.0037400469990259083 0 -0.0051929339983095325 -0.0038884804158417171 0 -0.0049999872534479354 -0.0037400469990259083 0 -0.0051608820859101803 -0.0037134782062045826 0 -0.0051929339983095325 -0.0038884804158417171 0 -0.0049999837752572234 -0.0040002066947500492 0 -0.0051390723012079594 -0.0041167928022982593 0 -0.0051929339983095325 -0.0038884804158417171 0 -0.0052523052185891829 -0.0040627076213801934 0 -0.0051390723012079594 -0.0041167928022982593 0 -0.0052523052185891829 -0.0040627076213801934 0 -0.0051390723012079594 -0.0041167928022982593 0 -0.0052239409247548515 -0.004155201286148158 0 -0.0051390723012079594 -0.0041167928022982593 0 -0.0052239409247548515 -0.004155201286148158 0 -0.0051917760808856787 -0.0042722380293411487 0 -0.0049999837752572234 -0.0040002066947500492 0 -0.0051390723012079594 -0.0041167928022982593 0 -0.0049999949781860276 -0.0042602883596925415 0 -0.005000031408096 -0.0042603857490276743 0 -0.0051900998184028066 -0.0043049913078051557 0 -0.0049999983668627037 -0.0042604266783944295 0 -0.0049999957655724658 -0.004361326289374118 0 -0.0051959114815409201 -0.0043376939085653229 0 -0.0051390723012079594 -0.0041167928022982593 0 -0.0049999949781860276 -0.0042602883596925415 0 -0.0051917760808856787 -0.0042722380293411487 0 -0.0052239409247548515 -0.004155201286148158 0 -0.0051917760808856787 -0.0042722380293411487 0 -0.0053128852510121215 -0.0041661752442224264 0 -0.0053666051624792739 -0.0043543219465148799 0 -0.0051900998184028066 -0.0043049913078051557 0 -0.0053621808746017107 -0.0043066636355436078 0 -0.0051917760808856787 -0.0042722380293411487 0 -0.0053128852510121215 -0.0041661752442224264 0 -0.0053621808746017107 -0.0043066636355436078 0 -0.0054370967676870543 -0.00415250461094976 0 -0.0053128852510121215 -0.0041661752442224264 0 -0.0053621808746017107 -0.0043066636355436078 0 -0.0055279456395461871 -0.0042445474388318792 0 -0.0054370967676870543 -0.00415250461094976 0 -0.0054934878676649685 -0.0040321209357751346 0 -0.0053582394352676057 -0.004003626663288351 0 -0.0054370967676870543 -0.00415250461094976 0 -0.0053582394352676057 -0.004003626663288351 0 -0.0052523052185891829 -0.0040627076213801934 0 -0.0053128852510121215 -0.0041661752442224264 0 -0.0053582394352676057 -0.004003626663288351 0 -0.0054370967676870543 -0.00415250461094976 0 -0.0053128852510121215 -0.0041661752442224264 0 -0.0052523052185891829 -0.0040627076213801934 0 -0.0052239409247548515 -0.004155201286148158 0 -0.0053128852510121215 -0.0041661752442224264 0 -0.0026208129763454421 -0.0054945353845721042 0 -0.0026115848349575737 -0.0056611172466961898 0 -0.0024147704522147367 -0.0055057390478068869 0 -0.0026208129763454421 -0.0054945353845721042 0 -0.0025413865130850702 -0.0053902016592548875 0 -0.0024147704522147367 -0.0055057390478068869 0 -0.0027508118114528278 -0.0050134804082406295 0 -0.0023841772056617154 -0.0048124910178868382 0 -0.0026208129763454421 -0.0054945353845721042 0 -0.0028373597183321791 -0.0054770214326557154 0 -0.0026378375872749766 -0.005647234915415 0 -0.0026208129763454421 -0.0054945353845721042 0 -0.0026847671392347763 -0.0053196633560742296 0 -0.0028373597183321791 -0.0054770214326557154 0 -0.0026121337696198622 -0.0044674744363829427 0 -0.0025993116889261696 -0.0045177671155568998 0 -0.0024837907077164094 -0.0045857816009918237 0 -0.0026208129763454421 -0.0054945353845721042 0 -0.0026847671392347763 -0.0053196633560742296 0 -0.0025413865130850702 -0.0053902016592548875 0 -0.0026847671392347763 -0.0053196633560742296 0 -0.0025413865130850702 -0.0053902016592548875 0 -0.0024447996078388575 -0.0052392107820435248 0 -0.0026847671392347763 -0.0053196633560742296 0 -0.0027186161499416842 -0.0051613735308704504 0 -0.0024447996078388575 -0.0052392107820435248 0 -0.0026504178415164424 -0.004999994601455001 0 -0.0027186161499416842 -0.0051613735308704504 0 -0.0024447996078388575 -0.0052392107820435248 0 -0.0026504178415164424 -0.004999994601455001 0 -0.0027186161499416842 -0.0051613735308704504 0 -0.0029420699035008708 -0.0049999931191970701 0 -0.00270167192225923 -0.0053125816475894788 0 -0.0028679029599328353 -0.0052341715850164599 0 -0.0026847671392347763 -0.0053196633560742296 0 -0.0027186161499416842 -0.0051613735308704504 0 -0.0028818303539764885 -0.0052449599736553582 0 -0.0027186161499416842 -0.0051613735308704504 0 -0.0028818303539764885 -0.0052449599736553582 0 -0.0029420699035008708 -0.0049999931191970701 0 -0.0028818303539764885 -0.0052449599736553582 0 -0.0029420699035008708 -0.0049999931191970701 0 -0.0030752925677824286 -0.0051594950235495192 0 -0.0029420699035008708 -0.0049999931191970701 0 -0.0030752925677824286 -0.0051594950235495192 0 -0.0032337234660771881 -0.0049999995963047666 0 -0.0028679029599328353 -0.0052341715850164599 0 -0.003049437286905759 -0.0051501577920585054 0 -0.0028543750678432281 -0.0052250848053789021 0 -0.0030348796508162966 -0.0051275046007103406 0 -0.0030412047483879402 -0.0052952801632298466 0 -0.0027094630460782853 -0.0043885582048555014 0 -0.0026121337696198622 -0.0044674744363829427 0 -0.0026890636344308692 -0.0044521595339435992 0 -0.0027094630460782853 -0.0043885582048555014 0 -0.0026890636344308692 -0.0044521595339435992 0 -0.0027616047821969721 -0.0044342213342692558 0 -0.0028390069672053122 -0.0048550612471474925 0 -0.0027508118114528278 -0.0050134804082406295 0 -0.0028543750678432281 -0.0052250848053789021 0 -0.0030412047483879402 -0.0052952801632298466 0 -0.0028373597183321791 -0.0054770214326557154 0 -0.0026847671392347763 -0.0053196633560742296 0 -0.0028543750678432281 -0.0052250848053789021 0 -0.0028373597183321791 -0.0054770214326557154 0 -0.0026497512282372573 -0.0044627336406231899 0 -0.0026652951774117696 -0.0044678279688880659 0 -0.0026226465809872051 -0.0044780771205074846 0 -0.0026890636344308692 -0.0044521595339435992 0 -0.0026765778966512496 -0.0044975540909211456 0 -0.0026121337696198622 -0.0044674744363829427 0 -0.0025993116889261696 -0.0045177671155568998 0 -0.0026890636344308692 -0.0044521595339435992 0 -0.0026890636344308692 -0.0044521595339435992 0 -0.0027285735302750159 -0.0044910134057404389 0 -0.0026765778966512496 -0.0044975540909211456 0 -0.0027616047821969721 -0.0044342213342692558 0 -0.0027938617599902738 -0.0045089671971320373 0 -0.0027285735302750159 -0.0044910134057404389 0 -0.0026890636344308692 -0.0044521595339435992 0 -0.0027616047821969721 -0.0044342213342692558 0 -0.0027285735302750159 -0.0044910134057404389 0 -0.003742633592575699 -0.004341321191342974 0 -0.0029697289327848303 -0.0043239688702116485 0 -0.0027616047821969721 -0.0044342213342692558 0 -0.0028333481817980465 -0.0044334204422841724 0 -0.0027938617599902738 -0.0045089671971320373 0 -0.0032549256530855029 -0.004375157279450646 0 -0.003742633592575699 -0.004341321191342974 0 -0.0027616047821969721 -0.0044342213342692558 0 -0.0027667002847336477 -0.0043827373810212886 0 -0.002809091012742842 -0.0043804766677625739 0 -0.0027616047821969721 -0.0044342213342692558 0 -0.002809091012742842 -0.0043804766677625739 0 -0.0028333481817980465 -0.0044334204422841724 0 -0.0027094630460782853 -0.0043885582048555014 0 -0.0027616047821969721 -0.0044342213342692558 0 -0.0027667002847336477 -0.0043827373810212886 0 -0.0030348796508162966 -0.0051275046007103406 0 -0.0030412047483879402 -0.0052952801632298466 0 -0.0032545303644830226 -0.0051012227050576103 0 -0.0028390069672053122 -0.0048550612471474925 0 -0.0031875384212048698 -0.00464611366883118 0 -0.0027094630460782853 -0.0043885582048555014 0 -0.0027667002847336477 -0.0043827373810212886 0 -0.0027865516548089765 -0.0043294964335060544 0 -0.003049437286905759 -0.0051501577920585054 0 -0.0032613546734371005 -0.0049779238998650163 0 -0.0030752925677824286 -0.0051594950235495192 0 -0.0032653603507416364 -0.0050705591029238557 0 -0.0032337234660771881 -0.0049999995963047666 0 -0.0030348796508162966 -0.0051275046007103406 0 -0.0032234374615650848 -0.0050319429299015865 0 -0.0032545303644830226 -0.0051012227050576103 0 -0.0032661244397129831 -0.0050703915693051669 0 -0.0032337270010039569 -0.0050000003441872639 0 -0.0032875372298128468 -0.004999998577364417 0 -0.0032613546734371005 -0.0049779238998650163 0 -0.0032337733379141148 -0.0050000214089042597 0 -0.0034141060988553086 -0.004999999854097434 0 -0.0033982335382164732 -0.0050076281229413265 0 -0.0032875385537373307 -0.0049999997511133388 0 -0.0033853718840007284 -0.0047477855476612749 0 -0.0032809174426180064 -0.0048831736274666943 0 -0.0034298952933927893 -0.0047508335795967901 0 -0.0031875384212048698 -0.00464611366883118 0 -0.0035713979471581358 -0.0047273737702230754 0 -0.0034226625568938886 -0.0049308322056141546 0 -0.0035713979471581358 -0.0047273737702230754 0 -0.0034141159898577285 -0.0049999750412972411 0 -0.0033995755872254121 -0.0050128957919536527 0 -0.0034414329264348289 -0.0049893788409077723 0 -0.0034140554398596145 -0.004999661490459462 0 -0.0034226625568938886 -0.0049308322056141546 0 -0.0034226625568938886 -0.0049308322056141546 0 -0.003287585371513641 -0.0049999614620949784 0 -0.0032661244397129831 -0.0050703915693051669 0 -0.0033969983888287626 -0.0050069464183599491 0 -0.0032875372298128468 -0.004999998577364417 0 -0.0032490999753368379 -0.0048128417202133993 0 -0.0033853718840007284 -0.0047477855476612749 0 -0.0032809174426180064 -0.0048831736274666943 0 -0.0032613546734371005 -0.0049779238998650163 0 -0.0034226625568938886 -0.0049308322056141546 0 -0.0032613546734371005 -0.0049779238998650163 0 -0.0031875384212048698 -0.00464611366883118 0 -0.003727680518134067 -0.0044269659005279063 0 -0.0037597538660175968 -0.0044279301052804181 0 -0.0037608115475945589 -0.0043993614478900645 0 -0.0027667002847336477 -0.0043827373810212886 0 -0.0027865516548089765 -0.0043294964335060544 0 -0.002809091012742842 -0.0043804766677625739 0 -0.003727680518134067 -0.0044269659005279063 0 -0.0037597538660175968 -0.0044279301052804181 0 -0.0037458089337410556 -0.0044582350927823058 0 -0.0031875384212048698 -0.00464611366883118 0 -0.0032549256530855029 -0.004375157279450646 0 -0.0037597538660175968 -0.0044279301052804181 0 -0.0037458089337410556 -0.0044582350927823058 0 -0.0037827089508838552 -0.0044466750734435453 0 -0.0035713979471581358 -0.0047273737702230754 0 -0.0040470992575874637 -0.0046135469610252937 0 -0.0037597538660175968 -0.0044279301052804181 0 -0.0037608115475945589 -0.0043993614478900645 0 -0.0038042977759044352 -0.0044025576480680043 0 -0.0046425622550589326 -0.0043031539651684197 0 -0.0040470992575874637 -0.0046135469610252937 0 -0.0034414438691633084 -0.0049893603071377779 0 -0.0036369587508972381 -0.0049999908757536928 0 -0.0036274962621959876 -0.0050217348820296949 0 -0.0037597538660175968 -0.0044279301052804181 0 -0.0037827089508838552 -0.0044466750734435453 0 -0.0038042977759044352 -0.0044025576480680043 0 -0.0038610137831342349 -0.0050391407293996554 0 -0.0036369744392210821 -0.0049999923290118282 0 -0.0036276683112969922 -0.0050229450089762755 0 -0.0052214775076262513 -0.0043260979466788699 0 -0.0051422278137235227 -0.0044901699553207188 0 -0.0050889459186022213 -0.0043647674662001647 0 -0.0049758631492057134 -0.0044747026164606183 0 -0.0051422278137235227 -0.0044901699553207188 0 -0.0050889459186022213 -0.0043647674662001647 0 -0.0044887981717429319 -0.0047723597072383203 0 -0.0040470992575874637 -0.0046135469610252937 0 -0.0036381196562580878 -0.0049994918850758806 0 -0.0040470992575874637 -0.0046135469610252937 0 -0.0052214775076262513 -0.0043260979466788699 0 -0.0050889459186022213 -0.0043647674662001647 0 -0.0051356872411987796 -0.0042601661294374331 0 -0.0050533525772798061 -0.0042798795902978283 0 -0.0050889459186022213 -0.0043647674662001647 0 -0.0051356872411987796 -0.0042601661294374331 0 -0.0050533525772798061 -0.0042798795902978283 0 -0.0050855948602861883 -0.0042045790353654267 0 -0.0051356872411987796 -0.0042601661294374331 0 -0.005040160283515103 -0.0041528317225532794 0 -0.0050855948602861883 -0.0042045790353654267 0 -0.0050974275057043507 -0.0041300913410772504 0 -0.0050855948602861883 -0.0042045790353654267 0 -0.0051620241697935979 -0.0041685926457930315 0 -0.0050974275057043507 -0.0041300913410772504 0 -0.0050855948602861883 -0.0042045790353654267 0 -0.0051620241697935979 -0.0041685926457930315 0 -0.0051356872411987796 -0.0042601661294374331 0 -0.0051620241697935979 -0.0041685926457930315 0 -0.0051356872411987796 -0.0042601661294374331 0 -0.0052145263697034785 -0.0042137331169320048 0 -0.0052214775076262513 -0.0043260979466788699 0 -0.0052145263697034785 -0.0042137331169320048 0 -0.0052931347909369727 -0.004153977665233983 0 -0.0037458089337410556 -0.0044582350927823058 0 -0.0037827089508838552 -0.0044466750734435453 0 -0.0037617318748927268 -0.0044885007688549739 0 -0.0052214775076262513 -0.0043260979466788699 0 -0.0051356872411987796 -0.0042601661294374331 0 -0.0052145263697034785 -0.0042137331169320048 0 -0.0046425622550589326 -0.0043031539651684197 0 -0.003742633592575699 -0.004341321191342974 0 -0.0052145263697034785 -0.0042137331169320048 0 -0.0052931347909369727 -0.004153977665233983 0 -0.0052506808522767351 -0.004160563956627646 0 -0.0051620241697935979 -0.0041685926457930315 0 -0.0052145263697034785 -0.0042137331169320048 0 -0.0052506808522767351 -0.004160563956627646 0 -0.0052506808522767351 -0.004160563956627646 0 -0.0051802047663410964 -0.0040965054003508352 0 -0.0051688351913092481 -0.0039712623139232768 0 -0.0051620241697935979 -0.0041685926457930315 0 -0.0052506808522767351 -0.004160563956627646 0 -0.0051802047663410964 -0.0040965054003508352 0 -0.0052506808522767351 -0.004160563956627646 0 -0.005305125150479306 -0.003998212874640068 0 -0.0053032329713080103 -0.0040120318744462898 0 -0.0032536132141054029 -0.0042817517286330518 0 -0.0031637332917101332 -0.0040913519357760574 0 -0.0033267707477015527 -0.0040848960332732958 0 -0.0052931347909369727 -0.004153977665233983 0 -0.0052506808522767351 -0.004160563956627646 0 -0.0053032329713080103 -0.0040120318744462898 0 -0.003742633592575699 -0.004341321191342974 0 -0.004294697198730337 -0.0040458153668684908 0 -0.0052391138477440686 -0.0041365912174855029 0 -0.0052960648788142137 -0.0040269031104196076 0 -0.005138009766721548 -0.0040876080421284695 0 -0.0051802047663410964 -0.0040965054003508352 0 -0.0051688351913092481 -0.0039712623139232768 0 -0.0050548087835096834 -0.0040474127832187679 0 -0.005138009766721548 -0.0040876080421284695 0 -0.0050974275057043507 -0.0041300913410772504 0 -0.0051620241697935979 -0.0041685926457930315 0 -0.005138009766721548 -0.0040876080421284695 0 -0.0051802047663410964 -0.0040965054003508352 0 -0.0051620241697935979 -0.0041685926457930315 0 -0.005138009766721548 -0.0040876080421284695 0 -0.0050974275057043507 -0.0041300913410772504 0 -0.0050548087835096834 -0.0040474127832187679 0 -0.005138009766721548 -0.0040876080421284695 0 -0.0051688351913092481 -0.0039712623139232768 0 -0.005305125150479306 -0.003998212874640068 0 -0.0053032329713080103 -0.0040120318744462898 0 -0.0054015355684940555 -0.0039650075215667312 0 -0.0054725665554658121 -0.0040939908460579533 0 -0.0054534001261166412 -0.0040940202398199385 0 -0.0054618009147275413 -0.0040818433185899417 0 -0.0054482524571762957 -0.0040781990593217752 0 -0.0054534001261166412 -0.0040940202398199385 0 -0.0054618009147275413 -0.0040818433185899417 0 -0.0052388798160263482 -0.004085167835021602 0 -0.0052960648788142137 -0.0040269031104196076 0 -0.0054461032731967559 -0.0041130389110016858 0 -0.0054725665554658121 -0.0040939908460579533 0 -0.0054534001261166412 -0.0040940202398199385 0 -0.0031637332917101332 -0.0040913519357760574 0 -0.0032380886839577486 -0.0039515277619044699 0 -0.0033267707477015527 -0.0040848960332732958 0 -0.0031637332917101332 -0.0040913519357760574 0 -0.0032380886839577486 -0.0039515277619044699 0 -0.0030694938757342464 -0.0038962254150023599 0 -0.0054725665554658121 -0.0040939908460579533 0 -0.0054618009147275413 -0.0040818433185899417 0 -0.0054569288785560367 -0.0040491124283747407 0 -0.004294697198730337 -0.0040458153668684908 0 -0.0042260078088065395 -0.0039200358701641496 0 -0.005305125150479306 -0.003998212874640068 0 -0.0054015355684940555 -0.0039650075215667312 0 -0.0054561987263394901 -0.0039564200296811685 0 -0.0054618009147275413 -0.0040818433185899417 0 -0.0054527536873974804 -0.0040683861396969851 0 -0.0054569288785560367 -0.0040491124283747407 0 -0.0052960648788142137 -0.0040269031104196076 0 -0.005477228627841042 -0.0040181833434195817 0 -0.0054482524571762957 -0.0040781990593217752 0 -0.0054618009147275413 -0.0040818433185899417 0 -0.0054527536873974804 -0.0040683861396969851 0 -0.0054440039866847567 -0.0040644323147755578 0 -0.0054527536873974804 -0.0040683861396969851 0 -0.0054569288785560367 -0.0040491124283747407 0 -0.0055743400388238336 -0.0039603639702315728 0 -0.0054015355684940555 -0.0039650075215667312 0 -0.0054561987263394901 -0.0039564200296811685 0 -0.0042838545427565369 -0.0038204205107195146 0 -0.0042260078088065395 -0.0039200358701641496 0 -0.0029742326184366988 -0.0036837324680153096 0 -0.0030694938757342464 -0.0038962254150023599 0 -0.003133388657265469 -0.0037218077361661894 0 -0.0029742326184366988 -0.0036837324680153096 0 -0.003133388657265469 -0.0037218077361661894 0 -0.0031275279489223822 -0.0035453432064997902 0 -0.003133388657265469 -0.0037218077361661894 0 -0.0033539509988245813 -0.0036657505823410332 0 -0.0031275279489223822 -0.0035453432064997902 0 -0.0032380886839577486 -0.0039515277619044699 0 -0.0030694938757342464 -0.0038962254150023599 0 -0.0032717565032989084 -0.0037943949437784326 0 -0.0030694938757342464 -0.0038962254150023599 0 -0.003133388657265469 -0.0037218077361661894 0 -0.0032717565032989084 -0.0037943949437784326 0 -0.0032380886839577486 -0.0039515277619044699 0 -0.0032717565032989084 -0.0037943949437784326 0 -0.0033970049932015673 -0.0038851902575176372 0 -0.0032717565032989084 -0.0037943949437784326 0 -0.0033539509988245813 -0.0036657505823410332 0 -0.0035025067898441869 -0.0036769831797345072 0 -0.003133388657265469 -0.0037218077361661894 0 -0.0032717565032989084 -0.0037943949437784326 0 -0.0033539509988245813 -0.0036657505823410332 0 -0.0035416403774914612 -0.0036462071230514976 0 -0.0028902187321923596 -0.004044748061284421 0 -0.0033539509988245813 -0.0036657505823410332 0 -0.0035025067898441869 -0.0036769831797345072 0 -0.0033255235972025014 -0.0035119192159467011 0 -0.0028902187321923596 -0.004044748061284421 0 -0.0031085740711366268 -0.0042438508646663832 0 -0.0027222377518351625 -0.0046478960450145835 0 -0.0027557051232020521 -0.0045798903828919695 0 -0.0027144764925863731 -0.0046060916684517615 0 -0.0032717565032989084 -0.0037943949437784326 0 -0.0034605682268578851 -0.0037127837897960717 0 -0.0033970049932015673 -0.0038851902575176372 0 -0.0027557051232020521 -0.0045798903828919695 0 -0.0027035254664675252 -0.0045414108843065525 0 -0.0027144764925863731 -0.0046060916684517615 0 -0.0027557051232020521 -0.0045798903828919695 0 -0.0027938617599902738 -0.0045089671971320373 0 -0.0027453888742941983 -0.0045305427068388984 0 -0.0027557051232020521 -0.0045798903828919695 0 -0.0027453888742941983 -0.0045305427068388984 0 -0.0027035254664675252 -0.0045414108843065525 0 -0.0031085740711366268 -0.0042438508646663832 0 -0.0029697289327848303 -0.0043239688702116485 0 -0.0032380886839577486 -0.0039515277619044699 0 -0.0033970049932015673 -0.0038851902575176372 0 -0.0033267707477015527 -0.0040848960332732958 0 -0.0027285735302750159 -0.0044910134057404389 0 -0.0027453888742941983 -0.0045305427068388984 0 -0.0027035254664675252 -0.0045414108843065525 0 -0.0027938617599902738 -0.0045089671971320373 0 -0.0027285735302750159 -0.0044910134057404389 0 -0.0027453888742941983 -0.0045305427068388984 0 -0.0026765778966512496 -0.0044975540909211456 0 -0.0026398000415120029 -0.0045275196434438388 0 -0.0027035254664675252 -0.0045414108843065525 0 -0.0027285735302750159 -0.0044910134057404389 0 -0.0026765778966512496 -0.0044975540909211456 0 -0.0027035254664675252 -0.0045414108843065525 0 -0.0026226465809872051 -0.0044780771205074846 0 -0.0026765778966512496 -0.0044975540909211456 0 -0.0026398000415120029 -0.0045275196434438388 0 -0.0026226465809872051 -0.0044780771205074846 0 -0.0026398000415120029 -0.0045275196434438388 0 -0.00260343258721802 -0.0045226083797748539 0 -0.0026398000415120029 -0.0045275196434438388 0 -0.0026644220076685755 -0.0045677045603902712 0 -0.0026024570747073816 -0.0045689807829825419 0 -0.0026644220076685755 -0.0045677045603902712 0 -0.0026634190684028344 -0.0046098295237458949 0 -0.0026024570747073816 -0.0045689807829825419 0 -0.0026398000415120029 -0.0045275196434438388 0 -0.0026024570747073816 -0.0045689807829825419 0 -0.00260343258721802 -0.0045226083797748539 0 -0.0026644220076685755 -0.0045677045603902712 0 -0.0027035254664675252 -0.0045414108843065525 0 -0.0027144764925863731 -0.0046060916684517615 0 -0.0026398000415120029 -0.0045275196434438388 0 -0.0026644220076685755 -0.0045677045603902712 0 -0.0027035254664675252 -0.0045414108843065525 0 -0.0027222377518351625 -0.0046478960450145835 0 -0.0026634190684028344 -0.0046098295237458949 0 -0.0027144764925863731 -0.0046060916684517615 0 -0.0026644220076685755 -0.0045677045603902712 0 -0.0026634190684028344 -0.0046098295237458949 0 -0.0027144764925863731 -0.0046060916684517615 0 -0.0014092721027250403 -0.0046975650427122503 0 -0.0013041153159504943 -0.0046424691485552599 0 -0.0013220173721661906 -0.0047360538704496634 0 -0.0028902187321923596 -0.004044748061284421 0 -0.0018985640933207603 -0.0046692776999149553 0 -0.0025065946576789152 -0.0040167076962252003 0 -0.0024633457368747557 -0.0040367599962544834 0 -0.0024903856415287003 -0.0040486046345706191 0 -0.0028902187321923596 -0.004044748061284421 0 -0.001495418897775211 -0.0044696977582314272 0 -0.0028902187321923596 -0.004044748061284421 0 -0.0029802232038912599 -0.0036967273850322265 0 -0.0013041153159504943 -0.0046424691485552599 0 -0.0012914919243428348 -0.0046496706036311493 0 -0.0013220173721661906 -0.0047360538704496634 0 -0.0012748565671975983 -0.0047136225615350734 0 -0.001495418897775211 -0.0044696977582314272 0 -0.0012924031980853564 -0.0046258329122394809 0 -0.0012914919243428348 -0.0046496706036311493 0 -0.0012684404778644702 -0.0046131476258753018 0 -0.0012924031980853564 -0.0046258329122394809 0 -0.0012914919243428348 -0.0046496706036311493 0 -0.0013003456906380986 -0.0046552973789643331 0 -0.0018985640933207603 -0.0046692776999149553 0 -0.0019499591503268341 -0.0045893259813519121 0 -0.0013041153159504943 -0.0046424691485552599 0 -0.0012914919243428348 -0.0046496706036311493 0 -0.0012963137716588079 -0.0046795310866863567 0 -0.0012914919243428348 -0.0046496706036311493 0 -0.0013003456906380986 -0.0046552973789643331 0 -0.0012963137716588079 -0.0046795310866863567 0 -0.0013003456906380986 -0.0046552973789643331 0 -0.0013215852974291292 -0.0046780320439835932 0 -0.0012963137716588079 -0.0046795310866863567 0 -0.0013003456906380986 -0.0046552973789643331 0 -0.0013151759783773397 -0.0046347971911587247 0 -0.0013215852974291292 -0.0046780320439835932 0 -0.0012924031980853564 -0.0046258329122394809 0 -0.0013003456906380986 -0.0046552973789643331 0 -0.0013151759783773397 -0.0046347971911587247 0 -0.0012924031980853564 -0.0046258329122394809 0 -0.0013151759783773397 -0.0046347971911587247 0 -0.0012964745242400725 -0.0045824689212982245 0 -0.0013151759783773397 -0.0046347971911587247 0 -0.0013440269352178358 -0.0045936552774725531 0 -0.0013470364155606358 -0.0046609254620462353 0 -0.0013215852974291292 -0.0046780320439835932 0 -0.001350182351702764 -0.0047116042423812031 0 -0.0013470364155606358 -0.0046609254620462353 0 -0.0013151759783773397 -0.0046347971911587247 0 -0.0013215852974291292 -0.0046780320439835932 0 -0.0013470364155606358 -0.0046609254620462353 0 -0.0018961701748258064 -0.0049000882236268431 0 -0.0012313739380313651 -0.0047821937485525755 0 -0.0013215852974291292 -0.0046780320439835932 0 -0.0013241801153990303 -0.0047165529572309002 0 -0.001350182351702764 -0.0047116042423812031 0 -0.0013215852974291292 -0.0046780320439835932 0 -0.0012963137716588079 -0.0046795310866863567 0 -0.0013241801153990303 -0.0047165529572309002 0 -0.0019499591503268341 -0.0045893259813519121 0 -0.0018961701748258064 -0.0049000882236268431 0 -0.0026497512282372573 -0.0044627336406231899 0 -0.0023841772056617154 -0.0048124910178868382 0 -0.0026024570747073816 -0.0045689807829825419 0 -0.0025483678714251887 -0.0045153141715596297 0 -0.0025371587461480568 -0.0045215692407862638 0 -0.0026024570747073816 -0.0045689807829825419 0 -0.0025483678714251887 -0.0045153141715596297 0 -0.00260343258721802 -0.0045226083797748539 0 -0.0026226465809872051 -0.0044780771205074846 0 -0.0025483678714251887 -0.0045153141715596297 0 -0.00260343258721802 -0.0045226083797748539 0 -0.0026208129763454421 -0.0054945353845721042 0 -0.0026378375872749766 -0.005647234915415 0 -0.0026115848349575737 -0.0056611172466961898 0 -0.0018961701748258064 -0.0049000882236268431 0 -0.0018948453779464231 -0.0052855307446142601 0 -0.0023841772056617154 -0.0048124910178868382 0 -0.0018961701748258064 -0.0049000882236268431 0 -0.0013734602422599863 -0.0045220851225231075 0 -0.0013863631851362326 -0.0045176446594937568 0 -0.0013531262574844733 -0.004529892888249871 0 -0.0013373829200092962 -0.0040837099220290196 0 -0.0024204612809924082 -0.0034588421733878203 0 -0.0013734602422599863 -0.0045220851225231075 0 -0.0013954950201125788 -0.0045219115965771002 0 -0.0014083614113720971 -0.0045294831716512548 0 -0.0013954950201125788 -0.0045219115965771002 0 -0.0013863631851362326 -0.0045176446594937568 0 -0.0014174566388235874 -0.0045184796820261471 0 -0.0013734602422599863 -0.0045220851225231075 0 -0.0013954950201125788 -0.0045219115965771002 0 -0.0013863631851362326 -0.0045176446594937568 0 -0.0013677187333803612 -0.0045223239038897677 0 -0.001314375409351931 -0.0045474972107964716 0 -0.0013151759783773397 -0.0046347971911587247 0 -0.0013440269352178358 -0.0045936552774725531 0 -0.0012964745242400725 -0.0045824689212982245 0 -0.0013531262574844733 -0.004529892888249871 0 -0.0013440269352178358 -0.0045936552774725531 0 -0.0012964745242400725 -0.0045824689212982245 0 -0.0013863631851362326 -0.0045176446594937568 0 -0.0013531262574844733 -0.004529892888249871 0 -0.0013914354351286019 -0.0044829115333275297 0 -0.0013863631851362326 -0.0045176446594937568 0 -0.0013914354351286019 -0.0044829115333275297 0 -0.0014404477194834907 -0.0044900485207629041 0 -0.001314375409351931 -0.0045474972107964716 0 -0.001495418897775211 -0.0044696977582314272 0 -0.0013914354351286019 -0.0044829115333275297 0 -0.0014321674903474469 -0.0044577412550137552 0 -0.0014404477194834907 -0.0044900485207629041 0 -0.0012924031980853564 -0.0046258329122394809 0 -0.0012964745242400725 -0.0045824689212982245 0 -0.0012684404778644702 -0.0046131476258753018 0 -0.0024633457368747557 -0.0040367599962544834 0 -0.0024903856415287003 -0.0040486046345706191 0 -0.0024782728758008517 -0.0040768162821240451 0 -0.001495418897775211 -0.0044696977582314272 0 -0.0027308230985371622 -0.0038655767185817118 0 -0.0034263945247052087 -0.0034788064344054726 0 -0.00347059588717639 -0.0033770987056920862 0 -0.0033697921456319001 -0.0034062740877452199 0 -0.0029802232038912599 -0.0036967273850322265 0 -0.0027308230985371622 -0.0038655767185817118 0 -0.0027308230985371622 -0.0038655767185817118 0 -0.0034397657637000706 -0.0031948652666652002 0 -0.00347059588717639 -0.0033770987056920862 0 -0.0034406313974983797 -0.0032363113095069179 0 -0.0033374130413858071 -0.0033152457196626429 0 -0.0034516933222446628 -0.0034479714752866657 0 -0.0034162459853506505 -0.0032661465232649944 0 -0.0035480808316770917 -0.0032116841656600523 0 -0.0027308230985371622 -0.0038655767185817118 0 -0.002444714065501093 -0.0039522111815224106 0 -0.0013863631851362326 -0.0045176446594937568 0 -0.0014404477194834907 -0.0044900485207629041 0 -0.0014174566388235874 -0.0045184796820261471 0 -0.0035480808316770917 -0.0032116841656600523 0 -0.0035101680967474674 -0.003051997382874747 0 -0.0036287763388940719 -0.0030017865083643018 0 -0.002444714065501093 -0.0039522111815224106 0 -0.0024204612809924082 -0.0034588421733878203 0 -0.0013954950201125788 -0.0045219115965771002 0 -0.0014174566388235874 -0.0045184796820261471 0 -0.0014083614113720971 -0.0045294831716512548 0 -0.0034162459853506505 -0.0032661465232649944 0 -0.0035480808316770917 -0.0032116841656600523 0 -0.0033967498546435301 -0.0030917975073030566 0 -0.0034397657637000706 -0.0031948652666652002 0 -0.0034019510739138523 -0.0031282966287447854 0 -0.0035480808316770917 -0.0032116841656600523 0 -0.0033967498546435301 -0.0030917975073030566 0 -0.0035101680967474674 -0.003051997382874747 0 -0.0034406313974983797 -0.0032363113095069179 0 -0.0033967498546435301 -0.0030917975073030566 0 -0.0033480384120939031 -0.0031829308159572194 0 -0.0033967498546435301 -0.0030917975073030566 0 -0.0033480384120939031 -0.0031829308159572194 0 -0.0032566935931224918 -0.0030294350529865852 0 -0.0032519284680786386 -0.0032073309759345324 0 -0.0031727308085700368 -0.003124539698441133 0 -0.0032566935931224918 -0.0030294350529865852 0 -0.0031727308085700368 -0.003124539698441133 0 -0.0031134626181484482 -0.0030271335289767383 0 -0.0032566935931224918 -0.0030294350529865852 0 -0.0032519284680786386 -0.0032073309759345324 0 -0.0033480384120939031 -0.0031829308159572194 0 -0.0032566935931224918 -0.0030294350529865852 0 -0.0032519284680786386 -0.0032073309759345324 0 -0.0033374130413858071 -0.0033152457196626429 0 -0.0032232328830324188 -0.0033148936022025992 0 -0.0032519284680786386 -0.0032073309759345324 0 -0.0031679476878842547 -0.0032377815929504812 0 -0.0031727308085700368 -0.003124539698441133 0 -0.0032519284680786386 -0.0032073309759345324 0 -0.0032232328830324188 -0.0033148936022025992 0 -0.0031679476878842547 -0.0032377815929504812 0 -0.0032519284680786386 -0.0032073309759345324 0 -0.0033480384120939031 -0.0031829308159572194 0 -0.0033374130413858071 -0.0033152457196626429 0 -0.0034406313974983797 -0.0032363113095069179 0 -0.0033480384120939031 -0.0031829308159572194 0 -0.0033374130413858071 -0.0033152457196626429 0 -0.00347059588717639 -0.0033770987056920862 0 -0.0033374130413858071 -0.0033152457196626429 0 -0.0033697921456319001 -0.0034062740877452199 0 -0.0033374130413858071 -0.0033152457196626429 0 -0.0033697921456319001 -0.0034062740877452199 0 -0.0032463335060686606 -0.0034531092452532337 0 -0.003381337451998838 -0.0035848479256184377 0 -0.0034263945247052087 -0.0034788064344054726 0 -0.0032463335060686606 -0.0034531092452532337 0 -0.0028902187321923596 -0.004044748061284421 0 -0.0033614325512988812 -0.0034426495637538269 0 -0.0034263945247052087 -0.0034788064344054726 0 -0.0033697921456319001 -0.0034062740877452199 0 -0.0032463335060686606 -0.0034531092452532337 0 -0.0033539509988245813 -0.0036657505823410332 0 -0.0033255235972025014 -0.0035119192159467011 0 -0.0031275279489223822 -0.0035453432064997902 0 -0.0033374130413858071 -0.0033152457196626429 0 -0.0032463335060686606 -0.0034531092452532337 0 -0.0032232328830324188 -0.0033148936022025992 0 -0.0032463335060686606 -0.0034531092452532337 0 -0.0032232328830324188 -0.0033148936022025992 0 -0.0031247136606532325 -0.0033479883628879294 0 -0.0033614325512988812 -0.0034426495637538269 0 -0.0031115635072481119 -0.0033603164981013231 0 -0.0033255235972025014 -0.0035119192159467011 0 -0.0031247136606532325 -0.0033479883628879294 0 -0.0031275279489223822 -0.0035453432064997902 0 -0.0031275279489223822 -0.0035453432064997902 0 -0.0030035738451785893 -0.0035057452121748205 0 -0.0030100624946865491 -0.0033876001162403625 0 -0.0029742326184366988 -0.0036837324680153096 0 -0.0031275279489223822 -0.0035453432064997902 0 -0.0030035738451785893 -0.0035057452121748205 0 -0.0030035738451785893 -0.0035057452121748205 0 -0.0030100624946865491 -0.0033876001162403625 0 -0.0029383053788042957 -0.0033900756629478509 0 -0.0031247136606532325 -0.0033479883628879294 0 -0.0031275279489223822 -0.0035453432064997902 0 -0.0030100624946865491 -0.0033876001162403625 0 -0.0031247136606532325 -0.0033479883628879294 0 -0.0030100624946865491 -0.0033876001162403625 0 -0.0030047156195514304 -0.0032683628462118206 0 -0.0030164910297407802 -0.0033972415311521284 0 -0.0028688785080767903 -0.0032385815707691172 0 -0.0031247136606532325 -0.0033479883628879294 0 -0.0030047156195514304 -0.0032683628462118206 0 -0.0030712402046558147 -0.0031968807933272559 0 -0.0030100624946865491 -0.0033876001162403625 0 -0.0030047156195514304 -0.0032683628462118206 0 -0.0028920188221931882 -0.003243427015152912 0 -0.0030047156195514304 -0.0032683628462118206 0 -0.0029536177176604306 -0.0031529873318050967 0 -0.0028920188221931882 -0.003243427015152912 0 -0.0030047156195514304 -0.0032683628462118206 0 -0.0030712402046558147 -0.0031968807933272559 0 -0.0029536177176604306 -0.0031529873318050967 0 -0.0032232328830324188 -0.0033148936022025992 0 -0.0031247136606532325 -0.0033479883628879294 0 -0.0031679476878842547 -0.0032377815929504812 0 -0.0031247136606532325 -0.0033479883628879294 0 -0.0030712402046558147 -0.0031968807933272559 0 -0.0031679476878842547 -0.0032377815929504812 0 -0.0030712402046558147 -0.0031968807933272559 0 -0.0031679476878842547 -0.0032377815929504812 0 -0.0031727308085700368 -0.003124539698441133 0 -0.0031727308085700368 -0.003124539698441133 0 -0.003038026537034391 -0.0030828951014322393 0 -0.0031134626181484482 -0.0030271335289767383 0 -0.0030712402046558147 -0.0031968807933272559 0 -0.0031727308085700368 -0.003124539698441133 0 -0.003038026537034391 -0.0030828951014322393 0 -0.003038026537034391 -0.0030828951014322393 0 -0.0029536177176604306 -0.0031529873318050967 0 -0.002932062049324806 -0.0030308977278974574 0 -0.0030712402046558147 -0.0031968807933272559 0 -0.003038026537034391 -0.0030828951014322393 0 -0.0029536177176604306 -0.0031529873318050967 0 -0.0030258703923061159 -0.0029659510829595399 0 -0.002932062049324806 -0.0030308977278974574 0 -0.0029391247173510466 -0.0028978386489721584 0 -0.003038026537034391 -0.0030828951014322393 0 -0.0030258703923061159 -0.0029659510829595399 0 -0.002932062049324806 -0.0030308977278974574 0 -0.003038026537034391 -0.0030828951014322393 0 -0.0030258703923061159 -0.0029659510829595399 0 -0.0031134626181484482 -0.0030271335289767383 0 -0.0031134626181484482 -0.0030271335289767383 0 -0.0031143610300507661 -0.0029044330887320717 0 -0.0032566935931224918 -0.0030294350529865852 0 -0.0030258703923061159 -0.0029659510829595399 0 -0.0031134626181484482 -0.0030271335289767383 0 -0.0031143610300507661 -0.0029044330887320717 0 -0.0031143610300507661 -0.0029044330887320717 0 -0.003133057533301183 -0.0027831536965974902 0 -0.0032283245904273315 -0.0028666880366402668 0 -0.0031143610300507661 -0.0029044330887320717 0 -0.003133057533301183 -0.0027831536965974902 0 -0.0030150980911685709 -0.0028241341939944896 0 -0.0030258703923061159 -0.0029659510829595399 0 -0.0030150980911685709 -0.0028241341939944896 0 -0.0029391247173510466 -0.0028978386489721584 0 -0.0030258703923061159 -0.0029659510829595399 0 -0.0031143610300507661 -0.0029044330887320717 0 -0.0030150980911685709 -0.0028241341939944896 0 -0.0030150980911685709 -0.0028241341939944896 0 -0.0029577403743730351 -0.0026691601307677385 0 -0.0028939149840361165 -0.0027373324307578563 0 -0.0030150980911685709 -0.0028241341939944896 0 -0.0029577403743730351 -0.0026691601307677385 0 -0.0030698148750145219 -0.0026850629018852234 0 -0.0029577403743730351 -0.0026691601307677385 0 -0.0030102569997147192 -0.0025642633592513528 0 -0.002898367585694128 -0.0025605229271139277 0 -0.0029577403743730351 -0.0026691601307677385 0 -0.0030102569997147192 -0.0025642633592513528 0 -0.0030698148750145219 -0.0026850629018852234 0 -0.0030102569997147192 -0.0025642633592513528 0 -0.0031243161790020595 -0.0025662032097069501 0 -0.0030698148750145219 -0.0026850629018852234 0 -0.0031243161790020595 -0.0025662032097069501 0 -0.0030698148750145219 -0.0026850629018852234 0 -0.0031834601566101497 -0.0026550275250485133 0 -0.003133057533301183 -0.0027831536965974902 0 -0.0030150980911685709 -0.0028241341939944896 0 -0.0030698148750145219 -0.0026850629018852234 0 -0.003133057533301183 -0.0027831536965974902 0 -0.0030698148750145219 -0.0026850629018852234 0 -0.0031834601566101497 -0.0026550275250485133 0 -0.003133057533301183 -0.0027831536965974902 0 -0.0032353746149366017 -0.0027537005218399514 0 -0.0031834601566101497 -0.0026550275250485133 0 -0.0032353746149366017 -0.0027537005218399514 0 -0.0031834601566101497 -0.0026550275250485133 0 -0.0032950199909136542 -0.0026592757691023287 0 -0.0031834601566101497 -0.0026550275250485133 0 -0.0032348228098502681 -0.0025463558346519519 0 -0.0032950199909136542 -0.0026592757691023287 0 -0.0031243161790020595 -0.0025662032097069501 0 -0.0031834601566101497 -0.0026550275250485133 0 -0.0032348228098502681 -0.0025463558346519519 0 -0.0032348228098502681 -0.0025463558346519519 0 -0.0033547146435711798 -0.0025320657201240676 0 -0.0032950199909136542 -0.0026592757691023287 0 -0.0033547146435711798 -0.0025320657201240676 0 -0.0032950199909136542 -0.0026592757691023287 0 -0.003432642760614146 -0.0026957457677298105 0 -0.0032950199909136542 -0.0026592757691023287 0 -0.0033406691761261242 -0.0028052055140499578 0 -0.003432642760614146 -0.0026957457677298105 0 -0.0032353746149366017 -0.0027537005218399514 0 -0.0032950199909136542 -0.0026592757691023287 0 -0.0033406691761261242 -0.0028052055140499578 0 -0.0033406691761261242 -0.0028052055140499578 0 -0.0033377254719934748 -0.002939775404220545 0 -0.0034688780421325621 -0.0029037820623654632 0 -0.0033406691761261242 -0.0028052055140499578 0 -0.0032283245904273315 -0.0028666880366402668 0 -0.0033377254719934748 -0.002939775404220545 0 -0.0032353746149366017 -0.0027537005218399514 0 -0.0033406691761261242 -0.0028052055140499578 0 -0.0032283245904273315 -0.0028666880366402668 0 -0.003133057533301183 -0.0027831536965974902 0 -0.0032353746149366017 -0.0027537005218399514 0 -0.0032283245904273315 -0.0028666880366402668 0 -0.0032283245904273315 -0.0028666880366402668 0 -0.0032566935931224918 -0.0030294350529865852 0 -0.0033377254719934748 -0.002939775404220545 0 -0.0031143610300507661 -0.0029044330887320717 0 -0.0032283245904273315 -0.0028666880366402668 0 -0.0032566935931224918 -0.0030294350529865852 0 -0.0033967498546435301 -0.0030917975073030566 0 -0.0032566935931224918 -0.0030294350529865852 0 -0.0033377254719934748 -0.002939775404220545 0 -0.0033967498546435301 -0.0030917975073030566 0 -0.0033377254719934748 -0.002939775404220545 0 -0.0034688780421325621 -0.0029037820623654632 0 -0.0033967498546435301 -0.0030917975073030566 0 -0.0035101680967474674 -0.003051997382874747 0 -0.0034688780421325621 -0.0029037820623654632 0 -0.0035101680967474674 -0.003051997382874747 0 -0.0036287763388940719 -0.0030017865083643018 0 -0.0034688780421325621 -0.0029037820623654632 0 -0.003606971691889053 -0.0029831615099219925 0 -0.0034688780421325621 -0.0029037820623654632 0 -0.0036640262507540745 -0.0028519497090386571 0 -0.0024204612809924082 -0.0034588421733878203 0 -0.0038411068624581578 -0.0029320423246592163 0 -0.0034688780421325621 -0.0029037820623654632 0 -0.0035702588819091071 -0.0027431843194009606 0 -0.0036640262507540745 -0.0028519497090386571 0 -0.0033406691761261242 -0.0028052055140499578 0 -0.0034688780421325621 -0.0029037820623654632 0 -0.003432642760614146 -0.0026957457677298105 0 -0.0034688780421325621 -0.0029037820623654632 0 -0.003432642760614146 -0.0026957457677298105 0 -0.0035702588819091071 -0.0027431843194009606 0 -0.0033547146435711798 -0.0025320657201240676 0 -0.003432642760614146 -0.0026957457677298105 0 -0.0035634928479598349 -0.0025425454693041851 0 -0.003432642760614146 -0.0026957457677298105 0 -0.0035634928479598349 -0.0025425454693041851 0 -0.0035702588819091071 -0.0027431843194009606 0 -0.0035634928479598349 -0.0025425454693041851 0 -0.0035702588819091071 -0.0027431843194009606 0 -0.0037208328915943312 -0.0027158181850958424 0 -0.0025463479067763225 -0.0028740144746597692 0 -0.002631824151699865 -0.0030614360124860567 0 -0.0035702588819091071 -0.0027431843194009606 0 -0.0037208328915943312 -0.0027158181850958424 0 -0.0036640262507540745 -0.0028519497090386571 0 -0.003629433282856801 -0.0024229438886202454 0 -0.0025463479067763225 -0.0028740144746597692 0 -0.0033451032719517848 -0.0023378667687015812 0 -0.0033460296651740755 -0.0023540762326455717 0 -0.0033540669134590568 -0.0023392381249996343 0 -0.0014145086780531122 -0.0030826337486456381 0 -0.0015210117167432601 -0.002815564206783092 0 -0.0016952791560128804 -0.0029478520779043587 0 -0.0025463479067763225 -0.0028740144746597692 0 -0.0024349264975933507 -0.0025463682586103105 0 -0.0014145086780531122 -0.0030826337486456381 0 -0.0016434590939261966 -0.0031280139044618672 0 -0.0016952791560128804 -0.0029478520779043587 0 -0.0014145086780531122 -0.0030826337486456381 0 -0.0016434590939261966 -0.0031280139044618672 0 -0.0016938998483707803 -0.0033473149634159092 0 -0.0016054365896247702 -0.0032524057434906283 0 -0.0016241195333150512 -0.0033370523402681397 0 -0.0016938998483707803 -0.0033473149634159092 0 -0.0025463479067763225 -0.0028740144746597692 0 -0.0013521373253279931 -0.0033462327836279887 0 -0.0016241195333150512 -0.0033370523402681397 0 -0.0016335581693211363 -0.0034150655114353807 0 -0.0016938998483707803 -0.0033473149634159092 0 -0.0016054365896247702 -0.0032524057434906283 0 -0.0016241195333150512 -0.0033370523402681397 0 -0.0015614786146746263 -0.0033403669121707725 0 -0.0016241195333150512 -0.0033370523402681397 0 -0.0015614786146746263 -0.0033403669121707725 0 -0.0016335581693211363 -0.0034150655114353807 0 -0.0016668409910441013 -0.0035368873014347459 0 -0.0015186840153051944 -0.0034401766500717374 0 -0.0016335581693211363 -0.0034150655114353807 0 -0.0024204612809924082 -0.0034588421733878203 0 -0.002631824151699865 -0.0030614360124860567 0 -0.0015186840153051944 -0.0034401766500717374 0 -0.0015614786146746263 -0.0033403669121707725 0 -0.0016335581693211363 -0.0034150655114353807 0 -0.0016668409910441013 -0.0035368873014347459 0 -0.0016335581693211363 -0.0034150655114353807 0 -0.0017662977948321667 -0.0034836773316115669 0 -0.0016335581693211363 -0.0034150655114353807 0 -0.0017662977948321667 -0.0034836773316115669 0 -0.0016938998483707803 -0.0033473149634159092 0 -0.0053604790177895698 -0.0033606790036562573 0 -0.0051877549854111105 -0.0033524785344392406 0 -0.0052504593086912859 -0.0035594676839058631 0 -0.0053604790177895698 -0.0033606790036562573 0 -0.0054911098289887397 -0.003230124266811951 0 -0.0055386021812637879 -0.0034105290486914465 0 -0.0053604790177895698 -0.0033606790036562573 0 -0.0054911098289887397 -0.003230124266811951 0 -0.0053770667725477651 -0.0031468576847548048 0 -0.0054911098289887397 -0.003230124266811951 0 -0.0053770667725477651 -0.0031468576847548048 0 -0.0054707208376175423 -0.0030578059037810203 0 -0.0054911098289887397 -0.003230124266811951 0 -0.0055859142250799243 -0.0031196120233462844 0 -0.0054707208376175423 -0.0030578059037810203 0 -0.0053604790177895698 -0.0033606790036562573 0 -0.0053770667725477651 -0.0031468576847548048 0 -0.0052401427623666166 -0.0031912632614269345 0 -0.0052401427623666166 -0.0031912632614269345 0 -0.0049999824911822173 -0.0032196618076102625 0 -0.0051877549854111105 -0.0033524785344392406 0 -0.0052401427623666166 -0.0031912632614269345 0 -0.0049999824911822173 -0.0032196618076102625 0 -0.0051829359235709815 -0.0030191661149397871 0 -0.0049999824911822173 -0.0032196618076102625 0 -0.0050947222351881332 -0.0034285782869381857 0 -0.0051877549854111105 -0.0033524785344392406 0 -0.0049999824911822173 -0.0032196618076102625 0 -0.0050947222351881332 -0.0034285782869381857 0 -0.0049999854829324833 -0.0034798356758952648 0 -0.0053604790177895698 -0.0033606790036562573 0 -0.0052401427623666166 -0.0031912632614269345 0 -0.0051877549854111105 -0.0033524785344392406 0 -0.0052471813470399403 -0.0035910626335197899 0 -0.0050335888074852552 -0.0035214793896798931 0 -0.0050947222351881332 -0.0034285782869381857 0 -0.0051877549854111105 -0.0033524785344392406 0 -0.0052504593086912859 -0.0035594676839058631 0 -0.0050947222351881332 -0.0034285782869381857 0 -0.0052504593086912859 -0.0035594676839058631 0 -0.0050250824904810691 -0.0035169332837997136 0 -0.0049999854829324833 -0.0034798356758952648 0 -0.0050250824904810691 -0.0035169332837997136 0 -0.0049999872534479354 -0.0037400469990259083 0 -0.0050947222351881332 -0.0034285782869381857 0 -0.0049999854829324833 -0.0034798356758952648 0 -0.0050250824904810691 -0.0035169332837997136 0 -0.0050250824904810691 -0.0035169332837997136 0 -0.0049999872534479354 -0.0037400469990259083 0 -0.0051608820859101803 -0.0037134782062045826 0 -0.0052549725302205837 -0.0036253593582269115 0 -0.0050250824904810691 -0.0035169332837997136 0 -0.0051608820859101803 -0.0037134782062045826 0 -0.0053126622836156476 -0.0037870728561021148 0 -0.0052549725302205837 -0.0036253593582269115 0 -0.0051608820859101803 -0.0037134782062045826 0 -0.0052471813470399403 -0.0035910626335197899 0 -0.0054682970216168251 -0.0036706161508800014 0 -0.0053126622836156476 -0.0037870728561021148 0 -0.0052549725302205837 -0.0036253593582269115 0 -0.0054571061389911968 -0.0037040548092019984 0 -0.0053604790177895698 -0.0033606790036562573 0 -0.0052504593086912859 -0.0035594676839058631 0 -0.0054702541129275188 -0.0036342269059806902 0 -0.0053604790177895698 -0.0033606790036562573 0 -0.0054702541129275188 -0.0036342269059806902 0 -0.0055386021812637879 -0.0034105290486914465 0 -0.0054682970216168251 -0.0036706161508800014 0 -0.0056666359423334367 -0.0037390085813357923 0 -0.005540455644976139 -0.0038135485412850671 0 -0.0054571061389911968 -0.0037040548092019984 0 -0.0056733069058205699 -0.0037438034987000903 0 -0.0054702541129275188 -0.0036342269059806902 0 -0.0056733069058205699 -0.0037438034987000903 0 -0.0056131842585434898 -0.003561700913908142 0 -0.0057131236681496273 -0.0038053306291336571 0 -0.0056456796205419085 -0.0035143415695331618 0 -0.0057811377671645719 -0.0036953047016775068 0 -0.0057131236681496273 -0.0038053306291336571 0 -0.0056733069058205699 -0.0037438034987000903 0 -0.0057652652329048234 -0.0035162505777212561 0 -0.0056733069058205699 -0.0037438034987000903 0 -0.0057652652329048234 -0.0035162505777212561 0 -0.0056131842585434898 -0.003561700913908142 0 -0.0057157870304590944 -0.003786692637482277 0 -0.0056935695925493532 -0.0035089353887228138 0 -0.0057652652329048234 -0.0035162505777212561 0 -0.0056131842585434898 -0.003561700913908142 0 -0.0056638831978575617 -0.0033962190815743387 0 -0.0056131842585434898 -0.003561700913908142 0 -0.0055386021812637879 -0.0034105290486914465 0 -0.0056638831978575617 -0.0033962190815743387 0 -0.0054702541129275188 -0.0036342269059806902 0 -0.0056131842585434898 -0.003561700913908142 0 -0.0055386021812637879 -0.0034105290486914465 0 -0.0029742326184366988 -0.0036837324680153096 0 -0.0030035738451785893 -0.0035057452121748205 0 -0.0029098924253890684 -0.0034769899781174497 0 -0.0055743400388238336 -0.0039603639702315728 0 -0.0056647771059429169 -0.0039612218254120096 0 -0.0057125676864420777 -0.0039759233433338806 0 -0.0042838545427565369 -0.0038204205107195146 0 -0.0042109472324731133 -0.00372803872417031 0 -0.0056647771059429169 -0.0039612218254120096 0 -0.0057045787302387619 -0.0039729428260410794 0 -0.0057125676864420777 -0.0039759233433338806 0 -0.0056647771059429169 -0.0039612218254120096 0 -0.0056979394952079831 -0.0039681458393737677 0 -0.0057045787302387619 -0.0039729428260410794 0 -0.0056979394952079831 -0.0039681458393737677 0 -0.0057045787302387619 -0.0039729428260410794 0 -0.0057087530821334836 -0.0039710931748306172 0 -0.0057045787302387619 -0.0039729428260410794 0 -0.0057125676864420777 -0.0039759233433338806 0 -0.0057075793042044749 -0.003972862285277514 0 -0.0057045787302387619 -0.0039729428260410794 0 -0.0057087530821334836 -0.0039710931748306172 0 -0.0057075793042044749 -0.003972862285277514 0 -0.0057125676864420777 -0.0039759233433338806 0 -0.0057075793042044749 -0.003972862285277514 0 -0.0056932476431419072 -0.0039412749799989438 0 -0.0056456796205419085 -0.0035143415695331618 0 -0.0057811377671645719 -0.0036953047016775068 0 -0.0057915933537333215 -0.0033780386094142121 0 -0.0058312065565328097 -0.0038703633205224215 0 -0.0051072269631242343 -0.0034643631967147641 0 -0.0042109472324731133 -0.00372803872417031 0 -0.0051072269631242343 -0.0034643631967147641 0 -0.0029098924253890684 -0.0034769899781174497 0 -0.0029383053788042957 -0.0033900756629478509 0 -0.002883808032399033 -0.0033366878018782106 0 -0.0030035738451785893 -0.0035057452121748205 0 -0.0029098924253890684 -0.0034769899781174497 0 -0.0029383053788042957 -0.0033900756629478509 0 -0.0030100624946865491 -0.0033876001162403625 0 -0.0029383053788042957 -0.0033900756629478509 0 -0.0029477356263132339 -0.0033237674625461039 0 -0.0029477356263132339 -0.0033237674625461039 0 -0.002883808032399033 -0.0033366878018782106 0 -0.0029042813897855791 -0.0032601945656759992 0 -0.0029536177176604306 -0.0031529873318050967 0 -0.0028920188221931882 -0.003243427015152912 0 -0.0027952391094151902 -0.0031137382542341286 0 -0.0029383053788042957 -0.0033900756629478509 0 -0.0029477356263132339 -0.0033237674625461039 0 -0.002883808032399033 -0.0033366878018782106 0 -0.0028688785080767903 -0.0032385815707691172 0 -0.0034454480245051018 -0.0031839429522919288 0 -0.0057745394659546676 -0.0033736650607000631 0 -0.0057363068214147201 -0.0032794059796715769 0 -0.0058071199025231304 -0.0031715298459447554 0 -0.0051072269631242343 -0.0034643631967147641 0 -0.0034454480245051018 -0.0031839429522919288 0 -0.0056456796205419085 -0.0035143415695331618 0 -0.0057915933537333215 -0.0033780386094142121 0 -0.0057363068214147201 -0.0032794059796715769 0 -0.0051072269631242343 -0.0034643631967147641 0 -0.0054906880190108576 -0.0034385489669569217 0 -0.0057363068214147201 -0.0032794059796715769 0 -0.0057054483261755762 -0.003169169097035364 0 -0.0055937272371011587 -0.0032000881482399761 0 -0.0057054483261755762 -0.003169169097035364 0 -0.0055937272371011587 -0.0032000881482399761 0 -0.0056906753655959546 -0.0030193823205977134 0 -0.0057054483261755762 -0.003169169097035364 0 -0.0058071199025231304 -0.0031715298459447554 0 -0.0056906753655959546 -0.0030193823205977134 0 -0.0034454480245051018 -0.0031839429522919288 0 -0.0042552333976246118 -0.0029488371936407382 0 -0.0057363068214147201 -0.0032794059796715769 0 -0.0057054483261755762 -0.003169169097035364 0 -0.0058071199025231304 -0.0031715298459447554 0 -0.0029536177176604306 -0.0031529873318050967 0 -0.0027952391094151902 -0.0031137382542341286 0 -0.002932062049324806 -0.0030308977278974574 0 -0.0055386021812637879 -0.0034105290486914465 0 -0.0056638831978575617 -0.0033962190815743387 0 -0.0056256401546232165 -0.0032467545247167732 0 -0.0054911098289887397 -0.003230124266811951 0 -0.0055386021812637879 -0.0034105290486914465 0 -0.0056256401546232165 -0.0032467545247167732 0 -0.0056935695925493532 -0.0035089353887228138 0 -0.0057656030384792721 -0.0032403626960893707 0 -0.0057652652329048234 -0.0035162505777212561 0 -0.0056638831978575617 -0.0033962190815743387 0 -0.0057748171205930987 -0.0032414374057008833 0 -0.0056456796205419085 -0.0035143415695331618 0 -0.0057363068214147201 -0.0032794059796715769 0 -0.0055937272371011587 -0.0032000881482399761 0 -0.0056638831978575617 -0.0033962190815743387 0 -0.0057748171205930987 -0.0032414374057008833 0 -0.0056256401546232165 -0.0032467545247167732 0 -0.0057748171205930987 -0.0032414374057008833 0 -0.0056256401546232165 -0.0032467545247167732 0 -0.0056735047410638693 -0.0031105966173986628 0 -0.0056256401546232165 -0.0032467545247167732 0 -0.0055859142250799243 -0.0031196120233462844 0 -0.0056735047410638693 -0.0031105966173986628 0 -0.0054911098289887397 -0.003230124266811951 0 -0.0056256401546232165 -0.0032467545247167732 0 -0.0055859142250799243 -0.0031196120233462844 0 -0.0055859142250799243 -0.0031196120233462844 0 -0.0056101041094593317 -0.0029758486440224583 0 -0.0054707208376175423 -0.0030578059037810203 0 -0.0055859142250799243 -0.0031196120233462844 0 -0.0056101041094593317 -0.0029758486440224583 0 -0.0056735047410638693 -0.0031105966173986628 0 -0.0057748171205930987 -0.0032414374057008833 0 -0.0056735047410638693 -0.0031105966173986628 0 -0.0057708790237430679 -0.0029695927523375972 0 -0.0057656030384792721 -0.0032403626960893707 0 -0.0050387347286368301 -0.0028287679708985229 0 -0.0056101041094593317 -0.0029758486440224583 0 -0.0056735047410638693 -0.0031105966173986628 0 -0.0057708790237430679 -0.0029695927523375972 0 -0.0055937272371011587 -0.0032000881482399761 0 -0.0055635771413173303 -0.0028675231571146367 0 -0.0056906753655959546 -0.0030193823205977134 0 -0.0050387347286368301 -0.0028287679708985229 0 -0.0042552333976246118 -0.0029488371936407382 0 -0.0056101041094593317 -0.0029758486440224583 0 -0.0057708790237430679 -0.0029695927523375972 0 -0.0056722993128434061 -0.0028398613708938286 0 -0.0027864800770160151 -0.0028256942453831575 0 -0.0028423474059885525 -0.0027749490132492195 0 -0.0027693097790711099 -0.0026950531881572851 0 -0.0050387347286368301 -0.0028287679708985229 0 -0.0056861707004837439 -0.0028745117183308307 0 -0.0056619410999790339 -0.0028494902738624827 0 -0.005611593950872411 -0.0027755206853289516 0 -0.0056701901261144889 -0.0027058651543317956 0 -0.0050387347286368301 -0.0028287679708985229 0 -0.0041318928996584865 -0.0026874454615324656 0 -0.0056101041094593317 -0.0029758486440224583 0 -0.0056722993128434061 -0.0028398613708938286 0 -0.005546126142579726 -0.002833616116916419 0 -0.0056101041094593317 -0.0029758486440224583 0 -0.005546126142579726 -0.002833616116916419 0 -0.0054638064639885671 -0.0029171772332144711 0 -0.0034454480245051018 -0.0031839429522919288 0 -0.0028211782096327132 -0.0028652979534188093 0 -0.0027952391094151902 -0.0031137382542341286 0 -0.002932062049324806 -0.0030308977278974574 0 -0.0028324209191963445 -0.0029251298548442408 0 -0.002932062049324806 -0.0030308977278974574 0 -0.0028324209191963445 -0.0029251298548442408 0 -0.0029391247173510466 -0.0028978386489721584 0 -0.0028969830006119329 -0.0028391433782884667 0 -0.0028356909685133564 -0.0028879052535959147 0 -0.0028423474059885525 -0.0027749490132492195 0 -0.0027864800770160151 -0.0028256942453831575 0 -0.0028356909685133564 -0.0028879052535959147 0 -0.0028423474059885525 -0.0027749490132492195 0 -0.0028897924558248284 -0.002953745554178462 0 -0.0028969830006119329 -0.0028391433782884667 0 -0.0028356909685133564 -0.0028879052535959147 0 -0.0028969830006119329 -0.0028391433782884667 0 -0.0028423474059885525 -0.0027749490132492195 0 -0.0028939149840361165 -0.0027373324307578563 0 -0.0030150980911685709 -0.0028241341939944896 0 -0.0029391247173510466 -0.0028978386489721584 0 -0.0028939149840361165 -0.0027373324307578563 0 -0.0028324209191963445 -0.0029251298548442408 0 -0.0029391247173510466 -0.0028978386489721584 0 -0.0028939149840361165 -0.0027373324307578563 0 -0.0028211782096327132 -0.0028652979534188093 0 -0.0028967856791072425 -0.0027558914513951148 0 -0.0029577403743730351 -0.0026691601307677385 0 -0.0028939149840361165 -0.0027373324307578563 0 -0.0028511621245715041 -0.002667791127388157 0 -0.0028423474059885525 -0.0027749490132492195 0 -0.0028939149840361165 -0.0027373324307578563 0 -0.0028511621245715041 -0.002667791127388157 0 -0.0028423474059885525 -0.0027749490132492195 0 -0.0028511621245715041 -0.002667791127388157 0 -0.0027693097790711099 -0.0026950531881572851 0 -0.0028511621245715041 -0.002667791127388157 0 -0.0027627417422131577 -0.0025537932516275911 0 -0.002898367585694128 -0.0025605229271139277 0 -0.0029577403743730351 -0.0026691601307677385 0 -0.0028511621245715041 -0.002667791127388157 0 -0.002898367585694128 -0.0025605229271139277 0 -0.005611593950872411 -0.0027755206853289516 0 -0.0055560777358849463 -0.002704191932584336 0 -0.0056152322003236695 -0.0026516029988660553 0 -0.0056722993128434061 -0.0028398613708938286 0 -0.005546126142579726 -0.002833616116916419 0 -0.0055560777358849463 -0.002704191932584336 0 -0.0056861707004837439 -0.0028745117183308307 0 -0.0055509701877500079 -0.002696611044658721 0 -0.005611593950872411 -0.0027755206853289516 0 -0.0056701901261144889 -0.0027058651543317956 0 -0.0056152322003236695 -0.0026516029988660553 0 -0.0056701901261144889 -0.0027058651543317956 0 -0.0056152322003236695 -0.0026516029988660553 0 -0.0056738596746530251 -0.0025245167797751321 0 -0.0028511621245715041 -0.002667791127388157 0 -0.0027693097790711099 -0.0026950531881572851 0 -0.0027627417422131577 -0.0025537932516275911 0 -0.0041318928996584865 -0.0026874454615324656 0 -0.0042610875422856437 -0.0025866224998126745 0 -0.0055507603566134359 -0.0025712171393175946 0 -0.0056152322003236695 -0.0026516029988660553 0 -0.0056738596746530251 -0.0025245167797751321 0 -0.0055560777358849463 -0.002704191932584336 0 -0.0055507603566134359 -0.0025712171393175946 0 -0.0056152322003236695 -0.0026516029988660553 0 -0.0055560777358849463 -0.002704191932584336 0 -0.0055507603566134359 -0.0025712171393175946 0 -0.0054228664831830033 -0.0026213069555584929 0 -0.0055507603566134359 -0.0025712171393175946 0 -0.0054228664831830033 -0.0026213069555584929 0 -0.0054626347757026177 -0.0024918931951604722 0 -0.0054228664831830033 -0.0026213069555584929 0 -0.0052709494371226025 -0.0025775731516265682 0 -0.0053062165084992877 -0.0028063169486969115 0 -0.0054228664831830033 -0.0026213069555584929 0 -0.0052709494371226025 -0.0025775731516265682 0 -0.005332586067092057 -0.0024547747275474362 0 -0.0054228664831830033 -0.0026213069555584929 0 -0.0053062165084992877 -0.0028063169486969115 0 -0.0054481644156475937 -0.0027710989872396894 0 -0.0055560777358849463 -0.002704191932584336 0 -0.0054228664831830033 -0.0026213069555584929 0 -0.0054481644156475937 -0.0027710989872396894 0 -0.005546126142579726 -0.002833616116916419 0 -0.0055560777358849463 -0.002704191932584336 0 -0.0054481644156475937 -0.0027710989872396894 0 -0.0053062165084992877 -0.0028063169486969115 0 -0.0054481644156475937 -0.0027710989872396894 0 -0.0054638064639885671 -0.0029171772332144711 0 -0.005546126142579726 -0.002833616116916419 0 -0.0054481644156475937 -0.0027710989872396894 0 -0.0054638064639885671 -0.0029171772332144711 0 -0.0053062165084992877 -0.0028063169486969115 0 -0.0053335061556936706 -0.0029866721594630154 0 -0.0051829359235709815 -0.0030191661149397871 0 -0.0053062165084992877 -0.0028063169486969115 0 -0.0054638064639885671 -0.0029171772332144711 0 -0.0053335061556936706 -0.0029866721594630154 0 -0.0053770667725477651 -0.0031468576847548048 0 -0.0053335061556936706 -0.0029866721594630154 0 -0.0054707208376175423 -0.0030578059037810203 0 -0.0053770667725477651 -0.0031468576847548048 0 -0.0052401427623666166 -0.0031912632614269345 0 -0.0053335061556936706 -0.0029866721594630154 0 -0.0056101041094593317 -0.0029758486440224583 0 -0.0054638064639885671 -0.0029171772332144711 0 -0.0054707208376175423 -0.0030578059037810203 0 -0.0054638064639885671 -0.0029171772332144711 0 -0.0053335061556936706 -0.0029866721594630154 0 -0.0054707208376175423 -0.0030578059037810203 0 -0.0049999824911822173 -0.0032196618076102625 0 -0.0051829359235709815 -0.0030191661149397871 0 -0.0049999816995418573 -0.002959491807552994 0 -0.0052401427623666166 -0.0031912632614269345 0 -0.0053335061556936706 -0.0029866721594630154 0 -0.0051829359235709815 -0.0030191661149397871 0 -0.0053062165084992877 -0.0028063169486969115 0 -0.0051829359235709815 -0.0030191661149397871 0 -0.0051334166705012839 -0.0028454702714916288 0 -0.0051334166705012839 -0.0028454702714916288 0 -0.0049999816995418573 -0.002959491807552994 0 -0.0049999834805171854 -0.0026992995684322128 0 -0.0051829359235709815 -0.0030191661149397871 0 -0.0051334166705012839 -0.0028454702714916288 0 -0.0049999816995418573 -0.002959491807552994 0 -0.0051334166705012839 -0.0028454702714916288 0 -0.0049999834805171854 -0.0026992995684322128 0 -0.0051690870493486876 -0.0027005168788816862 0 -0.0052709494371226025 -0.0025775731516265682 0 -0.0053062165084992877 -0.0028063169486969115 0 -0.0051690870493486876 -0.0027005168788816862 0 -0.0053062165084992877 -0.0028063169486969115 0 -0.0051334166705012839 -0.0028454702714916288 0 -0.0051690870493486876 -0.0027005168788816862 0 -0.0052709494371226025 -0.0025775731516265682 0 -0.0051690870493486876 -0.0027005168788816862 0 -0.0051238511548322837 -0.0025562306165428884 0 -0.0049999834805171854 -0.0026992995684322128 0 -0.0051690870493486876 -0.0027005168788816862 0 -0.0051238511548322837 -0.0025562306165428884 0 -0.0049999834805171854 -0.0026992995684322128 0 -0.0051238511548322837 -0.0025562306165428884 0 -0.0050000015914924692 -0.0024392242220905224 0 -0.0050000021946370659 -0.0024391335679009043 0 -0.0051761485938115713 -0.0023387071052205178 0 -0.0050840288166140229 -0.0022738111903453312 0 -0.0050000381516534685 -0.0024391160115756851 0 -0.0051628033411273864 -0.002364631823889643 0 -0.0051238511548322837 -0.0025562306165428884 0 -0.0050000015914924692 -0.0024392242220905224 0 -0.0051557106835465726 -0.0023902100350432693 0 -0.0052709494371226025 -0.0025775731516265682 0 -0.0051238511548322837 -0.0025562306165428884 0 -0.0051557106835465726 -0.0023902100350432693 0 -0.0052709494371226025 -0.0025775731516265682 0 -0.0051557106835465726 -0.0023902100350432693 0 -0.005332586067092057 -0.0024547747275474362 0 -0.0051557106835465726 -0.0023902100350432693 0 -0.005332586067092057 -0.0024547747275474362 0 -0.0052978460548372954 -0.0023294006009458904 0 -0.0051628033411273864 -0.002364631823889643 0 -0.0053289605731436469 -0.0022857428112926519 0 -0.0051761485938115713 -0.0023387071052205178 0 -0.0053522489099782208 -0.0022372996122633792 0 -0.0051604230693356457 -0.0021677792343479866 0 -0.0051761485938115713 -0.0023387071052205178 0 -0.0050840288166140229 -0.0022738111903453312 0 -0.0051604230693356457 -0.0021677792343479866 0 -0.0050000021946370659 -0.0024391335679009043 0 -0.0050840288166140229 -0.0022738111903453312 0 -0.0049999950264535261 -0.0021492506867462329 0 -0.0050840288166140229 -0.0022738111903453312 0 -0.0049999950264535261 -0.0021492506867462329 0 -0.0051604230693356457 -0.0021677792343479866 0 -0.0054626347757026177 -0.0024918931951604722 0 -0.0054412590602199301 -0.0023776963737851173 0 -0.0055642246319890249 -0.0024313330793794587 0 -0.0054228664831830033 -0.0026213069555584929 0 -0.0054626347757026177 -0.0024918931951604722 0 -0.005332586067092057 -0.0024547747275474362 0 -0.0054626347757026177 -0.0024918931951604722 0 -0.005332586067092057 -0.0024547747275474362 0 -0.0054412590602199301 -0.0023776963737851173 0 -0.005332586067092057 -0.0024547747275474362 0 -0.0052978460548372954 -0.0023294006009458904 0 -0.0054412590602199301 -0.0023776963737851173 0 -0.0053289605731436469 -0.0022857428112926519 0 -0.0054222079693224748 -0.0021311521019232423 0 -0.0054412590602199301 -0.0023776963737851173 0 -0.0054330950436708532 -0.0022619747420271575 0 -0.0055501571001824491 -0.0022983688610021201 0 -0.0052978460548372954 -0.0023294006009458904 0 -0.0054412590602199301 -0.0023776963737851173 0 -0.0054330950436708532 -0.0022619747420271575 0 -0.0054222079693224748 -0.0021311521019232423 0 -0.0058122712526488454 -0.0022537194436366829 0 -0.0054313971206575102 -0.0020329705877568638 0 -0.0055163974611555288 -0.0019392825858659606 0 -0.0055421966458454172 -0.0020573120488742128 0 -0.0054313971206575102 -0.0020329705877568638 0 -0.0054182466683815799 -0.0019365446508420956 0 -0.0055163974611555288 -0.0019392825858659606 0 -0.0054313971206575102 -0.0020329705877568638 0 -0.0054182466683815799 -0.0019365446508420956 0 -0.0052561753843766313 -0.0020091729916244644 0 -0.0053522489099782208 -0.0022372996122633792 0 -0.005526172226437749 -0.0021376539011251244 0 -0.0052978783885890999 -0.002076811831713658 0 -0.0054222079693224748 -0.0021311521019232423 0 -0.0052820755552699973 -0.0020400413382978193 0 -0.0053439169277575008 -0.0018793530069512281 0 -0.0054182466683815799 -0.0019365446508420956 0 -0.0052561753843766313 -0.0020091729916244644 0 -0.0053439169277575008 -0.0018793530069512281 0 -0.0054182466683815799 -0.0019365446508420956 0 -0.0055088465924179042 -0.001808364742972794 0 -0.0054182466683815799 -0.0019365446508420956 0 -0.0055088465924179042 -0.001808364742972794 0 -0.0055163974611555288 -0.0019392825858659606 0 -0.0049999950264535261 -0.0021492506867462329 0 -0.0051604230693356457 -0.0021677792343479866 0 -0.0050631958557263235 -0.0020084367667480767 0 -0.0051604230693356457 -0.0021677792343479866 0 -0.0052978783885890999 -0.002076811831713658 0 -0.0050631958557263235 -0.0020084367667480767 0 -0.0052820755552699973 -0.0020400413382978193 0 -0.0050713970058789267 -0.0020068687035426267 0 -0.0053522489099782208 -0.0022372996122633792 0 -0.0051604230693356457 -0.0021677792343479866 0 -0.0052978783885890999 -0.002076811831713658 0 -0.0053439169277575008 -0.0018793530069512281 0 -0.0052561753843766313 -0.0020091729916244644 0 -0.0051967416403402222 -0.0019304937476083911 0 -0.0053439169277575008 -0.0018793530069512281 0 -0.0051967416403402222 -0.0019304937476083911 0 -0.0052106973711001118 -0.0018352128266330102 0 -0.0052561753843766313 -0.0020091729916244644 0 -0.0051967416403402222 -0.0019304937476083911 0 -0.0050631958557263235 -0.0020084367667480767 0 -0.0051967416403402222 -0.0019304937476083911 0 -0.0051182463946940829 -0.0018814906556308838 0 -0.0052106973711001118 -0.0018352128266330102 0 -0.0051967416403402222 -0.0019304937476083911 0 -0.0050631958557263235 -0.0020084367667480767 0 -0.0051182463946940829 -0.0018814906556308838 0 -0.0050631958557263235 -0.0020084367667480767 0 -0.0051182463946940829 -0.0018814906556308838 0 -0.0049999911442597383 -0.00185936273290569 0 -0.0049999950264535261 -0.0021492506867462329 0 -0.0050631958557263235 -0.0020084367667480767 0 -0.0049999911442597383 -0.00185936273290569 0 -0.0049999911442597383 -0.00185936273290569 0 -0.005123852374517051 -0.0017500919383300309 0 -0.0049999828440466104 -0.0015695393493750025 0 -0.0051182463946940829 -0.0018814906556308838 0 -0.0049999911442597383 -0.00185936273290569 0 -0.005123852374517051 -0.0017500919383300309 0 -0.005123852374517051 -0.0017500919383300309 0 -0.0049999828440466104 -0.0015695393493750025 0 -0.0051744966997796533 -0.0016127720005565892 0 -0.0051744966997796533 -0.0016127720005565892 0 -0.0053010493102960661 -0.0016248348596715374 0 -0.0052633069475434436 -0.0015235343396440371 0 -0.005123852374517051 -0.0017500919383300309 0 -0.0051744966997796533 -0.0016127720005565892 0 -0.0052416304957213743 -0.0017220078392708692 0 -0.0051744966997796533 -0.0016127720005565892 0 -0.0052416304957213743 -0.0017220078392708692 0 -0.0053010493102960661 -0.0016248348596715374 0 -0.005123852374517051 -0.0017500919383300309 0 -0.0052416304957213743 -0.0017220078392708692 0 -0.0052106973711001118 -0.0018352128266330102 0 -0.0051182463946940829 -0.0018814906556308838 0 -0.005123852374517051 -0.0017500919383300309 0 -0.0052106973711001118 -0.0018352128266330102 0 -0.0052416304957213743 -0.0017220078392708692 0 -0.0052106973711001118 -0.0018352128266330102 0 -0.0053065540736238386 -0.0017790502426276826 0 -0.0053439169277575008 -0.0018793530069512281 0 -0.0052106973711001118 -0.0018352128266330102 0 -0.0053065540736238386 -0.0017790502426276826 0 -0.0053439169277575008 -0.0018793530069512281 0 -0.0053065540736238386 -0.0017790502426276826 0 -0.0053967809940533538 -0.0017524937253024877 0 -0.0053065540736238386 -0.0017790502426276826 0 -0.0053356130317379399 -0.001704263201761137 0 -0.0053967809940533538 -0.0017524937253024877 0 -0.0052416304957213743 -0.0017220078392708692 0 -0.0053065540736238386 -0.0017790502426276826 0 -0.0053356130317379399 -0.001704263201761137 0 -0.0053439169277575008 -0.0018793530069512281 0 -0.0053967809940533538 -0.0017524937253024877 0 -0.0055088465924179042 -0.001808364742972794 0 -0.0053967809940533538 -0.0017524937253024877 0 -0.0054837532826660842 -0.0016767127413584858 0 -0.0055088465924179042 -0.001808364742972794 0 -0.0054837532826660842 -0.0016767127413584858 0 -0.0054602848846857493 -0.0016205328625787988 0 -0.0055027965207809417 -0.0015920542288829381 0 -0.0054837532826660842 -0.0016767127413584858 0 -0.0054092462842516521 -0.0016398968991166323 0 -0.0054602848846857493 -0.0016205328625787988 0 -0.0054837532826660842 -0.0016767127413584858 0 -0.0055027965207809417 -0.0015920542288829381 0 -0.005539095448374531 -0.0016338020191955618 0 -0.0053967809940533538 -0.0017524937253024877 0 -0.0054837532826660842 -0.0016767127413584858 0 -0.0054092462842516521 -0.0016398968991166323 0 -0.0054092462842516521 -0.0016398968991166323 0 -0.0054452296732660829 -0.0015730603541070586 0 -0.0053671137555517875 -0.001545948279850919 0 -0.0054092462842516521 -0.0016398968991166323 0 -0.0054452296732660829 -0.0015730603541070586 0 -0.0054602848846857493 -0.0016205328625787988 0 -0.0054452296732660829 -0.0015730603541070586 0 -0.0054602848846857493 -0.0016205328625787988 0 -0.0055027965207809417 -0.0015920542288829381 0 -0.0054452296732660829 -0.0015730603541070586 0 -0.0055027965207809417 -0.0015920542288829381 0 -0.0054839530553292505 -0.0015406510908493481 0 -0.0052416304957213743 -0.0017220078392708692 0 -0.0053356130317379399 -0.001704263201761137 0 -0.0053010493102960661 -0.0016248348596715374 0 -0.0053356130317379399 -0.001704263201761137 0 -0.0054092462842516521 -0.0016398968991166323 0 -0.0053010493102960661 -0.0016248348596715374 0 -0.0053356130317379399 -0.001704263201761137 0 -0.0053967809940533538 -0.0017524937253024877 0 -0.0054092462842516521 -0.0016398968991166323 0 -0.0054092462842516521 -0.0016398968991166323 0 -0.0053010493102960661 -0.0016248348596715374 0 -0.0053671137555517875 -0.001545948279850919 0 -0.0053010493102960661 -0.0016248348596715374 0 -0.0053671137555517875 -0.001545948279850919 0 -0.0052633069475434436 -0.0015235343396440371 0 -0.0053671137555517875 -0.001545948279850919 0 -0.0053363339098935619 -0.0014337220503969229 0 -0.0052633069475434436 -0.0015235343396440371 0 -0.0053671137555517875 -0.001545948279850919 0 -0.0053363339098935619 -0.0014337220503969229 0 -0.0053975848240238877 -0.0014635406761110057 0 -0.0053363339098935619 -0.0014337220503969229 0 -0.0053975848240238877 -0.0014635406761110057 0 -0.0054221412647587194 -0.0013983594565302184 0 -0.0053363339098935619 -0.0014337220503969229 0 -0.0052214517095910363 -0.0014096026032378336 0 -0.0052633069475434436 -0.0015235343396440371 0 -0.0054452296732660829 -0.0015730603541070586 0 -0.0054839530553292505 -0.0015406510908493481 0 -0.0054546719904285251 -0.001498916243242492 0 -0.0054839530553292505 -0.0015406510908493481 0 -0.0054988647292568719 -0.0014844317552339694 0 -0.0055287575469139079 -0.0015241607014318346 0 -0.0055027965207809417 -0.0015920542288829381 0 -0.0054839530553292505 -0.0015406510908493481 0 -0.0055287575469139079 -0.0015241607014318346 0 -0.0054839530553292505 -0.0015406510908493481 0 -0.0054546719904285251 -0.001498916243242492 0 -0.0054988647292568719 -0.0014844317552339694 0 -0.0053671137555517875 -0.001545948279850919 0 -0.0054546719904285251 -0.001498916243242492 0 -0.0053975848240238877 -0.0014635406761110057 0 -0.0054452296732660829 -0.0015730603541070586 0 -0.0053671137555517875 -0.001545948279850919 0 -0.0054546719904285251 -0.001498916243242492 0 -0.0053975848240238877 -0.0014635406761110057 0 -0.0054374879941556922 -0.0014480041358460362 0 -0.0054221412647587194 -0.0013983594565302184 0 -0.0054374879941556922 -0.0014480041358460362 0 -0.0054756277151367478 -0.0014310901944149814 0 -0.0054221412647587194 -0.0013983594565302184 0 -0.0054546719904285251 -0.001498916243242492 0 -0.0053975848240238877 -0.0014635406761110057 0 -0.0054374879941556922 -0.0014480041358460362 0 -0.0054546719904285251 -0.001498916243242492 0 -0.0054374879941556922 -0.0014480041358460362 0 -0.0054756277151367478 -0.0014310901944149814 0 -0.0054546719904285251 -0.001498916243242492 0 -0.0054756277151367478 -0.0014310901944149814 0 -0.0054988647292568719 -0.0014844317552339694 0 -0.0054756277151367478 -0.0014310901944149814 0 -0.0055130322257739579 -0.0014463679814757764 0 -0.0055271434936788981 -0.001394543313855848 0 -0.0054756277151367478 -0.0014310901944149814 0 -0.0055130322257739579 -0.0014463679814757764 0 -0.0054988647292568719 -0.0014844317552339694 0 -0.0054731469486794413 -0.0013678816671509463 0 -0.0055356632784556532 -0.001299712849764149 0 -0.0055271434936788981 -0.001394543313855848 0 -0.0054756277151367478 -0.0014310901944149814 0 -0.0054731469486794413 -0.0013678816671509463 0 -0.0055271434936788981 -0.001394543313855848 0 -0.0054756277151367478 -0.0014310901944149814 0 -0.0054731469486794413 -0.0013678816671509463 0 -0.0054221412647587194 -0.0013983594565302184 0 -0.0054731469486794413 -0.0013678816671509463 0 -0.0054221412647587194 -0.0013983594565302184 0 -0.0054465699223220495 -0.0013045801753958758 0 -0.0054465699223220495 -0.0013045801753958758 0 -0.0053711658156090627 -0.0013275733565849496 0 -0.0053886853897895217 -0.001228746901899061 0 -0.0054221412647587194 -0.0013983594565302184 0 -0.0054465699223220495 -0.0013045801753958758 0 -0.0053711658156090627 -0.0013275733565849496 0 -0.0054731469486794413 -0.0013678816671509463 0 -0.0054465699223220495 -0.0013045801753958758 0 -0.0055356632784556532 -0.001299712849764149 0 -0.0053363339098935619 -0.0014337220503969229 0 -0.0052939141757605045 -0.0013420390196746969 0 -0.0052214517095910363 -0.0014096026032378336 0 -0.0053363339098935619 -0.0014337220503969229 0 -0.0054221412647587194 -0.0013983594565302184 0 -0.0053711658156090627 -0.0013275733565849496 0 -0.0053363339098935619 -0.0014337220503969229 0 -0.0053711658156090627 -0.0013275733565849496 0 -0.0052939141757605045 -0.0013420390196746969 0 -0.0053711658156090627 -0.0013275733565849496 0 -0.0052939141757605045 -0.0013420390196746969 0 -0.0053080424815269023 -0.0012497209919369991 0 -0.0052939141757605045 -0.0013420390196746969 0 -0.0052189733742506982 -0.0012885242987210159 0 -0.0053080424815269023 -0.0012497209919369991 0 -0.0052939141757605045 -0.0013420390196746969 0 -0.0052189733742506982 -0.0012885242987210159 0 -0.0052214517095910363 -0.0014096026032378336 0 -0.0052214517095910363 -0.0014096026032378336 0 -0.0051375140580508611 -0.0013337332992729939 0 -0.0051269960203502718 -0.0014759079626328038 0 -0.0052189733742506982 -0.0012885242987210159 0 -0.0052214517095910363 -0.0014096026032378336 0 -0.0051375140580508611 -0.0013337332992729939 0 -0.0052189733742506982 -0.0012885242987210159 0 -0.0051375140580508611 -0.0013337332992729939 0 -0.0051213544566342728 -0.0011965661122730949 0 -0.0051375140580508611 -0.0013337332992729939 0 -0.0049999910523142801 -0.0012797072555528566 0 -0.0051213544566342728 -0.0011965661122730949 0 -0.0051375140580508611 -0.0013337332992729939 0 -0.0049999910523142801 -0.0012797072555528566 0 -0.0051269960203502718 -0.0014759079626328038 0 -0.0049999828440466104 -0.0015695393493750025 0 -0.0049999910523142801 -0.0012797072555528566 0 -0.0051269960203502718 -0.0014759079626328038 0 -0.0049999828440466104 -0.0015695393493750025 0 -0.0051744966997796533 -0.0016127720005565892 0 -0.0051269960203502718 -0.0014759079626328038 0 -0.0051744966997796533 -0.0016127720005565892 0 -0.0051269960203502718 -0.0014759079626328038 0 -0.0052633069475434436 -0.0015235343396440371 0 -0.0052214517095910363 -0.0014096026032378336 0 -0.0051269960203502718 -0.0014759079626328038 0 -0.0052633069475434436 -0.0015235343396440371 0 -0.0022408483781855408 -0.00064058323095612804 0 -0.0021416899916088541 -0.00057330987819636907 0 -0.00221431731190245 -0.00046434961272550875 0 -0.0022408483781855408 -0.00064058323095612804 0 -0.0021416899916088541 -0.00057330987819636907 0 -0.002063820374191888 -0.00067954748921773692 0 -0.0021416899916088541 -0.00057330987819636907 0 -0.002063820374191888 -0.00067954748921773692 0 -0.0020118483271614703 -0.00054999521117146265 0 -0.002063820374191888 -0.00067954748921773692 0 -0.0020118483271614703 -0.00054999521117146265 0 -0.0019937129701613223 -0.00079165822208791803 0 -0.002063820374191888 -0.00067954748921773692 0 -0.0020623665974208488 -0.00077754744294711103 0 -0.0019937129701613223 -0.00079165822208791803 0 -0.002063820374191888 -0.00067954748921773692 0 -0.0020623665974208488 -0.00077754744294711103 0 -0.0021476814403528998 -0.00078190246078813899 0 -0.0022408483781855408 -0.00064058323095612804 0 -0.0021476814403528998 -0.00078190246078813899 0 -0.002290174641072255 -0.00078510767482380226 0 -0.0022408483781855408 -0.00064058323095612804 0 -0.002063820374191888 -0.00067954748921773692 0 -0.0021476814403528998 -0.00078190246078813899 0 -0.0022408483781855408 -0.00064058323095612804 0 -0.0024013424674861976 -0.00069259531242521109 0 -0.002290174641072255 -0.00078510767482380226 0 -0.0024013424674861976 -0.00069259531242521109 0 -0.0023827312712109971 -0.00053130720477573485 0 -0.0024932066617218865 -0.00059666913750089563 0 -0.0022408483781855408 -0.00064058323095612804 0 -0.0024013424674861976 -0.00069259531242521109 0 -0.0023827312712109971 -0.00053130720477573485 0 -0.0022408483781855408 -0.00064058323095612804 0 -0.0023827312712109971 -0.00053130720477573485 0 -0.00221431731190245 -0.00046434961272550875 0 -0.0023827312712109971 -0.00053130720477573485 0 -0.002384563195885227 -0.00039245098657364062 0 -0.0025554385198999245 -0.00048774524577853792 0 -0.002810774476649072 -0.00027708358412016182 0 -0.0025398214991539199 -0.00048868351430186483 0 -0.0031543568556194777 -0.00031631573789805436 0 -0.0029690661710782434 -0.00042545475729807112 0 -0.0030508918043878016 -0.00027504821574654862 0 -0.0023827312712109971 -0.00053130720477573485 0 -0.002384563195885227 -0.00039245098657364062 0 -0.00221431731190245 -0.00046434961272550875 0 -0.0033841988806923998 -0.00061185776699374829 0 -0.0034836380955926009 -9.6818574337613079e-05 0 -0.0037964018486178483 -0.0002220017716088047 0 -0.0028721090368534594 -0.00066509093244641946 0 -0.0035121936213024355 -9.0935160468844426e-05 0 -0.0029690661710782434 -0.00042545475729807112 0 -0.0027837344793535941 -0.00053551617006481205 0 -0.0030508918043878016 -0.00027504821574654862 0 -0.0028721090368534594 -0.00066509093244641946 0 -0.004367731271257524 -0.00014288236057731344 0 -0.0025398214991539199 -0.00048868351430186483 0 -0.0028721090368534594 -0.00066509093244641946 0 -0.0021416899916088541 -0.00057330987819636907 0 -0.00221431731190245 -0.00046434961272550875 0 -0.0020118483271614703 -0.00054999521117146265 0 -0.0049703489905506019 -0.0011206615652484635 0 -0.0040372483083373724 -0.0011422785549652565 0 -0.0056768290340916613 -0.0013129564742495135 0 -0.0056245204573216433 -0.0014321957006818652 0 -0.0056771068068388764 -0.0014748873944145772 0 -0.0042406816963970976 -0.00077205105426464665 0 -0.0043336779803481605 -0.00088689272685574174 0 -0.0042398404943208134 -0.00094148518869862285 0 -0.0042406816963970976 -0.00077205105426464665 0 -0.0043336779803481605 -0.00088689272685574174 0 -0.0043806491551963743 -0.00066055893284876004 0 -0.0056768290340916613 -0.0013129564742495135 0 -0.0055356632784556532 -0.001299712849764149 0 -0.0055826312255960308 -0.0013648538070640066 0 -0.0056768290340916613 -0.0013129564742495135 0 -0.0055826312255960308 -0.0013648538070640066 0 -0.0056245204573216433 -0.0014321957006818652 0 -0.0055826312255960308 -0.0013648538070640066 0 -0.0055671559744186238 -0.0014087739146062116 0 -0.0056245204573216433 -0.0014321957006818652 0 -0.0055356632784556532 -0.001299712849764149 0 -0.0055826312255960308 -0.0013648538070640066 0 -0.0055271434936788981 -0.001394543313855848 0 -0.0055671559744186238 -0.0014087739146062116 0 -0.0055271434936788981 -0.001394543313855848 0 -0.0055463230658575743 -0.0014448701292892137 0 -0.0055826312255960308 -0.0013648538070640066 0 -0.0055671559744186238 -0.0014087739146062116 0 -0.0055271434936788981 -0.001394543313855848 0 -0.0055130322257739579 -0.0014463679814757764 0 -0.0054988647292568719 -0.0014844317552339694 0 -0.0055311958817259848 -0.0014840435231711741 0 -0.0055130322257739579 -0.0014463679814757764 0 -0.0055311958817259848 -0.0014840435231711741 0 -0.0055463230658575743 -0.0014448701292892137 0 -0.0055130322257739579 -0.0014463679814757764 0 -0.0055271434936788981 -0.001394543313855848 0 -0.0055463230658575743 -0.0014448701292892137 0 -0.0055671559744186238 -0.0014087739146062116 0 -0.0055463230658575743 -0.0014448701292892137 0 -0.0055767702726846951 -0.0014572096361579339 0 -0.0055767702726846951 -0.0014572096361579339 0 -0.0055870010601414711 -0.00148948733684708 0 -0.0055627111221686343 -0.0014936729156722565 0 -0.0055463230658575743 -0.0014448701292892137 0 -0.0055767702726846951 -0.0014572096361579339 0 -0.0055627111221686343 -0.0014936729156722565 0 -0.0055311958817259848 -0.0014840435231711741 0 -0.0055463230658575743 -0.0014448701292892137 0 -0.0055627111221686343 -0.0014936729156722565 0 -0.0055767702726846951 -0.0014572096361579339 0 -0.0056049390913604311 -0.0014724311308487667 0 -0.0056245204573216433 -0.0014321957006818652 0 -0.0055767702726846951 -0.0014572096361579339 0 -0.0056049390913604311 -0.0014724311308487667 0 -0.0055870010601414711 -0.00148948733684708 0 -0.0055671559744186238 -0.0014087739146062116 0 -0.0055767702726846951 -0.0014572096361579339 0 -0.0056245204573216433 -0.0014321957006818652 0 -0.0056049390913604311 -0.0014724311308487667 0 -0.0056245204573216433 -0.0014321957006818652 0 -0.0056399196927851645 -0.001487963597037805 0 -0.0056049390913604311 -0.0014724311308487667 0 -0.0056210815880028573 -0.0014978648893076718 0 -0.0056399196927851645 -0.001487963597037805 0 -0.0056210815880028573 -0.0014978648893076718 0 -0.005629935560644536 -0.0015393944246638689 0 -0.0056399196927851645 -0.001487963597037805 0 -0.0056210815880028573 -0.0014978648893076718 0 -0.005629935560644536 -0.0015393944246638689 0 -0.0056009144758485275 -0.0015092703930134988 0 -0.0056049390913604311 -0.0014724311308487667 0 -0.0056210815880028573 -0.0014978648893076718 0 -0.0056009144758485275 -0.0015092703930134988 0 -0.005629935560644536 -0.0015393944246638689 0 -0.0055872211511742015 -0.0015448899293425697 0 -0.0056009144758485275 -0.0015092703930134988 0 -0.0055872211511742015 -0.0015448899293425697 0 -0.0055783259956252041 -0.0015133795632027488 0 -0.0055605376085831873 -0.0015307692430522463 0 -0.0055872211511742015 -0.0015448899293425697 0 -0.0055783259956252041 -0.0015133795632027488 0 -0.0056009144758485275 -0.0015092703930134988 0 -0.0056049390913604311 -0.0014724311308487667 0 -0.0056009144758485275 -0.0015092703930134988 0 -0.0055870010601414711 -0.00148948733684708 0 -0.0055783259956252041 -0.0015133795632027488 0 -0.0055870010601414711 -0.00148948733684708 0 -0.0055627111221686343 -0.0014936729156722565 0 -0.0055783259956252041 -0.0015133795632027488 0 -0.0056009144758485275 -0.0015092703930134988 0 -0.0055870010601414711 -0.00148948733684708 0 -0.0055627111221686343 -0.0014936729156722565 0 -0.0055605376085831873 -0.0015307692430522463 0 -0.0055287575469139079 -0.0015241607014318346 0 -0.0055783259956252041 -0.0015133795632027488 0 -0.0055627111221686343 -0.0014936729156722565 0 -0.0055605376085831873 -0.0015307692430522463 0 -0.0055605376085831873 -0.0015307692430522463 0 -0.0055287575469139079 -0.0015241607014318346 0 -0.0055481037858628761 -0.0015733343275863996 0 -0.0055872211511742015 -0.0015448899293425697 0 -0.0055605376085831873 -0.0015307692430522463 0 -0.0055481037858628761 -0.0015733343275863996 0 -0.0054988647292568719 -0.0014844317552339694 0 -0.0055311958817259848 -0.0014840435231711741 0 -0.0055287575469139079 -0.0015241607014318346 0 -0.0055311958817259848 -0.0014840435231711741 0 -0.0055627111221686343 -0.0014936729156722565 0 -0.0055287575469139079 -0.0015241607014318346 0 -0.0020118483271614703 -0.00054999521117146265 0 -0.0019937129701613223 -0.00079165822208791803 0 -0.0018647226144258061 -0.00096618963370983201 0 -0.0020437395668926666 -0.00050618973577044337 0 -0.0018538413738632359 -0.00060642592470841342 0 -0.0018647226144258061 -0.00096618963370983201 0 -0.0028721090368534594 -0.00066509093244641946 0 -0.0016663891340329092 -0.00092768297928211394 0 -0.0028721090368534594 -0.00066509093244641946 0 -0.0040372483083373724 -0.0011422785549652565 0 -0.0056245204573216433 -0.0014321957006818652 0 -0.0056771068068388764 -0.0014748873944145772 0 -0.0056399196927851645 -0.001487963597037805 0 -0.005629935560644536 -0.0015393944246638689 0 -0.0056771068068388764 -0.0014748873944145772 0 -0.0056399196927851645 -0.001487963597037805 0 -0.0018538413738632359 -0.00060642592470841342 0 -0.0018647226144258061 -0.00096618963370983201 0 -0.0018198107808828344 -0.0010510243528764035 0 -0.0019937129701613223 -0.00079165822208791803 0 -0.0018647226144258061 -0.00096618963370983201 0 -0.0019787295175656546 -0.00093804997497415842 0 -0.0040372483083373724 -0.0011422785549652565 0 -0.0037158595195780977 -0.0013581088109932511 0 -0.005629935560644536 -0.0015393944246638689 0 -0.0056771068068388764 -0.0014748873944145772 0 -0.0056668280395767946 -0.0016976512290129133 0 -0.0019937129701613223 -0.00079165822208791803 0 -0.0019787295175656546 -0.00093804997497415842 0 -0.002043948117119344 -0.00085858237132954783 0 -0.0018647226144258061 -0.00096618963370983201 0 -0.0019787295175656546 -0.00093804997497415842 0 -0.001970624044183438 -0.0011431237785722093 0 -0.005629935560644536 -0.0015393944246638689 0 -0.0055882139315987771 -0.0016142339888209388 0 -0.0056668280395767946 -0.0016976512290129133 0 -0.0055027965207809417 -0.0015920542288829381 0 -0.0055481037858628761 -0.0015733343275863996 0 -0.005539095448374531 -0.0016338020191955618 0 -0.0055027965207809417 -0.0015920542288829381 0 -0.0055287575469139079 -0.0015241607014318346 0 -0.0055481037858628761 -0.0015733343275863996 0 -0.0055481037858628761 -0.0015733343275863996 0 -0.0055882139315987771 -0.0016142339888209388 0 -0.005539095448374531 -0.0016338020191955618 0 -0.005629935560644536 -0.0015393944246638689 0 -0.0055872211511742015 -0.0015448899293425697 0 -0.0055882139315987771 -0.0016142339888209388 0 -0.0055872211511742015 -0.0015448899293425697 0 -0.0055481037858628761 -0.0015733343275863996 0 -0.0055882139315987771 -0.0016142339888209388 0 -0.0055882139315987771 -0.0016142339888209388 0 -0.0055561441733893028 -0.0016925249616630319 0 -0.0056668280395767946 -0.0016976512290129133 0 -0.0054837532826660842 -0.0016767127413584858 0 -0.0055561441733893028 -0.0016925249616630319 0 -0.005539095448374531 -0.0016338020191955618 0 -0.0055882139315987771 -0.0016142339888209388 0 -0.0055561441733893028 -0.0016925249616630319 0 -0.005539095448374531 -0.0016338020191955618 0 -0.0055088465924179042 -0.001808364742972794 0 -0.0056668280395767946 -0.0016976512290129133 0 -0.0056538909797181911 -0.0019049256348960164 0 -0.0055561441733893028 -0.0016925249616630319 0 -0.0055088465924179042 -0.001808364742972794 0 -0.0056668280395767946 -0.0016976512290129133 0 -0.0054837532826660842 -0.0016767127413584858 0 -0.0055561441733893028 -0.0016925249616630319 0 -0.0055088465924179042 -0.001808364742972794 0 -0.001970624044183438 -0.0011431237785722093 0 -0.0018198107808828344 -0.0010510243528764035 0 -0.0017987587447783346 -0.0015510970869268852 0 -0.0037158595195780977 -0.0013581088109932511 0 -0.0037139333407889977 -0.0017110836093988612 0 -0.0018647226144258061 -0.00096618963370983201 0 -0.001970624044183438 -0.0011431237785722093 0 -0.0018198107808828344 -0.0010510243528764035 0 -0.001970624044183438 -0.0011431237785722093 0 -0.0021460163410531954 -0.0011494137162093884 0 -0.0020842750602229777 -0.0014016555491561105 0 -0.0021460163410531954 -0.0011494137162093884 0 -0.0023373897792794674 -0.0013584902156273443 0 -0.0020842750602229777 -0.0014016555491561105 0 -0.001970624044183438 -0.0011431237785722093 0 -0.0021460163410531954 -0.0011494137162093884 0 -0.0020630534321756547 -0.00099603741257176339 0 -0.0020630534321756547 -0.00099603741257176339 0 -0.0021938350820829467 -0.00091363603790246091 0 -0.002043948117119344 -0.00085858237132954783 0 -0.0019787295175656546 -0.00093804997497415842 0 -0.001970624044183438 -0.0011431237785722093 0 -0.0020630534321756547 -0.00099603741257176339 0 -0.0019787295175656546 -0.00093804997497415842 0 -0.0020630534321756547 -0.00099603741257176339 0 -0.002043948117119344 -0.00085858237132954783 0 -0.0021460163410531954 -0.0011494137162093884 0 -0.0020630534321756547 -0.00099603741257176339 0 -0.0021938350820829467 -0.00091363603790246091 0 -0.0021938350820829467 -0.00091363603790246091 0 -0.0021476814403528998 -0.00078190246078813899 0 -0.002290174641072255 -0.00078510767482380226 0 -0.0021938350820829467 -0.00091363603790246091 0 -0.0021476814403528998 -0.00078190246078813899 0 -0.002043948117119344 -0.00085858237132954783 0 -0.0020623665974208488 -0.00077754744294711103 0 -0.0021476814403528998 -0.00078190246078813899 0 -0.002043948117119344 -0.00085858237132954783 0 -0.0020623665974208488 -0.00077754744294711103 0 -0.0019937129701613223 -0.00079165822208791803 0 -0.002043948117119344 -0.00085858237132954783 0 -0.0021460163410531954 -0.0011494137162093884 0 -0.0021938350820829467 -0.00091363603790246091 0 -0.0024531133648374899 -0.00090282109833436847 0 -0.0021938350820829467 -0.00091363603790246091 0 -0.002290174641072255 -0.00078510767482380226 0 -0.0024531133648374899 -0.00090282109833436847 0 -0.0024013424674861976 -0.00069259531242521109 0 -0.002290174641072255 -0.00078510767482380226 0 -0.0024531133648374899 -0.00090282109833436847 0 -0.0024013424674861976 -0.00069259531242521109 0 -0.0024531133648374899 -0.00090282109833436847 0 -0.0025308432866010086 -0.00070749203475111246 0 -0.0021460163410531954 -0.0011494137162093884 0 -0.0024531133648374899 -0.00090282109833436847 0 -0.0023373897792794674 -0.0013584902156273443 0 -0.0024531133648374899 -0.00090282109833436847 0 -0.0023373897792794674 -0.0013584902156273443 0 -0.0026160502166511115 -0.0012175109180025485 0 -0.0023373897792794674 -0.0013584902156273443 0 -0.0021989186997352578 -0.0017306796758602241 0 -0.0025918925042945889 -0.0015394030723712821 0 -0.0023373897792794674 -0.0013584902156273443 0 -0.0025918925042945889 -0.0015394030723712821 0 -0.0026160502166511115 -0.0012175109180025485 0 -0.0023373897792794674 -0.0013584902156273443 0 -0.0020842750602229777 -0.0014016555491561105 0 -0.0021989186997352578 -0.0017306796758602241 0 -0.0020842750602229777 -0.0014016555491561105 0 -0.0021989186997352578 -0.0017306796758602241 0 -0.0017987587447783346 -0.0015510970869268852 0 -0.0021989186997352578 -0.0017306796758602241 0 -0.0022234272380570082 -0.0021864127727646461 0 -0.0026122702322107488 -0.0019370731382334575 0 -0.0021989186997352578 -0.0017306796758602241 0 -0.0025918925042945889 -0.0015394030723712821 0 -0.0026122702322107488 -0.0019370731382334575 0 -0.0055088465924179042 -0.001808364742972794 0 -0.0055163974611555288 -0.0019392825858659606 0 -0.0056538909797181911 -0.0019049256348960164 0 -0.001970624044183438 -0.0011431237785722093 0 -0.0020842750602229777 -0.0014016555491561105 0 -0.0017987587447783346 -0.0015510970869268852 0 -0.0037139333407889977 -0.0017110836093988612 0 -0.0038886139590955044 -0.0021683785381119121 0 -0.0021989186997352578 -0.0017306796758602241 0 -0.0017987587447783346 -0.0015510970869268852 0 -0.0018155348770314446 -0.002063488173508596 0 -0.0056538909797181911 -0.0019049256348960164 0 -0.0055421966458454172 -0.0020573120488742128 0 -0.0056432291785318911 -0.0020843473423185583 0 -0.0055163974611555288 -0.0019392825858659606 0 -0.0056538909797181911 -0.0019049256348960164 0 -0.0055421966458454172 -0.0020573120488742128 0 -0.0058122712526488454 -0.0022537194436366829 0 -0.0038886139590955044 -0.0021683785381119121 0 -0.0055501571001824491 -0.0022983688610021201 0 -0.005661568929296353 -0.0023309465967376528 0 -0.0055642246319890249 -0.0024313330793794587 0 -0.0054412590602199301 -0.0023776963737851173 0 -0.0055501571001824491 -0.0022983688610021201 0 -0.0055642246319890249 -0.0024313330793794587 0 -0.0027650180567561633 -0.0024248837897164568 0 -0.0027627417422131577 -0.0025537932516275911 0 -0.0028611223811820519 -0.002450539300039785 0 -0.005661568929296353 -0.0023309465967376528 0 -0.0056738596746530251 -0.0025245167797751321 0 -0.0055642246319890249 -0.0024313330793794587 0 -0.0038886139590955044 -0.0021683785381119121 0 -0.0042610875422856437 -0.0025866224998126745 0 -0.0055507603566134359 -0.0025712171393175946 0 -0.0054626347757026177 -0.0024918931951604722 0 -0.0055642246319890249 -0.0024313330793794587 0 -0.0055507603566134359 -0.0025712171393175946 0 -0.0056738596746530251 -0.0025245167797751321 0 -0.0055642246319890249 -0.0024313330793794587 0 -0.0022310872176197344 -0.0022736469368109268 0 -0.0028800758958761638 -0.0024093814110372935 0 -0.0022234272380570082 -0.0021864127727646461 0 -0.0026453514125964251 -0.0023247295309028874 0 -0.0026122702322107488 -0.0019370731382334575 0 -0.0021989186997352578 -0.0017306796758602241 0 -0.0018155348770314446 -0.002063488173508596 0 -0.0022234272380570082 -0.0021864127727646461 0 -0.0038886139590955044 -0.0021683785381119121 0 -0.0022310872176197344 -0.0022736469368109268 0 -0.0027627417422131577 -0.0025537932516275911 0 -0.0028611223811820519 -0.002450539300039785 0 -0.002898367585694128 -0.0025605229271139277 0 -0.0028611223811820519 -0.002450539300039785 0 -0.002898367585694128 -0.0025605229271139277 0 -0.002968482600462318 -0.0024659006953788921 0 -0.0030102569997147192 -0.0025642633592513528 0 -0.002968482600462318 -0.0024659006953788921 0 -0.0030853987051323133 -0.0024569578689834018 0 -0.0028800758958761638 -0.0024093814110372935 0 -0.0030407826500164011 -0.0024487413213864747 0 -0.0030102569997147192 -0.0025642633592513528 0 -0.002898367585694128 -0.0025605229271139277 0 -0.002968482600462318 -0.0024659006953788921 0 -0.0026453514125964251 -0.0023247295309028874 0 -0.003003177978757301 -0.002158417609694895 0 -0.0026122702322107488 -0.0019370731382334575 0 -0.003003177978757301 -0.002158417609694895 0 -0.0032134466804730082 -0.002365284068150373 0 -0.0032181145607587387 -0.0019163559417096586 0 -0.0026453514125964251 -0.0023247295309028874 0 -0.003003177978757301 -0.002158417609694895 0 -0.0030853987051323133 -0.0024569578689834018 0 -0.003003177978757301 -0.002158417609694895 0 -0.0030853987051323133 -0.0024569578689834018 0 -0.0032134466804730082 -0.002365284068150373 0 -0.0030102569997147192 -0.0025642633592513528 0 -0.0031243161790020595 -0.0025662032097069501 0 -0.0030853987051323133 -0.0024569578689834018 0 -0.0030853987051323133 -0.0024569578689834018 0 -0.0031925627949488363 -0.002474607130715371 0 -0.0032134466804730082 -0.002365284068150373 0 -0.0031243161790020595 -0.0025662032097069501 0 -0.0030853987051323133 -0.0024569578689834018 0 -0.0031925627949488363 -0.002474607130715371 0 -0.0031243161790020595 -0.0025662032097069501 0 -0.0032348228098502681 -0.0025463558346519519 0 -0.0031925627949488363 -0.002474607130715371 0 -0.0032348228098502681 -0.0025463558346519519 0 -0.0031925627949488363 -0.002474607130715371 0 -0.0032705060028922431 -0.0024206656720099379 0 -0.0031925627949488363 -0.002474607130715371 0 -0.0032705060028922431 -0.0024206656720099379 0 -0.0032134466804730082 -0.002365284068150373 0 -0.0033547146435711798 -0.0025320657201240676 0 -0.0032705060028922431 -0.0024206656720099379 0 -0.0033547114350373245 -0.0023538473248260233 0 -0.0032348228098502681 -0.0025463558346519519 0 -0.0033547146435711798 -0.0025320657201240676 0 -0.0032705060028922431 -0.0024206656720099379 0 -0.0032705060028922431 -0.0024206656720099379 0 -0.0032733017432967056 -0.0023235887747334824 0 -0.0033547114350373245 -0.0023538473248260233 0 -0.0032733017432967056 -0.0023235887747334824 0 -0.0033137713938763374 -0.0022840074155264867 0 -0.0033547114350373245 -0.0023538473248260233 0 -0.0032705060028922431 -0.0024206656720099379 0 -0.0032733017432967056 -0.0023235887747334824 0 -0.0032134466804730082 -0.002365284068150373 0 -0.0032733017432967056 -0.0023235887747334824 0 -0.0032134466804730082 -0.002365284068150373 0 -0.003209262900166147 -0.0022967540514056486 0 -0.003219887603393784 -0.0023439289611983465 0 -0.0032066757880594965 -0.0020919498764015582 0 -0.0032733017432967056 -0.0023235887747334824 0 -0.0032575930498626271 -0.0022655302618332942 0 -0.003209262900166147 -0.0022967540514056486 0 -0.0032733017432967056 -0.0023235887747334824 0 -0.0033137713938763374 -0.0022840074155264867 0 -0.0032575930498626271 -0.0022655302618332942 0 -0.0033137713938763374 -0.0022840074155264867 0 -0.0032895218776343746 -0.0022429187899065083 0 -0.0032575930498626271 -0.0022655302618332942 0 -0.0033137713938763374 -0.0022840074155264867 0 -0.0032895218776343746 -0.0022429187899065083 0 -0.003319917051064348 -0.0022430758550035924 0 -0.0032895218776343746 -0.0022429187899065083 0 -0.0032575930498626271 -0.0022655302618332942 0 -0.0032572017325878267 -0.0022225005697339823 0 -0.0032895218776343746 -0.0022429187899065083 0 -0.0032572017325878267 -0.0022225005697339823 0 -0.0032930914097079895 -0.0022067309225155922 0 -0.0032895218776343746 -0.0022429187899065083 0 -0.003319917051064348 -0.0022430758550035924 0 -0.0032930914097079895 -0.0022067309225155922 0 -0.0032575930498626271 -0.0022655302618332942 0 -0.0031927891135607117 -0.0022278566554767387 0 -0.003209262900166147 -0.0022967540514056486 0 -0.0032575930498626271 -0.0022655302618332942 0 -0.0032572017325878267 -0.0022225005697339823 0 -0.0031927891135607117 -0.0022278566554767387 0 -0.0032070065645004252 -0.001937972245605156 0 -0.0032066757880594965 -0.0020919498764015582 0 -0.0031746567197778819 -0.0014797058741197106 0 -0.0029164636152656629 -0.0017209248438064028 0 -0.0029086372462683624 -0.0012900026165297022 0 -0.0025918925042945889 -0.0015394030723712821 0 -0.0029164636152656629 -0.0017209248438064028 0 -0.0029086372462683624 -0.0012900026165297022 0 -0.003003177978757301 -0.002158417609694895 0 -0.0026122702322107488 -0.0019370731382334575 0 -0.0029164636152656629 -0.0017209248438064028 0 -0.0025918925042945889 -0.0015394030723712821 0 -0.0026122702322107488 -0.0019370731382334575 0 -0.0029164636152656629 -0.0017209248438064028 0 -0.0031746567197778819 -0.0014797058741197106 0 -0.0032181145607587387 -0.0019163559417096586 0 -0.0029164636152656629 -0.0017209248438064028 0 -0.003003177978757301 -0.002158417609694895 0 -0.0032181145607587387 -0.0019163559417096586 0 -0.0029164636152656629 -0.0017209248438064028 0 -0.0033622221375641452 -0.0023190614621457517 0 -0.003355334948651608 -0.002306802254905628 0 -0.0033673894878001359 -0.0022931700614657329 0 -0.0033622221375641452 -0.0023190614621457517 0 -0.003355334948651608 -0.002306802254905628 0 -0.0033520702460443628 -0.0023232647370943385 0 -0.0033540669134590568 -0.0023392381249996343 0 -0.0033622221375641452 -0.0023190614621457517 0 -0.0033520702460443628 -0.0023232647370943385 0 -0.0024349264975933507 -0.0025463682586103105 0 -0.0024878908740966284 -0.0024963941986995706 0 -0.0033451032719517848 -0.0023378667687015812 0 -0.0033540669134590568 -0.0023392381249996343 0 -0.0033520702460443628 -0.0023232647370943385 0 -0.003355334948651608 -0.002306802254905628 0 -0.0033520702460443628 -0.0023232647370943385 0 -0.0033524790094771177 -0.0023137192648549293 0 -0.0033451032719517848 -0.0023378667687015812 0 -0.0033520702460443628 -0.0023232647370943385 0 -0.0033524790094771177 -0.0023137192648549293 0 -0.0033451032719517848 -0.0023378667687015812 0 -0.0033524790094771177 -0.0023137192648549293 0 -0.0033547114350373245 -0.0023538473248260233 0 -0.003629433282856801 -0.0024229438886202454 0 -0.0032971538453193117 -0.0023493267268812463 0 -0.0033547146435711798 -0.0025320657201240676 0 -0.0035634928479598349 -0.0025425454693041851 0 -0.0033547114350373245 -0.0023538473248260233 0 -0.0033524790094771177 -0.0023137192648549293 0 -0.0033547114350373245 -0.0023538473248260233 0 -0.0033462410776216381 -0.0022931263296750381 0 -0.0033137713938763374 -0.0022840074155264867 0 -0.0033462410776216381 -0.0022931263296750381 0 -0.0033350153409267337 -0.0022699841382372546 0 -0.0033137713938763374 -0.0022840074155264867 0 -0.0033547114350373245 -0.0023538473248260233 0 -0.0033462410776216381 -0.0022931263296750381 0 -0.003319917051064348 -0.0022430758550035924 0 -0.0033492835437771004 -0.0022570137608739342 0 -0.0033075747600060262 -0.0022025071231783189 0 -0.0033462410776216381 -0.0022931263296750381 0 -0.0033350153409267337 -0.0022699841382372546 0 -0.0033492835437771004 -0.0022570137608739342 0 -0.0033137713938763374 -0.0022840074155264867 0 -0.003319917051064348 -0.0022430758550035924 0 -0.0033350153409267337 -0.0022699841382372546 0 -0.003319917051064348 -0.0022430758550035924 0 -0.0033350153409267337 -0.0022699841382372546 0 -0.0033492835437771004 -0.0022570137608739342 0 -0.0033545340068954583 -0.0022805694000650641 0 -0.0033492835437771004 -0.0022570137608739342 0 -0.0033508059967426074 -0.0022630213955518183 0 -0.0033462410776216381 -0.0022931263296750381 0 -0.0033545340068954583 -0.0022805694000650641 0 -0.0033492835437771004 -0.0022570137608739342 0 -0.0032135693139694957 -0.0021520508767830173 0 -0.0031646568103633008 -0.0017717636816046733 0 -0.0033524790094771177 -0.0023137192648549293 0 -0.0033462410776216381 -0.0022931263296750381 0 -0.0033545340068954583 -0.0022805694000650641 0 -0.0033524790094771177 -0.0023137192648549293 0 -0.0033545340068954583 -0.0022805694000650641 0 -0.0033562055492249109 -0.0022892809397952502 0 -0.003355334948651608 -0.002306802254905628 0 -0.0033524790094771177 -0.0023137192648549293 0 -0.0033562055492249109 -0.0022892809397952502 0 -0.0033545340068954583 -0.0022805694000650641 0 -0.0033555790042839339 -0.0022836862661511611 0 -0.0033508059967426074 -0.0022630213955518183 0 -0.0033545340068954583 -0.0022805694000650641 0 -0.0033562055492249109 -0.0022892809397952502 0 -0.0033555790042839339 -0.0022836862661511611 0 -0.0033562055492249109 -0.0022892809397952502 0 -0.0033555790042839339 -0.0022836862661511611 0 -0.0033542807050416252 -0.0022833533942110923 0 -0.0033555790042839339 -0.0022836862661511611 0 -0.0033404429750326313 -0.002281802695752044 0 -0.0033542807050416252 -0.0022833533942110923 0 -0.0033404429750326313 -0.002281802695752044 0 -0.0033542807050416252 -0.0022833533942110923 0 -0.0033268193474098717 -0.0022625038963427543 0 -0.003355334948651608 -0.002306802254905628 0 -0.0033542807050416252 -0.0022833533942110923 0 -0.0033673894878001359 -0.0022931700614657329 0 -0.0036227835285346345 -0.0023996261510164122 0 -0.0024339290807022765 -0.0019222931002855163 0 -0.003355334948651608 -0.002306802254905628 0 -0.0033562055492249109 -0.0022892809397952502 0 -0.0033542807050416252 -0.0022833533942110923 0 -0.0023006053707544847 -0.0011690079669014431 0 -0.0026073913282701577 -0.0010385380331803429 0 -0.0019791141277844841 -0.00082964080791280716 0 -0.0019845300169553217 -0.00086078815314720686 0 -0.0019470214137529516 -0.0008338885272234837 0 -0.0019791141277844841 -0.00082964080791280716 0 -0.0019470214137529516 -0.0008338885272234837 0 -0.0019659595806462986 -0.00080592999838822359 0 -0.0019791141277844841 -0.00082964080791280716 0 -0.0019659595806462986 -0.00080592999838822359 0 -0.0019907119587532916 -0.00080563354021042505 0 -0.0026073913282701577 -0.0010385380331803429 0 -0.0022514730766788091 -0.00077536802652561994 0 -0.0027553452155448643 -0.0013383136938638263 0 -0.0026457835941633106 -0.0014626441110416485 0 -0.002811568315457496 -0.0015689944936386939 0 -0.0027553452155448643 -0.0013383136938638263 0 -0.0026457835941633106 -0.0014626441110416485 0 -0.0025066339563153709 -0.0012877979635893208 0 -0.0026073913282701577 -0.0010385380331803429 0 -0.0031646568103633008 -0.0017717636816046733 0 -0.0027553452155448643 -0.0013383136938638263 0 -0.002811568315457496 -0.0015689944936386939 0 -0.0029993606427962233 -0.0013884374617148026 0 -0.0031422805104032322 -0.0018600559674921504 0 -0.0031646568103633008 -0.0017717636816046733 0 -0.0029560912067203081 -0.0012410624307487624 0 -0.0029415931368173341 -0.0012307884252104938 0 -0.0029308955392177466 -0.001275084706723964 0 -0.0025678918602002397 -0.00068720559236397534 0 -0.0025873244034868162 -0.00069896526212652704 0 -0.0025589054083254683 -0.00071439906261668831 0 -0.0026073913282701577 -0.0010385380331803429 0 -0.0027929093336143637 -0.00076916177424171488 0 -0.0027822454301249704 -0.00058721642492628556 0 -0.0027268039831790151 -0.00058642672722367323 0 -0.0027178156919548981 -0.00061510987814353637 0 -0.0027929093336143637 -0.00076916177424171488 0 -0.0028247673709507898 -0.00090332672542384315 0 -0.0029415931368173341 -0.0012307884252104938 0 -0.0029199949377792943 -0.001250058756595823 0 -0.0029308955392177466 -0.001275084706723964 0 -0.0027822454301249704 -0.00058721642492628556 0 -0.0027268039831790151 -0.00058642672722367323 0 -0.0027619565742063971 -0.00057299981105571362 0 -0.0027178156919548981 -0.00061510987814353637 0 -0.0026753472406153274 -0.00063260074177015917 0 -0.002681303038389786 -0.00060249365989344236 0 -0.0033492835437771004 -0.0022570137608739342 0 -0.0033718326957751124 -0.0022309843479312178 0 -0.0033075747600060262 -0.0022025071231783189 0 -0.0029199949377792943 -0.001250058756595823 0 -0.0029308955392177466 -0.001275084706723964 0 -0.0028978135230921338 -0.001269550802652279 0 -0.0031646568103633008 -0.0017717636816046733 0 -0.0030392171353964752 -0.0015518325640389529 0 -0.0028247673709507898 -0.00090332672542384315 0 -0.0030392171353964752 -0.0015518325640389529 0 -0.0027268039831790151 -0.00058642672722367323 0 -0.0027178156919548981 -0.00061510987814353637 0 -0.0026858549903624423 -0.00057241164936667273 0 -0.0027178156919548981 -0.00061510987814353637 0 -0.002681303038389786 -0.00060249365989344236 0 -0.0026858549903624423 -0.00057241164936667273 0 -0.002681303038389786 -0.00060249365989344236 0 -0.0026858549903624423 -0.00057241164936667273 0 -0.0026651944452925299 -0.00057338939971774447 0 -0.0026858549903624423 -0.00057241164936667273 0 -0.0026921573115715066 -0.0005477052999131271 0 -0.0026649770548599293 -0.00052932530767066562 0 -0.0026858549903624423 -0.00057241164936667273 0 -0.0026649770548599293 -0.00052932530767066562 0 -0.0026651944452925299 -0.00057338939971774447 0 -0.0027268039831790151 -0.00058642672722367323 0 -0.0026858549903624423 -0.00057241164936667273 0 -0.0026921573115715066 -0.0005477052999131271 0 -0.0026921573115715066 -0.0005477052999131271 0 -0.0026867428006351157 -0.00051619133865123655 0 -0.0026649770548599293 -0.00052932530767066562 0 -0.0026921573115715066 -0.0005477052999131271 0 -0.0026867428006351157 -0.00051619133865123655 0 -0.0027204270023033182 -0.00054913897110103001 0 -0.0026649770548599293 -0.00052932530767066562 0 -0.0026675716256931731 -0.0004719160704650766 0 -0.0026422225578914527 -0.00047801588699371549 0 -0.0026675716256931731 -0.0004719160704650766 0 -0.0026422225578914527 -0.00047801588699371549 0 -0.0026310972165622367 -0.0004101483195874188 0 -0.0026675716256931731 -0.0004719160704650766 0 -0.0027031130194869134 -0.00040394383393196957 0 -0.0026310972165622367 -0.0004101483195874188 0 -0.0026867428006351157 -0.00051619133865123655 0 -0.0026675716256931731 -0.0004719160704650766 0 -0.0027115616153606369 -0.0004976195863239908 0 -0.0026867428006351157 -0.00051619133865123655 0 -0.0026649770548599293 -0.00052932530767066562 0 -0.0026675716256931731 -0.0004719160704650766 0 -0.0026675716256931731 -0.0004719160704650766 0 -0.0027115616153606369 -0.0004976195863239908 0 -0.0027150577111063508 -0.00045303913238197455 0 -0.0027115616153606369 -0.0004976195863239908 0 -0.0027150577111063508 -0.00045303913238197455 0 -0.0027513913028186909 -0.00050372114935400925 0 -0.0026675716256931731 -0.0004719160704650766 0 -0.0027150577111063508 -0.00045303913238197455 0 -0.0027031130194869134 -0.00040394383393196957 0 -0.0027150577111063508 -0.00045303913238197455 0 -0.0027634149803034635 -0.00036796061929101416 0 -0.0027031130194869134 -0.00040394383393196957 0 -0.0027150577111063508 -0.00045303913238197455 0 -0.0028024754647320003 -0.00043935436054549898 0 -0.0027634149803034635 -0.00036796061929101416 0 -0.0027513913028186909 -0.00050372114935400925 0 -0.0028034888476332932 -0.00052540496360275384 0 -0.0028024754647320003 -0.00043935436054549898 0 -0.0027150577111063508 -0.00045303913238197455 0 -0.0027513913028186909 -0.00050372114935400925 0 -0.0028024754647320003 -0.00043935436054549898 0 -0.0027513913028186909 -0.00050372114935400925 0 -0.0027540538100137998 -0.00054026659067833412 0 -0.0028034888476332932 -0.00052540496360275384 0 -0.0027115616153606369 -0.0004976195863239908 0 -0.0027513913028186909 -0.00050372114935400925 0 -0.0027204270023033182 -0.00054913897110103001 0 -0.0027513913028186909 -0.00050372114935400925 0 -0.0027540538100137998 -0.00054026659067833412 0 -0.0027204270023033182 -0.00054913897110103001 0 -0.0026867428006351157 -0.00051619133865123655 0 -0.0027115616153606369 -0.0004976195863239908 0 -0.0027204270023033182 -0.00054913897110103001 0 -0.0027268039831790151 -0.00058642672722367323 0 -0.0027204270023033182 -0.00054913897110103001 0 -0.0027619565742063971 -0.00057299981105571362 0 -0.0027540538100137998 -0.00054026659067833412 0 -0.0027204270023033182 -0.00054913897110103001 0 -0.0027619565742063971 -0.00057299981105571362 0 -0.0027268039831790151 -0.00058642672722367323 0 -0.0026921573115715066 -0.0005477052999131271 0 -0.0027204270023033182 -0.00054913897110103001 0 -0.0028046158934841143 -0.00060393288262472217 0 -0.0027619565742063971 -0.00057299981105571362 0 -0.0028034888476332932 -0.00052540496360275384 0 -0.0027540538100137998 -0.00054026659067833412 0 -0.0027619565742063971 -0.00057299981105571362 0 -0.0028034888476332932 -0.00052540496360275384 0 -0.0027929093336143637 -0.00076916177424171488 0 -0.0027359153013537707 -0.0006626818866044044 0 -0.0028046158934841143 -0.00060393288262472217 0 -0.0028034888476332932 -0.00052540496360275384 0 -0.0029089590694726351 -0.00054238490559309382 0 -0.0027929093336143637 -0.00076916177424171488 0 -0.0027484030865896586 -0.00062115248036692878 0 -0.0028034888476332932 -0.00052540496360275384 0 -0.0028634305563096413 -0.00047260933806620044 0 -0.0029089590694726351 -0.00054238490559309382 0 -0.0028034888476332932 -0.00052540496360275384 0 -0.0028024754647320003 -0.00043935436054549898 0 -0.0028634305563096413 -0.00047260933806620044 0 -0.0028024754647320003 -0.00043935436054549898 0 -0.0028888128728658041 -0.00039503358325457673 0 -0.0028634305563096413 -0.00047260933806620044 0 -0.0028024754647320003 -0.00043935436054549898 0 -0.0028888128728658041 -0.00039503358325457673 0 -0.0028453034940246497 -0.00033405848719825958 0 -0.0028888128728658041 -0.00039503358325457673 0 -0.0028634305563096413 -0.00047260933806620044 0 -0.0029294333843529535 -0.00045283547835401787 0 -0.0028634305563096413 -0.00047260933806620044 0 -0.0029294333843529535 -0.00045283547835401787 0 -0.0029089590694726351 -0.00054238490559309382 0 -0.0026571537139562429 -0.00010693040897995892 0 -0.0024785201107670506 -0.00034635897100279884 0 -0.0029294333843529535 -0.00045283547835401787 0 -0.0029690744871966137 -0.00034631657560533997 0 -0.0030141605634452606 -0.00047159184375069289 0 -0.0029294333843529535 -0.00045283547835401787 0 -0.0029089590694726351 -0.00054238490559309382 0 -0.0030141605634452606 -0.00047159184375069289 0 -0.0028888128728658041 -0.00039503358325457673 0 -0.0029294333843529535 -0.00045283547835401787 0 -0.0029690744871966137 -0.00034631657560533997 0 -0.0025589054083254683 -0.00071439906261668831 0 -0.0025474595003331692 -0.00070433153132532292 0 -0.0025278879199121416 -0.00071968450054801802 0 -0.0025589054083254683 -0.00071439906261668831 0 -0.0025278879199121416 -0.00071968450054801802 0 -0.0025315233202529847 -0.00072763148113095329 0 -0.0025678918602002397 -0.00068720559236397534 0 -0.0025589054083254683 -0.00071439906261668831 0 -0.0025474595003331692 -0.00070433153132532292 0 -0.0027484030865896586 -0.00062115248036692878 0 -0.0024785201107670506 -0.00034635897100279884 0 -0.0022514730766788091 -0.00077536802652561994 0 -0.0021853308555246681 -0.00055769370118137517 0 -0.0019659595806462986 -0.00080592999838822359 0 -0.0019907119587532916 -0.00080563354021042505 0 -0.0019883655120473309 -0.00076808645465687808 0 -0.0026078182400758251 -0.00076998402551285662 0 -0.0027203761093395197 -0.00090008661039024239 0 -0.0026498828857439774 -0.00062513686344746878 0 -0.0028320391924487663 -0.0011738295539459678 0 -0.0026221375134039414 -0.00047019437033321738 0 -0.0026440669093211683 -0.00060022235252284856 0 -0.0026415142180605498 -0.00060421058462377809 0 -0.0026498828857439774 -0.00062513686344746878 0 -0.0026078182400758251 -0.00076998402551285662 0 -0.0025564990384142386 -0.00086571594163977958 0 -0.0027203761093395197 -0.00090008661039024239 0 -0.0026783466412212791 -0.0009354770927897675 0 -0.0028320391924487663 -0.0011738295539459678 0 -0.0024531133648374899 -0.00090282109833436847 0 -0.0025564990384142386 -0.00086571594163977958 0 -0.0025308432866010086 -0.00070749203475111246 0 -0.0026078182400758251 -0.00076998402551285662 0 -0.0025564990384142386 -0.00086571594163977958 0 -0.0025308432866010086 -0.00070749203475111246 0 -0.0024793411387604631 -0.00089848402103709412 0 -0.0026783466412212791 -0.0009354770927897675 0 -0.0028027802157591162 -0.00097397054966268223 0 -0.0026160502166511115 -0.0012175109180025485 0 -0.0029086372462683624 -0.0012900026165297022 0 -0.0024531133648374899 -0.00090282109833436847 0 -0.0028027802157591162 -0.00097397054966268223 0 -0.0026160502166511115 -0.0012175109180025485 0 -0.0025918925042945889 -0.0015394030723712821 0 -0.0026160502166511115 -0.0012175109180025485 0 -0.0029086372462683624 -0.0012900026165297022 0 -0.0031746567197778819 -0.0014797058741197106 0 -0.0029086372462683624 -0.0012900026165297022 0 -0.0031236980202376157 -0.001042948826177652 0 -0.0032070065645004252 -0.001937972245605156 0 -0.0028320391924487663 -0.0011738295539459678 0 -0.0028027802157591162 -0.00097397054966268223 0 -0.0029086372462683624 -0.0012900026165297022 0 -0.0031236980202376157 -0.001042948826177652 0 -0.0032572017325878267 -0.0022225005697339823 0 -0.0031927891135607117 -0.0022278566554767387 0 -0.0032486889477736287 -0.0021657086951238158 0 -0.0026440669093211683 -0.00060022235252284856 0 -0.0026458039161114566 -0.00061450059789012893 0 -0.0026422677316939661 -0.00060231714524387487 0 -0.0031927891135607117 -0.0022278566554767387 0 -0.0031757458145181302 -0.0021421584396592759 0 -0.0032486889477736287 -0.0021657086951238158 0 -0.0028320391924487663 -0.0011738295539459678 0 -0.0029557710054151976 -0.0013927678649108561 0 -0.0026753472406153274 -0.00063260074177015917 0 -0.0026458039161114566 -0.00061450059789012893 0 -0.0026604322660091512 -0.00060206617890631246 0 -0.0033170969631708515 -0.0021884405118022068 0 -0.0032486889477736287 -0.0021657086951238158 0 -0.0032930914097079895 -0.0022067309225155922 0 -0.0030392171353964752 -0.0015518325640389529 0 -0.0029557710054151976 -0.0013927678649108561 0 -0.003319917051064348 -0.0022430758550035924 0 -0.0033075747600060262 -0.0022025071231783189 0 -0.0032930914097079895 -0.0022067309225155922 0 -0.0030392171353964752 -0.0015518325640389529 0 -0.003085619179860308 -0.0018612802418425266 0 -0.0032572017325878267 -0.0022225005697339823 0 -0.0032486889477736287 -0.0021657086951238158 0 -0.0032930914097079895 -0.0022067309225155922 0 -0.0026753472406153274 -0.00063260074177015917 0 -0.002681303038389786 -0.00060249365989344236 0 -0.0026604322660091512 -0.00060206617890631246 0 -0.0026458039161114566 -0.00061450059789012893 0 -0.0026604322660091512 -0.00060206617890631246 0 -0.0026481411020009482 -0.00059842534412608991 0 -0.0026604322660091512 -0.00060206617890631246 0 -0.0026521213728775213 -0.00057854132205704446 0 -0.0026481411020009482 -0.00059842534412608991 0 -0.002681303038389786 -0.00060249365989344236 0 -0.0026604322660091512 -0.00060206617890631246 0 -0.0026651944452925299 -0.00057338939971774447 0 -0.0026604322660091512 -0.00060206617890631246 0 -0.0026521213728775213 -0.00057854132205704446 0 -0.0026651944452925299 -0.00057338939971774447 0 -0.0026440669093211683 -0.00060022235252284856 0 -0.0026422677316939661 -0.00060231714524387487 0 -0.0026415142180605498 -0.00060421058462377809 0 -0.0026458039161114566 -0.00061450059789012893 0 -0.0026422677316939661 -0.00060231714524387487 0 -0.0026481411020009482 -0.00059842534412608991 0 -0.0026521213728775213 -0.00057854132205704446 0 -0.0026481411020009482 -0.00059842534412608991 0 -0.0026449219478075496 -0.00058854310172320112 0 -0.0026422677316939661 -0.00060231714524387487 0 -0.0026481411020009482 -0.00059842534412608991 0 -0.0026449219478075496 -0.00058854310172320112 0 -0.0026422677316939661 -0.00060231714524387487 0 -0.0026449219478075496 -0.00058854310172320112 0 -0.0026415142180605498 -0.00060421058462377809 0 -0.0026449219478075496 -0.00058854310172320112 0 -0.0026415142180605498 -0.00060421058462377809 0 -0.0026462320267159356 -0.00057131409449194255 0 -0.0026449219478075496 -0.00058854310172320112 0 -0.0026472063557435714 -0.00055656788617744555 0 -0.0026462320267159356 -0.00057131409449194255 0 -0.0026521213728775213 -0.00057854132205704446 0 -0.0026449219478075496 -0.00058854310172320112 0 -0.0026472063557435714 -0.00055656788617744555 0 -0.0026472063557435714 -0.00055656788617744555 0 -0.0026462320267159356 -0.00057131409449194255 0 -0.0026450025652392985 -0.00052644861325403653 0 -0.0026521213728775213 -0.00057854132205704446 0 -0.0026651944452925299 -0.00057338939971774447 0 -0.0026539450473279272 -0.0005497906413703187 0 -0.0026649770548599293 -0.00052932530767066562 0 -0.0026651944452925299 -0.00057338939971774447 0 -0.0026539450473279272 -0.0005497906413703187 0 -0.0026521213728775213 -0.00057854132205704446 0 -0.0026472063557435714 -0.00055656788617744555 0 -0.0026539450473279272 -0.0005497906413703187 0 -0.0026472063557435714 -0.00055656788617744555 0 -0.0026539450473279272 -0.0005497906413703187 0 -0.0026468771253927736 -0.00052044750593673267 0 -0.0026649770548599293 -0.00052932530767066562 0 -0.0026539450473279272 -0.0005497906413703187 0 -0.0026468771253927736 -0.00052044750593673267 0 -0.0026649770548599293 -0.00052932530767066562 0 -0.0026468771253927736 -0.00052044750593673267 0 -0.0026422225578914527 -0.00047801588699371549 0 -0.0026472063557435714 -0.00055656788617744555 0 -0.0026468771253927736 -0.00052044750593673267 0 -0.0026450025652392985 -0.00052644861325403653 0 -0.0026468771253927736 -0.00052044750593673267 0 -0.0026453865183561883 -0.00050042210941897989 0 -0.0026450025652392985 -0.00052644861325403653 0 -0.0026468771253927736 -0.00052044750593673267 0 -0.0026453865183561883 -0.00050042210941897989 0 -0.0026422225578914527 -0.00047801588699371549 0 -0.0026453865183561883 -0.00050042210941897989 0 -0.0026450025652392985 -0.00052644861325403653 0 -0.0026379183788833938 -0.00051071459327180462 0 -0.0026462320267159356 -0.00057131409449194255 0 -0.0026409906357787445 -0.00053145608818705589 0 -0.0026397295255892691 -0.00055074083555346374 0 -0.0026462320267159356 -0.00057131409449194255 0 -0.0026409906357787445 -0.00053145608818705589 0 -0.0026450025652392985 -0.00052644861325403653 0 -0.0026409906357787445 -0.00053145608818705589 0 -0.0026450025652392985 -0.00052644861325403653 0 -0.0026379183788833938 -0.00051071459327180462 0 -0.0026409906357787445 -0.00053145608818705589 0 -0.0026257147755605849 -0.00051543430415231493 0 -0.0026379183788833938 -0.00051071459327180462 0 -0.0026467618428392915 -0.0005470186060706968 0 -0.0025395153691115217 -0.00049178683157503412 0 -0.0026409906357787445 -0.00053145608818705589 0 -0.0026257147755605849 -0.00051543430415231493 0 -0.0026397295255892691 -0.00055074083555346374 0 -0.0026257147755605849 -0.00051543430415231493 0 -0.0026397295255892691 -0.00055074083555346374 0 -0.0026062294059287523 -0.00052758832250557623 0 -0.0026397295255892691 -0.00055074083555346374 0 -0.0025817685317002623 -0.00058703224307550626 0 -0.0025554385198999245 -0.00048774524577853792 0 -0.0026078182400758251 -0.00076998402551285662 0 -0.0026498828857439774 -0.00062513686344746878 0 -0.0025308432866010086 -0.00070749203475111246 0 -0.0026462320267159356 -0.00057131409449194255 0 -0.0026397295255892691 -0.00055074083555346374 0 -0.0026498828857439774 -0.00062513686344746878 0 -0.0026397295255892691 -0.00055074083555346374 0 -0.0026498828857439774 -0.00062513686344746878 0 -0.0025817685317002623 -0.00058703224307550626 0 -0.0026415142180605498 -0.00060421058462377809 0 -0.0026462320267159356 -0.00057131409449194255 0 -0.0026498828857439774 -0.00062513686344746878 0 -0.0026498828857439774 -0.00062513686344746878 0 -0.0025308432866010086 -0.00070749203475111246 0 -0.0025817685317002623 -0.00058703224307550626 0 -0.0024013424674861976 -0.00069259531242521109 0 -0.0025308432866010086 -0.00070749203475111246 0 -0.0024932066617218865 -0.00059666913750089563 0 -0.0025308432866010086 -0.00070749203475111246 0 -0.0025817685317002623 -0.00058703224307550626 0 -0.0024932066617218865 -0.00059666913750089563 0 -0.0023827312712109971 -0.00053130720477573485 0 -0.0024932066617218865 -0.00059666913750089563 0 -0.0025554385198999245 -0.00048774524577853792 0 -0.002810774476649072 -0.00027708358412016182 0 -0.0025395153691115217 -0.00049178683157503412 0 -0.002586662109390772 -0.00051493169209955816 0 -0.0026062294059287523 -0.00052758832250557623 0 -0.0026065799829963657 -0.00050332077749889233 0 -0.0025817685317002623 -0.00058703224307550626 0 -0.0024932066617218865 -0.00059666913750089563 0 -0.0025554385198999245 -0.00048774524577853792 0 -0.0026257147755605849 -0.00051543430415231493 0 -0.0026062294059287523 -0.00052758832250557623 0 -0.0026065799829963657 -0.00050332077749889233 0 -0.002810774476649072 -0.00027708358412016182 0 -0.0028834111867902463 -0.00017096984279215218 0 -0.0030920596260477127 0.00011331631806319911 0 -0.0031160338571333936 2.2385156727149362e-05 0 -0.0029804175372306293 5.4843506004335698e-05 0 -0.0031977203469531553 0.0001695111107847286 0 -0.0030920596260477127 0.00011331631806319911 0 -0.0031160338571333936 2.2385156727149362e-05 0 -0.0037628137369025367 0.00053829094976831236 0 -0.0024344906477339902 0.00015489973113010899 0 -0.0037628137369025367 0.00053829094976831236 0 -0.0035937868224171386 0.00075206111702653109 0 -0.0028907747647045016 0.0011290938665871519 0 -0.0027432825850655733 0.0011682751582780986 0 -0.0027115998557850052 0.00098279715868258843 0 -0.0026257147755605849 -0.00051543430415231493 0 -0.0026273053648904294 -0.00049295134885673217 0 -0.0026379183788833938 -0.00051071459327180462 0 -0.0026257147755605849 -0.00051543430415231493 0 -0.0026065799829963657 -0.00050332077749889233 0 -0.0026273053648904294 -0.00049295134885673217 0 -0.0028834111867902463 -0.00017096984279215218 0 -0.0024344906477339902 0.00015489973113010899 0 -0.0026453865183561883 -0.00050042210941897989 0 -0.0026379183788833938 -0.00051071459327180462 0 -0.0026445438283600208 -0.00049825041139725502 0 -0.0026273053648904294 -0.00049295134885673217 0 -0.0026379183788833938 -0.00051071459327180462 0 -0.0026445438283600208 -0.00049825041139725502 0 -0.0024344906477339902 0.00015489973113010899 0 -0.0023061366680389361 -0.0004161337040527097 0 -0.0023061366680389361 -0.0004161337040527097 0 -0.0026416878218525055 -0.00040515641258441427 0 -0.0026422225578914527 -0.00047801588699371549 0 -0.0026445438283600208 -0.00049825041139725502 0 -0.0026310972165622367 -0.0004101483195874188 0 -0.0020707721878288395 -0.0002436100154656589 0 -0.0024923786501163101 -0.00021081887015910253 0 -0.0024081420696834238 -4.3857779174211212e-05 0 -0.0026453865183561883 -0.00050042210941897989 0 -0.0026422225578914527 -0.00047801588699371549 0 -0.0026445438283600208 -0.00049825041139725502 0 -0.0022070304335892071 2.3725354102128252e-05 0 -0.0020363328096078951 0.00014832747527691184 0 -0.0023546691880684859 0.00014431701976668138 0 -0.0020707721878288395 -0.0002436100154656589 0 -0.0022070304335892071 2.3725354102128252e-05 0 -0.0024081420696834238 -4.3857779174211212e-05 0 -0.0020707721878288395 -0.0002436100154656589 0 -0.0022070304335892071 2.3725354102128252e-05 0 -0.0020363328096078951 0.00014832747527691184 0 -0.0022070304335892071 2.3725354102128252e-05 0 -0.0024081420696834238 -4.3857779174211212e-05 0 -0.0023546691880684859 0.00014431701976668138 0 -0.0024344906477339902 0.00015489973113010899 0 -0.002261052912282849 0.0006561676899374284 0 -0.0016022452283301445 -0.0001091899516980191 0 -0.0020707721878288395 -0.0002436100154656589 0 -0.0020363328096078951 0.00014832747527691184 0 -0.0027432825850655733 0.0011682751582780986 0 -0.002557224553372026 0.0010759041525186018 0 -0.0027115998557850052 0.00098279715868258843 0 -0.002557224553372026 0.0010759041525186018 0 -0.0025299826563145895 0.00096314300870742635 0 -0.0027115998557850052 0.00098279715868258843 0 -0.002557224553372026 0.0010759041525186018 0 -0.0025299826563145895 0.00096314300870742635 0 -0.0023713943169213956 0.0009827593132892519 0 -0.0020363328096078951 0.00014832747527691184 0 -0.0023546691880684859 0.00014431701976668138 0 -0.0024874102233948064 0.00043738265470605705 0 -0.002261052912282849 0.0006561676899374284 0 -0.0024378420982397527 0.00070641914764447034 0 -0.0025299826563145895 0.00096314300870742635 0 -0.0025394403703270186 0.00085184292273537954 0 -0.0023527038934506731 0.00086611568590973297 0 -0.0025191199262221122 0.00095847213510491221 0 -0.0023492043163001845 0.00085275561677860927 0 -0.0025299826563145895 0.00096314300870742635 0 -0.0025394403703270186 0.00085184292273537954 0 -0.0027115998557850052 0.00098279715868258843 0 -0.0033431636840055654 0.00048728615186665811 0 -0.0035937868224171386 0.00075206111702653109 0 -0.0041729955987991167 0.00014515144069868015 0 -0.0044304609662809882 0.00038824179604156741 0 -0.0045675723907045579 9.8816697484319924e-06 0 -0.0047077261950873271 0.00028265768673148761 0 -0.0044304609662809882 0.00038824179604156741 0 -0.0045675723907045579 9.8816697484319924e-06 0 -0.0046938211421386255 0.00064112099298316771 0 -0.0047077261950873271 0.00028265768673148761 0 -0.0048703429254362855 0.00043071377636114117 0 -0.0046938211421386255 0.00064112099298316771 0 -0.0047077261950873271 0.00028265768673148761 0 -0.0044304609662809882 0.00038824179604156741 0 -0.0023230257392428642 0.0003961375894949166 0 -0.0023195944320024849 0.00039709405314569863 0 -0.0023171315619723888 0.00039778084630280342 0 -0.0023230257392428642 0.0003961375894949166 0 -0.0023148259045154261 0.00039796089667768397 0 -0.0023171315619723888 0.00039778084630280342 0 -0.002741025175932491 0.00036683442139098164 0 -0.0026571537139562429 -0.00010693040897995892 0 -0.0029128091289173336 -0.00019297688624770375 0 -0.0029696721874138046 -0.0003434767149459649 0 -0.0029272754705156612 -0.00031060418448202733 0 -0.0028888128728658041 -0.00039503358325457673 0 -0.0029690744871966137 -0.00034631657560533997 0 -0.0029272754705156612 -0.00031060418448202733 0 -0.0026571537139562429 -0.00010693040897995892 0 -0.0029202111694515915 -0.000305078097157095 0 -0.0029272754705156612 -0.00031060418448202733 0 -0.0028739060145777416 -0.0002707128186147637 0 -0.0028453034940246497 -0.00033405848719825958 0 -0.0028888128728658041 -0.00039503358325457673 0 -0.0029272754705156612 -0.00031060418448202733 0 -0.0028453034940246497 -0.00033405848719825958 0 -0.0028024754647320003 -0.00043935436054549898 0 -0.0028453034940246497 -0.00033405848719825958 0 -0.0027634149803034635 -0.00036796061929101416 0 -0.0028453034940246497 -0.00033405848719825958 0 -0.0028083661271543756 -0.0002471076378145671 0 -0.0027634149803034635 -0.00036796061929101416 0 -0.0028739060145777416 -0.0002707128186147637 0 -0.0028453034940246497 -0.00033405848719825958 0 -0.0028083661271543756 -0.0002471076378145671 0 -0.0029128091289173336 -0.00019297688624770375 0 -0.0029272754705156612 -0.00031060418448202733 0 -0.0028739060145777416 -0.0002707128186147637 0 -0.0032809200717829104 0.00011432205409736074 0 -0.002977837310987181 -6.0973330536970435e-05 0 -0.0029330519857515987 0.00022174689972386555 0 -0.002741025175932491 0.00036683442139098164 0 -0.0029059419969693335 -0.00014810840760608949 0 -0.0029128091289173336 -0.00019297688624770375 0 -0.0028739060145777416 -0.0002707128186147637 0 -0.0028083661271543756 -0.0002471076378145671 0 -0.0029330519857515987 0.00022174689972386555 0 -0.002781676981126655 -2.9159655565081122e-05 0 -0.0026332609113876066 0.00015234479869474752 0 -0.002781676981126655 -2.9159655565081122e-05 0 -0.0026172473779223905 -8.6364080337850361e-05 0 -0.0026332609113876066 0.00015234479869474752 0 -0.002977837310987181 -6.0973330536970435e-05 0 -0.0029330519857515987 0.00022174689972386555 0 -0.002781676981126655 -2.9159655565081122e-05 0 -0.002977837310987181 -6.0973330536970435e-05 0 -0.002781676981126655 -2.9159655565081122e-05 0 -0.0026936288238619331 -0.00027770800659749191 0 -0.0029059419969693335 -0.00014810840760608949 0 -0.0027025646920384484 -0.00026634199454350161 0 -0.0028083661271543756 -0.0002471076378145671 0 -0.0027634149803034635 -0.00036796061929101416 0 -0.0026936288238619331 -0.00027770800659749191 0 -0.0027634149803034635 -0.00036796061929101416 0 -0.0027031130194869134 -0.00040394383393196957 0 -0.0026936288238619331 -0.00027770800659749191 0 -0.002781676981126655 -2.9159655565081122e-05 0 -0.0026936288238619331 -0.00027770800659749191 0 -0.0026172473779223905 -8.6364080337850361e-05 0 -0.0026936288238619331 -0.00027770800659749191 0 -0.0024923786501163101 -0.00021081887015910253 0 -0.0026172473779223905 -8.6364080337850361e-05 0 -0.0026936288238619331 -0.00027770800659749191 0 -0.0026310972165622367 -0.0004101483195874188 0 -0.0024923786501163101 -0.00021081887015910253 0 -0.0020707721878288395 -0.0002436100154656589 0 -0.0026310972165622367 -0.0004101483195874188 0 -0.0024923786501163101 -0.00021081887015910253 0 -0.0027031130194869134 -0.00040394383393196957 0 -0.0026936288238619331 -0.00027770800659749191 0 -0.0026310972165622367 -0.0004101483195874188 0 -0.0024923786501163101 -0.00021081887015910253 0 -0.0024081420696834238 -4.3857779174211212e-05 0 -0.0026172473779223905 -8.6364080337850361e-05 0 -0.0024081420696834238 -4.3857779174211212e-05 0 -0.0026172473779223905 -8.6364080337850361e-05 0 -0.0026332609113876066 0.00015234479869474752 0 -0.0024081420696834238 -4.3857779174211212e-05 0 -0.0026332609113876066 0.00015234479869474752 0 -0.0023546691880684859 0.00014431701976668138 0 -0.0026332609113876066 0.00015234479869474752 0 -0.0024874102233948064 0.00043738265470605705 0 -0.0027925689128063219 0.00041113061878049554 0 -0.0026332609113876066 0.00015234479869474752 0 -0.0023546691880684859 0.00014431701976668138 0 -0.0024874102233948064 0.00043738265470605705 0 -0.0025299826563145895 0.00096314300870742635 0 -0.0023713943169213956 0.0009827593132892519 0 -0.0023427288501763105 0.00083697082876351867 0 -0.0023713943169213956 0.0009827593132892519 0 -0.0023427288501763105 0.00083697082876351867 0 -0.0021903595804304262 0.00088084024715425987 0 -0.0024378420982397527 0.00070641914764447034 0 -0.0025496004573547907 0.0008006582022205052 0 -0.0024874102233948064 0.00043738265470605705 0 -0.0029286005038329228 0.00072450736090382353 0 -0.0027925689128063219 0.00041113061878049554 0 -0.0029286005038329228 0.00072450736090382353 0 -0.0027925689128063219 0.00041113061878049554 0 -0.0029328612789145283 0.00054502786489484738 0 -0.0029330519857515987 0.00022174689972386555 0 -0.0026332609113876066 0.00015234479869474752 0 -0.0027925689128063219 0.00041113061878049554 0 -0.0029330519857515987 0.00022174689972386555 0 -0.0027925689128063219 0.00041113061878049554 0 -0.0029328612789145283 0.00054502786489484738 0 -0.0032809200717829104 0.00011432205409736074 0 -0.0029330519857515987 0.00022174689972386555 0 -0.003144933702181215 0.00043055530215536475 0 -0.0029330519857515987 0.00022174689972386555 0 -0.003144933702181215 0.00043055530215536475 0 -0.0029328612789145283 0.00054502786489484738 0 -0.002741025175932491 0.00036683442139098164 0 -0.0029246928289063767 0.00073139655509280033 0 -0.003144933702181215 0.00043055530215536475 0 -0.0029328612789145283 0.00054502786489484738 0 -0.0028806120259903321 0.00073557297246505009 0 -0.0029286005038329228 0.00072450736090382353 0 -0.0029328612789145283 0.00054502786489484738 0 -0.0028806120259903321 0.00073557297246505009 0 -0.0027625174729051646 0.0010034413446854979 0 -0.0028806120259903321 0.00073557297246505009 0 -0.0025403647792733648 0.00083225941274444291 0 -0.0029246928289063767 0.00073139655509280033 0 -0.0029109002939624855 0.00071821721521996072 0 -0.0025496004573547907 0.0008006582022205052 0 -0.0023029078630315588 0.00070693049350977312 0 -0.0029286005038329228 0.00072450736090382353 0 -0.0028806120259903321 0.00073557297246505009 0 -0.0025519717760436223 0.00061987746298251866 0 -0.0028806120259903321 0.00073557297246505009 0 -0.0025403647792733648 0.00083225941274444291 0 -0.0025519717760436223 0.00061987746298251866 0 -0.0025403647792733648 0.00083225941274444291 0 -0.0025519717760436223 0.00061987746298251866 0 -0.0022686873165986624 0.00076510233565187883 0 -0.0026711671526879486 0.0012179905219076958 0 -0.0027625174729051646 0.0010034413446854979 0 -0.0023116648450065198 0.0010349214290219051 0 -0.002741025175932491 0.00036683442139098164 0 -0.0023277898672712104 0.00077411121906721138 0 -0.0027625174729051646 0.0010034413446854979 0 -0.0025403647792733648 0.00083225941274444291 0 -0.0023116648450065198 0.0010349214290219051 0 -0.0020384515609662185 0.00078401306587056342 0 -0.0021636540236605515 0.00073025980251594349 0 -0.0020172181159473649 0.0006629781223398114 0 -0.0020384515609662185 0.00078401306587056342 0 -0.0020172181159473649 0.0006629781223398114 0 -0.0019318774255360268 0.00069685402166607758 0 -0.0021903595804304262 0.00088084024715425987 0 -0.0020384515609662185 0.00078401306587056342 0 -0.0021636540236605515 0.00073025980251594349 0 -0.0021625890594578982 0.00076063189722455518 0 -0.002143114665929223 0.0006604969645610853 0 -0.0020172181159473649 0.0006629781223398114 0 -0.0021623487541374657 0.00074500685201530606 0 -0.0020266505319099766 0.00066610227276824344 0 -0.0031854241929750705 0.00030784403194188012 0 -0.0026854619578413441 0.00027185996430296116 0 -0.002143114665929223 0.0006604969645610853 0 -0.0023700549334756535 0.00072411833138360734 0 -0.0021939735919985553 0.00059138299758526049 0 -0.0021625890594578982 0.00076063189722455518 0 -0.002143114665929223 0.0006604969645610853 0 -0.0023700549334756535 0.00072411833138360734 0 -0.0023527038934506731 0.00086611568590973297 0 -0.0021625890594578982 0.00076063189722455518 0 -0.0023700549334756535 0.00072411833138360734 0 -0.0023492043163001845 0.00085275561677860927 0 -0.0021623487541374657 0.00074500685201530606 0 -0.0023427288501763105 0.00083697082876351867 0 -0.0021903595804304262 0.00088084024715425987 0 -0.0021636540236605515 0.00073025980251594349 0 -0.0025394403703270186 0.00085184292273537954 0 -0.0023527038934506731 0.00086611568590973297 0 -0.0023700549334756535 0.00072411833138360734 0 -0.0039180886558727738 -8.5651009886594646e-05 0 -0.0039629431905998111 -0.00034225541893511188 0 -0.0041250088473943798 -0.00018562212674460641 0 -0.0039180886558727738 -8.5651009886594646e-05 0 -0.0039629431905998111 -0.00034225541893511188 0 -0.0036558305289860669 -0.0003179238573436136 0 -0.0039629431905998111 -0.00034225541893511188 0 -0.0038338839568845158 -0.00055326866957794104 0 -0.0040504377362575519 -0.00053839669785849366 0 -0.0027153341605950475 0.00047265562632346222 0 -0.0026889484612904716 0.00050579287876128685 0 -0.0026584353127880327 0.00048366692195578635 0 -0.00335807875003614 -0.0001010259870464622 0 -0.0026854619578413441 0.00027185996430296116 0 -0.0039629431905998111 -0.00034225541893511188 0 -0.0038338839568845158 -0.00055326866957794104 0 -0.0036558305289860669 -0.0003179238573436136 0 -0.0026854619578413441 0.00027185996430296116 0 -0.0023773117845245105 0.00055188418313765987 0 -0.002143114665929223 0.0006604969645610853 0 -0.0020708941562029414 0.00057754692688863677 0 -0.0020172181159473649 0.0006629781223398114 0 -0.002143114665929223 0.0006604969645610853 0 -0.0021636148153809792 0.00062843371877768664 0 -0.0020708941562029414 0.00057754692688863677 0 -0.002178095382888321 0.00074558559278288452 0 -0.0026854619578413441 0.00027185996430296116 0 -0.0020708941562029414 0.00057754692688863677 0 -0.0019843383210766323 0.00061955752028934456 0 -0.0019845898680308067 0.00051193366518739888 0 -0.0023773117845245105 0.00055188418313765987 0 -0.0020263975277967751 0.0006357565543030966 0 -0.0020708941562029414 0.00057754692688863677 0 -0.0019843383210766323 0.00061955752028934456 0 -0.0020172181159473649 0.0006629781223398114 0 -0.0045675723907045579 9.8816697484319924e-06 0 -0.0043511982281731953 -0.00015588868743631775 0 -0.0046023484493397625 -0.00031815604722582703 0 -0.004785554164629619 -0.00019727264757438563 0 -0.0045675723907045579 9.8816697484319924e-06 0 -0.0046023484493397625 -0.00031815604722582703 0 -0.004785554164629619 -0.00019727264757438563 0 -0.0045675723907045579 9.8816697484319924e-06 0 -0.0049532802453269367 -5.9973934952959769e-05 0 -0.0047077261950873271 0.00028265768673148761 0 -0.0045675723907045579 9.8816697484319924e-06 0 -0.0049532802453269367 -5.9973934952959769e-05 0 -0.0041729955987991167 0.00014515144069868015 0 -0.0045675723907045579 9.8816697484319924e-06 0 -0.0043511982281731953 -0.00015588868743631775 0 -0.0033431636840055654 0.00048728615186665811 0 -0.0031854241929750705 0.00030784403194188012 0 -0.0041729955987991167 0.00014515144069868015 0 -0.0039180886558727738 -8.5651009886594646e-05 0 -0.0041250088473943798 -0.00018562212674460641 0 -0.0041729955987991167 0.00014515144069868015 0 -0.0041250088473943798 -0.00018562212674460641 0 -0.0043511982281731953 -0.00015588868743631775 0 -0.0043511982281731953 -0.00015588868743631775 0 -0.0041985556950940228 -0.0003910156443794692 0 -0.0044229609008348382 -0.00045945662300848488 0 -0.0041250088473943798 -0.00018562212674460641 0 -0.0043511982281731953 -0.00015588868743631775 0 -0.0041985556950940228 -0.0003910156443794692 0 -0.0039629431905998111 -0.00034225541893511188 0 -0.0041250088473943798 -0.00018562212674460641 0 -0.0041985556950940228 -0.0003910156443794692 0 -0.0039629431905998111 -0.00034225541893511188 0 -0.0041985556950940228 -0.0003910156443794692 0 -0.0040504377362575519 -0.00053839669785849366 0 -0.0041985556950940228 -0.0003910156443794692 0 -0.0040504377362575519 -0.00053839669785849366 0 -0.004245935351672993 -0.00062234664961958975 0 -0.0041985556950940228 -0.0003910156443794692 0 -0.0044229609008348382 -0.00045945662300848488 0 -0.004245935351672993 -0.00062234664961958975 0 -0.0044229609008348382 -0.00045945662300848488 0 -0.0044504952592726498 -0.00069915764329451645 0 -0.004245935351672993 -0.00062234664961958975 0 -0.0044229609008348382 -0.00045945662300848488 0 -0.0046760866457928292 -0.00056098679283389822 0 -0.0044504952592726498 -0.00069915764329451645 0 -0.0044229609008348382 -0.00045945662300848488 0 -0.0046023484493397625 -0.00031815604722582703 0 -0.0046760866457928292 -0.00056098679283389822 0 -0.0043511982281731953 -0.00015588868743631775 0 -0.0044229609008348382 -0.00045945662300848488 0 -0.0046023484493397625 -0.00031815604722582703 0 -0.004785554164629619 -0.00019727264757438563 0 -0.0046023484493397625 -0.00031815604722582703 0 -0.0048160341918878843 -0.00039335034474670774 0 -0.0046023484493397625 -0.00031815604722582703 0 -0.0046760866457928292 -0.00056098679283389822 0 -0.0048160341918878843 -0.00039335034474670774 0 -0.0046760866457928292 -0.00056098679283389822 0 -0.0049420246310326807 -0.00055904160967328552 0 -0.0048160341918878843 -0.00039335034474670774 0 -0.0054610079374182059 6.5632876175485732e-05 0 -0.0053790782629064508 4.6254981741244385e-05 0 -0.0054145528127384854 0.00013982994493712955 0 -0.0054610079374182059 6.5632876175485732e-05 0 -0.0053709600777269249 -4.7748366480412312e-05 0 -0.0053790782629064508 4.6254981741244385e-05 0 -0.0052227601616974253 -0.00034252576938049371 0 -0.005237540608676994 -0.0001450034749106275 0 -0.0049420246310326807 -0.00055904160967328552 0 -0.0051041572856321514 -0.00029483613094703596 0 -0.0048160341918878843 -0.00039335034474670774 0 -0.004785554164629619 -0.00019727264757438563 0 -0.0051041572856321514 -0.00029483613094703596 0 -0.0048160341918878843 -0.00039335034474670774 0 -0.004785554164629619 -0.00019727264757438563 0 -0.0051041572856321514 -0.00029483613094703596 0 -0.0049532802453269367 -5.9973934952959769e-05 0 -0.0051041572856321514 -0.00029483613094703596 0 -0.0049532802453269367 -5.9973934952959769e-05 0 -0.0052464636786382088 -6.9686405209405428e-05 0 -0.0049532802453269367 -5.9973934952959769e-05 0 -0.0052464636786382088 -6.9686405209405428e-05 0 -0.005153694603206368 7.9746145254543577e-06 0 -0.004957104828255593 -6.6871229162882007e-05 0 -0.0050534914171791881 0.00018208467069599904 0 -0.0052464636786382088 -6.9686405209405428e-05 0 -0.0052859488925446931 -6.6534674497956522e-05 0 -0.0052628223212090285 1.2388124263729368e-06 0 -0.0053709600777269249 -4.7748366480412312e-05 0 -0.0052464636786382088 -6.9686405209405428e-05 0 -0.0052960697329422829 -6.4999434628477745e-05 0 -0.005237540608676994 -0.0001450034749106275 0 -0.0052518824756731287 -7.9898417927531557e-05 0 -0.0052960697329422829 -6.4999434628477745e-05 0 -0.0052846020472735924 -8.6177766483039241e-05 0 -0.0052859488925446931 -6.6534674497956522e-05 0 -0.0052464636786382088 -6.9686405209405428e-05 0 -0.0052960697329422829 -6.4999434628477745e-05 0 -0.0052859488925446931 -6.6534674497956522e-05 0 -0.0052960697329422829 -6.4999434628477745e-05 0 -0.0053398243250806473 -1.1945275782216867e-05 0 -0.0053186975337351731 1.8099367529161365e-05 0 -0.0052960697329422829 -6.4999434628477745e-05 0 -0.0053186975337351731 1.8099367529161365e-05 0 -0.0052919101259831878 -5.8769435089774294e-05 0 -0.0053709600777269249 -4.7748366480412312e-05 0 -0.0053398243250806473 -1.1945275782216867e-05 0 -0.0053790782629064508 4.6254981741244385e-05 0 -0.0053709600777269249 -4.7748366480412312e-05 0 -0.0052960697329422829 -6.4999434628477745e-05 0 -0.0053398243250806473 -1.1945275782216867e-05 0 -0.0053398243250806473 -1.1945275782216867e-05 0 -0.0053790782629064508 4.6254981741244385e-05 0 -0.0053186975337351731 1.8099367529161365e-05 0 -0.0053790782629064508 4.6254981741244385e-05 0 -0.0053186975337351731 1.8099367529161365e-05 0 -0.0053388288481838317 0.00014734864692038323 0 -0.0053186975337351731 1.8099367529161365e-05 0 -0.0052700914222836336 -9.5671623010286585e-06 0 -0.0053012124213121566 7.8626302043856779e-05 0 -0.0053186975337351731 1.8099367529161365e-05 0 -0.0052700914222836336 -9.5671623010286585e-06 0 -0.0052919101259831878 -5.8769435089774294e-05 0 -0.0052700914222836336 -9.5671623010286585e-06 0 -0.0051571986659637841 -7.7041608472733499e-05 0 -0.0052167659346618461 9.4764638749361363e-05 0 -0.0052700914222836336 -9.5671623010286585e-06 0 -0.0052822060559105152 -0.0001279424421163147 0 -0.0052066784787581271 -0.00016085163147956893 0 -0.0052700914222836336 -9.5671623010286585e-06 0 -0.0051571986659637841 -7.7041608472733499e-05 0 -0.0052066784787581271 -0.00016085163147956893 0 -0.0052822060559105152 -0.0001279424421163147 0 -0.0052919101259831878 -5.8769435089774294e-05 0 -0.0052846020472735924 -8.6177766483039241e-05 0 -0.0052700914222836336 -9.5671623010286585e-06 0 -0.0052822060559105152 -0.0001279424421163147 0 -0.0052919101259831878 -5.8769435089774294e-05 0 -0.0052960697329422829 -6.4999434628477745e-05 0 -0.0052919101259831878 -5.8769435089774294e-05 0 -0.0052846020472735924 -8.6177766483039241e-05 0 -0.0051571986659637841 -7.7041608472733499e-05 0 -0.0049999755251066815 -0.00027614852861232344 0 -0.0049999630385449507 2.1810622223644065e-05 0 -0.0051571986659637841 -7.7041608472733499e-05 0 -0.0052066784787581271 -0.00016085163147956893 0 -0.0051265160835235937 -0.0002465198923202548 0 -0.0051571986659637841 -7.7041608472733499e-05 0 -0.0051265160835235937 -0.0002465198923202548 0 -0.0049999755251066815 -0.00027614852861232344 0 -0.0051265160835235937 -0.0002465198923202548 0 -0.0049999755251066815 -0.00027614852861232344 0 -0.0050882312551787561 -0.00041974442010343077 0 -0.0049999755251066815 -0.00027614852861232344 0 -0.0050882312551787561 -0.00041974442010343077 0 -0.0049999642482850756 -0.00057424003192104909 0 -0.0052822060559105152 -0.0001279424421163147 0 -0.0052066784787581271 -0.00016085163147956893 0 -0.0051717434281642917 -0.0003190526182053096 0 -0.0052822060559105152 -0.0001279424421163147 0 -0.0051717434281642917 -0.0003190526182053096 0 -0.0051862919164254806 -0.00040850304042029591 0 -0.0050882312551787561 -0.00041974442010343077 0 -0.0051717434281642917 -0.0003190526182053096 0 -0.0051983440187167692 -0.00045003882988905596 0 -0.0052098714590380372 -0.00035731287348528181 0 -0.0052448751859097472 -0.00029622843869113528 0 -0.0052066784787581271 -0.00016085163147956893 0 -0.0051265160835235937 -0.0002465198923202548 0 -0.0051717434281642917 -0.0003190526182053096 0 -0.0051265160835235937 -0.0002465198923202548 0 -0.0050882312551787561 -0.00041974442010343077 0 -0.0051717434281642917 -0.0003190526182053096 0 -0.0053323202372158327 -7.2083062123779625e-05 0 -0.0053337412632517948 -8.5581752628197564e-05 0 -0.0052926155744000541 -7.2898045720347598e-05 0 -0.0052866782145323645 -0.00028056595991623345 0 -0.0051295087612765917 -0.000486578871516711 0 -0.0052272417646013359 -0.00054810196575226316 0 -0.0051442146177675735 -0.00055617377670307098 0 -0.0051471703535353767 -0.00070573542466911658 0 -0.0052596077009073464 -0.00037879895162606963 0 -0.0052530090689246675 -0.00030869440598306713 0 -0.0051718229916010603 -0.00038695354955989514 0 -0.0050882312551787561 -0.00041974442010343077 0 -0.0051983440187167692 -0.00045003882988905596 0 -0.0051257793463270057 -0.00053574076433793294 0 -0.0052448751859097472 -0.00029622843869113528 0 -0.0051295087612765917 -0.000486578871516711 0 -0.0052866782145323645 -0.00028056595991623345 0 -0.0052448751859097472 -0.00029622843869113528 0 -0.0050882312551787561 -0.00041974442010343077 0 -0.0051257793463270057 -0.00053574076433793294 0 -0.0049999642482850756 -0.00057424003192104909 0 -0.0051295087612765917 -0.000486578871516711 0 -0.0050000379848185103 -0.00057428085915376174 0 -0.0051433803887263128 -0.00056096108880618507 0 -0.00499999977809777 -0.00057430701869169709 0 -0.0049999999151921258 -0.00069995482371498145 0 -0.0052822060559105152 -0.0001279424421163147 0 -0.0053337412632517948 -8.5581752628197564e-05 0 -0.0052926155744000541 -7.2898045720347598e-05 0 -0.0052903403879299505 -0.00012696980650697885 0 -0.0052448751859097472 -0.00029622843869113528 0 -0.0052822060559105152 -0.0001279424421163147 0 -0.0052846020472735924 -8.6177766483039241e-05 0 -0.0052926155744000541 -7.2898045720347598e-05 0 -0.0053181714958521033 -4.5855591805664858e-05 0 -0.0053076728692557492 -5.0850546226098216e-05 0 -0.0053102196617811426 -3.7439118841329185e-05 0 -0.0052866782145323645 -0.00028056595991623345 0 -0.0053100544792659063 -5.43476148378534e-05 0 -0.0052846020472735924 -8.6177766483039241e-05 0 -0.0052926155744000541 -7.2898045720347598e-05 0 -0.0052859488925446931 -6.6534674497956522e-05 0 -0.0053076728692557492 -5.0850546226098216e-05 0 -0.0052859488925446931 -6.6534674497956522e-05 0 -0.0053017859739480479 -2.9505572228259144e-05 0 -0.0053100544792659063 -5.43476148378534e-05 0 -0.0052816309836055111 -6.6364840789547851e-05 0 -0.0052859488925446931 -6.6534674497956522e-05 0 -0.005286697480344345 -2.0563436674256182e-05 0 -0.0053017859739480479 -2.9505572228259144e-05 0 -0.005286697480344345 -2.0563436674256182e-05 0 -0.0053017859739480479 -2.9505572228259144e-05 0 -0.0052947160951811977 -1.6731510420166473e-05 0 -0.0053017859739480479 -2.9505572228259144e-05 0 -0.0053065617774469545 -3.0365881614383861e-05 0 -0.0053029395409520457 -2.4971049186890074e-05 0 -0.0053076728692557492 -5.0850546226098216e-05 0 -0.0053017859739480479 -2.9505572228259144e-05 0 -0.0053102196617811426 -3.7439118841329185e-05 0 -0.0053102196617811426 -3.7439118841329185e-05 0 -0.0053065617774469545 -3.0365881614383861e-05 0 -0.0053083846528379948 -3.067427469556363e-05 0 -0.0053017859739480479 -2.9505572228259144e-05 0 -0.0053102196617811426 -3.7439118841329185e-05 0 -0.0053065617774469545 -3.0365881614383861e-05 0 -0.0053065617774469545 -3.0365881614383861e-05 0 -0.0053029395409520457 -2.4971049186890074e-05 0 -0.0053066497564859035 -2.9875669561409224e-05 0 -0.0053065617774469545 -3.0365881614383861e-05 0 -0.0053066497564859035 -2.9875669561409224e-05 0 -0.0053083846528379948 -3.067427469556363e-05 0 -0.0053029395409520457 -2.4971049186890074e-05 0 -0.0053066497564859035 -2.9875669561409224e-05 0 -0.0053059727366300217 -2.9660627990222704e-05 0 -0.0053029395409520457 -2.4971049186890074e-05 0 -0.0053059727366300217 -2.9660627990222704e-05 0 -0.0053071193796265593 -3.1871022113438949e-05 0 -0.0053066497564859035 -2.9875669561409224e-05 0 -0.0053059727366300217 -2.9660627990222704e-05 0 -0.0053071193796265593 -3.1871022113438949e-05 0 -0.0053017859739480479 -2.9505572228259144e-05 0 -0.0053029395409520457 -2.4971049186890074e-05 0 -0.0052947160951811977 -1.6731510420166473e-05 0 -0.0053292949067932187 0.00010013597922983194 0 -0.0053242830381246137 6.3807455985409866e-05 0 -0.005375977462269527 0.00010496761159250994 0 -0.0053257514202250181 4.699526689676768e-05 0 -0.0053410427379875589 -0.00022122636035472624 0 -0.0053029395409520457 -2.4971049186890074e-05 0 -0.0052947160951811977 -1.6731510420166473e-05 0 -0.0053071193796265593 -3.1871022113438949e-05 0 -0.0053292949067932187 0.00010013597922983194 0 -0.0053242830381246137 6.3807455985409866e-05 0 -0.0052851708255635017 8.8374832799829902e-05 0 -0.0051295087612765917 -0.000486578871516711 0 -0.0050000123575699258 -0.00069995616150034679 0 -0.0051442146177675735 -0.00055617377670307098 0 -0.005000003251646166 -0.00069993985771892194 0 -0.0051471703535353767 -0.00070573542466911658 0 -0.0052272417646013359 -0.00054810196575226316 0 -0.0051471703535353767 -0.00070573542466911658 0 -0.0052504814065706005 -0.0008095925781980626 0 -0.0052866782145323645 -0.00028056595991623345 0 -0.0052852507436865681 -0.00036760875264386955 0 -0.0053181714958521033 -4.5855591805664858e-05 0 -0.0053102196617811426 -3.7439118841329185e-05 0 -0.0053083846528379948 -3.067427469556363e-05 0 -0.0053066497564859035 -2.9875669561409224e-05 0 -0.0053083846528379948 -3.067427469556363e-05 0 -0.0053011694862017322 -4.4057585475053796e-05 0 -0.005000003251646166 -0.00069993985771892194 0 -0.0051471703535353767 -0.00070573542466911658 0 -0.0049999917582001265 -0.00098982381382086131 0 -0.0051471703535353767 -0.00070573542466911658 0 -0.0052504814065706005 -0.0008095925781980626 0 -0.0049999917582001265 -0.00098982381382086131 0 -0.0049999917582001265 -0.00098982381382086131 0 -0.0051540653760083766 -0.0010235103111732643 0 -0.0051213544566342728 -0.0011965661122730949 0 -0.0052504814065706005 -0.0008095925781980626 0 -0.0049999917582001265 -0.00098982381382086131 0 -0.0051540653760083766 -0.0010235103111732643 0 -0.0052504814065706005 -0.0008095925781980626 0 -0.0051540653760083766 -0.0010235103111732643 0 -0.0052771164693825364 -0.0010738121945041829 0 -0.0051540653760083766 -0.0010235103111732643 0 -0.0052771164693825364 -0.0010738121945041829 0 -0.0051213544566342728 -0.0011965661122730949 0 -0.0052852507436865681 -0.00036760875264386955 0 -0.0052060612451855469 -0.00083337701487657117 0 -0.0052060612451855469 -0.00083337701487657117 0 -0.0052356485093698092 -0.0011445284636934544 0 -0.0052189733742506982 -0.0012885242987210159 0 -0.005239700257399435 -0.0011844201000455086 0 -0.0053080424815269023 -0.0012497209919369991 0 -0.0052189733742506982 -0.0012885242987210159 0 -0.005239700257399435 -0.0011844201000455086 0 -0.0051213544566342728 -0.0011965661122730949 0 -0.0052060612451855469 -0.00083337701487657117 0 -0.0051059571248313037 -0.0012223704953765963 0 -0.0052340712530426475 -0.0011240787902889371 0 -0.005239700257399435 -0.0011844201000455086 0 -0.0051213544566342728 -0.0011965661122730949 0 -0.0049999910523142801 -0.0012797072555528566 0 -0.0049999917582001265 -0.00098982381382086131 0 -0.0051213544566342728 -0.0011965661122730949 0 -0.0053292949067932187 0.00010013597922983194 0 -0.0053067607319538836 0.00013204726148707639 0 -0.005375977462269527 0.00010496761159250994 0 -0.0054796969285321011 -0.00051199412567955692 0 -0.0053410427379875589 -0.00022122636035472624 0 -0.005411659707344251 -0.001139913708911494 0 -0.0055111670229797969 -0.001090256653341189 0 -0.0053534600015699542 -0.0010241058051616543 0 -0.0053292949067932187 0.00010013597922983194 0 -0.0053067607319538836 0.00013204726148707639 0 -0.0052851708255635017 8.8374832799829902e-05 0 -0.0053066497564859035 -2.9875669561409224e-05 0 -0.0053011694862017322 -4.4057585475053796e-05 0 -0.0053071193796265593 -3.1871022113438949e-05 0 -0.0052060612451855469 -0.00083337701487657117 0 -0.0053410427379875589 -0.00022122636035472624 0 -0.0052326903280379587 -0.0011210869912338776 0 -0.0053534600015699542 -0.0010241058051616543 0 -0.005325570564973907 -0.0011497963479222091 0 -0.005411659707344251 -0.001139913708911494 0 -0.0053534600015699542 -0.0010241058051616543 0 -0.005325570564973907 -0.0011497963479222091 0 -0.005411659707344251 -0.001139913708911494 0 -0.005325570564973907 -0.0011497963479222091 0 -0.0053886853897895217 -0.001228746901899061 0 -0.005239700257399435 -0.0011844201000455086 0 -0.005325570564973907 -0.0011497963479222091 0 -0.0053080424815269023 -0.0012497209919369991 0 -0.0052326903280379587 -0.0011210869912338776 0 -0.005239700257399435 -0.0011844201000455086 0 -0.005325570564973907 -0.0011497963479222091 0 -0.0053711658156090627 -0.0013275733565849496 0 -0.0053080424815269023 -0.0012497209919369991 0 -0.0053886853897895217 -0.001228746901899061 0 -0.005325570564973907 -0.0011497963479222091 0 -0.0053080424815269023 -0.0012497209919369991 0 -0.0053886853897895217 -0.001228746901899061 0 -0.0054465699223220495 -0.0013045801753958758 0 -0.0053886853897895217 -0.001228746901899061 0 -0.0054801508528589194 -0.0012080087453843278 0 -0.005411659707344251 -0.001139913708911494 0 -0.0053886853897895217 -0.001228746901899061 0 -0.0054801508528589194 -0.0012080087453843278 0 -0.005411659707344251 -0.001139913708911494 0 -0.0055111670229797969 -0.001090256653341189 0 -0.0054801508528589194 -0.0012080087453843278 0 -0.0054465699223220495 -0.0013045801753958758 0 -0.0055356632784556532 -0.001299712849764149 0 -0.0054801508528589194 -0.0012080087453843278 0 -0.0056768290340916613 -0.0013129564742495135 0 -0.0055759997175475274 -0.0012087722086101716 0 -0.0056710671799431308 -0.0011547158726939635 0 -0.0055111670229797969 -0.001090256653341189 0 -0.0055759997175475274 -0.0012087722086101716 0 -0.0056710671799431308 -0.0011547158726939635 0 -0.0056768290340916613 -0.0013129564742495135 0 -0.0055356632784556532 -0.001299712849764149 0 -0.0055759997175475274 -0.0012087722086101716 0 -0.0055356632784556532 -0.001299712849764149 0 -0.0054801508528589194 -0.0012080087453843278 0 -0.0055759997175475274 -0.0012087722086101716 0 -0.0055111670229797969 -0.001090256653341189 0 -0.0054801508528589194 -0.0012080087453843278 0 -0.0055759997175475274 -0.0012087722086101716 0 -0.0054796969285321011 -0.00051199412567955692 0 -0.0051215252799563507 -0.00051804572879672931 0 -0.0053067607319538836 0.00013204726148707639 0 -0.0052647406558365478 0.00011741314719734354 0 -0.005229595460658946 0.00015821595671666481 0 -0.0053067607319538836 0.00013204726148707639 0 -0.0052647406558365478 0.00011741314719734354 0 -0.0052851708255635017 8.8374832799829902e-05 0 -0.0049178011946310867 0.00021641971663755025 0 -0.0052414632209906165 0.00010163165738362899 0 -0.0051841876547607958 0.00013895547063634016 0 -0.0051344145657660403 0.00010510812705903859 0 -0.0052147945592694103 8.9538256336176917e-05 0 -0.0052647406558365478 0.00011741314719734354 0 -0.005229695379643756 0.00012662755658083226 0 -0.0052147945592694103 8.9538256336176917e-05 0 -0.005229695379643756 0.00012662755658083226 0 -0.0051841876547607958 0.00013895547063634016 0 -0.0052147945592694103 8.9538256336176917e-05 0 -0.0052647406558365478 0.00011741314719734354 0 -0.005229695379643756 0.00012662755658083226 0 -0.005229595460658946 0.00015821595671666481 0 -0.005229695379643756 0.00012662755658083226 0 -0.0051841876547607958 0.00013895547063634016 0 -0.005225928470682783 0.00016324359642005869 0 -0.0051663103365844803 0.00014678767484118031 0 -0.0051215252799563507 -0.00051804572879672931 0 -0.0051841876547607958 0.00013895547063634016 0 -0.005225928470682783 0.00016324359642005869 0 -0.0051523981948837184 0.00019080545421628316 0 -0.0049703489905506019 -0.0011206615652484635 0 -0.0051215252799563507 -0.00051804572879672931 0 -0.0042406816963970976 -0.00077205105426464665 0 -0.0042418745232417369 -0.0006047744460996418 0 -0.0043806491551963743 -0.00066055893284876004 0 -0.0051215252799563507 -0.00051804572879672931 0 -0.004367731271257524 -0.00014288236057731344 0 -0.004367731271257524 -0.00014288236057731344 0 -0.0035121936213024355 -9.0935160468844426e-05 0 -0.0042587955226144327 0.00022161053314473207 0 -0.0041229822452254717 0.00027515897276838327 0 -0.0041426636831060713 0.00016139631391521366 0 -0.0037628137369025367 0.00053829094976831236 0 -0.0035121936213024355 -9.0935160468844426e-05 0 -0.0039502147645840832 0.00011547637882904629 0 -0.0041229822452254717 0.00027515897276838327 0 -0.0041426636831060713 0.00016139631391521366 0 -0.0031977203469531553 0.0001695111107847286 0 -0.0031160338571333936 2.2385156727149362e-05 0 -0.003252189812120609 0.00014796596856284078 0 -0.002810774476649072 -0.00027708358412016182 0 -0.0035121936213024355 -9.0935160468844426e-05 0 -0.0046938211421386255 0.00064112099298316771 0 -0.0050704486642206411 0.00054659781493319776 0 -0.0048703429254362855 0.00043071377636114117 0 -0.0037628137369025367 0.00053829094976831236 0 -0.0049178011946310867 0.00021641971663755025 0 -0.0039502147645840832 0.00011547637882904629 0 -0.0041426636831060713 0.00016139631391521366 0 -0.0042207213658433584 4.5349230551824874e-05 0 -0.004367731271257524 -0.00014288236057731344 0 -0.0049178011946310867 0.00021641971663755025 0 -0.0051841876547607958 0.00013895547063634016 0 -0.0051523981948837184 0.00019080545421628316 0 -0.0051344145657660403 0.00010510812705903859 0 -0.0042587955226144327 0.00022161053314473207 0 -0.0041426636831060713 0.00016139631391521366 0 -0.0042207213658433584 4.5349230551824874e-05 0 -0.0051052003458054778 0.00016131430869633544 0 -0.0051332161562893698 0.00010204069977902462 0 -0.0050639453930543983 5.7188333437073296e-05 0 -0.0050704486642206411 0.00054659781493319776 0 -0.0048703429254362855 0.00043071377636114117 0 -0.0050110411104768333 0.00025010580605522721 0 -0.0051332161562893698 0.00010204069977902462 0 -0.0050639453930543983 5.7188333437073296e-05 0 -0.0051683224533540517 5.3264637320471927e-05 0 -0.0051052003458054778 0.00016131430869633544 0 -0.0051332161562893698 0.00010204069977902462 0 -0.0051943628797881426 0.00013357192436054178 0 -0.0049178011946310867 0.00021641971663755025 0 -0.0050534914171791881 0.00018208467069599904 0 -0.0047077261950873271 0.00028265768673148761 0 -0.0048703429254362855 0.00043071377636114117 0 -0.0050110411104768333 0.00025010580605522721 0 -0.0047077261950873271 0.00028265768673148761 0 -0.0049532802453269367 -5.9973934952959769e-05 0 -0.0050110411104768333 0.00025010580605522721 0 -0.0050639453930543983 5.7188333437073296e-05 0 -0.005153694603206368 7.9746145254543577e-06 0 -0.0051683224533540517 5.3264637320471927e-05 0 -0.0049532802453269367 -5.9973934952959769e-05 0 -0.0050639453930543983 5.7188333437073296e-05 0 -0.005153694603206368 7.9746145254543577e-06 0 -0.0051683224533540517 5.3264637320471927e-05 0 -0.0052628223212090285 1.2388124263729368e-06 0 -0.0052278783300581085 6.9610587141009835e-05 0 -0.0052464636786382088 -6.9686405209405428e-05 0 -0.005153694603206368 7.9746145254543577e-06 0 -0.0052628223212090285 1.2388124263729368e-06 0 -0.005153694603206368 7.9746145254543577e-06 0 -0.0051683224533540517 5.3264637320471927e-05 0 -0.0052628223212090285 1.2388124263729368e-06 0 -0.0052859488925446931 -6.6534674497956522e-05 0 -0.005286697480344345 -2.0563436674256182e-05 0 -0.0052628223212090285 1.2388124263729368e-06 0 -0.005286697480344345 -2.0563436674256182e-05 0 -0.0052947160951811977 -1.6731510420166473e-05 0 -0.0052628223212090285 1.2388124263729368e-06 0 -0.0053257514202250181 4.699526689676768e-05 0 -0.0052576476842375059 -7.5541629526438432e-06 0 -0.0052851708255635017 8.8374832799829902e-05 0 -0.0051943628797881426 0.00013357192436054178 0 -0.0052278783300581085 6.9610587141009835e-05 0 -0.0052605830073252976 9.5514016691624964e-05 0 -0.0052414632209906165 0.00010163165738362899 0 -0.0052647406558365478 0.00011741314719734354 0 -0.0052851708255635017 8.8374832799829902e-05 0 -0.0052147945592694103 8.9538256336176917e-05 0 -0.0052628223212090285 1.2388124263729368e-06 0 -0.0052851708255635017 8.8374832799829902e-05 0 -0.0052278783300581085 6.9610587141009835e-05 0 -0.0053242830381246137 6.3807455985409866e-05 0 -0.0052628223212090285 1.2388124263729368e-06 0 -0.0052851708255635017 8.8374832799829902e-05 0 -0.0051683224533540517 5.3264637320471927e-05 0 -0.0051943628797881426 0.00013357192436054178 0 -0.0052278783300581085 6.9610587141009835e-05 0 -0.0051332161562893698 0.00010204069977902462 0 -0.0051683224533540517 5.3264637320471927e-05 0 -0.0051943628797881426 0.00013357192436054178 0 -0.0016703605577340322 0.00045079657390675035 0 -0.0016021354318812185 0.0003406891976673485 0 -0.001708661824025328 0.00027830436095591376 0 -0.0016703605577340322 0.00045079657390675035 0 -0.0018157913019657326 0.00036651884026766922 0 -0.001708661824025328 0.00027830436095591376 0 -0.0016703605577340322 0.00045079657390675035 0 -0.0018157913019657326 0.00036651884026766922 0 -0.0018262735351820185 0.00051688211532611018 0 -0.0016703605577340322 0.00045079657390675035 0 -0.0018262735351820185 0.00051688211532611018 0 -0.0017125330722602625 0.00056412418284992438 0 -0.0018262735351820185 0.00051688211532611018 0 -0.0017125330722602625 0.00056412418284992438 0 -0.0018313154586574024 0.00062993428918091019 0 -0.0016703605577340322 0.00045079657390675035 0 -0.0017125330722602625 0.00056412418284992438 0 -0.0015838540162669583 0.00060686908198972177 0 -0.0015345676393860442 0.00053267439721672687 0 -0.0015838540162669583 0.00060686908198972177 0 -0.0015374581947924218 0.00062716254440684763 0 -0.0016703605577340322 0.00045079657390675035 0 -0.0015345676393860442 0.00053267439721672687 0 -0.0015838540162669583 0.00060686908198972177 0 -0.0015345676393860442 0.00053267439721672687 0 -0.0015374581947924218 0.00062716254440684763 0 -0.0014841827682908846 0.00060662807718925998 0 -0.0015345676393860442 0.00053267439721672687 0 -0.0014846322402038141 0.00041286108298583846 0 -0.0014841827682908846 0.00060662807718925998 0 -0.0015723664594214798 0.0003632548925310253 0 -0.0015390504678785709 0.00058279772807476738 0 -0.0016576200271702275 0.00031204476415533486 0 -0.0014887359046852067 0.00031764998216199478 0 -0.0015870908020415408 0.0005659958139631327 0 -0.0016703605577340322 0.00045079657390675035 0 -0.0015345676393860442 0.00053267439721672687 0 -0.0016021354318812185 0.0003406891976673485 0 -0.0015345676393860442 0.00053267439721672687 0 -0.0014846322402038141 0.00041286108298583846 0 -0.0016021354318812185 0.0003406891976673485 0 -0.0015723664594214798 0.0003632548925310253 0 -0.0016430219088159888 0.00013266930649607426 0 -0.0014846322402038141 0.00041286108298583846 0 -0.0016021354318812185 0.0003406891976673485 0 -0.001573706203152157 0.0001698842334376015 0 -0.0016576200271702275 0.00031204476415533486 0 -0.0015383115284887568 0.00012969728759442957 0 -0.0017088294708961374 9.2452729108144562e-05 0 -0.0016576200271702275 0.00031204476415533486 0 -0.0015383115284887568 0.00012969728759442957 0 -0.0014887359046852067 0.00031764998216199478 0 -0.0015383115284887568 0.00012969728759442957 0 -0.0017088294708961374 9.2452729108144562e-05 0 -0.001580025298900045 1.4564284592638394e-05 0 -0.0015383115284887568 0.00012969728759442957 0 -0.0014818954413631138 -7.8373824167297217e-06 0 -0.001580025298900045 1.4564284592638394e-05 0 -0.001573706203152157 0.0001698842334376015 0 -0.0017439124179683132 0.00015056639494540411 0 -0.0017623944144381019 4.1732046378754664e-05 0 -0.001573706203152157 0.0001698842334376015 0 -0.001708661824025328 0.00027830436095591376 0 -0.0017439124179683132 0.00015056639494540411 0 -0.0016021354318812185 0.0003406891976673485 0 -0.001573706203152157 0.0001698842334376015 0 -0.001708661824025328 0.00027830436095591376 0 -0.0018157913019657326 0.00036651884026766922 0 -0.001708661824025328 0.00027830436095591376 0 -0.0018230177700006725 0.00019202214358395527 0 -0.001708661824025328 0.00027830436095591376 0 -0.0018230177700006725 0.00019202214358395527 0 -0.0017439124179683132 0.00015056639494540411 0 -0.0018230177700006725 0.00019202214358395527 0 -0.0017439124179683132 0.00015056639494540411 0 -0.001822923876353905 8.3689182896926761e-05 0 -0.0018230177700006725 0.00019202214358395527 0 -0.001822923876353905 8.3689182896926761e-05 0 -0.001795918134226562 8.2886498858257605e-05 0 -0.0017439124179683132 0.00015056639494540411 0 -0.001822923876353905 8.3689182896926761e-05 0 -0.0017623944144381019 4.1732046378754664e-05 0 -0.0018230177700006725 0.00019202214358395527 0 -0.0019136614491638449 0.00025330642383363986 0 -0.001795918134226562 8.2886498858257605e-05 0 -0.001678534639098541 -5.6627315548437659e-06 0 -0.0016893243775985261 -0.00014895859248262392 0 -0.001795918134226562 8.2886498858257605e-05 0 -0.001678534639098541 -5.6627315548437659e-06 0 -0.001795918134226562 8.2886498858257605e-05 0 -0.0017120781996902033 8.3410215582114866e-05 0 -0.0019494457614885469 0.00012658494746606758 0 -0.0017624682661188898 4.8217172011205995e-05 0 -0.001678534639098541 -5.6627315548437659e-06 0 -0.0015682137156915791 -9.4556144104985873e-05 0 -0.0016893243775985261 -0.00014895859248262392 0 -0.001678534639098541 -5.6627315548437659e-06 0 -0.0017120781996902033 8.3410215582114866e-05 0 -0.0016443823581846653 8.565312545964479e-05 0 -0.001678534639098541 -5.6627315548437659e-06 0 -0.0015682137156915791 -9.4556144104985873e-05 0 -0.0016443823581846653 8.565312545964479e-05 0 3.4454067070880499e-05 -0.00035623861596328666 0 -7.5981909448391036e-06 -0.00010065306465473061 0 -0.0015682137156915791 -9.4556144104985873e-05 0 -0.0015321970690108167 0.00015907247478381544 0 -0.0016443823581846653 8.565312545964479e-05 0 3.4454067070880499e-05 -0.00035623861596328666 0 -0.00051729219003946803 -6.9961805692930155e-05 0 -0.0015682137156915791 -9.4556144104985873e-05 0 -0.0016893243775985261 -0.00014895859248262392 0 -0.001598097749269388 -0.00036065987568688216 0 -0.0018157913019657326 0.00036651884026766922 0 -0.0018230177700006725 0.00019202214358395527 0 -0.0019136614491638449 0.00025330642383363986 0 0.0015123895265408912 -0.00046308575873789355 0 0.0015984102002226147 -0.00046400896994285332 0 0.0015653758730913828 -0.00041986870305419163 0 0.0015123895265408912 -0.00046308575873789355 0 0.0015984102002226147 -0.00046400896994285332 0 0.0015622500280237568 -0.00051173208101936709 0 0.0015123895265408912 -0.00046308575873789355 0 0.0015653758730913828 -0.00041986870305419163 0 0.0015082709209976318 -0.00039826077795903253 0 0.0015984102002226147 -0.00046400896994285332 0 0.0016078338941922826 -0.00050293014149307156 0 0.0016604191038581059 -0.00051843534463068806 0 0.0015984102002226147 -0.00046400896994285332 0 0.0016078338941922826 -0.00050293014149307156 0 0.0015622500280237568 -0.00051173208101936709 0 0.0016078338941922826 -0.00050293014149307156 0 0.0015622500280237568 -0.00051173208101936709 0 0.0016056767543970326 -0.00053892975010549308 0 0.0016078338941922826 -0.00050293014149307156 0 0.0016056767543970326 -0.00053892975010549308 0 0.0016604191038581059 -0.00051843534463068806 0 0.0015622500280237568 -0.00051173208101936709 0 0.0015631547453174124 -0.00053307675098220497 0 0.0016056767543970326 -0.00053892975010549308 0 -0.0018157913019657326 0.00036651884026766922 0 -0.0018262735351820185 0.00051688211532611018 0 -0.0019628768942587514 0.00045596337474014607 0 -0.0018157913019657326 0.00036651884026766922 0 -0.0019136614491638449 0.00025330642383363986 0 -0.0019628768942587514 0.00045596337474014607 0 -0.0019494457614885469 0.00012658494746606758 0 -0.00051729219003946803 -6.9961805692930155e-05 0 0.0015123895265408912 -0.00046308575873789355 0 0.0015622500280237568 -0.00051173208101936709 0 0.0015163616430717258 -0.00051764677347968706 0 0.0015622500280237568 -0.00051173208101936709 0 0.0015631547453174124 -0.00053307675098220497 0 0.0015260892746434219 -0.00052104587505964642 0 0.0015163616430717258 -0.00051764677347968706 0 0.0015296983082966414 -0.0005181016334265331 0 0.0015260892746434219 -0.00052104587505964642 0 0.00026942345322897662 0.00012093651688393959 0 0.00023040271588524585 0.00027255640699189193 0 0.00031908831238526238 0.00034466925897052474 0 0.0015631547453174124 -0.00053307675098220497 0 0.0015260892746434219 -0.00052104587505964642 0 0.0015576367864445907 -0.00056456107315577266 0 -0.00051729219003946803 -6.9961805692930155e-05 0 0.00090706930164980088 -0.00023984102024705829 0 0.0015622500280237568 -0.00051173208101936709 0 0.0015163616430717258 -0.00051764677347968706 0 0.0015260892746434219 -0.00052104587505964642 0 -0.00051729219003946803 -6.9961805692930155e-05 0 -0.0009830850442226341 0.00068753996539248886 0 -0.0018262735351820185 0.00051688211532611018 0 -0.0019628768942587514 0.00045596337474014607 0 -0.0019196549230551352 0.00063203987024804901 0 -0.0020346116852162192 0.00064374420901733536 0 -0.0009830850442226341 0.00068753996539248886 0 -0.0018262735351820185 0.00051688211532611018 0 -0.001931996549884709 0.00065365003515590128 0 -0.0018313154586574024 0.00062993428918091019 0 -0.0019166032952798858 0.00072999575922356053 0 -0.001931996549884709 0.00065365003515590128 0 -0.0018313154586574024 0.00062993428918091019 0 -0.0010341886482812008 0.00093019862254744656 0 -0.0009830850442226341 0.00068753996539248886 0 -0.00044008068577163119 0.00087116822276405109 0 -0.00035722555109570365 0.0013175453747836221 0 0.00010814718326619052 0.00074849324463668496 0 0.0015296983082966414 -0.0005181016334265331 0 0.0015260892746434219 -0.00052104587505964642 0 0.0015341253659480669 -0.00050368789099481575 0 0.00023040271588524585 0.00027255640699189193 0 0.00031908831238526238 0.00034466925897052474 0 0.00019283073144651946 0.0004234131673941602 0 0.001446355220363751 -0.0006218323081862491 0 0.0023781669544595428 4.1231040586061894e-05 0 0.00090706930164980088 -0.00023984102024705829 0 0.0016315860082704266 0.00044055651681099947 0 0.0024292218483043665 0.00063275068336250196 0 0.0024655912490836682 0.00066083414511728354 0 0.0024498880523334795 0.00071335778785025766 0 0.0015296983082966414 -0.0005181016334265331 0 0.0015341253659480669 -0.00050368789099481575 0 0.0015368484277215795 -0.00049973103662322225 0 0.0023781669544595428 4.1231040586061894e-05 0 0.0016315860082704266 0.00044055651681099947 0 0.00031908831238526238 0.00034466925897052474 0 0.00019283073144651946 0.0004234131673941602 0 0.00023821805788748986 0.00045859203412308952 0 -0.0009830850442226341 0.00068753996539248886 0 0.0011250973851174477 0.0012007766441143874 0 -0.0010341886482812008 0.00093019862254744656 0 0.0011250973851174477 0.0012007766441143874 0 0.0011250973851174477 0.0012007766441143874 0 0.0019458152033725918 0.0021594267564064799 0 0.0024292218483043665 0.00063275068336250196 0 0.0024498880523334795 0.00071335778785025766 0 0.0023839417846013428 0.00072989505503931592 0 0.0019852061581727069 0.0011207678204723849 0 0.0019458152033725918 0.0021594267564064799 0 0.001771657936476141 0.0014519543628260315 0 0.0016731558070334641 0.0014770662534863903 0 0.0016347764274766401 0.0016075113584518043 0 0.0016315860082704266 0.00044055651681099947 0 0.0019852061581727069 0.0011207678204723849 0 0.0016868384084763103 0.0011598526474753145 0 0.0015392942484961781 0.0010517120358237092 0 0.0017374289615296006 0.001006403575232969 0 0.0016315860082704266 0.00044055651681099947 0 0.0011250973851174477 0.0012007766441143874 0 0.0011250973851174477 0.0012007766441143874 0 0.0019852061581727069 0.0011207678204723849 0 0.0019717376262925047 0.0026802472418823733 0 0.0019766515800045694 0.0026891751275911822 0 0.0019748948634744664 0.0026871462030708714 0 0.0019766515800045694 0.0026891751275911822 0 0.0019748948634744664 0.0026871462030708714 0 0.0019802257959611138 0.0026951299794845986 0 0.0019748948634744664 0.0026871462030708714 0 0.0019708339572007644 0.0026870085437066598 0 0.0019802257959611138 0.0026951299794845986 0 0.0019717376262925047 0.0026802472418823733 0 0.0019748948634744664 0.0026871462030708714 0 0.0019708339572007644 0.0026870085437066598 0 -0.0019171887078854759 0.00075876388323127932 0 -0.0018963295793421684 0.00087008193631541353 0 -0.0018162981809610019 0.00078931784512312057 0 -0.0010341886482812008 0.00093019862254744656 0 0.00018571634287879298 0.0017334925573562413 0 0.0011250973851174477 0.0012007766441143874 0 0.00018571634287879298 0.0017334925573562413 0 7.3542529483860438e-05 0.0013326423778186654 0 0.00021084078702211838 0.0013015460636766579 0 4.6083064649692086e-05 0.001185391879268646 0 0.0044856466140329228 -0.00024414276235037519 0 0.0045161401618938491 3.6888400368954789e-05 0 0.0043428415032946976 -0.00011576187903308905 0 0.0044856466140329228 -0.00024414276235037519 0 0.0045161401618938491 3.6888400368954789e-05 0 0.0046093475144371072 -1.7664246467377976e-05 0 0.0045161401618938491 3.6888400368954789e-05 0 0.0043428415032946976 -0.00011576187903308905 0 0.0043337643923930802 5.2247007601431267e-05 0 0.0015631547453174124 -0.00053307675098220497 0 0.0016056767543970326 -0.00053892975010549308 0 0.0015576367864445907 -0.00056456107315577266 0 0.0031955028376037375 -0.00040803894460878789 0 0.0023781669544595428 4.1231040586061894e-05 0 0.0044856466140329228 -0.00024414276235037519 0 0.0047445718234898106 4.0200925602838915e-06 0 0.0046093475144371072 -1.7664246467377976e-05 0 0.0045161401618938491 3.6888400368954789e-05 0 0.0046093475144371072 -1.7664246467377976e-05 0 0.0046870094052219227 0.00011716885654956482 0 0.0047445718234898106 4.0200925602838915e-06 0 0.0046093475144371072 -1.7664246467377976e-05 0 0.0046870094052219227 0.00011716885654956482 0 0.0030994406694701084 0.00095312033506509894 0 0.0040279478669903359 0.00073876357323625146 0 0.0028117503730645237 0.0018551680361894409 0 0.0028417482275648479 0.001864446837087079 0 0.0029440149258481586 0.0018785694123741304 0 0.0023781669544595428 4.1231040586061894e-05 0 0.0030994406694701084 0.00095312033506509894 0 0.0026353789490278913 0.001473674033173102 0 0.0025568269554864147 0.0017247695776992358 0 0.0024296549978048976 0.0015225378442716565 0 0.0019852061581727069 0.0011207678204723849 0 0.0030994406694701084 0.00095312033506509894 0 0.0030994406694701084 0.00095312033506509894 0 0.0024324059089778235 0.0020845610240843577 0 0.0025568269554864147 0.0017247695776992358 0 0.0024296549978048976 0.0015225378442716565 0 0.002217242692426959 0.0019506035807327991 0 0.0028117503730645237 0.0018551680361894409 0 0.0028417482275648479 0.001864446837087079 0 0.0027730274768487566 0.0020147070166480906 0 0.0045161401618938491 3.6888400368954789e-05 0 0.0046870094052219227 0.00011716885654956482 0 0.0044266343462620473 0.00018428526295591438 0 0.0045763128074105602 -7.6509002192676347e-05 0 0.0040279478669903359 0.00073876357323625146 0 0.0045161401618938491 3.6888400368954789e-05 0 0.004442470237347171 0.00022616571066044817 0 0.0043337643923930802 5.2247007601431267e-05 0 0.0028175495434395051 0.0018774794391876416 0 0.0026787804794134256 0.0020022900472285638 0 0.0028417482275648479 0.001864446837087079 0 0.0029440149258481586 0.0018785694123741304 0 0.0029768177994180939 0.0017441868346279928 0 0.0029440149258481586 0.0018785694123741304 0 0.0029768177994180939 0.0017441868346279928 0 0.003130097955588499 0.0017366453261925515 0 0.0027730274768487566 0.0020147070166480906 0 0.002525679106124046 0.0022434874590522803 0 0.002380357775790111 0.0022351470202532316 0 0.0019458152033725918 0.0021594267564064799 0 0.0022725047906103392 0.0024012889478598485 0 0.0028417482275648479 0.001864446837087079 0 0.0027730274768487566 0.0020147070166480906 0 0.002380357775790111 0.0022351470202532316 0 0.0025568269554864147 0.0017247695776992358 0 0.002217242692426959 0.0019506035807327991 0 0.0020058686291571474 0.0023774777407061967 0 0.0020322819303494428 0.0026782267436581994 0 0.0020314264467543443 0.0027049959379175795 0 0.0020232410647906258 0.0027173366019850233 0 0.0024324059089778235 0.0020845610240843577 0 0.0022725047906103392 0.0024012889478598485 0 0.0019458152033725918 0.0021594267564064799 0 0.0019813958406145844 0.0027715741514501356 0 0.002019068996658371 0.0027100044838858704 0 0.0020232410647906258 0.0027173366019850233 0 0.0020270856823429322 0.0027074616411298922 0 0.0019904758002717662 0.0027008661421521539 0 0.002019068996658371 0.0027100044838858704 0 0.0019938032404348718 0.0027010680488295138 0 0.0019813958406145844 0.0027715741514501356 0 0.0020236279128937637 0.0026826277244885429 0 0.002019068996658371 0.0027100044838858704 0 0.0019938032404348718 0.0027010680488295138 0 0.0020157496857324303 0.002702928865335455 0 0.002019068996658371 0.0027100044838858704 0 0.0020270856823429322 0.0027074616411298922 0 0.0020157496857324303 0.002702928865335455 0 0.0020314264467543443 0.0027049959379175795 0 0.002019068996658371 0.0027100044838858704 0 0.0020232410647906258 0.0027173366019850233 0 0.0020232410647906258 0.0027173366019850233 0 0.0020894498576409012 0.0027059604838761643 0 0.0020425730719714637 0.0027082031421976349 0 0.0022725047906103392 0.0024012889478598485 0 0.0021107411179698472 0.0027135693716582236 0 0.0022058192470457106 0.0024854507085738968 0 0.002380357775790111 0.0022351470202532316 0 0.0020068387545033087 0.0027163663331160521 0 0.0026787804794134256 0.0020022900472285638 0 0.0025810856441344861 0.0021461544918823738 0 0.0020232410647906258 0.0027173366019850233 0 0.0020425730719714637 0.0027082031421976349 0 0.0020270856823429322 0.0027074616411298922 0 0.0025438587426704915 0.002235534878456103 0 0.0022058192470457106 0.0024854507085738968 0 0.0020894498576409012 0.0027059604838761643 0 0.0022725047906103392 0.0024012889478598485 0 0.002320796973170221 0.0023974514765877225 0 0.002525679106124046 0.0022434874590522803 0 0.0022058192470457106 0.0024854507085738968 0 0.002380357775790111 0.0022351470202532316 0 0.00018571634287879298 0.0017334925573562413 0 0.0011184458480158258 0.0024366440328491552 0 0.0019708339572007644 0.0026870085437066598 0 0.0019802257959611138 0.0026951299794845986 0 0.0019683980995830017 0.0026941863262231721 0 0.00011636083758840649 0.0017443107980335021 0 0.00016184930887401828 0.0019746030212730308 0 0.00024591278839865196 0.0018427334598561541 0 0.00018571634287879298 0.0017334925573562413 0 -0.00088801710427906298 0.001301488199996776 0 0.0019802257959611138 0.0026951299794845986 0 0.0019938032404348718 0.0027010680488295138 0 0.0019683980995830017 0.0026941863262231721 0 0.0019904758002717662 0.0027008661421521539 0 0.0019802257959611138 0.0026951299794845986 0 0.0019938032404348718 0.0027010680488295138 0 0.0019766515800045694 0.0026891751275911822 0 0.0019904758002717662 0.0027008661421521539 0 0.0019802257959611138 0.0026951299794845986 0 0.0019938032404348718 0.0027010680488295138 0 0.0020157496857324303 0.002702928865335455 0 0.0019827821937593846 0.0026828945821871664 0 0.0019938032404348718 0.0027010680488295138 0 0.0019683980995830017 0.0026941863262231721 0 0.0019827821937593846 0.0026828945821871664 0 0.0011184458480158258 0.0024366440328491552 0 0.0013303180039231147 0.0024499255855174656 0 0.0019683980995830017 0.0026941863262231721 0 0.0019827821937593846 0.0026828945821871664 0 0.0019596725319731252 0.0026752426213508731 0 0.00026998242442543159 0.0020599746845485424 0 0.00037566059021726004 0.0019408039927688717 0 0.00033207610613819101 0.0022228168477116147 0 0.00016184930887401828 0.0019746030212730308 0 0.00026998242442543159 0.0020599746845485424 0 0.00021052084985321494 0.0022041484390786029 0 -0.00077418036915555895 0.0015212763653617524 0 0.00067956921453578669 0.0023864431476644699 0 0.00026998242442543159 0.0020599746845485424 0 0.00037566059021726004 0.0019408039927688717 0 0.00026351480015705716 0.0019545124311052013 0 0.00016184930887401828 0.0019746030212730308 0 0.00026998242442543159 0.0020599746845485424 0 0.00026351480015705716 0.0019545124311052013 0 -0.0016960472440720143 0.0010775658042845092 0 -0.0015023236012560702 0.001040623562852109 0 -0.0014310412348281611 0.0012837128031494426 0 -0.00077418036915555895 0.0015212763653617524 0 -0.00087756427206722644 0.0015580098605183943 0 -0.00013455650527024909 0.0019129055774507945 0 -0.00018536754236370102 0.001877315732047027 0 -0.00011365176873886922 0.0018585645533507045 0 -0.0016672726483129431 0.00093015393544183995 0 -0.0014155084876148541 0.00086844025304128178 0 -0.0015023236012560702 0.001040623562852109 0 -0.0016960472440720143 0.0010775658042845092 0 -0.0016672726483129431 0.00093015393544183995 0 -0.0015023236012560702 0.001040623562852109 0 -0.00077418036915555895 0.0015212763653617524 0 -0.0014304208317646432 0.00094453902074332263 0 0.00016184930887401828 0.0019746030212730308 0 0.00026351480015705716 0.0019545124311052013 0 0.00024591278839865196 0.0018427334598561541 0 -0.00077418036915555895 0.0015212763653617524 0 -0.00088801710427906298 0.001301488199996776 0 0.00037566059021726004 0.0019408039927688717 0 0.00026351480015705716 0.0019545124311052013 0 0.00024591278839865196 0.0018427334598561541 0 -0.0016821926547492237 0.0010417340595459098 0 -0.0016672726483129431 0.00093015393544183995 0 -0.0017930034038110164 0.00095499999338469047 0 -0.0016672726483129431 0.00093015393544183995 0 -0.0017930034038110164 0.00095499999338469047 0 -0.0017486755450458213 0.00086398344736224938 0 -0.0018162981809610019 0.00078931784512312057 0 -0.0017486755450458213 0.00086398344736224938 0 -0.0017411467608423141 0.00069364849292599987 0 -0.0018963295793421684 0.00087008193631541353 0 -0.0017930034038110164 0.00095499999338469047 0 -0.0017486755450458213 0.00086398344736224938 0 -0.0017486755450458213 0.00086398344736224938 0 -0.001619414005502668 0.00077886146283111105 0 -0.0017411467608423141 0.00069364849292599987 0 -0.0018963295793421684 0.00087008193631541353 0 -0.0018162981809610019 0.00078931784512312057 0 -0.0017486755450458213 0.00086398344736224938 0 -0.0016672726483129431 0.00093015393544183995 0 -0.001619414005502668 0.00077886146283111105 0 -0.0014155084876148541 0.00086844025304128178 0 -0.0016672726483129431 0.00093015393544183995 0 -0.0017486755450458213 0.00086398344736224938 0 -0.001619414005502668 0.00077886146283111105 0 -0.001619414005502668 0.00077886146283111105 0 -0.0015838540162669583 0.00060686908198972177 0 -0.0017411467608423141 0.00069364849292599987 0 -0.0017125330722602625 0.00056412418284992438 0 -0.0015838540162669583 0.00060686908198972177 0 -0.0017411467608423141 0.00069364849292599987 0 -0.0017125330722602625 0.00056412418284992438 0 -0.0018313154586574024 0.00062993428918091019 0 -0.0017411467608423141 0.00069364849292599987 0 -0.0010341886482812008 0.00093019862254744656 0 -0.0020770595102924923 0.00071617546151434464 0 -0.0019171887078854759 0.00075876388323127932 0 -0.0018162981809610019 0.00078931784512312057 0 -0.0017411467608423141 0.00069364849292599987 0 -0.0019166032952798858 0.00072999575922356053 0 -0.0018313154586574024 0.00062993428918091019 0 -0.0017411467608423141 0.00069364849292599987 0 -0.0015374581947924218 0.00062716254440684763 0 -0.0015316022375362404 0.00066184066971039903 0 -0.0014841827682908846 0.00060662807718925998 0 -0.0015791870945558761 0.00060860022274469557 0 -0.001475565246778878 0.00079193484575660516 0 -0.0015838540162669583 0.00060686908198972177 0 -0.0015374581947924218 0.00062716254440684763 0 -0.0015563205000474537 0.00067866743266040488 0 -0.001619414005502668 0.00077886146283111105 0 -0.0015838540162669583 0.00060686908198972177 0 -0.0014155084876148541 0.00086844025304128178 0 -0.0015563205000474537 0.00067866743266040488 0 -0.0015316022375362404 0.00066184066971039903 0 -0.0015509357682556861 0.00068356624226728277 0 -0.0015316022375362404 0.00066184066971039903 0 -0.0015509357682556861 0.00068356624226728277 0 -0.0015509694856281691 0.00068154577876457657 0 -0.0015374581947924218 0.00062716254440684763 0 -0.0015563205000474537 0.00067866743266040488 0 -0.0015316022375362404 0.00066184066971039903 0 -0.0015509357682556861 0.00068356624226728277 0 -0.0015516802435485109 0.00068268157356379301 0 -0.0015665603683169568 0.00068250526620419164 0 -0.0015563205000474537 0.00067866743266040488 0 -0.0015509357682556861 0.00068356624226728277 0 -0.0015516802435485109 0.00068268157356379301 0 -0.001475565246778878 0.00079193484575660516 0 -0.0014698945855040415 0.00085525468077331137 0 -0.0014155084876148541 0.00086844025304128178 0 -0.0015023236012560702 0.001040623562852109 0 -0.0012618606303527169 0.0011713948148571228 0 -0.0015023236012560702 0.001040623562852109 0 -0.0014310412348281611 0.0012837128031494426 0 -0.0012618606303527169 0.0011713948148571228 0 -0.0015516802435485109 0.00068268157356379301 0 -0.0015713343875364833 0.00067435717583139534 0 -0.0015677670498084558 0.00066316911858065367 0 -0.0015516802435485109 0.00068268157356379301 0 -0.0015713343875364833 0.00067435717583139534 0 -0.0015665603683169568 0.00068250526620419164 0 -0.0015713343875364833 0.00067435717583139534 0 -0.0015998557771803282 0.00067930984972275192 0 -0.0015856145628609306 0.00066735140569189528 0 -0.0015713343875364833 0.00067435717583139534 0 -0.0015665603683169568 0.00068250526620419164 0 -0.0015998557771803282 0.00067930984972275192 0 -0.0015665603683169568 0.00068250526620419164 0 -0.0015863231258873291 0.00068509544978501071 0 -0.0015998557771803282 0.00067930984972275192 0 -0.0015509357682556861 0.00068356624226728277 0 -0.0015665603683169568 0.00068250526620419164 0 -0.0015644484661167478 0.00068573658461361982 0 -0.0015665603683169568 0.00068250526620419164 0 -0.0015644484661167478 0.00068573658461361982 0 -0.0015863231258873291 0.00068509544978501071 0 -0.0015644484661167478 0.00068573658461361982 0 -0.001597634769493324 0.00068950425186395012 0 -0.0015627237356124473 0.00069288417899121448 0 -0.0015509357682556861 0.00068356624226728277 0 -0.0015644484661167478 0.00068573658461361982 0 -0.0015509694856281691 0.00068154577876457657 0 -0.001597634769493324 0.00068950425186395012 0 -0.0016168036445447687 0.00068957905958985709 0 -0.0016290325966203465 0.00069349970623000664 0 -0.0015644484661167478 0.00068573658461361982 0 -0.001597634769493324 0.00068950425186395012 0 -0.0015863231258873291 0.00068509544978501071 0 -0.001597634769493324 0.00068950425186395012 0 -0.0015863231258873291 0.00068509544978501071 0 -0.0016168036445447687 0.00068957905958985709 0 -0.0016168036445447687 0.00068957905958985709 0 -0.0015998557771803282 0.00067930984972275192 0 -0.0016347989540495373 0.00068556470192039599 0 -0.0015863231258873291 0.00068509544978501071 0 -0.0016168036445447687 0.00068957905958985709 0 -0.0015998557771803282 0.00067930984972275192 0 -0.0015998557771803282 0.00067930984972275192 0 -0.0016347989540495373 0.00068556470192039599 0 -0.001647651199512119 0.00067152808910262416 0 -0.0016347989540495373 0.00068556470192039599 0 -0.0016862887588546961 0.00068997214890735819 0 -0.001647651199512119 0.00067152808910262416 0 -0.0016862887588546961 0.00068997214890735819 0 -0.0016859657698911532 0.0007020871520929462 0 -0.0016520185608694244 0.00069601434724508296 0 -0.0016168036445447687 0.00068957905958985709 0 -0.0016347989540495373 0.00068556470192039599 0 -0.0016520185608694244 0.00069601434724508296 0 -0.0016347989540495373 0.00068556470192039599 0 -0.0016862887588546961 0.00068997214890735819 0 -0.0016520185608694244 0.00069601434724508296 0 -0.0016862887588546961 0.00068997214890735819 0 -0.0017222958000943569 0.00070512875570689752 0 -0.0017244119435673069 0.00068114129965281321 0 -0.0016862887588546961 0.00068997214890735819 0 -0.0017222958000943569 0.00070512875570689752 0 -0.0016859657698911532 0.0007020871520929462 0 -0.0017222958000943569 0.00070512875570689752 0 -0.0016859657698911532 0.0007020871520929462 0 -0.0016833381768884548 0.0007005182567727719 0 -0.0016833381768884548 0.0007005182567727719 0 -0.001659642639881556 0.00069764882135016522 0 -0.0016652424753312784 0.00069679992570452964 0 -0.0016859657698911532 0.0007020871520929462 0 -0.0016833381768884548 0.0007005182567727719 0 -0.001659642639881556 0.00069764882135016522 0 -0.0016168036445447687 0.00068957905958985709 0 -0.0016520185608694244 0.00069601434724508296 0 -0.0016290325966203465 0.00069349970623000664 0 -0.0016859657698911532 0.0007020871520929462 0 -0.001659642639881556 0.00069764882135016522 0 -0.0016520185608694244 0.00069601434724508296 0 -0.001659642639881556 0.00069764882135016522 0 -0.0016520185608694244 0.00069601434724508296 0 -0.0016290325966203465 0.00069349970623000664 0 -0.0016345887326362359 0.00069291489130218536 0 -0.0016458206384607152 0.00069495901874805745 0 -0.001608681071723575 0.00068548024060906731 0 -0.001659642639881556 0.00069764882135016522 0 -0.0016345887326362359 0.00069291489130218536 0 -0.0016458206384607152 0.00069495901874805745 0 -0.0016290325966203465 0.00069349970623000664 0 -0.0016345887326362359 0.00069291489130218536 0 -0.001608681071723575 0.00068548024060906731 0 -0.001659642639881556 0.00069764882135016522 0 -0.0016290325966203465 0.00069349970623000664 0 -0.0016345887326362359 0.00069291489130218536 0 -0.001659642639881556 0.00069764882135016522 0 -0.0016458206384607152 0.00069495901874805745 0 -0.0016652424753312784 0.00069679992570452964 0 -0.0016458206384607152 0.00069495901874805745 0 -0.0016436433279279452 0.00069556347893363934 0 -0.0016525535792130256 0.00069597183930943487 0 -0.0016458206384607152 0.00069495901874805745 0 -0.0016652424753312784 0.00069679992570452964 0 -0.0016525535792130256 0.00069597183930943487 0 -0.0016458206384607152 0.00069495901874805745 0 -0.0016289545768445005 0.00069468232175155841 0 -0.001608681071723575 0.00068548024060906731 0 -0.0016458206384607152 0.00069495901874805745 0 -0.0016436433279279452 0.00069556347893363934 0 -0.0016289545768445005 0.00069468232175155841 0 -0.0016289545768445005 0.00069468232175155841 0 -0.0016051974811848093 0.00068332353879611775 0 -0.001608681071723575 0.00068548024060906731 0 -0.0015465448690461709 0.00064591891871588125 0 -0.0015096615848624723 0.00058375322639802533 0 -0.0016051974811848093 0.00068332353879611775 0 -0.0015545712284396375 0.00065153707915034307 0 -0.001608681071723575 0.00068548024060906731 0 -0.0016051974811848093 0.00068332353879611775 0 -0.0015545712284396375 0.00065153707915034307 0 -0.0016126793365983736 0.00070613024522495126 0 -0.0015545712284396375 0.00065153707915034307 0 -0.0015627237356124473 0.00069288417899121448 0 -0.0015870908020415408 0.0005659958139631327 0 -0.0015545712284396375 0.00065153707915034307 0 -0.0015870908020415408 0.0005659958139631327 0 -0.0014085999206264862 0.00048820301447911429 0 -0.00155546720189505 0.00068262013444299189 0 -0.0015390504678785709 0.00058279772807476738 0 -0.0015316022375362404 0.00066184066971039903 0 -0.0015627237356124473 0.00069288417899121448 0 -0.0014841827682908846 0.00060662807718925998 0 -0.0015316022375362404 0.00066184066971039903 0 -0.0015509694856281691 0.00068154577876457657 0 -0.0015627237356124473 0.00069288417899121448 0 -0.0015644484661167478 0.00068573658461361982 0 -0.0015509694856281691 0.00068154577876457657 0 -0.0015627237356124473 0.00069288417899121448 0 -0.001597634769493324 0.00068950425186395012 0 -0.0015627237356124473 0.00069288417899121448 0 -0.001608681071723575 0.00068548024060906731 0 -0.0015545712284396375 0.00065153707915034307 0 -0.0015627237356124473 0.00069288417899121448 0 -0.001608681071723575 0.00068548024060906731 0 -0.001597634769493324 0.00068950425186395012 0 -0.0016290325966203465 0.00069349970623000664 0 -0.001608681071723575 0.00068548024060906731 0 -0.0019843383210766323 0.00061955752028934456 0 -0.0019013008358545142 0.00062997446584985115 0 -0.0019199129626049864 0.00064640159630310911 0 -0.0019843383210766323 0.00061955752028934456 0 -0.0020172181159473649 0.0006629781223398114 0 -0.0019199129626049864 0.00064640159630310911 0 -0.0019843383210766323 0.00061955752028934456 0 -0.0019013008358545142 0.00062997446584985115 0 -0.0019845898680308067 0.00051193366518739888 0 -0.0018559033546969052 0.00063994793508360265 0 -0.0020263975277967751 0.0006357565543030966 0 -0.0019013008358545142 0.00062997446584985115 0 -0.0019239762697376265 0.00067011425731153078 0 -0.001874769404851376 0.00071050760557939997 0 -0.0019013008358545142 0.00062997446584985115 0 -0.0019199129626049864 0.00064640159630310911 0 -0.0019239762697376265 0.00067011425731153078 0 -0.0019199129626049864 0.00064640159630310911 0 -0.001951443878989363 0.00062476676382324404 0 -0.0019239762697376265 0.00067011425731153078 0 -0.001951443878989363 0.00062476676382324404 0 -0.0019239762697376265 0.00067011425731153078 0 -0.0019451662202883367 0.00065791990870700035 0 -0.0019239762697376265 0.00067011425731153078 0 -0.0019111848509809379 0.00068835319244299486 0 -0.0019451662202883367 0.00065791990870700035 0 -0.0017222958000943569 0.00070512875570689752 0 -0.0016786130605930788 0.00070397166302150398 0 -0.0018033545150500584 0.00069758807111414438 0 -0.0019111848509809379 0.00068835319244299486 0 -0.0019451662202883367 0.00065791990870700035 0 -0.0018033545150500584 0.00069758807111414438 0 -0.0018089256706180241 0.0006688922577707399 0 -0.001800859281166593 0.00068622766403396277 0 -0.0017222958000943569 0.00070512875570689752 0 -0.0016833381768884548 0.0007005182567727719 0 -0.0016786130605930788 0.00070397166302150398 0 -0.0016833381768884548 0.0007005182567727719 0 -0.0016786130605930788 0.00070397166302150398 0 -0.0016652424753312784 0.00069679992570452964 0 -0.0016786130605930788 0.00070397166302150398 0 -0.0016652424753312784 0.00069679992570452964 0 -0.0016555015462543052 0.00069396516876029182 0 -0.0018089256706180241 0.0006688922577707399 0 -0.0017954715280714757 0.00069535337872707163 0 -0.0016525535792130256 0.00069597183930943487 0 -0.0016555015462543052 0.00069396516876029182 0 -0.0016486241172561464 0.0006975711227155064 0 -0.0016652424753312784 0.00069679992570452964 0 -0.0016525535792130256 0.00069597183930943487 0 -0.0016555015462543052 0.00069396516876029182 0 -0.0019554819967208485 0.00063572857692000841 0 -0.0021075428792305768 0.00070391709581103844 0 -0.0020353886547819816 0.00087123604285680573 0 -0.0017954715280714757 0.00069535337872707163 0 -0.0019481514574374989 0.00064955048371382891 0 -0.001951443878989363 0.00062476676382324404 0 -0.0019554819967208485 0.00063572857692000841 0 -0.0021844128538842881 0.00056200534088765054 0 -0.001951443878989363 0.00062476676382324404 0 -0.0019451662202883367 0.00065791990870700035 0 -0.0019554819967208485 0.00063572857692000841 0 -0.0019696126726201986 0.00062520059308512367 0 -0.0020679639405335988 0.00063557235184321997 0 -0.0019199129626049864 0.00064640159630310911 0 -0.001951443878989363 0.00062476676382324404 0 -0.0019318774255360268 0.00069685402166607758 0 -0.0019554819967208485 0.00063572857692000841 0 -0.0021075428792305768 0.00070391709581103844 0 -0.0021844128538842881 0.00056200534088765054 0 -0.0021075428792305768 0.00070391709581103844 0 -0.0021844128538842881 0.00056200534088765054 0 -0.0022686873165986624 0.00076510233565187883 0 -0.0023029078630315588 0.00070693049350977312 0 -0.0020679639405335988 0.00063557235184321997 0 -0.0025519717760436223 0.00061987746298251866 0 -0.0021844128538842881 0.00056200534088765054 0 -0.0022686873165986624 0.00076510233565187883 0 -0.0020172181159473649 0.0006629781223398114 0 -0.0019199129626049864 0.00064640159630310911 0 -0.0019318774255360268 0.00069685402166607758 0 -0.0025403647792733648 0.00083225941274444291 0 -0.0023116648450065198 0.0010349214290219051 0 -0.0022686873165986624 0.00076510233565187883 0 -0.0021075428792305768 0.00070391709581103844 0 -0.0022686873165986624 0.00076510233565187883 0 -0.0020353886547819816 0.00087123604285680573 0 -0.0023116648450065198 0.0010349214290219051 0 -0.0022686873165986624 0.00076510233565187883 0 -0.0020353886547819816 0.00087123604285680573 0 -0.0016309134400275315 0.00069440879646606875 0 -0.0016330161731647589 0.00067647605838894794 0 -0.0016150292381858914 0.00066733357881817394 0 -0.0023277898672712104 0.00077411121906721138 0 -0.0019481514574374989 0.00064955048371382891 0 -0.0023148259045154261 0.00039796089667768397 0 -0.0023059614852105901 0.00039994005478641932 0 -0.0023123930020243727 0.00039942626754031838 0 -0.0019481514574374989 0.00064955048371382891 0 -0.0019636249800076789 0.0005411500920133517 0 -0.0016309134400275315 0.00069440879646606875 0 -0.0016423257974513602 0.00068842353913832477 0 -0.0016330161731647589 0.00067647605838894794 0 -0.0016423257974513602 0.00068842353913832477 0 -0.0016409078147989835 0.00067940598607016585 0 -0.0016330161731647589 0.00067647605838894794 0 -0.0019481514574374989 0.00064955048371382891 0 -0.0015604186100106998 0.00066868004242323881 0 -0.0016309134400275315 0.00069440879646606875 0 -0.0016486241172561464 0.0006975711227155064 0 -0.0016423257974513602 0.00068842353913832477 0 -0.0016555015462543052 0.00069396516876029182 0 -0.0016583606118562599 0.00070083816288694998 0 -0.0016486241172561464 0.0006975711227155064 0 -0.0016486241172561464 0.0006975711227155064 0 -0.0016463425077518318 0.00069519617068557172 0 -0.0016423257974513602 0.00068842353913832477 0 -0.0016525535792130256 0.00069597183930943487 0 -0.0016486241172561464 0.0006975711227155064 0 -0.0016463425077518318 0.00069519617068557172 0 -0.0016463425077518318 0.00069519617068557172 0 -0.0016423257974513602 0.00068842353913832477 0 -0.0016429806311634018 0.00068723767224968164 0 -0.0016423257974513602 0.00068842353913832477 0 -0.0016409078147989835 0.00067940598607016585 0 -0.0016429806311634018 0.00068723767224968164 0 -0.0016409078147989835 0.00067940598607016585 0 -0.0016426944556941277 0.00067741405742462201 0 -0.0016374980035453268 0.00066578107202730269 0 -0.0016409078147989835 0.00067940598607016585 0 -0.0016426944556941277 0.00067741405742462201 0 -0.0016429806311634018 0.00068723767224968164 0 -0.0016876310193451175 0.0007316876453588399 0 -0.0015351228778510884 0.00051083060000461239 0 -0.0013347121931244529 -5.8360266543488883e-05 0 -0.0013594032886413432 -5.6433818800087404e-05 0 -0.0013410450355299365 -5.2429117869521525e-05 0 -0.0016426944556941277 0.00067741405742462201 0 -0.0016374980035453268 0.00066578107202730269 0 -0.0016440689351630308 0.00063917165912391702 0 -0.0016426944556941277 0.00067741405742462201 0 -0.0016404321199520585 0.00067247829384586128 0 -0.0016289824466999229 0.0006665342528405433 0 -0.0014880676566528168 0.00029764394781705802 0 -0.0015351228778510884 0.00051083060000461239 0 -0.0016335086947721529 0.00065039908636415386 0 -0.0016374980035453268 0.00066578107202730269 0 -0.0016440689351630308 0.00063917165912391702 0 -0.0016335086947721529 0.00065039908636415386 0 -0.0016196820263943534 0.00064523608677854777 0 -0.001625372823863014 0.00061368353879441345 0 -0.0016335086947721529 0.00065039908636415386 0 -0.001625372823863014 0.00061368353879441345 0 -0.0016440689351630308 0.00063917165912391702 0 -0.0016335086947721529 0.00065039908636415386 0 -0.0016282303343200398 0.00066205622027647887 0 -0.0016196820263943534 0.00064523608677854777 0 -0.0016335086947721529 0.00065039908636415386 0 -0.0016282303343200398 0.00066205622027647887 0 -0.0016374980035453268 0.00066578107202730269 0 -0.0016282303343200398 0.00066205622027647887 0 -0.0016374980035453268 0.00066578107202730269 0 -0.0016330161731647589 0.00067647605838894794 0 -0.0016409078147989835 0.00067940598607016585 0 -0.0016374980035453268 0.00066578107202730269 0 -0.0016330161731647589 0.00067647605838894794 0 -0.0016282303343200398 0.00066205622027647887 0 -0.0016330161731647589 0.00067647605838894794 0 -0.0016150292381858914 0.00066733357881817394 0 -0.0016150292381858914 0.00066733357881817394 0 -0.0016196820263943534 0.00064523608677854777 0 -0.0016161543050475012 0.00064035280392138515 0 -0.0016150292381858914 0.00066733357881817394 0 -0.0016161543050475012 0.00064035280392138515 0 -0.001603802580232822 0.00062813237199361776 0 -0.0019636249800076789 0.0005411500920133517 0 -0.0019871140387344617 0.0003705622244837969 0 -0.0016282303343200398 0.00066205622027647887 0 -0.0016150292381858914 0.00066733357881817394 0 -0.0016196820263943534 0.00064523608677854777 0 -0.0016196820263943534 0.00064523608677854777 0 -0.0015980621127489293 0.0006334743690517131 0 -0.001625372823863014 0.00061368353879441345 0 -0.0016756090810014668 0.00055223518173421414 0 -0.001710752112475931 0.00050297905357440866 0 -0.0023195944320024849 0.00039709405314569863 0 -0.0023158520876150161 0.00039810883712587274 0 -0.0023149613974721732 0.00039817249184041705 0 -0.0023123930020243727 0.00039942626754031838 0 -0.0023158520876150161 0.00039810883712587274 0 -0.0023148643595888685 0.00039820127197709877 0 -0.0023195944320024849 0.00039709405314569863 0 -0.0023158520876150161 0.00039810883712587274 0 -0.0023171315619723888 0.00039778084630280342 0 -0.0023123930020243727 0.00039942626754031838 0 -0.0023158520876150161 0.00039810883712587274 0 -0.0023171315619723888 0.00039778084630280342 0 -0.0023148259045154261 0.00039796089667768397 0 -0.0023123930020243727 0.00039942626754031838 0 -0.0023171315619723888 0.00039778084630280342 0 -0.0013154293374194096 0.00028907390953193175 0 -0.0014887359046852067 0.00031764998216199478 0 -0.0014085999206264862 0.00048820301447911429 0 -0.0016374403265200785 0.00069214951972278464 0 -0.0016126793365983736 0.00070613024522495126 0 -0.0016311448109000597 0.00069937067164139522 0 -0.0014854427032527115 0.00052375949454784554 0 -0.0015096615848624723 0.00058375322639802533 0 -0.0014887359046852067 0.00031764998216199478 0 -0.0015870908020415408 0.0005659958139631327 0 -0.0014085999206264862 0.00048820301447911429 0 -0.0016289545768445005 0.00069468232175155841 0 -0.0016051974811848093 0.00068332353879611775 0 -0.0016126793365983736 0.00070613024522495126 0 -0.0016289545768445005 0.00069468232175155841 0 -0.0016126793365983736 0.00070613024522495126 0 -0.0016311448109000597 0.00069937067164139522 0 -0.0016289545768445005 0.00069468232175155841 0 -0.0016311448109000597 0.00069937067164139522 0 -0.0016406517424806424 0.00069644509328795393 0 -0.0016436433279279452 0.00069556347893363934 0 -0.0016289545768445005 0.00069468232175155841 0 -0.0016406517424806424 0.00069644509328795393 0 -0.0016436433279279452 0.00069556347893363934 0 -0.0016525535792130256 0.00069597183930943487 0 -0.0016463425077518318 0.00069519617068557172 0 -0.0016436433279279452 0.00069556347893363934 0 -0.0016463425077518318 0.00069519617068557172 0 -0.0016406517424806424 0.00069644509328795393 0 -0.0016463425077518318 0.00069519617068557172 0 -0.0016406517424806424 0.00069644509328795393 0 -0.0016429806311634018 0.00068723767224968164 0 -0.0016406517424806424 0.00069644509328795393 0 -0.0016429806311634018 0.00068723767224968164 0 -0.0016395838758969394 0.00068755250648624814 0 -0.0016374403265200785 0.00069214951972278464 0 -0.0016311448109000597 0.00069937067164139522 0 -0.0016395838758969394 0.00068755250648624814 0 -0.0016311448109000597 0.00069937067164139522 0 -0.0016406517424806424 0.00069644509328795393 0 -0.0016395838758969394 0.00068755250648624814 0 -0.0016374403265200785 0.00069214951972278464 0 -0.0016395838758969394 0.00068755250648624814 0 -0.0016416807280803388 0.00067773715968693922 0 -0.0014854427032527115 0.00052375949454784554 0 -0.0014183148038776985 0.0002263740606916223 0 -0.0016395838758969394 0.00068755250648624814 0 -0.0016406395132772997 0.00067886625129568443 0 -0.0016416807280803388 0.00067773715968693922 0 -0.0016426944556941277 0.00067741405742462201 0 -0.0016429806311634018 0.00068723767224968164 0 -0.0016395838758969394 0.00068755250648624814 0 -0.0016426944556941277 0.00067741405742462201 0 -0.0016395838758969394 0.00068755250648624814 0 -0.0016406395132772997 0.00067886625129568443 0 -0.0016406395132772997 0.00067886625129568443 0 -0.0016404321199520585 0.00067247829384586128 0 -0.0016416807280803388 0.00067773715968693922 0 -0.0014880676566528168 0.00029764394781705802 0 -0.0014183148038776985 0.0002263740606916223 0 -0.0013347121931244529 -5.8360266543488883e-05 0 -0.0013204610085535348 -5.7642151323497835e-05 0 -0.001328836332452823 -5.2780606925913497e-05 0 -0.0016426944556941277 0.00067741405742462201 0 -0.0016406395132772997 0.00067886625129568443 0 -0.0016404321199520585 0.00067247829384586128 0 -0.0014183148038776985 0.0002263740606916223 0 -0.0012859543502134704 -6.2500795726534388e-05 0 -0.0012732620664804484 8.7541408351744177e-05 0 -0.0012816133837318311 1.0239322321264276e-05 0 -0.001278322439092395 -1.237758421237975e-06 0 -0.0013204610085535348 -5.7642151323497835e-05 0 -0.0013223310598649183 -5.0157234163790823e-05 0 -0.001328836332452823 -5.2780606925913497e-05 0 -0.0012732620664804484 8.7541408351744177e-05 0 -0.0013406135032968279 4.7566623207067771e-05 0 -0.0012816133837318311 1.0239322321264276e-05 0 -0.0014183148038776985 0.0002263740606916223 0 -0.0013392573851338247 0.00011692422623639054 0 -0.0012732620664804484 8.7541408351744177e-05 0 -0.0013406135032968279 4.7566623207067771e-05 0 -0.0014142004292230826 0.00015039063390889494 0 -0.0013406135032968279 4.7566623207067771e-05 0 -0.0014245557520647036 6.0188754731120815e-05 0 -0.0013743968984097031 -1.2679761320802616e-05 0 -0.0013406135032968279 4.7566623207067771e-05 0 -0.0014142004292230826 0.00015039063390889494 0 -0.0014245557520647036 6.0188754731120815e-05 0 -0.0013154293374194096 0.00028907390953193175 0 -0.0012495014969171956 0.0001105594649716855 0 -0.0014142004292230826 0.00015039063390889494 0 -0.0013154293374194096 0.00028907390953193175 0 -0.0014887359046852067 0.00031764998216199478 0 -0.0014142004292230826 0.00015039063390889494 0 -0.0015383115284887568 0.00012969728759442957 0 -0.0014887359046852067 0.00031764998216199478 0 -0.0014142004292230826 0.00015039063390889494 0 -0.0015383115284887568 0.00012969728759442957 0 -0.0014142004292230826 0.00015039063390889494 0 -0.0014245557520647036 6.0188754731120815e-05 0 -0.0015383115284887568 0.00012969728759442957 0 -0.0014245557520647036 6.0188754731120815e-05 0 -0.0014818954413631138 -7.8373824167297217e-06 0 -0.0014245557520647036 6.0188754731120815e-05 0 -0.0014818954413631138 -7.8373824167297217e-06 0 -0.0013743968984097031 -1.2679761320802616e-05 0 -0.0014818954413631138 -7.8373824167297217e-06 0 -0.0014432981825695794 -9.8483411664296902e-05 0 -0.0013743968984097031 -1.2679761320802616e-05 0 -0.0014818954413631138 -7.8373824167297217e-06 0 -0.0014432981825695794 -9.8483411664296902e-05 0 -0.0015406906080497294 -7.8988940209012029e-05 0 -0.0014432981825695794 -9.8483411664296902e-05 0 -0.0015014059974697532 -0.00017243907907928574 0 -0.0015406906080497294 -7.8988940209012029e-05 0 -0.0014432981825695794 -9.8483411664296902e-05 0 -0.0015014059974697532 -0.00017243907907928574 0 -0.0013932729515381279 -0.00020766096929734622 0 -0.0013223564778292703 -0.00016836956004430805 0 -0.0013548965496443656 -0.00010956289204924157 0 -0.0013932729515381279 -0.00020766096929734622 0 -0.0014432981825695794 -9.8483411664296902e-05 0 -0.0013548965496443656 -0.00010956289204924157 0 -0.0013932729515381279 -0.00020766096929734622 0 -0.0013223564778292703 -0.00016836956004430805 0 -0.0013548965496443656 -0.00010956289204924157 0 -0.0012871935056620078 -0.00010783719673467809 0 -0.0013548965496443656 -0.00010956289204924157 0 -0.0013241637793027371 -4.2939585934970394e-05 0 -0.0012871935056620078 -0.00010783719673467809 0 -0.0013548965496443656 -0.00010956289204924157 0 -0.0013241637793027371 -4.2939585934970394e-05 0 -0.0013743968984097031 -1.2679761320802616e-05 0 -0.0014432981825695794 -9.8483411664296902e-05 0 -0.0013548965496443656 -0.00010956289204924157 0 -0.0013743968984097031 -1.2679761320802616e-05 0 -0.0013406135032968279 4.7566623207067771e-05 0 -0.0013743968984097031 -1.2679761320802616e-05 0 -0.0013255385561208382 2.1295256469363485e-06 0 -0.0013406135032968279 4.7566623207067771e-05 0 -0.0013255385561208382 2.1295256469363485e-06 0 -0.0012816133837318311 1.0239322321264276e-05 0 -0.0013241637793027371 -4.2939585934970394e-05 0 -0.0013743968984097031 -1.2679761320802616e-05 0 -0.0013255385561208382 2.1295256469363485e-06 0 -0.0012859543502134704 -6.2500795726534388e-05 0 -0.0013188719635850743 -1.1654760300247668e-05 0 -0.0012816133837318311 1.0239322321264276e-05 0 -0.001278322439092395 -1.237758421237975e-06 0 -0.0013188972379222102 -3.4572050035790974e-05 0 -0.0013241637793027371 -4.2939585934970394e-05 0 -0.0013255385561208382 2.1295256469363485e-06 0 -0.0012816133837318311 1.0239322321264276e-05 0 -0.0013241637793027371 -4.2939585934970394e-05 0 -0.0012816133837318311 1.0239322321264276e-05 0 -0.0012871935056620078 -0.00010783719673467809 0 -0.0013223310598649183 -5.0157234163790823e-05 0 -0.0013262471287586789 -4.5337398137037488e-05 0 -0.0013172941254250693 -3.1528429896406783e-05 0 -0.0013347121931244529 -5.8360266543488883e-05 0 -0.001328836332452823 -5.2780606925913497e-05 0 -0.0013410450355299365 -5.2429117869521525e-05 0 -0.001328836332452823 -5.2780606925913497e-05 0 -0.0013351763040510885 -4.6331701572469994e-05 0 -0.0013410450355299365 -5.2429117869521525e-05 0 -0.0013223310598649183 -5.0157234163790823e-05 0 -0.001328836332452823 -5.2780606925913497e-05 0 -0.0013262471287586789 -4.5337398137037488e-05 0 -0.001328836332452823 -5.2780606925913497e-05 0 -0.0013262471287586789 -4.5337398137037488e-05 0 -0.0013351763040510885 -4.6331701572469994e-05 0 -0.0013262471287586789 -4.5337398137037488e-05 0 -0.0013351763040510885 -4.6331701572469994e-05 0 -0.0013287079877088428 -4.0047624848166635e-05 0 -0.0013351763040510885 -4.6331701572469994e-05 0 -0.0013287079877088428 -4.0047624848166635e-05 0 -0.0013403728136138432 -3.5626583087519112e-05 0 -0.0013287079877088428 -4.0047624848166635e-05 0 -0.0013172941254250693 -3.1528429896406783e-05 0 -0.0013403728136138432 -3.5626583087519112e-05 0 -0.0013262471287586789 -4.5337398137037488e-05 0 -0.0013287079877088428 -4.0047624848166635e-05 0 -0.0013172941254250693 -3.1528429896406783e-05 0 -0.0013172941254250693 -3.1528429896406783e-05 0 -0.0013188972379222102 -3.4572050035790974e-05 0 -0.0013317545514000457 -2.8805885975805164e-05 0 -0.0013172941254250693 -3.1528429896406783e-05 0 -0.0013317545514000457 -2.8805885975805164e-05 0 -0.0013403728136138432 -3.5626583087519112e-05 0 -0.001278322439092395 -1.237758421237975e-06 0 -0.0013172941254250693 -3.1528429896406783e-05 0 -0.0013188972379222102 -3.4572050035790974e-05 0 -0.0012816133837318311 1.0239322321264276e-05 0 -0.0012871935056620078 -0.00010783719673467809 0 -0.0011988689292170361 -0.00017465269341253846 0 -0.0012832610443202829 -2.514631177209024e-05 0 -0.0012355835577898976 -4.1340898798542253e-05 0 -0.0012871935056620078 -0.00010783719673467809 0 -0.0011988689292170361 -0.00017465269341253846 0 -0.0012703587726607187 -0.00018853316800032419 0 -0.0013223564778292703 -0.00016836956004430805 0 -0.0012703587726607187 -0.00018853316800032419 0 -0.001304831187599122 -0.00022894209271787403 0 -0.0013223564778292703 -0.00016836956004430805 0 -0.0012871935056620078 -0.00010783719673467809 0 -0.0012703587726607187 -0.00018853316800032419 0 -0.0012703587726607187 -0.00018853316800032419 0 -0.0012454622591834897 -0.0002782341014785598 0 -0.001304831187599122 -0.00022894209271787403 0 -0.0011988689292170361 -0.00017465269341253846 0 -0.0012454622591834897 -0.0002782341014785598 0 -0.0011369722083586027 -0.00036632904407856001 0 -0.0011988689292170361 -0.00017465269341253846 0 -0.0012703587726607187 -0.00018853316800032419 0 -0.0012454622591834897 -0.0002782341014785598 0 -0.0012454622591834897 -0.0002782341014785598 0 -0.001304831187599122 -0.00022894209271787403 0 -0.0013326269681136083 -0.00030717846456519975 0 -0.0013317545514000457 -2.8805885975805164e-05 0 -0.0013299218809144735 -1.4973124986691307e-05 0 -0.0013540894890472935 -2.5138495600014111e-05 0 -0.0013188972379222102 -3.4572050035790974e-05 0 -0.0013317545514000457 -2.8805885975805164e-05 0 -0.0013299218809144735 -1.4973124986691307e-05 0 -0.0012355835577898976 -4.1340898798542253e-05 0 -0.0014705459237883691 -0.00050256216130624843 0 -0.0011369722083586027 -0.00036632904407856001 0 -0.0012843621818255848 -0.00037147888201783302 0 -0.0013080147757871207 -0.00049570705359510163 0 -0.0012454622591834897 -0.0002782341014785598 0 -0.0011369722083586027 -0.00036632904407856001 0 -0.0012843621818255848 -0.00037147888201783302 0 -0.0012454622591834897 -0.0002782341014785598 0 -0.0012843621818255848 -0.00037147888201783302 0 -0.0013326269681136083 -0.00030717846456519975 0 -0.0012843621818255848 -0.00037147888201783302 0 -0.001387167356532788 -0.0004103993105701334 0 -0.0013080147757871207 -0.00049570705359510163 0 -0.0012843621818255848 -0.00037147888201783302 0 -0.001387167356532788 -0.0004103993105701334 0 -0.0013326269681136083 -0.00030717846456519975 0 -0.001387167356532788 -0.0004103993105701334 0 -0.0014081433193922342 -0.00031559565236018096 0 -0.0013326269681136083 -0.00030717846456519975 0 -0.001387167356532788 -0.0004103993105701334 0 -0.0014859187811098057 -0.00038075590440788055 0 -0.0014081433193922342 -0.00031559565236018096 0 -0.0014859187811098057 -0.00038075590440788055 0 -0.0014081433193922342 -0.00031559565236018096 0 -0.0014940646794183547 -0.00028530077417499597 0 -0.0014081433193922342 -0.00031559565236018096 0 -0.0014940646794183547 -0.00028530077417499597 0 -0.0013932729515381279 -0.00020766096929734622 0 -0.0015014059974697532 -0.00017243907907928574 0 -0.0014940646794183547 -0.00028530077417499597 0 -0.0013932729515381279 -0.00020766096929734622 0 -0.0013223564778292703 -0.00016836956004430805 0 -0.0013932729515381279 -0.00020766096929734622 0 -0.001304831187599122 -0.00022894209271787403 0 -0.0013932729515381279 -0.00020766096929734622 0 -0.001304831187599122 -0.00022894209271787403 0 -0.0013326269681136083 -0.00030717846456519975 0 -0.0014081433193922342 -0.00031559565236018096 0 -0.0013932729515381279 -0.00020766096929734622 0 -0.0013326269681136083 -0.00030717846456519975 0 -0.0019907119587532916 -0.00080563354021042505 0 -0.0020131836898858281 -0.00078322967744443917 0 -0.0019883655120473309 -0.00076808645465687808 0 -0.0019907119587532916 -0.00080563354021042505 0 -0.0020131836898858281 -0.00078322967744443917 0 -0.0020106525006001372 -0.00083259384006018479 0 -0.0020131836898858281 -0.00078322967744443917 0 -0.0019883655120473309 -0.00076808645465687808 0 -0.0020141083098259927 -0.0007343966965095639 0 -0.0021039202257735735 -0.00017068054687887499 0 -0.0021989878328373012 -0.00010429814255425994 0 -0.0022277077758707142 -0.00012592435253252641 0 -0.0021853308555246681 -0.00055769370118137517 0 -0.0019342499009156818 0.00011767572310807383 0 -0.0021853308555246681 -0.00055769370118137517 0 -0.0024785201107670506 -0.00034635897100279884 0 -0.0024785201107670506 -0.00034635897100279884 0 -0.0020907924656062751 0.00019501790612107896 0 -0.0026571537139562429 -0.00010693040897995892 0 -0.0020907924656062751 0.00019501790612107896 0 -0.002127466098288015 -0.00022917856947007805 0 -0.0021039202257735735 -0.00017068054687887499 0 -0.0022277077758707142 -0.00012592435253252641 0 -0.0025163272625692784 -0.00016437472941365473 0 -0.0024415234919832642 1.4274020346150231e-05 0 -0.002353236455797254 -4.3743846042714583e-05 0 -0.0023158520876150161 0.00039810883712587274 0 -0.0023149613974721732 0.00039817249184041705 0 -0.0023148643595888685 0.00039820127197709877 0 -0.0018484012383646648 0.00034863486843530561 0 -0.0018592348752472878 0.00035133282879733864 0 -0.0018586930431167203 0.00035310577715933969 0 -0.0020907924656062751 0.00019501790612107896 0 -0.0019871140387344617 0.0003705622244837969 0 -0.001860474322134 0.00035182455046139737 0 -0.0018592348752472878 0.00035133282879733864 0 -0.0018586930431167203 0.00035310577715933969 0 -0.0020907924656062751 0.00019501790612107896 0 -0.0019342499009156818 0.00011767572310807383 0 -0.0015936259090238755 0.00059411621115329776 0 -0.001625372823863014 0.00061368353879441345 0 -0.0016147464252172252 0.00053371404344689042 0 -0.001551061406108683 0.00058669994166024879 0 -0.0015936259090238755 0.00059411621115329776 0 -0.0016147464252172252 0.00053371404344689042 0 -0.0019342499009156818 0.00011767572310807383 0 -0.0017664701178171233 -0.00029582304152146456 0 -0.001710752112475931 0.00050297905357440866 0 -0.0019871140387344617 0.0003705622244837969 0 -0.0015980621127489293 0.0006334743690517131 0 -0.001551061406108683 0.00058669994166024879 0 -0.0015936259090238755 0.00059411621115329776 0 -0.001710752112475931 0.00050297905357440866 0 -0.0019342499009156818 0.00011767572310807383 0 -0.0015980621127489293 0.0006334743690517131 0 -0.0015936259090238755 0.00059411621115329776 0 -0.001625372823863014 0.00061368353879441345 0 -0.0020131836898858281 -0.00078322967744443917 0 -0.0020141083098259927 -0.0007343966965095639 0 -0.0020626824155307766 -0.00077188740635973554 0 -0.0017664701178171233 -0.00029582304152146456 0 -0.0020362162395932961 -0.00094339427487429603 0 -0.0020131836898858281 -0.00078322967744443917 0 -0.0020626824155307766 -0.00077188740635973554 0 -0.0020106525006001372 -0.00083259384006018479 0 -0.0020297162792479611 -0.00078414315759970299 0 -0.0020380689829514764 -0.0008273560329312156 0 -0.0020106525006001372 -0.00083259384006018479 0 -0.0017664701178171233 -0.00029582304152146456 0 -0.0017879964411017053 -0.00046003138008348217 0 -0.0013818358031384944 -4.0092700341528133e-05 0 -0.0013586977057435114 -4.1402260367502245e-05 0 -0.0013540894890472935 -2.5138495600014111e-05 0 -0.0020297162792479611 -0.00078414315759970299 0 -0.0021221330166622146 -0.00084512248596759908 0 -0.0020380689829514764 -0.0008273560329312156 0 -0.0017664701178171233 -0.00029582304152146456 0 -0.0015351228778510884 0.00051083060000461239 0 -0.0013818358031384944 -4.0092700341528133e-05 0 -0.0013586977057435114 -4.1402260367502245e-05 0 -0.0013594032886413432 -5.6433818800087404e-05 0 -0.001625372823863014 0.00061368353879441345 0 -0.0016147464252172252 0.00053371404344689042 0 -0.0016919960357437557 0.00063062552820639139 0 -0.0016759528304803755 0.00062358564931005002 0 -0.0015351228778510884 0.00051083060000461239 0 -0.0013594032886413432 -5.6433818800087404e-05 0 -0.0013490766299512082 -4.8272060904717428e-05 0 -0.0013410450355299365 -5.2429117869521525e-05 0 -0.0013586977057435114 -4.1402260367502245e-05 0 -0.0013594032886413432 -5.6433818800087404e-05 0 -0.0013490766299512082 -4.8272060904717428e-05 0 -0.0013351763040510885 -4.6331701572469994e-05 0 -0.0013490766299512082 -4.8272060904717428e-05 0 -0.0013410450355299365 -5.2429117869521525e-05 0 -0.0013351763040510885 -4.6331701572469994e-05 0 -0.0013490766299512082 -4.8272060904717428e-05 0 -0.0013403728136138432 -3.5626583087519112e-05 0 -0.0013586977057435114 -4.1402260367502245e-05 0 -0.0013403728136138432 -3.5626583087519112e-05 0 -0.0013540894890472935 -2.5138495600014111e-05 0 -0.0013586977057435114 -4.1402260367502245e-05 0 -0.0013490766299512082 -4.8272060904717428e-05 0 -0.0013403728136138432 -3.5626583087519112e-05 0 -0.0013317545514000457 -2.8805885975805164e-05 0 -0.0013403728136138432 -3.5626583087519112e-05 0 -0.0013540894890472935 -2.5138495600014111e-05 0 -0.0014705459237883691 -0.00050256216130624843 0 -0.0017879964411017053 -0.00046003138008348217 0 -0.0022299834857735473 -0.0009287879913445191 0 -0.0021221330166622146 -0.00084512248596759908 0 -0.0021155806594057476 -0.0009368121476365437 0 -0.0022299834857735473 -0.0009287879913445191 0 -0.0021155806594057476 -0.0009368121476365437 0 -0.002135011621208621 -0.0010075774023550557 0 -0.0021155806594057476 -0.0009368121476365437 0 -0.002069692231481673 -0.00094648865943347559 0 -0.0020667051722137457 -0.00089866035460583961 0 -0.0021155806594057476 -0.0009368121476365437 0 -0.002069692231481673 -0.00094648865943347559 0 -0.0020798566170415903 -0.00099193420492255492 0 -0.002069692231481673 -0.00094648865943347559 0 -0.0020445513735741399 -0.00098875709195756618 0 -0.0020798566170415903 -0.00099193420492255492 0 -0.002069692231481673 -0.00094648865943347559 0 -0.00203557634354486 -0.00094484024541585253 0 -0.0020445513735741399 -0.00098875709195756618 0 -0.002069692231481673 -0.00094648865943347559 0 -0.0020667051722137457 -0.00089866035460583961 0 -0.00203557634354486 -0.00094484024541585253 0 -0.0021221330166622146 -0.00084512248596759908 0 -0.0021155806594057476 -0.0009368121476365437 0 -0.0020667051722137457 -0.00089866035460583961 0 -0.0021221330166622146 -0.00084512248596759908 0 -0.0020667051722137457 -0.00089866035460583961 0 -0.0020380689829514764 -0.0008273560329312156 0 -0.0020380689829514764 -0.0008273560329312156 0 -0.0020317038064657919 -0.00085349147629003536 0 -0.0020106525006001372 -0.00083259384006018479 0 -0.0020667051722137457 -0.00089866035460583961 0 -0.0020380689829514764 -0.0008273560329312156 0 -0.0019988109694994574 -0.0009018029120090998 0 -0.0020329064479208563 -0.0008393859816957156 0 -0.0020285877716739124 -0.00086654960805981895 0 -0.0020667051722137457 -0.00089866035460583961 0 -0.00203557634354486 -0.00094484024541585253 0 -0.0019988109694994574 -0.0009018029120090998 0 -0.00203557634354486 -0.00094484024541585253 0 -0.0020113879564744568 -0.00097362578243946521 0 -0.0020445513735741399 -0.00098875709195756618 0 -0.00203557634354486 -0.00094484024541585253 0 -0.0020113879564744568 -0.00097362578243946521 0 -0.0019988109694994574 -0.0009018029120090998 0 -0.0020285877716739124 -0.00086654960805981895 0 -0.0021805412111821978 -0.0011173852296085677 0 -0.0020113879564744568 -0.00097362578243946521 0 -0.0019988109694994574 -0.0009018029120090998 0 -0.0019624186549850285 -0.00098209820891059611 0 -0.0020317038064657919 -0.00085349147629003536 0 -0.0020123806129311874 -0.00085804216104762093 0 -0.0020219933632520033 -0.0008862874822595727 0 -0.0019845300169553217 -0.00086078815314720686 0 -0.0020123806129311874 -0.00085804216104762093 0 -0.0020219933632520033 -0.0008862874822595727 0 -0.0023006053707544847 -0.0011690079669014431 0 -0.0021805412111821978 -0.0011173852296085677 0 -0.0026457835941633106 -0.0014626441110416485 0 -0.0025066339563153709 -0.0012877979635893208 0 -0.0024777137209372746 -0.0013542131813463899 0 -0.0019845300169553217 -0.00086078815314720686 0 -0.0020123806129311874 -0.00085804216104762093 0 -0.0020106525006001372 -0.00083259384006018479 0 -0.0019791141277844841 -0.00082964080791280716 0 -0.0019845300169553217 -0.00086078815314720686 0 -0.0020106525006001372 -0.00083259384006018479 0 -0.0020317038064657919 -0.00085349147629003536 0 -0.0020123806129311874 -0.00085804216104762093 0 -0.0020106525006001372 -0.00083259384006018479 0 -0.0019791141277844841 -0.00082964080791280716 0 -0.0019907119587532916 -0.00080563354021042505 0 -0.0020106525006001372 -0.00083259384006018479 0 -0.0024339290807022765 -0.0019222931002855163 0 -0.0025290601677779136 -0.0014951235140663213 0 -0.0019415391649886004 -0.0011113877040894065 0 -0.0019723192697729489 -0.0010347989127635162 0 -0.0019971872615807524 -0.0010876715218706545 0 -0.0033404429750326313 -0.002281802695752044 0 -0.0033268193474098717 -0.0022625038963427543 0 -0.0033177502577686857 -0.0022870416121311553 0 -0.0033555790042839339 -0.0022836862661511611 0 -0.0033404429750326313 -0.002281802695752044 0 -0.0033177502577686857 -0.0022870416121311553 0 -0.0031422805104032322 -0.0018600559674921504 0 -0.0025290601677779136 -0.0014951235140663213 0 -0.0025290601677779136 -0.0014951235140663213 0 -0.0021805412111821978 -0.0011173852296085677 0 -0.0019723192697729489 -0.0010347989127635162 0 -0.0020047275051464819 -0.0010535726752564504 0 -0.0020413957785331894 -0.0010365896634319945 0 -0.0019723192697729489 -0.0010347989127635162 0 -0.0020047275051464819 -0.0010535726752564504 0 -0.0019971872615807524 -0.0010876715218706545 0 -0.0020362128600931572 -0.001034317462554807 0 -0.0020372679070086207 -0.0010332867558485563 0 -0.0020391771155383615 -0.0010324573983721058 0 -0.0025290601677779136 -0.0014951235140663213 0 -0.0018352439414573902 -0.00098669853157084771 0 -0.0020362128600931572 -0.001034317462554807 0 -0.0020391771155383615 -0.0010324573983721058 0 -0.0020413957785331894 -0.0010365896634319945 0 -0.0021805412111821978 -0.0011173852296085677 0 -0.0019816598283167127 -0.00099451254567790534 0 -0.0020113879564744568 -0.00097362578243946521 0 -0.0019624186549850285 -0.00098209820891059611 0 -0.0020391771155383615 -0.0010324573983721058 0 -0.0020113879564744568 -0.00097362578243946521 0 -0.0020391771155383615 -0.0010324573983721058 0 -0.0020445513735741399 -0.00098875709195756618 0 -0.0020047275051464819 -0.0010535726752564504 0 -0.0020413957785331894 -0.0010365896634319945 0 -0.0020295020932023389 -0.0010668774342352941 0 -0.0020295020932023389 -0.0010668774342352941 0 -0.0019971872615807524 -0.0010876715218706545 0 -0.002047555177696796 -0.0010958688549628998 0 -0.0019415391649886004 -0.0011113877040894065 0 -0.0019971872615807524 -0.0010876715218706545 0 -0.002037968256507447 -0.0011550158755946919 0 -0.0024339290807022765 -0.0019222931002855163 0 -0.0020040626743329445 -0.0017930298574716441 0 -0.0020047275051464819 -0.0010535726752564504 0 -0.0020295020932023389 -0.0010668774342352941 0 -0.0019971872615807524 -0.0010876715218706545 0 -0.0019971872615807524 -0.0010876715218706545 0 -0.002047555177696796 -0.0010958688549628998 0 -0.002037968256507447 -0.0011550158755946919 0 -0.002047555177696796 -0.0010958688549628998 0 -0.0021036845037411072 -0.0010843449036301452 0 -0.002037968256507447 -0.0011550158755946919 0 -0.0021036845037411072 -0.0010843449036301452 0 -0.0020665998852361744 -0.0010644286351817011 0 -0.0020834916017972811 -0.0010334369861435297 0 -0.002047555177696796 -0.0010958688549628998 0 -0.0021036845037411072 -0.0010843449036301452 0 -0.0020665998852361744 -0.0010644286351817011 0 -0.0020295020932023389 -0.0010668774342352941 0 -0.002047555177696796 -0.0010958688549628998 0 -0.0020665998852361744 -0.0010644286351817011 0 -0.0020413957785331894 -0.0010365896634319945 0 -0.0020295020932023389 -0.0010668774342352941 0 -0.0020665998852361744 -0.0010644286351817011 0 -0.0020413957785331894 -0.0010365896634319945 0 -0.0020665998852361744 -0.0010644286351817011 0 -0.0020834916017972811 -0.0010334369861435297 0 -0.0020413957785331894 -0.0010365896634319945 0 -0.002057305220338263 -0.0010157459386230284 0 -0.0020834916017972811 -0.0010334369861435297 0 -0.0020391771155383615 -0.0010324573983721058 0 -0.0020413957785331894 -0.0010365896634319945 0 -0.002057305220338263 -0.0010157459386230284 0 -0.0020391771155383615 -0.0010324573983721058 0 -0.002057305220338263 -0.0010157459386230284 0 -0.0020445513735741399 -0.00098875709195756618 0 -0.002057305220338263 -0.0010157459386230284 0 -0.0020798566170415903 -0.00099193420492255492 0 -0.0020834916017972811 -0.0010334369861435297 0 -0.002057305220338263 -0.0010157459386230284 0 -0.0020445513735741399 -0.00098875709195756618 0 -0.0020798566170415903 -0.00099193420492255492 0 -0.0021155806594057476 -0.0009368121476365437 0 -0.0020798566170415903 -0.00099193420492255492 0 -0.002135011621208621 -0.0010075774023550557 0 -0.0020798566170415903 -0.00099193420492255492 0 -0.0020834916017972811 -0.0010334369861435297 0 -0.002135011621208621 -0.0010075774023550557 0 -0.0021036845037411072 -0.0010843449036301452 0 -0.0020834916017972811 -0.0010334369861435297 0 -0.002135011621208621 -0.0010075774023550557 0 -0.0022299834857735473 -0.0009287879913445191 0 -0.002135011621208621 -0.0010075774023550557 0 -0.0021908446687591214 -0.00106962638992134 0 -0.0021036845037411072 -0.0010843449036301452 0 -0.002135011621208621 -0.0010075774023550557 0 -0.0021908446687591214 -0.00106962638992134 0 -0.0021036845037411072 -0.0010843449036301452 0 -0.0021480826124002429 -0.0012059953324115849 0 -0.0021908446687591214 -0.00106962638992134 0 -0.0019045725705969542 -0.0015554402731404429 0 -0.0016753121131135814 -0.00072834740595227848 0 -0.0017607076552608523 -0.0019277760863141468 0 -0.0018315612221187411 -0.0021883214604874282 0 -0.0022073676513599261 -0.0021194531694589073 0 -0.0019045725705969542 -0.0015554402731404429 0 -0.0019458061755212018 -0.0026733279808080317 0 -0.0017607076552608523 -0.0019277760863141468 0 -0.0018315612221187411 -0.0021883214604874282 0 -0.0016257865955597475 -0.002362404711068319 0 -0.0023740342494332893 -0.0025539538135741897 0 -0.0020953154596535001 -0.0026945939658600932 0 -0.0022995589836310795 -0.0028071832431272757 0 -0.0021036845037411072 -0.0010843449036301452 0 -0.0021480826124002429 -0.0012059953324115849 0 -0.002037968256507447 -0.0011550158755946919 0 -0.0023740342494332893 -0.0025539538135741897 0 -0.0020953154596535001 -0.0026945939658600932 0 -0.0020552557735336952 -0.0024211852952838427 0 -0.0019045725705969542 -0.0015554402731404429 0 -0.0020040626743329445 -0.0017930298574716441 0 -0.0017413947811345685 -0.0022833610354231156 0 -0.0020552557735336952 -0.0024211852952838427 0 -0.0018306773037567812 -0.00264418085231915 0 -0.0020953154596535001 -0.0026945939658600932 0 -0.0018306773037567812 -0.00264418085231915 0 -0.0019107085996538371 -0.002881800571289925 0 -0.0020953154596535001 -0.0026945939658600932 0 -0.0020552557735336952 -0.0024211852952838427 0 -0.0018306773037567812 -0.00264418085231915 0 -0.0015210117167432601 -0.002815564206783092 0 -0.00163035436894929 -0.0025474614070617281 0 -0.0018306773037567812 -0.00264418085231915 0 -0.0024878908740966284 -0.0024963941986995706 0 -0.0024339290807022765 -0.0019222931002855163 0 -0.00163035436894929 -0.0025474614070617281 0 -0.0017413947811345685 -0.0022833610354231156 0 -0.0018306773037567812 -0.00264418085231915 0 -0.0013974842155005805 -0.00057126528686033209 0 -0.0012475527661356138 -0.00057679219040045779 0 -0.0013035863918576564 -0.00066623540586681937 0 -0.0013974842155005805 -0.00057126528686033209 0 -0.0013080147757871207 -0.00049570705359510163 0 -0.0012475527661356138 -0.00057679219040045779 0 -0.0013896057749949969 -0.00060576650086606367 0 -0.0012541825745043347 -0.00058776193276242829 0 -0.0013974842155005805 -0.00057126528686033209 0 -0.0015246024652842093 -0.00064380225161633114 0 -0.0014965547661715147 -0.00049450873576204076 0 -0.001387167356532788 -0.0004103993105701334 0 -0.0013974842155005805 -0.00057126528686033209 0 -0.0014965547661715147 -0.00049450873576204076 0 -0.001387167356532788 -0.0004103993105701334 0 -0.0014859187811098057 -0.00038075590440788055 0 -0.0014965547661715147 -0.00049450873576204076 0 -0.001387167356532788 -0.0004103993105701334 0 -0.0013974842155005805 -0.00057126528686033209 0 -0.0013080147757871207 -0.00049570705359510163 0 -0.0014705459237883691 -0.00050256216130624843 0 -0.0011790074434104199 -0.00043009270290612336 0 -0.0011952340317066179 -0.00041405769145596959 0 -0.0013080147757871207 -0.00049570705359510163 0 -0.0012475527661356138 -0.00057679219040045779 0 -0.0011952340317066179 -0.00041405769145596959 0 -0.0011495867893817056 -0.00056255086607377659 0 -0.0012475527661356138 -0.00057679219040045779 0 -0.0014705459237883691 -0.00050256216130624843 0 -0.0016753121131135814 -0.00072834740595227848 0 -0.0011495867893817056 -0.00056255086607377659 0 -0.0012475527661356138 -0.00057679219040045779 0 -0.001203688870525432 -0.00065890966897586706 0 -0.0012541825745043347 -0.00058776193276242829 0 -0.0016179463111272178 -0.0015981442817150705 0 -0.0012475527661356138 -0.00057679219040045779 0 -0.0013035863918576564 -0.00066623540586681937 0 -0.001203688870525432 -0.00065890966897586706 0 -0.0013035863918576564 -0.00066623540586681937 0 -0.001203688870525432 -0.00065890966897586706 0 -0.0012111755860638269 -0.00076729722413490953 0 -0.0011068798844434565 -0.00072344351990113727 0 -0.001203688870525432 -0.00065890966897586706 0 -0.0012111755860638269 -0.00076729722413490953 0 -0.0011068798844434565 -0.00072344351990113727 0 -0.0011495867893817056 -0.00056255086607377659 0 -0.001203688870525432 -0.00065890966897586706 0 -0.0018315612221187411 -0.0021883214604874282 0 -0.0022073676513599261 -0.0021194531694589073 0 -0.0018519261661755894 -0.0024588913967333614 0 -0.0019045725705969542 -0.0015554402731404429 0 -0.0016179463111272178 -0.0015981442817150705 0 -0.0016179463111272178 -0.0015981442817150705 0 -0.0019316595690787922 -0.0028568753523602092 0 -0.0012590310352157531 -0.00070899885010460809 0 -0.0011204328048792084 -0.00085260590606294601 0 -0.0013077761534269225 -0.00093085651783855479 0 -0.0016179463111272178 -0.0015981442817150705 0 -0.0016188851356904643 -0.0022186374068887196 0 -0.0013856631144513658 -0.00066692504061750487 0 -0.0016188851356904643 -0.0022186374068887196 0 -0.0012590310352157531 -0.00070899885010460809 0 -0.0014238072769485546 -0.00078502306286559005 0 -0.0013077761534269225 -0.00093085651783855479 0 -0.0013974842155005805 -0.00057126528686033209 0 -0.0012590310352157531 -0.00070899885010460809 0 -0.0014238072769485546 -0.00078502306286559005 0 -0.0013856631144513658 -0.00066692504061750487 0 -0.0014670572809663673 -0.00070227713036880393 0 -0.0013974842155005805 -0.00057126528686033209 0 -0.0014238072769485546 -0.00078502306286559005 0 -0.0015246024652842093 -0.00064380225161633114 0 -0.0013015964276369412 -0.00087260874156513046 0 -0.001489727436481276 -0.00089676366360421874 0 -0.0013918718286329913 -0.001119516867340327 0 -0.001489727436481276 -0.00089676366360421874 0 -0.0016630527308375399 -0.00092750041718937706 0 -0.0016141870349167889 -0.00075217494062355754 0 -0.001489727436481276 -0.00089676366360421874 0 -0.0016630527308375399 -0.00092750041718937706 0 -0.0015786015049028682 -0.0010391051652286936 0 -0.0016630527308375399 -0.00092750041718937706 0 -0.0016141870349167889 -0.00075217494062355754 0 -0.0017471423358275285 -0.00081955910253343344 0 -0.0013015964276369412 -0.00087260874156513046 0 -0.001489727436481276 -0.00089676366360421874 0 -0.0014345497681222288 -0.0007088063235730313 0 -0.001489727436481276 -0.00089676366360421874 0 -0.0016141870349167889 -0.00075217494062355754 0 -0.0014345497681222288 -0.0007088063235730313 0 -0.0017444568192848324 -0.0010395985061020473 0 -0.0017609347266004216 -0.0011294105420538735 0 -0.0016916061596781852 -0.0011187146584550013 0 -0.0016751547819185422 -0.0009578776521143895 0 -0.0017444568192848324 -0.0010395985061020473 0 -0.0016916061596781852 -0.0011187146584550013 0 -0.0017471423358275285 -0.00081955910253343344 0 -0.001887556287074777 -0.00074670849018364694 0 -0.0018354860524259441 -0.0010103646772005993 0 -0.0017716116799719819 -0.00086422260038071974 0 -0.001765513478148075 -0.0010571748714562033 0 -0.0016630527308375399 -0.00092750041718937706 0 -0.0017471423358275285 -0.00081955910253343344 0 -0.0018354860524259441 -0.0010103646772005993 0 -0.0016141870349167889 -0.00075217494062355754 0 -0.0017471423358275285 -0.00081955910253343344 0 -0.001733890027169294 -0.00065077859327460248 0 -0.0017471423358275285 -0.00081955910253343344 0 -0.001887556287074777 -0.00074670849018364694 0 -0.001733890027169294 -0.00065077859327460248 0 -0.0016751547819185422 -0.0009578776521143895 0 -0.0017052794224617094 -0.00088962441782402255 0 -0.0017349138907760157 -0.00096473513589426826 0 -0.0016751547819185422 -0.0009578776521143895 0 -0.0017349138907760157 -0.00096473513589426826 0 -0.0017444568192848324 -0.0010395985061020473 0 -0.001887556287074777 -0.00074670849018364694 0 -0.0018539090477540932 -0.00061208120605943449 0 -0.001733890027169294 -0.00065077859327460248 0 -0.001887556287074777 -0.00074670849018364694 0 -0.0018539090477540932 -0.00061208120605943449 0 -0.0019139860956428382 -0.00047765555509348084 0 -0.0016751547819185422 -0.0009578776521143895 0 -0.0017052794224617094 -0.00088962441782402255 0 -0.001686046843215653 -0.00084680219391966886 0 -0.0017716116799719819 -0.00086422260038071974 0 -0.0018719890290149746 -0.00061047035570228837 0 -0.001733890027169294 -0.00065077859327460248 0 -0.0017528289930969626 -0.00051760107512391763 0 -0.0015978657950886657 -0.00053404928273656418 0 -0.0018539090477540932 -0.00061208120605943449 0 -0.001733890027169294 -0.00065077859327460248 0 -0.0017528289930969626 -0.00051760107512391763 0 -0.0018539090477540932 -0.00061208120605943449 0 -0.0017528289930969626 -0.00051760107512391763 0 -0.0018415345677887792 -0.00052591862486827898 0 -0.00176154137119664 -0.00042202259592836132 0 -0.0017528289930969626 -0.00051760107512391763 0 -0.0016719322703201067 -0.00041558064410434953 0 -0.00176154137119664 -0.00042202259592836132 0 -0.0017528289930969626 -0.00051760107512391763 0 -0.0018158829226468099 -0.00047580445583283179 0 -0.00176154137119664 -0.00042202259592836132 0 -0.0018158829226468099 -0.00047580445583283179 0 -0.001826974611359588 -0.00040995752359151332 0 -0.0017528289930969626 -0.00051760107512391763 0 -0.0018158829226468099 -0.00047580445583283179 0 -0.0018415345677887792 -0.00052591862486827898 0 -0.0018539090477540932 -0.00061208120605943449 0 -0.0018415345677887792 -0.00052591862486827898 0 -0.0019139860956428382 -0.00047765555509348084 0 -0.0018376388715785341 -0.00053226248915806164 0 -0.0018719890290149746 -0.00061047035570228837 0 -0.0018158829226468099 -0.00047580445583283179 0 -0.0018415345677887792 -0.00052591862486827898 0 -0.0019139860956428382 -0.00047765555509348084 0 -0.0018158829226468099 -0.00047580445583283179 0 -0.0018474780437580261 -0.00044536920958127934 0 -0.0018720020203385689 -0.00046657722075452743 0 -0.0018158829226468099 -0.00047580445583283179 0 -0.0018474780437580261 -0.00044536920958127934 0 -0.001826974611359588 -0.00040995752359151332 0 -0.0018474780437580261 -0.00044536920958127934 0 -0.0018740345703207673 -0.00042767552719991483 0 -0.001826974611359588 -0.00040995752359151332 0 -0.0018789858428622118 -0.00049269635331732585 0 -0.0018719890290149746 -0.00061047035570228837 0 -0.0018474780437580261 -0.00044536920958127934 0 -0.0018740345703207673 -0.00042767552719991483 0 -0.0018720020203385689 -0.00046657722075452743 0 -0.0015246024652842093 -0.00064380225161633114 0 -0.0015978657950886657 -0.00053404928273656418 0 -0.0014965547661715147 -0.00049450873576204076 0 -0.0016141870349167889 -0.00075217494062355754 0 -0.0014345497681222288 -0.0007088063235730313 0 -0.0015978657950886657 -0.00053404928273656418 0 -0.0014670572809663673 -0.00070227713036880393 0 -0.0015963793533952636 -0.00053689922262789081 0 -0.0016141870349167889 -0.00075217494062355754 0 -0.001733890027169294 -0.00065077859327460248 0 -0.0015978657950886657 -0.00053404928273656418 0 -0.0017528289930969626 -0.00051760107512391763 0 -0.0015978657950886657 -0.00053404928273656418 0 -0.0016719322703201067 -0.00041558064410434953 0 -0.0015978657950886657 -0.00053404928273656418 0 -0.0015759255493798716 -0.00037345979601379565 0 -0.0016719322703201067 -0.00041558064410434953 0 -0.0015978657950886657 -0.00053404928273656418 0 -0.0014965547661715147 -0.00049450873576204076 0 -0.0015759255493798716 -0.00037345979601379565 0 -0.0014940646794183547 -0.00028530077417499597 0 -0.0015759255493798716 -0.00037345979601379565 0 -0.0015973380924678346 -0.00026225062070401174 0 -0.0014859187811098057 -0.00038075590440788055 0 -0.0014965547661715147 -0.00049450873576204076 0 -0.0015759255493798716 -0.00037345979601379565 0 -0.0014859187811098057 -0.00038075590440788055 0 -0.0014940646794183547 -0.00028530077417499597 0 -0.0015759255493798716 -0.00037345979601379565 0 -0.0015014059974697532 -0.00017243907907928574 0 -0.0015973380924678346 -0.00026225062070401174 0 -0.0015921766381790821 -0.00014828668838255042 0 -0.0015014059974697532 -0.00017243907907928574 0 -0.0014940646794183547 -0.00028530077417499597 0 -0.0015973380924678346 -0.00026225062070401174 0 -0.0015973380924678346 -0.00026225062070401174 0 -0.0016709263193604349 -0.00029357446967753515 0 -0.0016766613278260799 -0.00016918852616887238 0 -0.0015973380924678346 -0.00026225062070401174 0 -0.0015921766381790821 -0.00014828668838255042 0 -0.0016766613278260799 -0.00016918852616887238 0 -0.0015759255493798716 -0.00037345979601379565 0 -0.0016709263193604349 -0.00029357446967753515 0 -0.0016719322703201067 -0.00041558064410434953 0 -0.0016709263193604349 -0.00029357446967753515 0 -0.0016719322703201067 -0.00041558064410434953 0 -0.0017268458437467013 -0.00035171742128719283 0 -0.0015759255493798716 -0.00037345979601379565 0 -0.0015973380924678346 -0.00026225062070401174 0 -0.0016709263193604349 -0.00029357446967753515 0 -0.00176154137119664 -0.00042202259592836132 0 -0.0016719322703201067 -0.00041558064410434953 0 -0.0017268458437467013 -0.00035171742128719283 0 -0.00176154137119664 -0.00042202259592836132 0 -0.0017910455653415897 -0.00035313229842852395 0 -0.001826974611359588 -0.00040995752359151332 0 -0.00176154137119664 -0.00042202259592836132 0 -0.0017910455653415897 -0.00035313229842852395 0 -0.0017268458437467013 -0.00035171742128719283 0 -0.0017910455653415897 -0.00035313229842852395 0 -0.0018118849985594835 -0.00029130253037097127 0 -0.0017514931395058021 -0.00026431155849850725 0 -0.0017910455653415897 -0.00035313229842852395 0 -0.0017268458437467013 -0.00035171742128719283 0 -0.0017514931395058021 -0.00026431155849850725 0 -0.0016709263193604349 -0.00029357446967753515 0 -0.0017268458437467013 -0.00035171742128719283 0 -0.0017514931395058021 -0.00026431155849850725 0 -0.0018740345703207673 -0.00042767552719991483 0 -0.0018668019111666876 -0.00033458778737289091 0 -0.001957527983641879 -0.00029574172893757168 0 -0.0018740345703207673 -0.00042767552719991483 0 -0.001826974611359588 -0.00040995752359151332 0 -0.0018668019111666876 -0.00033458778737289091 0 -0.0017910455653415897 -0.00035313229842852395 0 -0.001826974611359588 -0.00040995752359151332 0 -0.0018668019111666876 -0.00033458778737289091 0 -0.0017910455653415897 -0.00035313229842852395 0 -0.0018668019111666876 -0.00033458778737289091 0 -0.0018118849985594835 -0.00029130253037097127 0 -0.0018668019111666876 -0.00033458778737289091 0 -0.0018382329083031798 -0.00021350044138895844 0 -0.001957527983641879 -0.00029574172893757168 0 -0.0018668019111666876 -0.00033458778737289091 0 -0.0018118849985594835 -0.00029130253037097127 0 -0.0018382329083031798 -0.00021350044138895844 0 -0.0018118849985594835 -0.00029130253037097127 0 -0.0018382329083031798 -0.00021350044138895844 0 -0.0017514931395058021 -0.00026431155849850725 0 -0.0016709263193604349 -0.00029357446967753515 0 -0.0017514931395058021 -0.00026431155849850725 0 -0.0016766613278260799 -0.00016918852616887238 0 -0.0018382329083031798 -0.00021350044138895844 0 -0.0017514931395058021 -0.00026431155849850725 0 -0.0017487394439668104 -0.00017832032228834793 0 -0.0017514931395058021 -0.00026431155849850725 0 -0.0017487394439668104 -0.00017832032228834793 0 -0.0016766613278260799 -0.00016918852616887238 0 -0.0018382329083031798 -0.00021350044138895844 0 -0.0017487394439668104 -0.00017832032228834793 0 -0.0017345666806666455 -6.7659423525797018e-05 0 -0.0017487394439668104 -0.00017832032228834793 0 -0.0017345666806666455 -6.7659423525797018e-05 0 -0.0016766613278260799 -0.00016918852616887238 0 -0.0018382329083031798 -0.00021350044138895844 0 -0.0017345666806666455 -6.7659423525797018e-05 0 -0.0019081969123698986 -0.00011384538424956534 0 -0.001822923876353905 8.3689182896926761e-05 0 -0.0017623944144381019 4.1732046378754664e-05 0 -0.0019081969123698986 -0.00011384538424956534 0 -0.0017345666806666455 -6.7659423525797018e-05 0 -0.0017623944144381019 4.1732046378754664e-05 0 -0.0019081969123698986 -0.00011384538424956534 0 -0.0018234566485563987 8.1623729181156836e-05 0 -0.0018182017137071528 3.9980037459873867e-05 0 -0.001573706203152157 0.0001698842334376015 0 -0.0017345666806666455 -6.7659423525797018e-05 0 -0.0017623944144381019 4.1732046378754664e-05 0 -0.0016430219088159888 0.00013266930649607426 0 -0.0017290070539067257 -5.4972532341996549e-05 0 -0.0017088294708961374 9.2452729108144562e-05 0 -0.0017345666806666455 -6.7659423525797018e-05 0 -0.0016419233999526574 -6.0501674669517596e-05 0 -0.0017088294708961374 9.2452729108144562e-05 0 -0.0016419233999526574 -6.0501674669517596e-05 0 -0.001580025298900045 1.4564284592638394e-05 0 -0.0016419233999526574 -6.0501674669517596e-05 0 -0.001580025298900045 1.4564284592638394e-05 0 -0.0015406906080497294 -7.8988940209012029e-05 0 -0.0014818954413631138 -7.8373824167297217e-06 0 -0.001580025298900045 1.4564284592638394e-05 0 -0.0015406906080497294 -7.8988940209012029e-05 0 -0.0016419233999526574 -6.0501674669517596e-05 0 -0.0015406906080497294 -7.8988940209012029e-05 0 -0.0015921766381790821 -0.00014828668838255042 0 -0.0015014059974697532 -0.00017243907907928574 0 -0.0015406906080497294 -7.8988940209012029e-05 0 -0.0015921766381790821 -0.00014828668838255042 0 -0.0017345666806666455 -6.7659423525797018e-05 0 -0.0016419233999526574 -6.0501674669517596e-05 0 -0.0016766613278260799 -0.00016918852616887238 0 -0.0016419233999526574 -6.0501674669517596e-05 0 -0.0015921766381790821 -0.00014828668838255042 0 -0.0016766613278260799 -0.00016918852616887238 0 0.0015665999802438213 -0.00036691123640891971 0 0.0015082709209976318 -0.00039826077795903253 0 0.0015031660261795934 -0.00032048087202627101 0 0.0015665999802438213 -0.00036691123640891971 0 0.0015653758730913828 -0.00041986870305419163 0 0.0016286840612093319 -0.00040397287411901106 0 0.0015984102002226147 -0.00046400896994285332 0 0.0015653758730913828 -0.00041986870305419163 0 0.0016286840612093319 -0.00040397287411901106 0 0.0015665999802438213 -0.00036691123640891971 0 0.0015653758730913828 -0.00041986870305419163 0 0.0015082709209976318 -0.00039826077795903253 0 -0.0015321970690108167 0.00015907247478381544 0 -0.0016443823581846653 8.565312545964479e-05 0 -0.0017265603202487911 0.00015563723831797197 0 -0.001822923876353905 8.3689182896926761e-05 0 -0.0017265603202487911 0.00015563723831797197 0 -0.0017356296486868074 0.00022695923320758307 0 -0.001822923876353905 8.3689182896926761e-05 0 -0.001795918134226562 8.2886498858257605e-05 0 -0.0017265603202487911 0.00015563723831797197 0 -0.001795918134226562 8.2886498858257605e-05 0 -0.0017120781996902033 8.3410215582114866e-05 0 -0.0017265603202487911 0.00015563723831797197 0 -0.0017120781996902033 8.3410215582114866e-05 0 -0.0016443823581846653 8.565312545964479e-05 0 -0.0017265603202487911 0.00015563723831797197 0 -0.0017265603202487911 0.00015563723831797197 0 -0.0017356296486868074 0.00022695923320758307 0 -0.0016126298731015526 0.00029205587808715919 0 -7.5981909448391036e-06 -0.00010065306465473061 0 -6.3174210489413051e-05 1.1444614751448534e-05 0 -0.0015321970690108167 0.00015907247478381544 0 -0.0017265603202487911 0.00015563723831797197 0 -0.0016126298731015526 0.00029205587808715919 0 -0.0015321970690108167 0.00015907247478381544 0 -0.0016126298731015526 0.00029205587808715919 0 -0.0014762469185510376 0.00035524713545063952 0 -0.0016126298731015526 0.00029205587808715919 0 -0.0015480124855642501 0.00045441440853707043 0 -0.0014762469185510376 0.00035524713545063952 0 -0.0016126298731015526 0.00029205587808715919 0 -0.0016678388193131417 0.00039185688607406671 0 -0.0015480124855642501 0.00045441440853707043 0 -0.0018382329083031798 -0.00021350044138895844 0 -0.0019081969123698986 -0.00011384538424956534 0 -0.001957527983641879 -0.00029574172893757168 0 -0.0018182017137071528 3.9980037459873867e-05 0 -0.0018665356399566047 0.00011691197616558338 0 -0.0017356296486868074 0.00022695923320758307 0 -0.0016126298731015526 0.00029205587808715919 0 -0.0016678388193131417 0.00039185688607406671 0 -0.0018740345703207673 -0.00042767552719991483 0 -0.001957527983641879 -0.00029574172893757168 0 -0.0019881474682053534 -0.00046367337726016273 0 -0.0016678388193131417 0.00039185688607406671 0 -0.0015480124855642501 0.00045441440853707043 0 -0.0016155587823225787 0.00055574301697445302 0 -0.0018665356399566047 0.00011691197616558338 0 -0.0012082482689252888 -0.00035295101460918973 0 -0.0015480124855642501 0.00045441440853707043 0 -0.0014762469185510376 0.00035524713545063952 0 -0.001413521671225218 0.00055770014571461415 0 0.0015031660261795934 -0.00032048087202627101 0 0.0015468010128759032 -0.0002906515343186972 0 0.001506969574934901 -0.00024407852605620953 0 -6.3174210489413051e-05 1.1444614751448534e-05 0 0.00058302919365595997 0.00013941312805537456 0 0.0015665999802438213 -0.00036691123640891971 0 0.0015031660261795934 -0.00032048087202627101 0 0.0015468010128759032 -0.0002906515343186972 0 0.0015665999802438213 -0.00036691123640891971 0 0.0015468010128759032 -0.0002906515343186972 0 0.0016225229096637035 -0.00033086241506652582 0 0.0015468010128759032 -0.0002906515343186972 0 0.0016225229096637035 -0.00033086241506652582 0 0.0015551601015047478 -0.00024227002528366803 0 0.0015468010128759032 -0.0002906515343186972 0 0.001506969574934901 -0.00024407852605620953 0 0.0015551601015047478 -0.00024227002528366803 0 0.0011468656219910328 -0.00030209237889350572 0 0.0011755188566965949 -0.00014968768452734975 0 0.0015551601015047478 -0.00024227002528366803 0 0.00058302919365595997 0.00013941312805537456 0 0.0018435859612335962 -0.00033004568407500888 0 0.0011325237335217887 -0.00035760516643426252 0 0.0011755188566965949 -0.00014968768452734975 0 0.00092871350173834907 -0.00019417808650003013 0 0.00058302919365595997 0.00013941312805537456 0 0.0009350789193278686 -0.0001959828197704118 0 0.0011755188566965949 -0.00014968768452734975 0 0.00092871350173834907 -0.00019417808650003013 0 0.00099640677556335163 -1.0343130100474048e-05 0 0.0011755188566965949 -0.00014968768452734975 0 0.0012519462910971276 1.3970068272025796e-05 0 0.00099640677556335163 -1.0343130100474048e-05 0 0.0011755188566965949 -0.00014968768452734975 0 0.0012519462910971276 1.3970068272025796e-05 0 0.0014332978584761821 -3.7690888221642335e-05 0 0.0011755188566965949 -0.00014968768452734975 0 0.0014332978584761821 -3.7690888221642335e-05 0 0.0015551601015047478 -0.00024227002528366803 0 -0.0018740345703207673 -0.00042767552719991483 0 -0.001869968890826654 -0.00046499230568709663 0 -0.0019881474682053534 -0.00046367337726016273 0 -0.0018719890290149746 -0.00061047035570228837 0 -0.0012082482689252888 -0.00035295101460918973 0 -0.0017052794224617094 -0.00088962441782402255 0 -0.001686046843215653 -0.00084680219391966886 0 -0.0017051338746611833 -0.00086704086908919852 0 0.0011325237335217887 -0.00035760516643426252 0 0.00062896869501566507 -0.00036632720041931391 0 0.00092871350173834907 -0.00019417808650003013 0 -0.0015480124855642501 0.00045441440853707043 0 -0.001413521671225218 0.00055770014571461415 0 -0.0016155587823225787 0.00055574301697445302 0 0.00058302919365595997 0.00013941312805537456 0 -0.0012082482689252888 -0.00035295101460918973 0 0.00092871350173834907 -0.00019417808650003013 0 0.00099640677556335163 -1.0343130100474048e-05 0 0.00070553010839290468 -8.7877195846136969e-05 0 0.00099640677556335163 -1.0343130100474048e-05 0 0.00070553010839290468 -8.7877195846136969e-05 0 0.00077654053647591658 0.00016925603795431204 0 -0.00052470360216893771 -0.00045287630178231805 0 -0.00072136989701736764 -0.00054826862968947296 0 0.00062896869501566507 -0.00036632720041931391 0 0.00092871350173834907 -0.00019417808650003013 0 0.00070553010839290468 -8.7877195846136969e-05 0 -0.0020842968813260324 -0.0011025892943194318 0 -0.00072136989701736764 -0.00054826862968947296 0 -0.0017052794224617094 -0.00088962441782402255 0 -0.0017051338746611833 -0.00086704086908919852 0 -0.0016888524312160603 -0.00087626794584115628 0 -0.0017052794224617094 -0.00088962441782402255 0 -0.0016888524312160603 -0.00087626794584115628 0 -0.0016776825083407406 -0.00084983565442138455 0 -0.0012082482689252888 -0.00035295101460918973 0 -0.00052470360216893771 -0.00045287630178231805 0 -0.0017052794224617094 -0.00088962441782402255 0 -0.0017349138907760157 -0.00096473513589426826 0 -0.0018153211113545215 -0.00097664163439220098 0 -0.0017349138907760157 -0.00096473513589426826 0 -0.0018153211113545215 -0.00097664163439220098 0 -0.0017444568192848324 -0.0010395985061020473 0 0.00099640677556335163 -1.0343130100474048e-05 0 0.00077654053647591658 0.00016925603795431204 0 0.0011255175051818258 0.00017229929355009555 0 -0.00072136989701736764 -0.00054826862968947296 0 -0.0010346147960790298 -0.00094053937700098794 0 -0.00072136989701736764 -0.00054826862968947296 0 0.00099538754789380815 -0.0003975996483555749 0 -0.00032462436230206663 -0.00090312222594716985 0 -0.00027731111524635659 -0.00070116804418768048 0 -3.1807019852752772e-05 -0.00065599499492513709 0 -0.00027731111524635659 -0.00070116804418768048 0 -3.1807019852752772e-05 -0.00065599499492513709 0 -0.00023217494843402243 -0.00049933273819013847 0 -0.0018153211113545215 -0.00097664163439220098 0 -0.0018309806224123804 -0.001060083389728099 0 -0.0017846661585218459 -0.0010783582502075242 0 -0.0010346147960790298 -0.00094053937700098794 0 -0.00060371596985173647 -0.00099090942076826235 0 -0.0018309806224123804 -0.001060083389728099 0 -0.0017846661585218459 -0.0010783582502075242 0 -0.0018042843969731347 -0.0011203257111426313 0 -0.0018309806224123804 -0.001060083389728099 0 -0.0018042843969731347 -0.0011203257111426313 0 -0.0018339185062983137 -0.0011355927715336511 0 -0.0017846661585218459 -0.0010783582502075242 0 -0.0017444568192848324 -0.0010395985061020473 0 -0.0017609347266004216 -0.0011294105420538735 0 -0.0018153211113545215 -0.00097664163439220098 0 -0.0017846661585218459 -0.0010783582502075242 0 -0.0017444568192848324 -0.0010395985061020473 0 0.0012519462910971276 1.3970068272025796e-05 0 0.0014314686321412668 0.0002265706865650538 0 0.0011255175051818258 0.00017229929355009555 0 0.0012519462910971276 1.3970068272025796e-05 0 0.0014332978584761821 -3.7690888221642335e-05 0 0.0014314686321412668 0.0002265706865650538 0 0.0014332978584761821 -3.7690888221642335e-05 0 0.0014314686321412668 0.0002265706865650538 0 0.0016583392046286261 -1.2579738848421525e-05 0 0.00077654053647591658 0.00016925603795431204 0 0.0011255175051818258 0.00017229929355009555 0 0.0011452948444502355 0.00046670382342732931 0 0.0014314686321412668 0.0002265706865650538 0 0.0011255175051818258 0.00017229929355009555 0 0.0011452948444502355 0.00046670382342732931 0 0.0012519462910971276 1.3970068272025796e-05 0 0.00099640677556335163 -1.0343130100474048e-05 0 0.0011255175051818258 0.00017229929355009555 0 0.00099538754789380815 -0.0003975996483555749 0 -0.00060371596985173647 -0.00099090942076826235 0 0.0022000719557704797 -0.00072572548341398612 0 0.0030201839669785559 -0.00037283629156527586 0 0.0018326056426875501 -0.00033132992221632533 0 0.0019954636943035012 -0.00034639862480131289 0 0.0020333942666693962 -0.0001627609577420678 0 0.0020443124560958017 -0.00049551053396302788 0 0.0018326056426875501 -0.00033132992221632533 0 0.0019954636943035012 -0.00034639862480131289 0 0.0016594399274080466 -6.0754017926166737e-05 0 0.00099538754789380815 -0.0003975996483555749 0 0.0019954636943035012 -0.00034639862480131289 0 0.0020333942666693962 -0.0001627609577420678 0 0.0021436842575194453 -0.00041048934792962781 0 0.0020443124560958017 -0.00049551053396302788 0 0.0019954636943035012 -0.00034639862480131289 0 0.0021436842575194453 -0.00041048934792962781 0 0.00099538754789380815 -0.0003975996483555749 0 0.0022000719557704797 -0.00072572548341398612 0 0.00063441896529042906 -0.0010148116172291016 0 0.00065045623068662171 -0.0010067257944113453 0 0.00063123972930157336 -0.0010049499050288713 0 0.00063441896529042906 -0.0010148116172291016 0 0.00063123972930157336 -0.0010049499050288713 0 0.00061837753566337296 -0.0010091807984617005 0 0.00063123972930157336 -0.0010049499050288713 0 0.0006232659404353906 -0.0010018391564805024 0 0.00061837753566337296 -0.0010091807984617005 0 0.00063123972930157336 -0.0010049499050288713 0 0.00063171082276286799 -0.0010011405039329832 0 0.0006232659404353906 -0.0010018391564805024 0 0.00065045623068662171 -0.0010067257944113453 0 0.00063123972930157336 -0.0010049499050288713 0 0.00063171082276286799 -0.0010011405039329832 0 0.0022000719557704797 -0.00072572548341398612 0 0.0015788777294025226 -0.0010493099699233172 0 0.0024899454434592731 -0.0014189311520597366 0 0.0023271367045416308 -0.0010541393543695857 0 0.0027275190369621108 -0.0012195606455883503 0 0.0023271367045416308 -0.0010541393543695857 0 0.0021600449861021373 -0.00069271340122112367 0 0.0025781488379631825 -0.00078819873575005706 0 0.0023271367045416308 -0.0010541393543695857 0 0.0025781488379631825 -0.00078819873575005706 0 0.0027275190369621108 -0.0012195606455883503 0 -6.9618365376042583e-05 -0.0013835241726500816 0 -0.00065760817344875065 -0.0010888841350964061 0 0.0015788777294025226 -0.0010493099699233172 0 -6.9618365376042583e-05 -0.0013835241726500816 0 0.00063171082276286799 -0.0010011405039329832 0 0.00061788817847593784 -0.0010062999016593912 0 0.0006232659404353906 -0.0010018391564805024 0 0.0021600449861021373 -0.00069271340122112367 0 0.002167268439982383 -0.0006601276569655856 0 0.0025781488379631825 -0.00078819873575005706 0 0.002167268439982383 -0.0006601276569655856 0 0.0021871011728980122 -0.00057008080518573844 0 0.0025781488379631825 -0.00078819873575005706 0 -0.00022608043858704722 -0.0022063773532249222 0 -0.00029404163915379493 -0.0025256223905552261 0 8.1055479893080883e-05 -0.002759661365371922 0 -0.00052706864449316023 -0.0022986973473386753 0 -0.00036686009815736293 -0.003053412754022418 0 -6.9618365376042583e-05 -0.0013835241726500816 0 -0.00052706864449316023 -0.0022986973473386753 0 -0.00052706864449316023 -0.0022986973473386753 0 0.0018642118531169217 -0.0015029708918953848 0 0.0031702286939754151 -0.0010988724215164811 0 0.0035321215334223836 -0.001252537959447349 0 0.003391956724404766 -0.00103900872298864 0 0.0018642118531169217 -0.0015029708918953848 0 0.0031297805368976366 -0.00099090286275698401 0 0.0035321215334223836 -0.001252537959447349 0 0.003391956724404766 -0.00103900872298864 0 0.00363848414653818 -0.0009896630201842655 0 -0.00212767849191555 -0.003915955977492021 0 -0.0021672744118757144 -0.0038764740871348111 0 -0.0020921666622874917 -0.0038626122774707609 0 -0.0021616132072868974 -0.0039331839842620649 0 -0.0021995813365189953 -0.003935947292148731 0 -0.0021672744118757144 -0.0038764740871348111 0 -0.00212767849191555 -0.003915955977492021 0 -0.0021616132072868974 -0.0039331839842620649 0 -0.0021672744118757144 -0.0038764740871348111 0 -0.00212767849191555 -0.003915955977492021 0 -0.0021616132072868974 -0.0039331839842620649 0 -0.0021239885244395151 -0.003967647851271898 0 -0.0021616132072868974 -0.0039331839842620649 0 -0.0021717728080221225 -0.0039841690890688444 0 -0.0021239885244395151 -0.003967647851271898 0 -0.0021616132072868974 -0.0039331839842620649 0 -0.0021995813365189953 -0.003935947292148731 0 -0.0021717728080221225 -0.0039841690890688444 0 -0.00052706864449316023 -0.0022986973473386753 0 -0.0023156760175198359 -0.0026653918005532188 0 -0.0022551534106828933 -0.003923305854562938 0 -0.0021995813365189953 -0.003935947292148731 0 -0.0021672744118757144 -0.0038764740871348111 0 -0.0018241126022903336 -0.0012804970885120423 0 -0.00182403633075074 -0.00128536710343228 0 -0.0017850962644577629 -0.0012585923875748498 0 -0.0022551534106828933 -0.003923305854562938 0 -0.0021995813365189953 -0.003935947292148731 0 -0.0022401689368067973 -0.0039665921312556579 0 -0.0017850962644577629 -0.0012585923875748498 0 -0.0018276669929227544 -0.0012200463245142306 0 -0.0017964018281930827 -0.0012067237058409491 0 -0.0018241126022903336 -0.0012804970885120423 0 -0.0017850962644577629 -0.0012585923875748498 0 -0.0018276669929227544 -0.0012200463245142306 0 -0.0017850962644577629 -0.0012585923875748498 0 -0.0017756523412094506 -0.0012290682354521144 0 -0.0017467848985605911 -0.0012416865312418173 0 -0.0017850962644577629 -0.0012585923875748498 0 -0.0017756523412094506 -0.0012290682354521144 0 -0.0017964018281930827 -0.0012067237058409491 0 -0.0017756523412094506 -0.0012290682354521144 0 -0.0017786371842978656 -0.0011989646488099804 0 -0.0017603039357781344 -0.0012111313059534198 0 -0.0017756523412094506 -0.0012290682354521144 0 -0.0017786371842978656 -0.0011989646488099804 0 -0.0017964018281930827 -0.0012067237058409491 0 -0.0017786371842978656 -0.0011989646488099804 0 -0.0017964018281930827 -0.0012067237058409491 0 -0.0017939496193402867 -0.0011644728673975012 0 -0.0017786371842978656 -0.0011989646488099804 0 -0.0017688361044610103 -0.0011686683168024175 0 -0.0017939496193402867 -0.0011644728673975012 0 -0.0017625190928580901 -0.0011897675046510193 0 -0.0017688361044610103 -0.0011686683168024175 0 -0.0017441356831542566 -0.0011760023576189822 0 -0.0017786371842978656 -0.0011989646488099804 0 -0.0017625190928580901 -0.0011897675046510193 0 -0.0017688361044610103 -0.0011686683168024175 0 -0.0017786371842978656 -0.0011989646488099804 0 -0.0017625190928580901 -0.0011897675046510193 0 -0.0017603039357781344 -0.0012111313059534198 0 -0.00065760817344875065 -0.0010888841350964061 0 -0.00060371596985173647 -0.00099090942076826235 0 -0.0018276669929227544 -0.0012200463245142306 0 -0.0017964018281930827 -0.0012067237058409491 0 -0.0018262594203491214 -0.0011417969040950786 0 -0.0017964018281930827 -0.0012067237058409491 0 -0.0018262594203491214 -0.0011417969040950786 0 -0.0017939496193402867 -0.0011644728673975012 0 -0.0018276669929227544 -0.0012200463245142306 0 -0.0018262594203491214 -0.0011417969040950786 0 -0.0018306090478399459 -0.0011376915541408282 0 -0.0018042843969731347 -0.0011203257111426313 0 -0.0018262594203491214 -0.0011417969040950786 0 -0.0017939496193402867 -0.0011644728673975012 0 -0.0018042843969731347 -0.0011203257111426313 0 -0.0018262594203491214 -0.0011417969040950786 0 -0.0018339185062983137 -0.0011355927715336511 0 -0.00071612651652424968 -0.00094173391490410521 0 -0.00060371596985173647 -0.00099090942076826235 0 -0.0017688361044610103 -0.0011686683168024175 0 -0.0017609347266004216 -0.0011294105420538735 0 -0.0017441356831542566 -0.0011760023576189822 0 -0.0017688361044610103 -0.0011686683168024175 0 -0.0017939496193402867 -0.0011644728673975012 0 -0.0017609347266004216 -0.0011294105420538735 0 -0.0017846661585218459 -0.0010783582502075242 0 -0.0018042843969731347 -0.0011203257111426313 0 -0.0017609347266004216 -0.0011294105420538735 0 -0.0018042843969731347 -0.0011203257111426313 0 -0.0017939496193402867 -0.0011644728673975012 0 -0.0017609347266004216 -0.0011294105420538735 0 -0.001765513478148075 -0.0010571748714562033 0 -0.0017521788256641756 -0.0012077501471339054 0 -0.0016916061596781852 -0.0011187146584550013 0 -0.0017517951130247439 -0.0012201588457293612 0 -0.0017441356831542566 -0.0011760023576189822 0 -0.0017609347266004216 -0.0011294105420538735 0 -0.0016916061596781852 -0.0011187146584550013 0 -0.0017441356831542566 -0.0011760023576189822 0 -0.0016630527308375399 -0.00092750041718937706 0 -0.0018354860524259441 -0.0010103646772005993 0 -0.0016912622406818341 -0.0010846759906995788 0 -0.0018354860524259441 -0.0010103646772005993 0 -0.0016912622406818341 -0.0010846759906995788 0 -0.0017517951130247439 -0.0012201588457293612 0 -0.0016912622406818341 -0.0010846759906995788 0 -0.0017517951130247439 -0.0012201588457293612 0 -0.0016062022175992996 -0.0011930405105812353 0 -0.0017517951130247439 -0.0012201588457293612 0 -0.0016062022175992996 -0.0011930405105812353 0 -0.0017467848985605911 -0.0012416865312418173 0 -0.0017876959616145778 -0.0024640111308117667 0 -0.0018257202190909837 -0.0024959725887951133 0 -0.0017517951130247439 -0.0012201588457293612 0 -0.0017603039357781344 -0.0012111313059534198 0 -0.0017467848985605911 -0.0012416865312418173 0 -0.0017517951130247439 -0.0012201588457293612 0 -0.0017603039357781344 -0.0012111313059534198 0 -0.0017441356831542566 -0.0011760023576189822 0 -0.0017625190928580901 -0.0011897675046510193 0 -0.0017603039357781344 -0.0012111313059534198 0 -0.0017441356831542566 -0.0011760023576189822 0 -0.0015786015049028682 -0.0010391051652286936 0 -0.0016062022175992996 -0.0011930405105812353 0 -0.0013918718286329913 -0.001119516867340327 0 -0.001489727436481276 -0.00089676366360421874 0 -0.0015786015049028682 -0.0010391051652286936 0 -0.0013918718286329913 -0.001119516867340327 0 -0.0016912622406818341 -0.0010846759906995788 0 -0.0015786015049028682 -0.0010391051652286936 0 -0.0016062022175992996 -0.0011930405105812353 0 -0.0016630527308375399 -0.00092750041718937706 0 -0.0016912622406818341 -0.0010846759906995788 0 -0.0015786015049028682 -0.0010391051652286936 0 -0.0019297915180554895 -0.0037221064294915554 0 -0.0018517221095276678 -0.0037860669566786615 0 -0.001779030337324691 -0.0036741044011113005 0 -0.0017876959616145778 -0.0024640111308117667 0 -0.0015546128813175204 -0.0024093286269616177 0 -0.0018517221095276678 -0.0037860669566786615 0 -0.0019742618513768437 -0.0038511555652920729 0 -0.0018207920955218301 -0.0039237083019981181 0 -0.0018517221095276678 -0.0037860669566786615 0 -0.0018207920955218301 -0.0039237083019981181 0 -0.0017451532019266676 -0.0037558753833523729 0 -0.0019297915180554895 -0.0037221064294915554 0 -0.0018517221095276678 -0.0037860669566786615 0 -0.0019742618513768437 -0.0038511555652920729 0 -0.0019742618513768437 -0.0038511555652920729 0 -0.0020038852276508027 -0.003981222657684835 0 -0.0018739317720042775 -0.0040231128326043246 0 -0.0019742618513768437 -0.0038511555652920729 0 -0.0018207920955218301 -0.0039237083019981181 0 -0.0018739317720042775 -0.0040231128326043246 0 -0.0017756523412094506 -0.0012290682354521144 0 -0.0017603039357781344 -0.0012111313059534198 0 -0.0017467848985605911 -0.0012416865312418173 0 -0.0023156760175198359 -0.0026653918005532188 0 -0.0018257202190909837 -0.0024959725887951133 0 -0.0021672744118757144 -0.0038764740871348111 0 -0.0020921666622874917 -0.0038626122774707609 0 -0.0020621332034645558 -0.0038041916281137912 0 -0.0019742618513768437 -0.0038511555652920729 0 -0.0020921666622874917 -0.0038626122774707609 0 -0.0020621332034645558 -0.0038041916281137912 0 -0.0019297915180554895 -0.0037221064294915554 0 -0.0019742618513768437 -0.0038511555652920729 0 -0.0020621332034645558 -0.0038041916281137912 0 -0.0019742618513768437 -0.0038511555652920729 0 -0.0020921666622874917 -0.0038626122774707609 0 -0.0020038852276508027 -0.003981222657684835 0 -0.0020869742691884204 -0.0038703870248193183 0 -0.0019792755794784175 -0.0039860659315028111 0 -0.00212767849191555 -0.003915955977492021 0 -0.0020921666622874917 -0.0038626122774707609 0 -0.0020803943123442366 -0.0039701841425861311 0 -0.0020921666622874917 -0.0038626122774707609 0 -0.0020803943123442366 -0.0039701841425861311 0 -0.0019523853342653353 -0.0039906743436408047 0 -0.00212767849191555 -0.003915955977492021 0 -0.0020803943123442366 -0.0039701841425861311 0 -0.0021239885244395151 -0.003967647851271898 0 -0.0020803943123442366 -0.0039701841425861311 0 -0.0021180943987870525 -0.0040168522547245683 0 -0.0020573248440951021 -0.004064222865765031 0 -0.0021180943987870525 -0.0040168522547245683 0 -0.0020573248440951021 -0.004064222865765031 0 -0.0021564740151793142 -0.004069768011839745 0 -0.0020803943123442366 -0.0039701841425861311 0 -0.0021180943987870525 -0.0040168522547245683 0 -0.0021239885244395151 -0.003967647851271898 0 -0.0020803943123442366 -0.0039701841425861311 0 -0.0020573248440951021 -0.004064222865765031 0 -0.0019523853342653353 -0.0039906743436408047 0 -0.0020573248440951021 -0.004064222865765031 0 -0.0019523853342653353 -0.0039906743436408047 0 -0.0019653805965848116 -0.0041114567390121461 0 -0.0020573248440951021 -0.004064222865765031 0 -0.0019653805965848116 -0.0041114567390121461 0 -0.0020306568580789495 -0.0041890215661246812 0 -0.0019653805965848116 -0.0041114567390121461 0 -0.0019586744860281458 -0.004180833708800488 0 -0.0020306568580789495 -0.0041890215661246812 0 -0.0014010500530783751 -0.0046746839079634603 0 -0.0014784570865048151 -0.0046550889737486572 0 -0.001485018225674917 -0.0045790918670219009 0 -0.0016448260073650266 -0.0044349216557439779 0 -0.0020844195937259873 -0.0044409241740545908 0 -0.0020573248440951021 -0.004064222865765031 0 -0.0020306568580789495 -0.0041890215661246812 0 -0.0021564740151793142 -0.004069768011839745 0 -0.0018207920955218301 -0.0039237083019981181 0 -0.0018739317720042775 -0.0040231128326043246 0 -0.0017799514034404639 -0.004042157374273732 0 -0.0018739317720042775 -0.0040231128326043246 0 -0.0018849408593768881 -0.0041350134487010588 0 -0.0017799514034404639 -0.004042157374273732 0 -0.0019523853342653353 -0.0039906743436408047 0 -0.0019653805965848116 -0.0041114567390121461 0 -0.001835563757861647 -0.0041336958647884741 0 -0.0020038852276508027 -0.003981222657684835 0 -0.0018739317720042775 -0.0040231128326043246 0 -0.0018849408593768881 -0.0041350134487010588 0 -0.0019792755794784175 -0.0039860659315028111 0 -0.0018596247442986948 -0.004135366631567495 0 -0.0019653805965848116 -0.0041114567390121461 0 -0.0019586744860281458 -0.004180833708800488 0 -0.001835563757861647 -0.0041336958647884741 0 -0.0019586744860281458 -0.004180833708800488 0 -0.001835563757861647 -0.0041336958647884741 0 -0.0018788762522909616 -0.0042185456200422829 0 -0.0018596247442986948 -0.004135366631567495 0 -0.0017567988934723323 -0.0042602347209749159 0 -0.0018235394712724717 -0.0042663393469861595 0 -0.0018788762522909616 -0.0042185456200422829 0 -0.0019004112461439631 -0.0042913651594459635 0 -0.001835563757861647 -0.0041336958647884741 0 -0.0018235394712724717 -0.0042663393469861595 0 -0.0018788762522909616 -0.0042185456200422829 0 -0.001835563757861647 -0.0041336958647884741 0 -0.0018235394712724717 -0.0042663393469861595 0 -0.0017526319687728121 -0.0042702682796489158 0 -0.0020155182384170604 -0.0041136275397465928 0 -0.0016930340806844328 -0.0044740103428101289 0 -0.0019586744860281458 -0.004180833708800488 0 -0.0018788762522909616 -0.0042185456200422829 0 -0.0019004112461439631 -0.0042913651594459635 0 -0.0014938468245667556 -0.0047609060642244067 0 -0.00134080088519793 -0.0048589509938723038 0 -0.0012797230123552398 -0.0047591726564810326 0 -0.0012366829422020397 -0.0048162082362686034 0 -0.0013492302496102453 -0.0047691373134755213 0 -0.0014279483027422027 -0.0049104633523304828 0 -0.0014089979952569285 -0.0048240108860900088 0 -0.0014181297458560381 -0.004886160246397481 0 -0.0016930340806844328 -0.0044740103428101289 0 -0.0014938468245667556 -0.0047609060642244067 0 -0.0016930340806844328 -0.0044740103428101289 0 -0.0017515178489790173 -0.0045783383432987232 0 -0.0018235394712724717 -0.0042663393469861595 0 -0.0019004112461439631 -0.0042913651594459635 0 -0.0018165678303510714 -0.004353384947702316 0 -0.0018235394712724717 -0.0042663393469861595 0 -0.0018165678303510714 -0.004353384947702316 0 -0.0017776965842655995 -0.0043158172127858848 0 -0.0016635011196132958 -0.0045761123717848783 0 -0.0016525920664319839 -0.0045935463355485226 0 -0.0016367687121208894 -0.004594744317536684 0 -0.0014938468245667556 -0.0047609060642244067 0 -0.0017515178489790173 -0.0045783383432987232 0 -0.0014462831813091541 -0.004727412815797305 0 -0.0014010500530783751 -0.0046746839079634603 0 -0.0014784570865048151 -0.0046550889737486572 0 -0.0014462831813091541 -0.004727412815797305 0 -0.0014017336620863359 -0.0047416774017711603 0 -0.0014182627914666914 -0.0047764024316735414 0 -0.0014462831813091541 -0.004727412815797305 0 -0.0014010500530783751 -0.0046746839079634603 0 -0.0014017336620863359 -0.0047416774017711603 0 -0.0012797230123552398 -0.0047591726564810326 0 -0.0014010500530783751 -0.0046746839079634603 0 -0.0013492302496102453 -0.0047691373134755213 0 -0.0016930340806844328 -0.0044740103428101289 0 -0.0016448260073650266 -0.0044349216557439779 0 -0.0019586744860281458 -0.004180833708800488 0 -0.0018840818786476617 -0.0042936361553257635 0 -0.0020306568580789495 -0.0041890215661246812 0 -0.0014010500530783751 -0.0046746839079634603 0 -0.0014017336620863359 -0.0047416774017711603 0 -0.0013492302496102453 -0.0047691373134755213 0 -0.0012366829422020397 -0.0048162082362686034 0 -0.0013492302496102453 -0.0047691373134755213 0 -0.0014089979952569285 -0.0048240108860900088 0 -0.0014017336620863359 -0.0047416774017711603 0 -0.0013953641061919821 -0.0047771203301957155 0 -0.0013492302496102453 -0.0047691373134755213 0 -0.0014017336620863359 -0.0047416774017711603 0 -0.0013953641061919821 -0.0047771203301957155 0 -0.0014182627914666914 -0.0047764024316735414 0 -0.0013953641061919821 -0.0047771203301957155 0 -0.0013492302496102453 -0.0047691373134755213 0 -0.0014089979952569285 -0.0048240108860900088 0 -0.0013953641061919821 -0.0047771203301957155 0 -0.0014089979952569285 -0.0048240108860900088 0 -0.0014182627914666914 -0.0047764024316735414 0 -0.0014399798021681946 -0.0047971492944314182 0 -0.0014733483037717356 -0.0047970619486200454 0 -0.0014634991957096538 -0.0047697709171234766 0 -0.0014089979952569285 -0.0048240108860900088 0 -0.0014399798021681946 -0.0047971492944314182 0 -0.0014469072756508343 -0.0048814807436346483 0 -0.0014089979952569285 -0.0048240108860900088 0 -0.0014399798021681946 -0.0047971492944314182 0 -0.0014182627914666914 -0.0047764024316735414 0 -0.0014462831813091541 -0.004727412815797305 0 -0.0014399798021681946 -0.0047971492944314182 0 -0.0014182627914666914 -0.0047764024316735414 0 -0.0014462831813091541 -0.004727412815797305 0 -0.0014399798021681946 -0.0047971492944314182 0 -0.0014634991957096538 -0.0047697709171234766 0 -0.0014733483037717356 -0.0047970619486200454 0 -0.0014634991957096538 -0.0047697709171234766 0 -0.0014946409521753956 -0.0047312937457701515 0 0.00061147516365279108 -0.0032030649355445188 0 0.00079338802360912053 -0.0036109393509866543 0 0.00097233180334291432 -0.0034052083798443828 0 -4.3111208834017632e-05 -0.0043288562259869573 0 0.00038815606052611961 -0.0031453317514480248 0 -4.3111208834017632e-05 -0.0043288562259869573 0 0.0009306423391240166 -0.0039529997935038187 0 -0.0014462831813091541 -0.004727412815797305 0 -0.0015130410492525165 -0.0046926929693153815 0 -0.0014784570865048151 -0.0046550889737486572 0 -0.0014462831813091541 -0.004727412815797305 0 -0.0014634991957096538 -0.0047697709171234766 0 -0.0014946409521753956 -0.0047312937457701515 0 -0.0015130410492525165 -0.0046926929693153815 0 -0.0014784570865048151 -0.0046550889737486572 0 -0.0015461114935087217 -0.0045924643896136938 0 -0.0021344293679471322 -0.0048388553521304632 0 0.00038815606052611961 -0.0031453317514480248 0 0.0028042941505157827 -0.00057924735907880745 0 0.0030923645567247264 -0.00073661974163822532 0 0.0029338675927461796 -0.00081879369741942544 0 0.00038815606052611961 -0.0031453317514480248 0 0.0021968217532982383 -0.0024877257402046589 0 0.0028042941505157827 -0.00057924735907880745 0 0.0031287720693748489 -0.00056782740126471451 0 0.0030923645567247264 -0.00073661974163822532 0 0.00038815606052611961 -0.0031453317514480248 0 0.0007743201732911244 -0.0026309377065517375 0 0.00079338802360912053 -0.0036109393509866543 0 0.00097233180334291432 -0.0034052083798443828 0 0.0013386716480017018 -0.0036102863138455822 0 0.0009306423391240166 -0.0039529997935038187 0 0.0021968217532982383 -0.0024877257402046589 0 0.00080559260547256081 -0.0044445689661046419 0 0.00082841503619533751 -0.0044405942599629504 0 0.00082398381018508008 -0.0044382107447641823 0 0.00082841503619533751 -0.0044405942599629504 0 0.00082398381018508008 -0.0044382107447641823 0 0.00085115994521231845 -0.0044263838253606174 0 0.00085115994521231845 -0.0044263838253606174 0 0.00090362545693822426 -0.0044311634898692729 0 0.00086368499957804629 -0.0044418648467294342 0 0.00071655356075957613 -0.0045208758289094963 0 0.0019095662557977108 -0.0030405622509403372 0 0.0007711415236534067 -0.0043697690224972731 0 0.00071649580575346833 -0.0043467467937085506 0 0.00070611564986780692 -0.0042837053581941007 0 0.0007711415236534067 -0.0043697690224972731 0 0.00071649580575346833 -0.0043467467937085506 0 0.00073159259590270444 -0.0043958017886644484 0 0.00082841503619533751 -0.0044405942599629504 0 0.00085115994521231845 -0.0044263838253606174 0 0.00086368499957804629 -0.0044418648467294342 0 0.0022345549755272568 -0.0031565195833722728 0 0.0015842317686775174 -0.0043317216978071976 0 0.0025672561069411399 -0.0035921433688535002 0 0.0025620175956728056 -0.0035980368143153771 0 0.0025698788933215433 -0.0035932136466669067 0 0.00071649580575346833 -0.0043467467937085506 0 0.00068961737220665461 -0.0042826508031081276 0 0.00067812574483749606 -0.0044062251720551034 0 0.00071649580575346833 -0.0043467467937085506 0 0.00068961737220665461 -0.0042826508031081276 0 0.00070611564986780692 -0.0042837053581941007 0 0.0022345549755272568 -0.0031565195833722728 0 0.0019095662557977108 -0.0030405622509403372 0 0.0026104073147200551 -0.0017970420946651858 0 0.0019095662557977108 -0.0030405622509403372 0 0.0026299292548897331 -0.0026067922265694617 0 0.0026292493364982413 -0.0028997474201389981 0 0.0022868879383253098 -0.0026018298207733243 0 0.0022345549755272568 -0.0031565195833722728 0 0.0026104073147200551 -0.0017970420946651858 0 0.0033385070905556959 -0.00057741856024857974 0 0.0033077371533201932 -0.00063193673870896199 0 0.0032429477940562027 -0.00063412854229399137 0 0.0033802167628925735 -0.00061516362296435432 0 0.0033385070905556959 -0.00057741856024857974 0 0.0033077371533201932 -0.00063193673870896199 0 0.0033802167628925735 -0.00061516362296435432 0 0.0033077371533201932 -0.00063193673870896199 0 0.0032871856031498532 -0.0006963956768579275 0 0.0033077371533201932 -0.00063193673870896199 0 0.0032871856031498532 -0.0006963956768579275 0 0.0032429477940562027 -0.00063412854229399137 0 0.0019095662557977108 -0.0030405622509403372 0 0.0021968217532982383 -0.0024877257402046589 0 0.0033385070905556959 -0.00057741856024857974 0 0.0031332000780338685 -0.00056923442797640763 0 0.0031726818810011966 -0.00059119607210620403 0 0.0021968217532982383 -0.0024877257402046589 0 0.0022719903324113925 -0.0022453779700312036 0 0.0031287720693748489 -0.00056782740126471451 0 0.0031726818810011966 -0.00059119607210620403 0 0.0031810351803407077 -0.0006806298381732027 0 0.0033385070905556959 -0.00057741856024857974 0 0.0031726818810011966 -0.00059119607210620403 0 0.0032429477940562027 -0.00063412854229399137 0 0.0031726818810011966 -0.00059119607210620403 0 0.0032429477940562027 -0.00063412854229399137 0 0.0031810351803407077 -0.0006806298381732027 0 0.0032871856031498532 -0.0006963956768579275 0 0.0032429477940562027 -0.00063412854229399137 0 0.0031810351803407077 -0.0006806298381732027 0 0.0031287720693748489 -0.00056782740126471451 0 0.0031810351803407077 -0.0006806298381732027 0 0.0030923645567247264 -0.00073661974163822532 0 0.0030923645567247264 -0.00073661974163822532 0 0.0032462075718910376 -0.000821104487106232 0 0.003108070119959767 -0.00086587975665212568 0 0.0031810351803407077 -0.0006806298381732027 0 0.0030923645567247264 -0.00073661974163822532 0 0.0032462075718910376 -0.000821104487106232 0 0.0032871856031498532 -0.0006963956768579275 0 0.0031810351803407077 -0.0006806298381732027 0 0.0032462075718910376 -0.000821104487106232 0 0.0032462075718910376 -0.000821104487106232 0 0.003108070119959767 -0.00086587975665212568 0 0.0031934753896440621 -0.00096670690244803818 0 0.0032462075718910376 -0.000821104487106232 0 0.0034379112058794273 -0.00088631859016113207 0 0.0031934753896440621 -0.00096670690244803818 0 0.0033802167628925735 -0.00061516362296435432 0 0.0032871856031498532 -0.0006963956768579275 0 0.0034379112058794273 -0.00088631859016113207 0 0.0026104073147200551 -0.0017970420946651858 0 0.0036001004164716846 -0.00036362316075474208 0 0.0032871856031498532 -0.0006963956768579275 0 0.0032462075718910376 -0.000821104487106232 0 0.0034379112058794273 -0.00088631859016113207 0 0.0034400818667559511 -0.00052738078731533308 0 0.0034379112058794273 -0.00088631859016113207 0 0.0036766216051730889 -0.00074618167192036153 0 0.0034379112058794273 -0.00088631859016113207 0 0.003391956724404766 -0.00103900872298864 0 0.00363848414653818 -0.0009896630201842655 0 0.0034379112058794273 -0.00088631859016113207 0 0.003391956724404766 -0.00103900872298864 0 0.0031934753896440621 -0.00096670690244803818 0 0.003108070119959767 -0.00086587975665212568 0 0.0031934753896440621 -0.00096670690244803818 0 0.0030454349965291353 -0.0010760863891930809 0 0.0031702286939754151 -0.0010988724215164811 0 0.003391956724404766 -0.00103900872298864 0 0.0031934753896440621 -0.00096670690244803818 0 0.0018642118531169217 -0.0015029708918953848 0 0.0028400585398518263 -0.00082268610764623426 0 0.0031484332959749364 -0.0011417531204520029 0 0.0031934753896440621 -0.00096670690244803818 0 0.0030454349965291353 -0.0010760863891930809 0 0.0018642118531169217 -0.0015029708918953848 0 -0.00036686009815736293 -0.003053412754022418 0 -0.0021995813365189953 -0.003935947292148731 0 -0.0022401689368067973 -0.0039665921312556579 0 -0.0021717728080221225 -0.0039841690890688444 0 0.003108070119959767 -0.00086587975665212568 0 0.0030454349965291353 -0.0010760863891930809 0 0.0029338675927461796 -0.00081879369741942544 0 -0.00036686009815736293 -0.003053412754022418 0 -0.0020844195937259873 -0.0044409241740545908 0 -0.0022401689368067973 -0.0039665921312556579 0 -0.0021717728080221225 -0.0039841690890688444 0 -0.0021564740151793142 -0.004069768011839745 0 -0.0015716682656094058 -0.0044782801973170623 0 -0.001485018225674917 -0.0045790918670219009 0 -0.0015461114935087217 -0.0045924643896136938 0 -0.00036686009815736293 -0.003053412754022418 0 0.0007743201732911244 -0.0026309377065517375 0 -0.0021180943987870525 -0.0040168522547245683 0 -0.0021717728080221225 -0.0039841690890688444 0 -0.0021239885244395151 -0.003967647851271898 0 -0.0021180943987870525 -0.0040168522547245683 0 -0.0021717728080221225 -0.0039841690890688444 0 -0.0021564740151793142 -0.004069768011839745 0 -0.0014784570865048151 -0.0046550889737486572 0 -0.001485018225674917 -0.0045790918670219009 0 -0.0015461114935087217 -0.0045924643896136938 0 0.0030923645567247264 -0.00073661974163822532 0 0.003108070119959767 -0.00086587975665212568 0 0.0029338675927461796 -0.00081879369741942544 0 -0.0017662977948321667 -0.0034836773316115669 0 -0.0018249052444327483 -0.0033872372701414218 0 -0.0016938998483707803 -0.0033473149634159092 0 -0.0017662977948321667 -0.0034836773316115669 0 -0.001855373510250293 -0.003467425285438168 0 -0.0018249052444327483 -0.0033872372701414218 0 -0.001855373510250293 -0.003467425285438168 0 -0.0018249052444327483 -0.0033872372701414218 0 -0.0018854105366792535 -0.0033929662245949328 0 -0.0017662977948321667 -0.0034836773316115669 0 -0.001855373510250293 -0.003467425285438168 0 -0.0018583857304249314 -0.0035438386631518664 0 -0.0018249052444327483 -0.0033872372701414218 0 -0.0018656968051371696 -0.0033494231429733387 0 -0.0018854105366792535 -0.0033929662245949328 0 -0.0018404702732757962 -0.0033796753156920584 0 -0.0019571144595637263 -0.0032859971183323675 0 -0.0018249052444327483 -0.0033872372701414218 0 -0.0020365095681659519 -0.0032345330018559841 0 -0.001872973581145794 -0.0032447885571094521 0 -0.0018249052444327483 -0.0033872372701414218 0 -0.001872973581145794 -0.0032447885571094521 0 -0.0016938998483707803 -0.0033473149634159092 0 -0.001872973581145794 -0.0032447885571094521 0 -0.0016938998483707803 -0.0033473149634159092 0 -0.0017984885642486907 -0.0031036495064022031 0 -0.0016434590939261966 -0.0031280139044618672 0 -0.0016938998483707803 -0.0033473149634159092 0 -0.0017984885642486907 -0.0031036495064022031 0 -0.0016434590939261966 -0.0031280139044618672 0 -0.0017984885642486907 -0.0031036495064022031 0 -0.0016952791560128804 -0.0029478520779043587 0 -0.0018306773037567812 -0.00264418085231915 0 -0.0016952791560128804 -0.0029478520779043587 0 -0.0019107085996538371 -0.002881800571289925 0 -0.0017984885642486907 -0.0031036495064022031 0 -0.0016952791560128804 -0.0029478520779043587 0 -0.0019107085996538371 -0.002881800571289925 0 -0.0015210117167432601 -0.002815564206783092 0 -0.0018306773037567812 -0.00264418085231915 0 -0.0016952791560128804 -0.0029478520779043587 0 -0.0020953154596535001 -0.0026945939658600932 0 -0.0019107085996538371 -0.002881800571289925 0 -0.0021055999980804092 -0.0029003961905114078 0 -0.0019107085996538371 -0.002881800571289925 0 -0.002003775679466423 -0.0030584838300054622 0 -0.0021055999980804092 -0.0029003961905114078 0 -0.0017984885642486907 -0.0031036495064022031 0 -0.0019107085996538371 -0.002881800571289925 0 -0.002003775679466423 -0.0030584838300054622 0 -0.001872973581145794 -0.0032447885571094521 0 -0.0017984885642486907 -0.0031036495064022031 0 -0.002003775679466423 -0.0030584838300054622 0 -0.0020365095681659519 -0.0032345330018559841 0 -0.001872973581145794 -0.0032447885571094521 0 -0.002003775679466423 -0.0030584838300054622 0 -0.0020365095681659519 -0.0032345330018559841 0 -0.002003775679466423 -0.0030584838300054622 0 -0.0022216660961157232 -0.0030636490068529582 0 -0.002003775679466423 -0.0030584838300054622 0 -0.0022216660961157232 -0.0030636490068529582 0 -0.0021055999980804092 -0.0029003961905114078 0 -0.0019571144595637263 -0.0032859971183323675 0 -0.0018777025364573284 -0.0030558955817570686 0 -0.0018777025364573284 -0.0030558955817570686 0 -0.0019458061755212018 -0.0026733279808080317 0 -0.0022216660961157232 -0.0030636490068529582 0 -0.0021055999980804092 -0.0029003961905114078 0 -0.0022995589836310795 -0.0028071832431272757 0 -0.0020953154596535001 -0.0026945939658600932 0 -0.0021055999980804092 -0.0029003961905114078 0 -0.0022995589836310795 -0.0028071832431272757 0 -0.0014936202162191977 -0.0028013452348796017 0 -0.0018519261661755894 -0.0024588913967333614 0 -0.0016257865955597475 -0.002362404711068319 0 -0.0018315612221187411 -0.0021883214604874282 0 -0.0018519261661755894 -0.0024588913967333614 0 -0.0016257865955597475 -0.002362404711068319 0 -0.0018777025364573284 -0.0030558955817570686 0 -0.0019316595690787922 -0.0028568753523602092 0 -0.0019213372832078014 -0.0032055976944876542 0 -0.0020282050800397703 -0.0030900031085044962 0 -0.0020415207178035482 -0.0032349668741727586 0 -0.0019213372832078014 -0.0032055976944876542 0 -0.0020415207178035482 -0.0032349668741727586 0 -0.0019608414097773883 -0.0033173044064608924 0 -0.0020463515242253112 -0.003381015506387846 0 -0.0019608414097773883 -0.0033173044064608924 0 -0.0018854105366792535 -0.0033929662245949328 0 -0.0020415207178035482 -0.0032349668741727586 0 -0.0020463515242253112 -0.003381015506387846 0 -0.0019608414097773883 -0.0033173044064608924 0 -0.0020463515242253112 -0.003381015506387846 0 -0.0018854105366792535 -0.0033929662245949328 0 -0.0019176670640295432 -0.0034491821592170335 0 -0.0018656968051371696 -0.0033494231429733387 0 -0.0019173376522147686 -0.0032996101201347998 0 -0.0018854105366792535 -0.0033929662245949328 0 -0.0018777025364573284 -0.0030558955817570686 0 -0.0018839351291753779 -0.0034575702077955846 0 -0.0019213372832078014 -0.0032055976944876542 0 -0.0019608414097773883 -0.0033173044064608924 0 -0.0018854105366792535 -0.0033929662245949328 0 -0.0020463515242253112 -0.003381015506387846 0 -0.0019176670640295432 -0.0034491821592170335 0 -0.0019111835712065342 -0.0035451745770959482 0 -0.001855373510250293 -0.003467425285438168 0 -0.0018854105366792535 -0.0033929662245949328 0 -0.0019176670640295432 -0.0034491821592170335 0 -0.001855373510250293 -0.003467425285438168 0 -0.0019176670640295432 -0.0034491821592170335 0 -0.0019111835712065342 -0.0035451745770959482 0 -0.0019490396801085336 -0.0034864851647784813 0 -0.0019072042213336931 -0.0035603380103795628 0 -0.0018441664733932709 -0.0036652353926066848 0 -0.0018382970012549079 -0.0035647352393380475 0 -0.0019111835712065342 -0.0035451745770959482 0 -0.0018441664733932709 -0.0036652353926066848 0 -0.0018013400991908821 -0.0036305186109018396 0 -0.0018382970012549079 -0.0035647352393380475 0 -0.0018441664733932709 -0.0036652353926066848 0 -0.0018013400991908821 -0.0036305186109018396 0 -0.001770110897448349 -0.0036764457201722547 0 -0.0018013400991908821 -0.0036305186109018396 0 -0.0017585667254356951 -0.003614067656267515 0 -0.0018382970012549079 -0.0035647352393380475 0 -0.001770110897448349 -0.0036764457201722547 0 -0.0017330380779295514 -0.0036824884823343836 0 -0.0017585667254356951 -0.003614067656267515 0 -0.0018013400991908821 -0.0036305186109018396 0 -0.001770110897448349 -0.0036764457201722547 0 -0.0017585667254356951 -0.003614067656267515 0 -0.001673652398333918 -0.0037818638900693983 0 -0.0017126567866599443 -0.0038087752987807462 0 -0.001770110897448349 -0.0036764457201722547 0 -0.0017632303441795574 -0.0037175930463597857 0 -0.0017379540712056899 -0.0037187246555348704 0 -0.001770110897448349 -0.0036764457201722547 0 -0.0017379540712056899 -0.0037187246555348704 0 -0.0017330380779295514 -0.0036824884823343836 0 -0.0019490396801085336 -0.0034864851647784813 0 -0.001989951769227736 -0.0036570712096256662 0 -0.0018441664733932709 -0.0036652353926066848 0 -0.001770110897448349 -0.0036764457201722547 0 -0.0017632303441795574 -0.0037175930463597857 0 -0.0020415207178035482 -0.0032349668741727586 0 -0.0020463515242253112 -0.003381015506387846 0 -0.0021772759314726696 -0.0032170477376533449 0 -0.0020282050800397703 -0.0030900031085044962 0 -0.0020415207178035482 -0.0032349668741727586 0 -0.0021772759314726696 -0.0032170477376533449 0 -0.0021357739728992448 -0.00297335297168162 0 -0.0020282050800397703 -0.0030900031085044962 0 -0.0021772759314726696 -0.0032170477376533449 0 -0.0021357739728992448 -0.00297335297168162 0 -0.0021772759314726696 -0.0032170477376533449 0 -0.0023111294880854079 -0.0030482994027258288 0 -0.001989951769227736 -0.0036570712096256662 0 -0.0016188851356904643 -0.0022186374068887196 0 -0.0017632303441795574 -0.0037175930463597857 0 -0.0017379540712056899 -0.0037187246555348704 0 -0.001740933770837417 -0.0036790193488437368 0 -0.0017379540712056899 -0.0037187246555348704 0 -0.001740933770837417 -0.0036790193488437368 0 -0.001779030337324691 -0.0036741044011113005 0 -0.0013015964276369412 -0.00087260874156513046 0 -0.0011693097888324077 -0.0010320548673395746 0 -0.0013918718286329913 -0.001119516867340327 0 -0.0016188851356904643 -0.0022186374068887196 0 -0.0015546128813175204 -0.0024093286269616177 0 -0.0018517221095276678 -0.0037860669566786615 0 -0.001779030337324691 -0.0036741044011113005 0 -0.0017451532019266676 -0.0037558753833523729 0 -0.0017379540712056899 -0.0037187246555348704 0 -0.001779030337324691 -0.0036741044011113005 0 -0.0017451532019266676 -0.0037558753833523729 0 -0.0018207920955218301 -0.0039237083019981181 0 -0.0017451532019266676 -0.0037558753833523729 0 -0.0017145142133254006 -0.0038637433588073985 0 -0.0017379540712056899 -0.0037187246555348704 0 -0.0017451532019266676 -0.0037558753833523729 0 -0.0017330380779295514 -0.0036824884823343836 0 -0.0017451532019266676 -0.0037558753833523729 0 -0.0016199877196444489 -0.0038789633195595308 0 -0.0017145142133254006 -0.0038637433588073985 0 -0.0017412664226728769 -0.003749560354460875 0 -0.001673652398333918 -0.0037818638900693983 0 -0.0016199877196444489 -0.0038789633195595308 0 -0.0016646735513893896 -0.003942494904056521 0 -0.0017145142133254006 -0.0038637433588073985 0 -0.0016573901198593886 -0.0039921224328423035 0 -0.0017126567866599443 -0.0038087752987807462 0 -0.0016199877196444489 -0.0038789633195595308 0 -0.0016646735513893896 -0.003942494904056521 0 -0.0015182980646447912 -0.0039730505759433682 0 -0.0018295835697517198 -0.0039252233104871545 0 -0.0016573901198593886 -0.0039921224328423035 0 -0.0018207920955218301 -0.0039237083019981181 0 -0.0016646735513893896 -0.003942494904056521 0 -0.0017145142133254006 -0.0038637433588073985 0 -0.0018207920955218301 -0.0039237083019981181 0 -0.0017109001966184288 -0.0040067028079597018 0 -0.0017799514034404639 -0.004042157374273732 0 -0.0017799514034404639 -0.004042157374273732 0 -0.0016810146172972324 -0.0041244745516937509 0 -0.0017499326168887211 -0.0041501813610174045 0 -0.0018849408593768881 -0.0041350134487010588 0 -0.0017799514034404639 -0.004042157374273732 0 -0.0017499326168887211 -0.0041501813610174045 0 -0.0017109001966184288 -0.0040067028079597018 0 -0.0016810146172972324 -0.0041244745516937509 0 -0.001612856840469289 -0.0040620165725174101 0 -0.0017109001966184288 -0.0040067028079597018 0 -0.0017799514034404639 -0.004042157374273732 0 -0.0016810146172972324 -0.0041244745516937509 0 -0.0016810146172972324 -0.0041244745516937509 0 -0.001700037516024443 -0.0042223483493331561 0 -0.0016377192058107252 -0.004211537191107128 0 -0.0016810146172972324 -0.0041244745516937509 0 -0.001700037516024443 -0.0042223483493331561 0 -0.0017499326168887211 -0.0041501813610174045 0 -0.0018849408593768881 -0.0041350134487010588 0 -0.0017499326168887211 -0.0041501813610174045 0 -0.0017526319687728121 -0.0042702682796489158 0 -0.001700037516024443 -0.0042223483493331561 0 -0.0017499326168887211 -0.0041501813610174045 0 -0.0017526319687728121 -0.0042702682796489158 0 -0.0018235394712724717 -0.0042663393469861595 0 -0.0017526319687728121 -0.0042702682796489158 0 -0.0017776965842655995 -0.0043158172127858848 0 -0.0017526319687728121 -0.0042702682796489158 0 -0.0017776965842655995 -0.0043158172127858848 0 -0.0017183850277638294 -0.0043739038999351925 0 -0.0018165678303510714 -0.004353384947702316 0 -0.0017776965842655995 -0.0043158172127858848 0 -0.0017183850277638294 -0.0043739038999351925 0 -0.0017515178489790173 -0.0045783383432987232 0 -0.0016797350466216129 -0.0045247265045375755 0 -0.001717870635002036 -0.0046797967977144257 0 -0.0016365208081469847 -0.0046852483198958073 0 -0.0016694919898297535 -0.0047108469858203458 0 -0.0017526319687728121 -0.0042702682796489158 0 -0.0017183850277638294 -0.0043739038999351925 0 -0.001675115068017479 -0.0042990516451509976 0 -0.0017183850277638294 -0.0043739038999351925 0 -0.001675115068017479 -0.0042990516451509976 0 -0.0016206763374127587 -0.0044092223123675736 0 -0.0016797350466216129 -0.0045247265045375755 0 -0.0015923414125512225 -0.0045452740109920946 0 -0.001700037516024443 -0.0042223483493331561 0 -0.001675115068017479 -0.0042990516451509976 0 -0.0016377192058107252 -0.004211537191107128 0 -0.001700037516024443 -0.0042223483493331561 0 -0.0017526319687728121 -0.0042702682796489158 0 -0.001675115068017479 -0.0042990516451509976 0 -0.001675115068017479 -0.0042990516451509976 0 -0.0016120075366268844 -0.0043075233905521338 0 -0.0016377192058107252 -0.004211537191107128 0 -0.0016120075366268844 -0.0043075233905521338 0 -0.0015721779600529416 -0.0042485936235176387 0 -0.0016377192058107252 -0.004211537191107128 0 -0.001675115068017479 -0.0042990516451509976 0 -0.0016120075366268844 -0.0043075233905521338 0 -0.0016206763374127587 -0.0044092223123675736 0 -0.0016120075366268844 -0.0043075233905521338 0 -0.0016206763374127587 -0.0044092223123675736 0 -0.0015517777004836 -0.0043531066078723712 0 -0.0016206763374127587 -0.0044092223123675736 0 -0.0015517777004836 -0.0043531066078723712 0 -0.0015260780163982818 -0.00446306247815869 0 -0.0015923414125512225 -0.0045452740109920946 0 -0.0015105161145620388 -0.0045585919575861274 0 -0.0015517777004836 -0.0043531066078723712 0 -0.001527173194012737 -0.0042887924647492257 0 -0.0015024879615729079 -0.0043458295227637254 0 -0.0016120075366268844 -0.0043075233905521338 0 -0.0015517777004836 -0.0043531066078723712 0 -0.0015721779600529416 -0.0042485936235176387 0 -0.0015517777004836 -0.0043531066078723712 0 -0.001527173194012737 -0.0042887924647492257 0 -0.0015721779600529416 -0.0042485936235176387 0 -0.001527173194012737 -0.0042887924647492257 0 -0.0015278990974652569 -0.0041880984898456488 0 -0.0015721779600529416 -0.0042485936235176387 0 -0.0015278990974652569 -0.0041880984898456488 0 -0.0015721779600529416 -0.0042485936235176387 0 -0.0016065799106882524 -0.004166672197793716 0 -0.0016810146172972324 -0.0041244745516937509 0 -0.0016377192058107252 -0.004211537191107128 0 -0.0016065799106882524 -0.004166672197793716 0 -0.0015721779600529416 -0.0042485936235176387 0 -0.0016377192058107252 -0.004211537191107128 0 -0.0016065799106882524 -0.004166672197793716 0 -0.0016810146172972324 -0.0041244745516937509 0 -0.0016065799106882524 -0.004166672197793716 0 -0.001612856840469289 -0.0040620165725174101 0 -0.0017710116453892198 -0.0038473392726722415 0 -0.0017126567866599443 -0.0038087752987807462 0 -0.001949148026495771 -0.0035857355258514805 0 -0.0019482556498176533 -0.0035790370353183088 0 -0.0019458799771697784 -0.0035760389417047291 0 -0.0015278990974652569 -0.0041880984898456488 0 -0.0016065799106882524 -0.004166672197793716 0 -0.001612856840469289 -0.0040620165725174101 0 -0.0017126567866599443 -0.0038087752987807462 0 -0.0019274248061596879 -0.0035474552603625784 0 -0.0019458799771697784 -0.0035760389417047291 0 -0.0019235382585897269 -0.0035769120039087963 0 -0.0019038560685995514 -0.0035559087509058145 0 -0.0018382970012549079 -0.0035647352393380475 0 -0.0019111835712065342 -0.0035451745770959482 0 -0.0019038560685995514 -0.0035559087509058145 0 -0.0019274248061596879 -0.0035474552603625784 0 -0.001885953376456366 -0.0035651296236980899 0 -0.0019458799771697784 -0.0035760389417047291 0 -0.0019235382585897269 -0.0035769120039087963 0 -0.0019359328855513603 -0.0035820650735975484 0 -0.001949148026495771 -0.0035857355258514805 0 -0.0019458799771697784 -0.0035760389417047291 0 -0.0019359328855513603 -0.0035820650735975484 0 -0.0019111835712065342 -0.0035451745770959482 0 -0.0019038560685995514 -0.0035559087509058145 0 -0.0018583857304249314 -0.0035438386631518664 0 -0.001855373510250293 -0.003467425285438168 0 -0.0019111835712065342 -0.0035451745770959482 0 -0.0018583857304249314 -0.0035438386631518664 0 -0.0019038560685995514 -0.0035559087509058145 0 -0.0018705992685772381 -0.003580488426085454 0 -0.0018583857304249314 -0.0035438386631518664 0 -0.0019235382585897269 -0.0035769120039087963 0 -0.0019038560685995514 -0.0035559087509058145 0 -0.0019057445361587424 -0.0035901087880825786 0 -0.0018859624768696594 -0.0036090424020763009 0 -0.0019157809402606907 -0.003642138234063804 0 -0.0018202226317173891 -0.0036115399424970079 0 -0.0019057445361587424 -0.0035901087880825786 0 -0.0019084644952355571 -0.0036102686026310313 0 -0.0019241973148999855 -0.003599141536957885 0 -0.0016248105687222784 -0.0042111776472755344 0 -0.0016382825821165778 -0.0040432299056402179 0 -0.0019057445361587424 -0.0035901087880825786 0 -0.0018705992685772381 -0.003580488426085454 0 -0.0018859624768696594 -0.0036090424020763009 0 -0.0019038560685995514 -0.0035559087509058145 0 -0.0019057445361587424 -0.0035901087880825786 0 -0.0018705992685772381 -0.003580488426085454 0 -0.0018859624768696594 -0.0036090424020763009 0 -0.0019084644952355571 -0.0036102686026310313 0 -0.0019157809402606907 -0.003642138234063804 0 -0.0019057445361587424 -0.0035901087880825786 0 -0.0018859624768696594 -0.0036090424020763009 0 -0.0019084644952355571 -0.0036102686026310313 0 -0.001949148026495771 -0.0035857355258514805 0 -0.0019241973148999855 -0.003599141536957885 0 -0.0019157809402606907 -0.003642138234063804 0 -0.0019084644952355571 -0.0036102686026310313 0 -0.0019241973148999855 -0.003599141536957885 0 -0.0019157809402606907 -0.003642138234063804 0 -0.0017710116453892198 -0.0038473392726722415 0 -0.0016248105687222784 -0.0042111776472755344 0 -0.0015278990974652569 -0.0041880984898456488 0 -0.0014892771678780524 -0.0043006785762999839 0 -0.0014437786883393423 -0.0043322268302155471 0 -0.0019235382585897269 -0.0035769120039087963 0 -0.0019057445361587424 -0.0035901087880825786 0 -0.0019241973148999855 -0.003599141536957885 0 -0.0019235382585897269 -0.0035769120039087963 0 -0.0019359328855513603 -0.0035820650735975484 0 -0.0019241973148999855 -0.003599141536957885 0 -0.001949148026495771 -0.0035857355258514805 0 -0.0019359328855513603 -0.0035820650735975484 0 -0.0019241973148999855 -0.003599141536957885 0 -0.001527173194012737 -0.0042887924647492257 0 -0.0015278990974652569 -0.0041880984898456488 0 -0.0014892771678780524 -0.0043006785762999839 0 -0.001527173194012737 -0.0042887924647492257 0 -0.0014892771678780524 -0.0043006785762999839 0 -0.0015024879615729079 -0.0043458295227637254 0 -0.0014892771678780524 -0.0043006785762999839 0 -0.0014572909451070063 -0.0043409616419941583 0 -0.0015024879615729079 -0.0043458295227637254 0 -0.0014892771678780524 -0.0043006785762999839 0 -0.0014572909451070063 -0.0043409616419941583 0 -0.0014437786883393423 -0.0043322268302155471 0 -0.0014572909451070063 -0.0043409616419941583 0 -0.0014520317486352845 -0.0043725231902421871 0 -0.0014446858276311167 -0.0043349191241365175 0 -0.0016009118955624937 -0.0042124221859747239 0 -0.0016248105687222784 -0.0042111776472755344 0 -0.0014704872830483002 -0.004394349761128671 0 -0.0015024879615729079 -0.0043458295227637254 0 -0.0015040689301385644 -0.0044078721855115698 0 -0.0014572909451070063 -0.0043409616419941583 0 -0.0014704872830483002 -0.004394349761128671 0 -0.0015024879615729079 -0.0043458295227637254 0 -0.0014572909451070063 -0.0043409616419941583 0 -0.0014704872830483002 -0.004394349761128671 0 -0.0014520317486352845 -0.0043725231902421871 0 -0.0015517777004836 -0.0043531066078723712 0 -0.0015024879615729079 -0.0043458295227637254 0 -0.0015040689301385644 -0.0044078721855115698 0 -0.0014653508868873316 -0.0044657355950060975 0 -0.0015260780163982818 -0.00446306247815869 0 -0.0014260104888189371 -0.0045740458209728553 0 -0.0015105161145620388 -0.0045585919575861274 0 -0.0014215993621352078 -0.0045713700743743348 0 -0.0015517777004836 -0.0043531066078723712 0 -0.0015040689301385644 -0.0044078721855115698 0 -0.0015260780163982818 -0.00446306247815869 0 -0.0014704872830483002 -0.004394349761128671 0 -0.0015040689301385644 -0.0044078721855115698 0 -0.0014653508868873316 -0.0044657355950060975 0 -0.0015040689301385644 -0.0044078721855115698 0 -0.0014653508868873316 -0.0044657355950060975 0 -0.0015260780163982818 -0.00446306247815869 0 -0.0014653508868873316 -0.0044657355950060975 0 -0.0013876327291133905 -0.0044654465083154883 0 -0.0014260104888189371 -0.0045740458209728553 0 -0.0014653508868873316 -0.0044657355950060975 0 -0.0013876327291133905 -0.0044654465083154883 0 -0.0014349656308358606 -0.0044197502487643642 0 -0.0014704872830483002 -0.004394349761128671 0 -0.0014653508868873316 -0.0044657355950060975 0 -0.0014349656308358606 -0.0044197502487643642 0 -0.0013991997103976919 -0.0045558383359788884 0 -0.0014216341582422084 -0.004532470460659215 0 -0.0013917807033698932 -0.0045381129421614499 0 -0.0014216341582422084 -0.004532470460659215 0 -0.0013917807033698932 -0.0045381129421614499 0 -0.0013768663937253384 -0.0045187660701729556 0 -0.0013876327291133905 -0.0044654465083154883 0 -0.0014349656308358606 -0.0044197502487643642 0 -0.0014446858276311167 -0.0043349191241365175 0 -0.0013577263213077001 -0.0045454296906330188 0 -0.0016248105687222784 -0.0042111776472755344 0 -0.0014349656308358606 -0.0044197502487643642 0 -0.0014520317486352845 -0.0043725231902421871 0 -0.0014446858276311167 -0.0043349191241365175 0 -0.0014704872830483002 -0.004394349761128671 0 -0.0014349656308358606 -0.0044197502487643642 0 -0.0014520317486352845 -0.0043725231902421871 0 -0.0013991997103976919 -0.0045558383359788884 0 -0.0013917807033698932 -0.0045381129421614499 0 -0.0013717824801189617 -0.0045461307936326993 0 -0.0013917807033698932 -0.0045381129421614499 0 -0.0013717824801189617 -0.0045461307936326993 0 -0.0013768663937253384 -0.0045187660701729556 0 -0.0013991997103976919 -0.0045558383359788884 0 -0.0013659939156170356 -0.0045851719984379685 0 -0.0013717824801189617 -0.0045461307936326993 0 -0.0013876327291133905 -0.0044654465083154883 0 -0.0013659939156170356 -0.0045851719984379685 0 -0.0014260104888189371 -0.0045740458209728553 0 -0.0013577263213077001 -0.0045454296906330188 0 -0.0013815674797435949 -0.0045556505738982107 0 -0.0013531262574844733 -0.004529892888249871 0 -0.0013440269352178358 -0.0045936552774725531 0 -0.0013717824801189617 -0.0045461307936326993 0 -0.0013440269352178358 -0.0045936552774725531 0 -0.0013659939156170356 -0.0045851719984379685 0 -0.0013717824801189617 -0.0045461307936326993 0 -0.0013531262574844733 -0.004529892888249871 0 -0.0013717824801189617 -0.0045461307936326993 0 -0.0013768663937253384 -0.0045187660701729556 0 -0.0013734602422599863 -0.0045220851225231075 0 -0.0013531262574844733 -0.004529892888249871 0 -0.0013768663937253384 -0.0045187660701729556 0 -0.0018705992685772381 -0.003580488426085454 0 -0.0018859624768696594 -0.0036090424020763009 0 -0.0018202226317173891 -0.0036115399424970079 0 -0.0017662977948321667 -0.0034836773316115669 0 -0.0018202226317173891 -0.0036115399424970079 0 -0.0018583857304249314 -0.0035438386631518664 0 -0.0018705992685772381 -0.003580488426085454 0 -0.0018202226317173891 -0.0036115399424970079 0 -0.0018583857304249314 -0.0035438386631518664 0 -0.0016668409910441013 -0.0035368873014347459 0 -0.0017662977948321667 -0.0034836773316115669 0 -0.0018202226317173891 -0.0036115399424970079 0 -0.0013373829200092962 -0.0040837099220290196 0 -0.0016382825821165778 -0.0040432299056402179 0 -0.0014203286526901743 -0.0048895225691270678 0 -0.0013092424493763894 -0.004802903711746246 0 -0.0013325448568701729 -0.0049414117932369845 0 -0.0012334985805483082 -0.0048541830354976211 0 -0.0013092424493763894 -0.004802903711746246 0 -0.0013325448568701729 -0.0049414117932369845 0 -0.0014203286526901743 -0.0048895225691270678 0 -0.0013092424493763894 -0.004802903711746246 0 -0.0013874877372635679 -0.0047342810321075162 0 -0.0012313739380313651 -0.0047821937485525755 0 -0.0014216491661129733 -0.0047169616380149382 0 -0.001350182351702764 -0.0047116042423812031 0 -0.0013470364155606358 -0.0046609254620462353 0 -0.0013874877372635679 -0.0047342810321075162 0 -0.0013440269352178358 -0.0045936552774725531 0 -0.0013659939156170356 -0.0045851719984379685 0 -0.0013470364155606358 -0.0046609254620462353 0 -0.0013659939156170356 -0.0045851719984379685 0 -0.0013470364155606358 -0.0046609254620462353 0 -0.0014018743085915256 -0.004658765753104665 0 -0.0013659939156170356 -0.0045851719984379685 0 -0.0014018743085915256 -0.004658765753104665 0 -0.0014260104888189371 -0.0045740458209728553 0 -0.0013470364155606358 -0.0046609254620462353 0 -0.0014018743085915256 -0.004658765753104665 0 -0.0013874877372635679 -0.0047342810321075162 0 -0.0014018743085915256 -0.004658765753104665 0 -0.0013874877372635679 -0.0047342810321075162 0 -0.00145925565252601 -0.0047339044812771264 0 -0.0014018743085915256 -0.004658765753104665 0 -0.00145925565252601 -0.0047339044812771264 0 -0.0014705760531258238 -0.0046694850242173323 0 -0.0014018743085915256 -0.004658765753104665 0 -0.0014260104888189371 -0.0045740458209728553 0 -0.0014705760531258238 -0.0046694850242173323 0 -0.0015138560385522918 -0.0046521428064971405 0 -0.0014705760531258238 -0.0046694850242173323 0 -0.0015234034130943057 -0.0047264202388594698 0 -0.0015138560385522918 -0.0046521428064971405 0 -0.0014260104888189371 -0.0045740458209728553 0 -0.0014705760531258238 -0.0046694850242173323 0 -0.00145925565252601 -0.0047339044812771264 0 -0.0015014015154898729 -0.0048127706613732653 0 -0.0015234034130943057 -0.0047264202388594698 0 -0.00145925565252601 -0.0047339044812771264 0 -0.0014705760531258238 -0.0046694850242173323 0 -0.0015234034130943057 -0.0047264202388594698 0 -0.0015014015154898729 -0.0048127706613732653 0 -0.0014550982752373342 -0.0048121015161825586 0 -0.0014885285864589916 -0.0048858434582899025 0 -0.00145925565252601 -0.0047339044812771264 0 -0.0015014015154898729 -0.0048127706613732653 0 -0.0014550982752373342 -0.0048121015161825586 0 -0.0014203286526901743 -0.0048895225691270678 0 -0.0013874877372635679 -0.0047342810321075162 0 -0.0014550982752373342 -0.0048121015161825586 0 -0.0013874877372635679 -0.0047342810321075162 0 -0.00145925565252601 -0.0047339044812771264 0 -0.0014550982752373342 -0.0048121015161825586 0 -0.0014203286526901743 -0.0048895225691270678 0 -0.0014885285864589916 -0.0048858434582899025 0 -0.0015146687118711658 -0.0049666859956360634 0 -0.0014203286526901743 -0.0048895225691270678 0 -0.0014550982752373342 -0.0048121015161825586 0 -0.0014885285864589916 -0.0048858434582899025 0 -0.0014885285864589916 -0.0048858434582899025 0 -0.0015353822554182951 -0.0049128178993666487 0 -0.0015146687118711658 -0.0049666859956360634 0 -0.0015014015154898729 -0.0048127706613732653 0 -0.0014885285864589916 -0.0048858434582899025 0 -0.0015353822554182951 -0.0049128178993666487 0 -0.0015353822554182951 -0.0049128178993666487 0 -0.0015760365776053401 -0.0048405859460064231 0 -0.0015581574345232608 -0.0049807485745471513 0 -0.0015014015154898729 -0.0048127706613732653 0 -0.0015353822554182951 -0.0049128178993666487 0 -0.0015422377137547484 -0.0048034057618490467 0 -0.0015353822554182951 -0.0049128178993666487 0 -0.0015760365776053401 -0.0048405859460064231 0 -0.0015422377137547484 -0.0048034057618490467 0 -0.0015422377137547484 -0.0048034057618490467 0 -0.0015234034130943057 -0.0047264202388594698 0 -0.0015713453969271023 -0.00475662556154062 0 -0.0015014015154898729 -0.0048127706613732653 0 -0.0015422377137547484 -0.0048034057618490467 0 -0.0015234034130943057 -0.0047264202388594698 0 -0.0015698441101329593 -0.0046809957010307901 0 -0.0015138560385522918 -0.0046521428064971405 0 -0.0015234034130943057 -0.0047264202388594698 0 -0.0015698441101329593 -0.0046809957010307901 0 -0.0015234034130943057 -0.0047264202388594698 0 -0.0015713453969271023 -0.00475662556154062 0 -0.0015698441101329593 -0.0046809957010307901 0 -0.0015713453969271023 -0.00475662556154062 0 -0.0016135543754222659 -0.0047278279080230287 0 -0.0015760365776053401 -0.0048405859460064231 0 -0.0015422377137547484 -0.0048034057618490467 0 -0.0015713453969271023 -0.00475662556154062 0 -0.0015760365776053401 -0.0048405859460064231 0 -0.0015713453969271023 -0.00475662556154062 0 -0.0016064525588029676 -0.0047795704066612328 0 -0.0015760365776053401 -0.0048405859460064231 0 -0.001620548128925468 -0.0048064723764193601 0 -0.0016064525588029676 -0.0047795704066612328 0 -0.0016409951990041857 -0.0047602673239361404 0 -0.0016064525588029676 -0.0047795704066612328 0 -0.0016135543754222659 -0.0047278279080230287 0 -0.001620548128925468 -0.0048064723764193601 0 -0.0016409951990041857 -0.0047602673239361404 0 -0.0016064525588029676 -0.0047795704066612328 0 -0.0015713453969271023 -0.00475662556154062 0 -0.0016064525588029676 -0.0047795704066612328 0 -0.0016135543754222659 -0.0047278279080230287 0 -0.0016409951990041857 -0.0047602673239361404 0 -0.0016135543754222659 -0.0047278279080230287 0 -0.0016694919898297535 -0.0047108469858203458 0 -0.0016365208081469847 -0.0046852483198958073 0 -0.0016135543754222659 -0.0047278279080230287 0 -0.0016694919898297535 -0.0047108469858203458 0 -0.0016365208081469847 -0.0046852483198958073 0 -0.0015698441101329593 -0.0046809957010307901 0 -0.0016135543754222659 -0.0047278279080230287 0 -0.0016409951990041857 -0.0047602673239361404 0 -0.0016694919898297535 -0.0047108469858203458 0 -0.0016982045257823589 -0.0047696128032261075 0 -0.0017168372959667296 -0.0046823952435453026 0 -0.0016694919898297535 -0.0047108469858203458 0 -0.0016982045257823589 -0.0047696128032261075 0 -0.0017515178489790173 -0.0045783383432987232 0 -0.001651795656756953 -0.0047163811303327806 0 -0.001620548128925468 -0.0048064723764193601 0 -0.0016409951990041857 -0.0047602673239361404 0 -0.0016982045257823589 -0.0047696128032261075 0 -0.001620548128925468 -0.0048064723764193601 0 -0.0016982045257823589 -0.0047696128032261075 0 -0.00160334353988769 -0.004878629969221007 0 -0.0014910972435555549 -0.0049291758816769381 0 -0.0015198452085087471 -0.0048930335041349297 0 -0.00160334353988769 -0.004878629969221007 0 -0.0016121019446508277 -0.0048492247390525952 0 -0.0015978870715631936 -0.0048733696347405698 0 -0.0015760365776053401 -0.0048405859460064231 0 -0.001620548128925468 -0.0048064723764193601 0 -0.00160334353988769 -0.004878629969221007 0 -0.00160334353988769 -0.004878629969221007 0 -0.0015823610257377028 -0.0048685883479244445 0 -0.0015581574345232608 -0.0049807485745471513 0 -0.0014942524841592474 -0.0049759062916555309 0 -0.0015457647978981684 -0.0049812255084420451 0 -0.0015760365776053401 -0.0048405859460064231 0 -0.00160334353988769 -0.004878629969221007 0 -0.0015581574345232608 -0.0049807485745471513 0 -0.0015198452085087471 -0.0048930335041349297 0 -0.00160334353988769 -0.004878629969221007 0 -0.0015823610257377028 -0.0048685883479244445 0 -0.0014523098793248332 -0.0050402617986516178 0 -0.0013673415191822141 -0.0050609340154539571 0 -0.0013565922961749589 -0.0050570951792244063 0 -0.0014165053301154081 -0.0050855617160799633 0 -0.0014523098793248332 -0.0050402617986516178 0 -0.0013673415191822141 -0.0050609340154539571 0 -0.0014523098793248332 -0.0050402617986516178 0 -0.0015270229782070885 -0.0050194424403305132 0 -0.0015581574345232608 -0.0049807485745471513 0 -0.0014165053301154081 -0.0050855617160799633 0 -0.0014523098793248332 -0.0050402617986516178 0 -0.0015581574345232608 -0.0049807485745471513 0 -0.0014523098793248332 -0.0050402617986516178 0 -0.0015072789359180264 -0.0050490656492787091 0 -0.0015270229782070885 -0.0050194424403305132 0 -0.0014523098793248332 -0.0050402617986516178 0 -0.0015072789359180264 -0.0050490656492787091 0 -0.0013937563441604969 -0.0050569277699484922 0 -0.0014523098793248332 -0.0050402617986516178 0 -0.0013937563441604969 -0.0050569277699484922 0 -0.0013565922961749589 -0.0050570951792244063 0 -0.0013937563441604969 -0.0050569277699484922 0 -0.0014243736469716341 -0.0050453005218779679 0 -0.0012888918271921517 -0.0050546720420446374 0 -0.0014243736469716341 -0.0050453005218779679 0 -0.0013184974261375593 -0.0049999256153007432 0 -0.0012888918271921517 -0.0050546720420446374 0 -0.0014243736469716341 -0.0050453005218779679 0 -0.0015471737249789688 -0.0049999036654800695 0 -0.0016213013957983398 -0.0050451728949959789 0 -0.0014243736469716341 -0.0050453005218779679 0 -0.0013184974261375593 -0.0049999256153007432 0 -0.0015471737249789688 -0.0049999036654800695 0 -0.0015072789359180264 -0.0050490656492787091 0 -0.0013937563441604969 -0.0050569277699484922 0 -0.0014243736469716341 -0.0050453005218779679 0 -0.0015072789359180264 -0.0050490656492787091 0 -0.0014243736469716341 -0.0050453005218779679 0 -0.0016213013957983398 -0.0050451728949959789 0 -0.0015072789359180264 -0.0050490656492787091 0 -0.0016213013957983398 -0.0050451728949959789 0 -0.0015702576880552495 -0.0050130023704768375 0 -0.0015471737249789688 -0.0049999036654800695 0 -0.0016213013957983398 -0.0050451728949959789 0 -0.0017748380784123343 -0.0050000656108613517 0 -0.0016213013957983398 -0.0050451728949959789 0 -0.0017748380784123343 -0.0050000656108613517 0 -0.0015817366577721827 -0.0050502025698253563 0 -0.0016213013957983398 -0.0050451728949959789 0 -0.0015702576880552495 -0.0050130023704768375 0 -0.0015817366577721827 -0.0050502025698253563 0 -0.0015072789359180264 -0.0050490656492787091 0 -0.0015702576880552495 -0.0050130023704768375 0 -0.0015270229782070885 -0.0050194424403305132 0 -0.0015353822554182951 -0.0049128178993666487 0 -0.0015702576880552495 -0.0050130023704768375 0 -0.0015581574345232608 -0.0049807485745471513 0 -0.0015702576880552495 -0.0050130023704768375 0 -0.0015270229782070885 -0.0050194424403305132 0 -0.0015581574345232608 -0.0049807485745471513 0 -0.0015353822554182951 -0.0049128178993666487 0 -0.0015702576880552495 -0.0050130023704768375 0 -0.0015146687118711658 -0.0049666859956360634 0 -0.0015702576880552495 -0.0050130023704768375 0 -0.0015146687118711658 -0.0049666859956360634 0 -0.0015817366577721827 -0.0050502025698253563 0 -0.0015146687118711658 -0.0049666859956360634 0 -0.0015817366577721827 -0.0050502025698253563 0 -0.0014458121593253889 -0.0050144035334674245 0 -0.0014203286526901743 -0.0048895225691270678 0 -0.0015146687118711658 -0.0049666859956360634 0 -0.0014458121593253889 -0.0050144035334674245 0 -0.0017754927677461996 -0.005000000802734327 0 -0.0019918502717221659 -0.0051769437042676718 0 -0.002067141639235165 -0.0049999933359752627 0 -0.0017754546354063854 -0.0050000098378602913 0 -0.0017854486204271693 -0.005107761823706345 0 -0.0019918502717221659 -0.0051769437042676718 0 -0.002067141639235165 -0.0049999933359752627 0 -0.0022147051465046604 -0.0051529552646010284 0 -0.0017854486204271693 -0.005107761823706345 0 -0.0018189904198453843 -0.0051660034585992356 0 -0.0019918502717221659 -0.0051769437042676718 0 -0.0022147051465046604 -0.0051529552646010284 0 -0.0022070998543369585 -0.0053451925714071771 0 -0.0022147051465046604 -0.0051529552646010284 0 -0.0024447996078388575 -0.0052392107820435248 0 -0.0022070998543369585 -0.0053451925714071771 0 -0.002067141639235165 -0.0049999933359752627 0 -0.0022147051465046604 -0.0051529552646010284 0 -0.0023587859680787161 -0.0049999934650595814 0 -0.0022147051465046604 -0.0051529552646010284 0 -0.0023587859680787161 -0.0049999934650595814 0 -0.0024447996078388575 -0.0052392107820435248 0 -0.0026504178415164424 -0.004999994601455001 0 -0.0023587859680787161 -0.0049999934650595814 0 -0.0024447996078388575 -0.0052392107820435248 0 -0.0024447996078388575 -0.0052392107820435248 0 -0.0022070998543369585 -0.0053451925714071771 0 -0.0024147704522147367 -0.0055057390478068869 0 -0.0025413865130850702 -0.0053902016592548875 0 -0.0024447996078388575 -0.0052392107820435248 0 -0.0024147704522147367 -0.0055057390478068869 0 -0.0018189904198453843 -0.0051660034585992356 0 -0.0018948453779464231 -0.0052855307446142601 0 -0.0014203286526901743 -0.0048895225691270678 0 -0.0014458121593253889 -0.0050144035334674245 0 -0.0013325448568701729 -0.0049414117932369845 0 0.00081044806255180821 -0.0045693636932897285 0 0.00085269760488567825 -0.0046776961515177786 0 0.00088719678273391927 -0.0045421507349265571 0 0.0001394178213738583 -0.005066558278605077 0 0.00020147003450671474 -0.0048619502744187016 0 0.00081044806255180821 -0.0045693636932897285 0 0.00085269760488567825 -0.0046776961515177786 0 0.00077034738378780492 -0.0046273682520893153 0 0.00081044806255180821 -0.0045693636932897285 0 0.00077034738378780492 -0.0046273682520893153 0 0.0007641060870792446 -0.0045670772254061522 0 0.0007796426108044555 -0.004438648614529677 0 0.00079883951270373979 -0.0044393603644192177 0 0.00076556108328836882 -0.0044273632283398038 0 0.00020147003450671474 -0.0048619502744187016 0 6.1559572792562673e-05 -0.0049505706938670754 0 -0.00057898461135863348 -0.0054303913838462834 0 -0.00059959796936892378 -0.0055139634257708754 0 -0.00068087512534126303 -0.0054404157300245283 0 -0.00065653216149128522 -0.0053855835484942641 0 -0.00057898461135863348 -0.0054303913838462834 0 -0.00060513019365663224 -0.0053538948325349105 0 -0.00065653216149128522 -0.0053855835484942641 0 -0.00057898461135863348 -0.0054303913838462834 0 -0.00068087512534126303 -0.0054404157300245283 0 -0.00065653216149128522 -0.0053855835484942641 0 -0.00068087512534126303 -0.0054404157300245283 0 -0.00070782477019195721 -0.0053760556070178113 0 -0.00057898461135863348 -0.0054303913838462834 0 -0.00054878987037717143 -0.0053354668154772678 0 -0.00060513019365663224 -0.0053538948325349105 0 0.0001394178213738583 -0.005066558278605077 0 -4.1820917049882927e-05 -0.0051417228923076588 0 0.00085269760488567825 -0.0046776961515177786 0 0.00074626247419704722 -0.0046992947338460132 0 0.00081168140396020933 -0.0048118069276351727 0 0.00085269760488567825 -0.0046776961515177786 0 0.00074626247419704722 -0.0046992947338460132 0 0.00077034738378780492 -0.0046273682520893153 0 0.00067515960233679442 -0.0047622568806470478 0 0.00074626247419704722 -0.0046992947338460132 0 0.00081168140396020933 -0.0048118069276351727 0 0.00067515960233679442 -0.0047622568806470478 0 0.00074626247419704722 -0.0046992947338460132 0 0.000674635736960439 -0.0046974044109414619 0 0.00074626247419704722 -0.0046992947338460132 0 0.000674635736960439 -0.0046974044109414619 0 0.0006822813525370812 -0.0046444514474336942 0 0.00067515960233679442 -0.0047622568806470478 0 0.00062855448656095572 -0.0047189592165560986 0 0.00056271499732650401 -0.0047774785323275526 0 0.00062855448656095572 -0.0047189592165560986 0 0.00058557444919491168 -0.0046988135370337218 0 0.00056271499732650401 -0.0047774785323275526 0 0.00067515960233679442 -0.0047622568806470478 0 0.00062855448656095572 -0.0047189592165560986 0 0.000674635736960439 -0.0046974044109414619 0 0.000674635736960439 -0.0046974044109414619 0 0.0006360389015038063 -0.0046772668970743794 0 0.0006822813525370812 -0.0046444514474336942 0 0.00062855448656095572 -0.0047189592165560986 0 0.000674635736960439 -0.0046974044109414619 0 0.0006360389015038063 -0.0046772668970743794 0 0.0006360389015038063 -0.0046772668970743794 0 0.00058557444919491168 -0.0046988135370337218 0 0.00060535541675692001 -0.0046362923118185321 0 0.00062855448656095572 -0.0047189592165560986 0 0.0006360389015038063 -0.0046772668970743794 0 0.00058557444919491168 -0.0046988135370337218 0 0.0008406703741717839 -0.0046495663693693094 0 0.00084594975562845111 -0.0046510836698086264 0 0.00060535541675692001 -0.0046362923118185321 0 0.00060498273615928902 -0.0046247037675683214 0 0.0006822813525370812 -0.0046444514474336942 0 0.00060498273615928902 -0.0046247037675683214 0 0.0006822813525370812 -0.0046444514474336942 0 0.00071528494998150888 -0.0045575451619369054 0 0.0006360389015038063 -0.0046772668970743794 0 0.00060535541675692001 -0.0046362923118185321 0 0.0006822813525370812 -0.0046444514474336942 0 0.00084594975562845111 -0.0046510836698086264 0 0.00066339359749516497 -0.0045903013095561071 0 0.00066668331220059161 -0.0045759880579467919 0 0.00071528494998150888 -0.0045575451619369054 0 0.0006806431142923155 -0.0045382103202391598 0 0.00066668331220059161 -0.0045759880579467919 0 0.00066705166318242553 -0.0045392987549901309 0 0.0006806431142923155 -0.0045382103202391598 0 0.00084594975562845111 -0.0046510836698086264 0 0.0012870055228137237 -0.0045035792988079096 0 0.00074626247419704722 -0.0046992947338460132 0 0.00077034738378780492 -0.0046273682520893153 0 0.0006822813525370812 -0.0046444514474336942 0 0.00077034738378780492 -0.0046273682520893153 0 0.0006822813525370812 -0.0046444514474336942 0 0.00071528494998150888 -0.0045575451619369054 0 0.00081044806255180821 -0.0045693636932897285 0 0.0007641060870792446 -0.0045670772254061522 0 0.00076153154871897463 -0.0045169936827504104 0 0.00077034738378780492 -0.0046273682520893153 0 0.00071528494998150888 -0.0045575451619369054 0 0.0007641060870792446 -0.0045670772254061522 0 0.00071528494998150888 -0.0045575451619369054 0 0.0007641060870792446 -0.0045670772254061522 0 0.00076153154871897463 -0.0045169936827504104 0 0.00076153154871897463 -0.0045169936827504104 0 0.0007704740422089406 -0.004462311700529303 0 0.00080970154891355406 -0.0045114575628217172 0 0.00071528494998150888 -0.0045575451619369054 0 0.00076153154871897463 -0.0045169936827504104 0 0.00070830531878528864 -0.0045213958033145504 0 0.00076153154871897463 -0.0045169936827504104 0 0.00070830531878528864 -0.0045213958033145504 0 0.00072573135734040116 -0.0044828428539176761 0 0.00070830531878528864 -0.0045213958033145504 0 0.00072573135734040116 -0.0044828428539176761 0 0.00068934855669583602 -0.0044927351118203389 0 0.00072573135734040116 -0.0044828428539176761 0 0.00070273301704716997 -0.004454068942451794 0 0.00073128573422321481 -0.0044428488635643668 0 0.00072573135734040116 -0.0044828428539176761 0 0.0007704740422089406 -0.004462311700529303 0 0.00073128573422321481 -0.0044428488635643668 0 0.00076153154871897463 -0.0045169936827504104 0 0.00072573135734040116 -0.0044828428539176761 0 0.0007704740422089406 -0.004462311700529303 0 0.0012870055228137237 -0.0045035792988079096 0 0.0015842317686775174 -0.0043317216978071976 0 0.0006588252830524989 -0.004538760473583453 0 0.00068934855669583602 -0.0044927351118203389 0 0.00066927030075349017 -0.0044053412939261708 0 0.0012870055228137237 -0.0045035792988079096 0 0.00097351963766668589 -0.0045221828970131769 0 0.0006588252830524989 -0.004538760473583453 0 0.0006806431142923155 -0.0045382103202391598 0 0.00068934855669583602 -0.0044927351118203389 0 0.00070830531878528864 -0.0045213958033145504 0 0.0006806431142923155 -0.0045382103202391598 0 0.00068934855669583602 -0.0044927351118203389 0 0.00071528494998150888 -0.0045575451619369054 0 0.00070830531878528864 -0.0045213958033145504 0 0.0006806431142923155 -0.0045382103202391598 0 0.00072573135734040116 -0.0044828428539176761 0 0.00068934855669583602 -0.0044927351118203389 0 0.00070273301704716997 -0.004454068942451794 0 0.00068934855669583602 -0.0044927351118203389 0 0.00070273301704716997 -0.004454068942451794 0 0.00066927030075349017 -0.0044053412939261708 0 0.00070273301704716997 -0.004454068942451794 0 0.00070539100333344494 -0.0044228596339014716 0 0.00066927030075349017 -0.0044053412939261708 0 0.00070273301704716997 -0.004454068942451794 0 0.00070539100333344494 -0.0044228596339014716 0 0.00073128573422321481 -0.0044428488635643668 0 0.00071649580575346833 -0.0043467467937085506 0 0.00067812574483749606 -0.0044062251720551034 0 0.00073159259590270444 -0.0043958017886644484 0 0.00070539100333344494 -0.0044228596339014716 0 0.00067812574483749606 -0.0044062251720551034 0 0.00073159259590270444 -0.0043958017886644484 0 0.0008311545063351115 -0.0042082704161819492 0 0.0015842317686775174 -0.0043317216978071976 0 0.0007704740422089406 -0.004462311700529303 0 0.00076054466070596893 -0.0044197909452986621 0 0.00078630033746173974 -0.0044303434477982427 0 0.0007704740422089406 -0.004462311700529303 0 0.00073128573422321481 -0.0044428488635643668 0 0.00076054466070596893 -0.0044197909452986621 0 0.00070539100333344494 -0.0044228596339014716 0 0.00073128573422321481 -0.0044428488635643668 0 0.00073159259590270444 -0.0043958017886644484 0 0.00073128573422321481 -0.0044428488635643668 0 0.00073159259590270444 -0.0043958017886644484 0 0.00076054466070596893 -0.0044197909452986621 0 0.0007711415236534067 -0.0043697690224972731 0 0.00073159259590270444 -0.0043958017886644484 0 0.00076054466070596893 -0.0044197909452986621 0 0.0007711415236534067 -0.0043697690224972731 0 0.00076054466070596893 -0.0044197909452986621 0 0.00078630033746173974 -0.0044303434477982427 0 0.0007711415236534067 -0.0043697690224972731 0 0.00081500573075273582 -0.0044410680177907735 0 0.00078630033746173974 -0.0044303434477982427 0 0.00082398381018508008 -0.0044382107447641823 0 0.00085115994521231845 -0.0044263838253606174 0 0.00081500573075273582 -0.0044410680177907735 0 0.00071655356075957613 -0.0045208758289094963 0 0.00083324671589610471 -0.0044122773569051912 0 0.0007704740422089406 -0.004462311700529303 0 0.00078630033746173974 -0.0044303434477982427 0 0.00080999943043956783 -0.0044583748613781365 0 0.00081500573075273582 -0.0044410680177907735 0 0.00078630033746173974 -0.0044303434477982427 0 0.00080999943043956783 -0.0044583748613781365 0 0.0007704740422089406 -0.004462311700529303 0 0.00080999943043956783 -0.0044583748613781365 0 0.00080970154891355406 -0.0045114575628217172 0 0.00081500573075273582 -0.0044410680177907735 0 0.00080999943043956783 -0.0044583748613781365 0 0.00080376499007530657 -0.0044479811388392371 0 0.00080999943043956783 -0.0044583748613781365 0 0.00079883951270373979 -0.0044393603644192177 0 0.00080376499007530657 -0.0044479811388392371 0 0.00080177503642025138 -0.0045246828593592031 0 0.00020147003450671474 -0.0048619502744187016 0 0.00080999943043956783 -0.0044583748613781365 0 0.00080970154891355406 -0.0045114575628217172 0 0.00088719678273391927 -0.0045421507349265571 0 0.00081044806255180821 -0.0045693636932897285 0 0.00080970154891355406 -0.0045114575628217172 0 0.00088719678273391927 -0.0045421507349265571 0 0.00081044806255180821 -0.0045693636932897285 0 0.00076153154871897463 -0.0045169936827504104 0 0.00080970154891355406 -0.0045114575628217172 0 0.0007796426108044555 -0.004438648614529677 0 0.00079469756603292347 -0.0044453720411038004 0 0.00077915143215309213 -0.0044467928139706589 0 0.0007796426108044555 -0.004438648614529677 0 0.00079229973970130205 -0.0044412832739770917 0 0.00079469756603292347 -0.0044453720411038004 0 0.00079883951270373979 -0.0044393603644192177 0 0.00079715534764662429 -0.0044438494775281391 0 0.00080376499007530657 -0.0044479811388392371 0 0.0007796426108044555 -0.004438648614529677 0 0.00079229973970130205 -0.0044412832739770917 0 0.00079883951270373979 -0.0044393603644192177 0 0.00079229973970130205 -0.0044412832739770917 0 0.00079883951270373979 -0.0044393603644192177 0 0.00079715534764662429 -0.0044438494775281391 0 0.00079229973970130205 -0.0044412832739770917 0 0.00079715534764662429 -0.0044438494775281391 0 0.00079469756603292347 -0.0044453720411038004 0 0.00081500573075273582 -0.0044410680177907735 0 0.00079469756603292347 -0.0044453720411038004 0 0.00080376499007530657 -0.0044479811388392371 0 0.00079715534764662429 -0.0044438494775281391 0 0.00079469756603292347 -0.0044453720411038004 0 0.00080376499007530657 -0.0044479811388392371 0 0.00080559260547256081 -0.0044445689661046419 0 0.00079469756603292347 -0.0044453720411038004 0 0.00077915143215309213 -0.0044467928139706589 0 0.00080559260547256081 -0.0044445689661046419 0 0.00081500573075273582 -0.0044410680177907735 0 0.00079469756603292347 -0.0044453720411038004 0 -4.3111208834017632e-05 -0.0043288562259869573 0 0.00029781124807491113 -0.0045825613359459626 0 0.00080559260547256081 -0.0044445689661046419 0 0.00082398381018508008 -0.0044382107447641823 0 0.00081500573075273582 -0.0044410680177907735 0 -0.0014334132179663649 -0.0048084731331262103 0 -0.0012679782613865482 -0.0048312908237714194 0 -4.3111208834017632e-05 -0.0043288562259869573 0 -0.0012679782613865482 -0.0048312908237714194 0 -0.00040901277306963624 -0.0046117806920869314 0 -0.00039389670752618496 -0.0046266240883941273 0 -0.00040049546817738115 -0.0046428120669214463 0 -0.0014399798021681946 -0.0047971492944314182 0 -0.0014733483037717356 -0.0047970619486200454 0 -0.0014345058527606511 -0.0048271749647858927 0 -0.0014089979952569285 -0.0048240108860900088 0 -0.0014469072756508343 -0.0048814807436346483 0 -0.0014206972679565309 -0.0048759971998729567 0 -0.0014089979952569285 -0.0048240108860900088 0 -0.0014206972679565309 -0.0048759971998729567 0 -0.0014181297458560381 -0.004886160246397481 0 -0.0014206972679565309 -0.0048759971998729567 0 -0.001420883146270183 -0.004904561220629303 0 -0.0014181297458560381 -0.004886160246397481 0 -0.001420883146270183 -0.004904561220629303 0 -0.0014181297458560381 -0.004886160246397481 0 -0.0014265620094642865 -0.0049060062387397321 0 -0.0012679782613865482 -0.0048312908237714194 0 -0.0014542211691010425 -0.0048822902435600481 0 -0.0014469072756508343 -0.0048814807436346483 0 -0.0014206972679565309 -0.0048759971998729567 0 -0.001420883146270183 -0.004904561220629303 0 -0.0014283171841641994 -0.0048983885996718469 0 -0.001420883146270183 -0.004904561220629303 0 -0.0014294577082541555 -0.0049096230521223473 0 -0.001420883146270183 -0.004904561220629303 0 -0.0014178236764644081 -0.0049155429685760962 0 -0.0014289921542309479 -0.0049134533371439672 0 -0.001420883146270183 -0.004904561220629303 0 -0.0014178236764644081 -0.0049155429685760962 0 -0.0014294577082541555 -0.0049096230521223473 0 -0.0012679782613865482 -0.0048312908237714194 0 -0.00091320652857140546 -0.0047875150279060603 0 -0.00039389670752618496 -0.0046266240883941273 0 -0.00039115751291906269 -0.0046501582524160739 0 -0.00040049546817738115 -0.0046428120669214463 0 -0.0014279483027422027 -0.0049104633523304828 0 -0.0014910972435555549 -0.0049291758816769381 0 -0.001442913644289715 -0.0049133285616868808 0 -0.0017523696693994969 -0.0046808981977276114 0 -0.0017168372959667296 -0.0046823952435453026 0 -0.0016982045257823589 -0.0047696128032261075 0 -0.0014938468245667556 -0.0047609060642244067 0 -0.0016121019446508277 -0.0048492247390525952 0 -0.0014279483027422027 -0.0049104633523304828 0 -0.001442913644289715 -0.0049133285616868808 0 -0.0014181297458560381 -0.004886160246397481 0 -0.001442913644289715 -0.0049133285616868808 0 -0.0014181297458560381 -0.004886160246397481 0 -0.0014265620094642865 -0.0049060062387397321 0 -0.001442913644289715 -0.0049133285616868808 0 -0.0014265620094642865 -0.0049060062387397321 0 -0.0014289921542309479 -0.0049134533371439672 0 -0.001442913644289715 -0.0049133285616868808 0 -0.0014289921542309479 -0.0049134533371439672 0 -0.0014664455928050635 -0.0049109160913717916 0 -0.001420883146270183 -0.004904561220629303 0 -0.0014265620094642865 -0.0049060062387397321 0 -0.0014289921542309479 -0.0049134533371439672 0 -0.0014910972435555549 -0.0049291758816769381 0 -0.001442913644289715 -0.0049133285616868808 0 -0.0014664455928050635 -0.0049109160913717916 0 -0.0014910972435555549 -0.0049291758816769381 0 -0.0015198452085087471 -0.0048930335041349297 0 -0.0014664455928050635 -0.0049109160913717916 0 -0.0015198452085087471 -0.0048930335041349297 0 -0.0014664455928050635 -0.0049109160913717916 0 -0.0014568682183978803 -0.0048713770787836936 0 -0.0014289921542309479 -0.0049134533371439672 0 -0.0014664455928050635 -0.0049109160913717916 0 -0.0014568682183978803 -0.0048713770787836936 0 -0.0014289921542309479 -0.0049134533371439672 0 -0.0014568682183978803 -0.0048713770787836936 0 -0.0014045658273770822 -0.0049358844350112091 0 -0.0014042508696987242 -0.0049568299423098814 0 -0.001409699798859487 -0.0049370886734201244 0 -0.001334013468322264 -0.0050416264974465367 0 -0.0013652089995964808 -0.0050182514734116376 0 -0.0013370356216556914 -0.0050549909596537181 0 -0.001334013468322264 -0.0050416264974465367 0 -0.0014045658273770822 -0.0049358844350112091 0 -0.0013652089995964808 -0.0050182514734116376 0 -0.0015198452085087471 -0.0048930335041349297 0 -0.0015823610257377028 -0.0048685883479244445 0 -0.0014568682183978803 -0.0048713770787836936 0 -0.001334013468322264 -0.0050416264974465367 0 -0.0013673415191822141 -0.0050609340154539571 0 -0.0013370356216556914 -0.0050549909596537181 0 -0.0014942524841592474 -0.0049759062916555309 0 -0.0014042508696987242 -0.0049568299423098814 0 -0.0014165053301154081 -0.0050855617160799633 0 -0.001334013468322264 -0.0050416264974465367 0 -0.0013673415191822141 -0.0050609340154539571 0 -0.00039115751291906269 -0.0046501582524160739 0 -0.00040049546817738115 -0.0046428120669214463 0 -0.00039010687766340829 -0.0046751464110664099 0 0.00029781124807491113 -0.0045825613359459626 0 -0.0004273550455946655 -0.0047030038207159517 0 0.0007796426108044555 -0.004438648614529677 0 0.00074533171989339111 -0.0044307451911480061 0 0.00076556108328836882 -0.0044273632283398038 0 -0.00091320652857140546 -0.0047875150279060603 0 -0.0004273550455946655 -0.0047030038207159517 0 0.0007796426108044555 -0.004438648614529677 0 0.00077915143215309213 -0.0044467928139706589 0 0.00074533171989339111 -0.0044307451911480061 0 -0.0014178236764644081 -0.0049155429685760962 0 -0.0014294577082541555 -0.0049096230521223473 0 -0.0014045658273770822 -0.0049358844350112091 0 -0.0014294577082541555 -0.0049096230521223473 0 -0.0014324141193111594 -0.0049570057400037844 0 -0.0014045658273770822 -0.0049358844350112091 0 -0.0014178236764644081 -0.0049155429685760962 0 -0.0014289921542309479 -0.0049134533371439672 0 -0.0014045658273770822 -0.0049358844350112091 0 -0.0004273550455946655 -0.0047030038207159517 0 -0.0010601482444311525 -0.0049601849077721451 0 -0.0014324141193111594 -0.0049570057400037844 0 -0.0014045658273770822 -0.0049358844350112091 0 -0.0013652089995964808 -0.0050182514734116376 0 -0.0014324141193111594 -0.0049570057400037844 0 -0.0013652089995964808 -0.0050182514734116376 0 -0.0013899347915018628 -0.0050403824493881729 0 -0.00069951488083390141 -0.0048726549234186546 0 -0.00070030250591608613 -0.0049228124595843961 0 -0.00068695526138765235 -0.0049187883567051232 0 0.00074533171989339111 -0.0044307451911480061 0 0.00076556108328836882 -0.0044273632283398038 0 0.00073128821388662257 -0.0044148596531109266 0 -0.00068087512534126303 -0.0054404157300245283 0 -0.00070782477019195721 -0.0053760556070178113 0 -0.00077895973854549751 -0.0053583697805692325 0 6.1559572792562673e-05 -0.0049505706938670754 0 -0.0002473028304696307 -0.004937504823378432 0 -0.0004273550455946655 -0.0047030038207159517 0 -0.0002473028304696307 -0.004937504823378432 0 -0.00070782477019195721 -0.0053760556070178113 0 -0.00069437481094470493 -0.005333546726277962 0 -0.00073955012134285932 -0.0053392777119773416 0 -0.00069437481094470493 -0.005333546726277962 0 -0.00073878363575136075 -0.0052870006490017777 0 -0.00066851355242050162 -0.0052933948193243955 0 -0.00069437481094470493 -0.005333546726277962 0 -0.00073955012134285932 -0.0053392777119773416 0 -0.00073878363575136075 -0.0052870006490017777 0 -0.00073955012134285932 -0.0053392777119773416 0 -0.00078855839661212289 -0.0053294982234148598 0 -0.00073878363575136075 -0.0052870006490017777 0 -0.00078855839661212289 -0.0053294982234148598 0 -0.00080104293859615302 -0.0052735562900992254 0 -0.00073878363575136075 -0.0052870006490017777 0 -0.00073955012134285932 -0.0053392777119773416 0 -0.00078855839661212289 -0.0053294982234148598 0 -0.00077895973854549751 -0.0053583697805692325 0 -0.0003833163729328861 -0.0052033873459974749 0 -0.0002473028304696307 -0.004937504823378432 0 -0.00070782477019195721 -0.0053760556070178113 0 -0.00073955012134285932 -0.0053392777119773416 0 -0.00077895973854549751 -0.0053583697805692325 0 -0.00070030250591608613 -0.0049228124595843961 0 -0.00068695526138765235 -0.0049187883567051232 0 -0.00067589613030984109 -0.0049625007457392836 0 -0.0010601482444311525 -0.0049601849077721451 0 -0.0010054795466140918 -0.005093605915872784 0 -0.0013899347915018628 -0.0050403824493881729 0 -0.0013421764974270273 -0.005066420931347038 0 -0.0013480302100728906 -0.0050523086236495627 0 -0.0013652089995964808 -0.0050182514734116376 0 -0.0013899347915018628 -0.0050403824493881729 0 -0.0013480302100728906 -0.0050523086236495627 0 -0.0002473028304696307 -0.004937504823378432 0 -0.0010054795466140918 -0.005093605915872784 0 -0.00078855839661212289 -0.0053294982234148598 0 -0.00080104293859615302 -0.0052735562900992254 0 -0.00087993044480020515 -0.0052787866982626011 0 -0.00078855839661212289 -0.0053294982234148598 0 -0.00078221112664911188 -0.0053628336838627338 0 -0.00087993044480020515 -0.0052787866982626011 0 -0.00080104293859615302 -0.0052735562900992254 0 -0.00087993044480020515 -0.0052787866982626011 0 -0.00087250691810001105 -0.0051960122063750168 0 -0.00087993044480020515 -0.0052787866982626011 0 -0.00096834036837935397 -0.0051544852588251795 0 -0.00087250691810001105 -0.0051960122063750168 0 -0.0013421764974270273 -0.005066420931347038 0 -0.0013354127948672267 -0.0050669160378422479 0 -0.0013335598350428912 -0.0050622521977723668 0 -0.0010054795466140918 -0.005093605915872784 0 -0.0010345627605729993 -0.005073569287683685 0 -0.00080104293859615302 -0.0052735562900992254 0 -0.00076943690448769576 -0.0052205013235169587 0 -0.00087250691810001105 -0.0051960122063750168 0 -0.00076943690448769576 -0.0052205013235169587 0 -0.00073878363575136075 -0.0052870006490017777 0 -0.00065390109764684083 -0.0052129981867012412 0 -0.00080104293859615302 -0.0052735562900992254 0 -0.00076943690448769576 -0.0052205013235169587 0 -0.00073878363575136075 -0.0052870006490017777 0 -0.0013370356216556914 -0.0050549909596537181 0 -0.0013228497085300524 -0.0050600914666987093 0 -0.0013565922961749589 -0.0050570951792244063 0 -0.0013673415191822141 -0.0050609340154539571 0 -0.0013370356216556914 -0.0050549909596537181 0 -0.0013565922961749589 -0.0050570951792244063 0 -0.0013370356216556914 -0.0050549909596537181 0 -0.0013324456705005785 -0.0050589599470429744 0 -0.0013228497085300524 -0.0050600914666987093 0 -0.0013652089995964808 -0.0050182514734116376 0 -0.0013370356216556914 -0.0050549909596537181 0 -0.0013480302100728906 -0.0050523086236495627 0 -0.0013421764974270273 -0.005066420931347038 0 -0.0013480302100728906 -0.0050523086236495627 0 -0.0013335598350428912 -0.0050622521977723668 0 -0.0013370356216556914 -0.0050549909596537181 0 -0.0013480302100728906 -0.0050523086236495627 0 -0.0013324456705005785 -0.0050589599470429744 0 -0.0013480302100728906 -0.0050523086236495627 0 -0.0013324456705005785 -0.0050589599470429744 0 -0.0013335598350428912 -0.0050622521977723668 0 -0.0010054795466140918 -0.005093605915872784 0 -0.0011225798653862933 -0.0051033323288939281 0 -0.0013354127948672267 -0.0050669160378422479 0 -0.0013015309628413023 -0.0050629634414253982 0 -0.0012559516400065254 -0.0050583836028650717 0 -0.001342760081643311 -0.0050678873842795787 0 -0.0013354127948672267 -0.0050669160378422479 0 -0.0012559516400065254 -0.0050583836028650717 0 -0.0013354127948672267 -0.0050669160378422479 0 -0.0013215867162060264 -0.0050622970643468069 0 -0.0013015309628413023 -0.0050629634414253982 0 -0.0013354127948672267 -0.0050669160378422479 0 -0.0013335598350428912 -0.0050622521977723668 0 -0.0013215867162060264 -0.0050622970643468069 0 -0.0013324456705005785 -0.0050589599470429744 0 -0.0013335598350428912 -0.0050622521977723668 0 -0.0013215867162060264 -0.0050622970643468069 0 -0.0013015309628413023 -0.0050629634414253982 0 -0.0013228497085300524 -0.0050600914666987093 0 -0.0013117250454766324 -0.0050588010077746749 0 -0.0013215867162060264 -0.0050622970643468069 0 -0.0013015309628413023 -0.0050629634414253982 0 -0.0013228497085300524 -0.0050600914666987093 0 -0.0013324456705005785 -0.0050589599470429744 0 -0.0013215867162060264 -0.0050622970643468069 0 -0.0013228497085300524 -0.0050600914666987093 0 -0.0013937563441604969 -0.0050569277699484922 0 -0.0013117250454766324 -0.0050588010077746749 0 -0.0013565922961749589 -0.0050570951792244063 0 -0.0013228497085300524 -0.0050600914666987093 0 -0.0013117250454766324 -0.0050588010077746749 0 -0.0013565922961749589 -0.0050570951792244063 0 -0.0013937563441604969 -0.0050569277699484922 0 -0.0013117250454766324 -0.0050588010077746749 0 -0.0012888918271921517 -0.0050546720420446374 0 -0.0013117250454766324 -0.0050588010077746749 0 -0.0012888918271921517 -0.0050546720420446374 0 -0.0012559516400065254 -0.0050583836028650717 0 -0.0013015309628413023 -0.0050629634414253982 0 -0.0013117250454766324 -0.0050588010077746749 0 -0.0012559516400065254 -0.0050583836028650717 0 -0.00096834036837935397 -0.0051544852588251795 0 -0.00095825136526593872 -0.0050312614752489873 0 -0.0010900376748634809 -0.0050000003074896666 0 -0.00095825136526593872 -0.0050312614752489873 0 -0.0010900376748634809 -0.0050000003074896666 0 -0.00086368614224230085 -0.0049999772184061214 0 -0.0011225798653862933 -0.0051033323288939281 0 -0.0010901332659167659 -0.0049999822810910602 0 -0.0013184974261375593 -0.0049999256153007432 0 -0.0012888918271921517 -0.0050546720420446374 0 -0.0010905823083626107 -0.0049999802950600357 0 -0.0012888918271921517 -0.0050546720420446374 0 -0.0012559516400065254 -0.0050583836028650717 0 -0.0010905823083626107 -0.0049999802950600357 0 -0.00076943690448769576 -0.0052205013235169587 0 -0.00079125887580892861 -0.0051228041277570618 0 -0.00065390109764684083 -0.0052129981867012412 0 -0.00077157099821158442 -0.0051540205025882796 0 -0.00062451502594079635 -0.0052601566266385373 0 -0.00096834036837935397 -0.0051544852588251795 0 -0.00079125887580892861 -0.0051228041277570618 0 -0.00087250691810001105 -0.0051960122063750168 0 -0.00076943690448769576 -0.0052205013235169587 0 -0.00079125887580892861 -0.0051228041277570618 0 -0.00087250691810001105 -0.0051960122063750168 0 -0.00094615843497647151 -0.0050372124057931622 0 -0.00077157099821158442 -0.0051540205025882796 0 -0.00096834036837935397 -0.0051544852588251795 0 -0.00095825136526593872 -0.0050312614752489873 0 -0.00079125887580892861 -0.0051228041277570618 0 -0.00095825136526593872 -0.0050312614752489873 0 -0.00075448543657343002 -0.0051828289667727344 0 -0.00086368614224230085 -0.0049999772184061214 0 -0.00075448543657343002 -0.0051828289667727344 0 -0.00063725624311469352 -0.0050000112995064331 0 -0.00056683369522568994 -0.0051513752239573194 0 -0.00075448543657343002 -0.0051828289667727344 0 -0.00086368614224230085 -0.0049999772184061214 0 -0.00063725624311469352 -0.0050000112995064331 0 -0.00063725468619714768 -0.0050000011248057218 0 -0.00035408225400812912 -0.0049999974848328153 0 -0.00043845337347290212 -0.0050613171257021883 0 -0.00063725624311469352 -0.0050000112995064331 0 -0.00045191795929261982 -0.0050601987505392246 0 -0.00056683369522568994 -0.0051513752239573194 0 -0.00063720663348539443 -0.0050000143546372324 0 -0.0004435521448806538 -0.0050605596445132362 0 -0.00045191795929261982 -0.0050601987505392246 0 -0.00043698508640577959 -0.0051916223592549417 0 -0.00056683369522568994 -0.0051513752239573194 0 -0.0004435521448806538 -0.0050605596445132362 0 -0.00025995280372153684 -0.0051198558010511772 0 -0.00035408225400812912 -0.0049999974848328153 0 -0.00043845337347290212 -0.0050613171257021883 0 -0.00023309329682941047 -0.0051199450612602112 0 -0.00045191795929261982 -0.0050601987505392246 0 -0.00043698508640577959 -0.0051916223592549417 0 -0.00026694779909346514 -0.005117707871871424 0 -0.00043698508640577959 -0.0051916223592549417 0 -0.00055810129293304379 -0.0053216293272964005 0 -0.00031986434875351592 -0.0052929451121398281 0 -0.00043698508640577959 -0.0051916223592549417 0 -0.00031986434875351592 -0.0052929451121398281 0 -0.00026694779909346514 -0.005117707871871424 0 -0.00043698508640577959 -0.0051916223592549417 0 -0.00056683369522568994 -0.0051513752239573194 0 -0.00055810129293304379 -0.0053216293272964005 0 -0.00075448543657343002 -0.0051828289667727344 0 -0.00056683369522568994 -0.0051513752239573194 0 -0.00055810129293304379 -0.0053216293272964005 0 -0.00065390109764684083 -0.0052129981867012412 0 -0.00066851355242050162 -0.0052933948193243955 0 -0.00061011642512597041 -0.0053015875888832711 0 -0.00073878363575136075 -0.0052870006490017777 0 -0.00065390109764684083 -0.0052129981867012412 0 -0.00066851355242050162 -0.0052933948193243955 0 -0.00065390109764684083 -0.0052129981867012412 0 -0.0005340590349968183 -0.0052970458345420936 0 -0.00061011642512597041 -0.0053015875888832711 0 -0.00062451502594079635 -0.0052601566266385373 0 -0.0003525830729031282 -0.0053960308190935807 0 -0.0003525830729031282 -0.0053960308190935807 0 -0.00029657714433254528 -0.0053005859128624879 0 -0.00055810129293304379 -0.0053216293272964005 0 -0.00036800673926525848 -0.0054604085744398376 0 -0.00031986434875351592 -0.0052929451121398281 0 -0.0005340590349968183 -0.0052970458345420936 0 -0.00054632781833294773 -0.0053373524862758365 0 -0.00061011642512597041 -0.0053015875888832711 0 -0.0003525830729031282 -0.0053960308190935807 0 -4.1820917049882927e-05 -0.0051417228923076588 0 -0.00031043732327212369 -0.0054493464991107448 0 -0.00032897425133051082 -0.0055122137459657009 0 -0.00026712875958160003 -0.0054824118439955024 0 -0.0003525830729031282 -0.0053960308190935807 0 -0.00029467194407315324 -0.0054458142391929096 0 -4.1820917049882927e-05 -0.0051417228923076588 0 -0.00066433807804071212 -0.005361193300438217 0 -0.00054632781833294773 -0.0053373524862758365 0 -0.00060513019365663224 -0.0053538948325349105 0 -0.00061011642512597041 -0.0053015875888832711 0 -0.00064706148640094588 -0.0053287393445945021 0 -0.00060513019365663224 -0.0053538948325349105 0 -0.00061011642512597041 -0.0053015875888832711 0 -0.00065653216149128522 -0.0053855835484942641 0 -0.00064706148640094588 -0.0053287393445945021 0 -0.00060513019365663224 -0.0053538948325349105 0 -0.00065653216149128522 -0.0053855835484942641 0 -0.00069437481094470493 -0.005333546726277962 0 -0.00064706148640094588 -0.0053287393445945021 0 -0.00065653216149128522 -0.0053855835484942641 0 -0.00070782477019195721 -0.0053760556070178113 0 -0.00069437481094470493 -0.005333546726277962 0 -0.00069437481094470493 -0.005333546726277962 0 -0.00064706148640094588 -0.0053287393445945021 0 -0.00066851355242050162 -0.0052933948193243955 0 -0.00064706148640094588 -0.0053287393445945021 0 -0.00066851355242050162 -0.0052933948193243955 0 -0.00061011642512597041 -0.0053015875888832711 0 0.00067515960233679442 -0.0047622568806470478 0 0.00063161203778753995 -0.0048671788872723821 0 0.00056271499732650401 -0.0047774785323275526 0 -0.00032897425133051082 -0.0055122137459657009 0 -8.7647659202467701e-05 -0.0054463934151656353 0 -0.00026712875958160003 -0.0054824118439955024 0 -4.1820917049882927e-05 -0.0051417228923076588 0 0.00034027630738520229 -0.0051492615140389317 0 0.00067515960233679442 -0.0047622568806470478 0 0.00081168140396020933 -0.0048118069276351727 0 0.00063161203778753995 -0.0048671788872723821 0 -8.7647659202467701e-05 -0.0054463934151656353 0 -0.00026712875958160003 -0.0054824118439955024 0 -0.00023248213674947202 -0.0053896850280148369 0 -0.00031034850369748493 -0.0054517198494522653 0 -0.00026712875958160003 -0.0054824118439955024 0 -0.00023248213674947202 -0.0053896850280148369 0 -0.00023248213674947202 -0.0053896850280148369 0 -0.00012134534826936315 -0.0053228422679598413 0 -0.00019384623475118495 -0.0052494296606057037 0 -0.00031034850369748493 -0.0054517198494522653 0 -0.00023248213674947202 -0.0053896850280148369 0 -0.00027035207803800825 -0.0052930578390793489 0 -8.7647659202467701e-05 -0.0054463934151656353 0 -0.00023248213674947202 -0.0053896850280148369 0 -0.00012134534826936315 -0.0053228422679598413 0 -0.00023248213674947202 -0.0053896850280148369 0 -0.00027035207803800825 -0.0052930578390793489 0 -0.00019384623475118495 -0.0052494296606057037 0 -8.7647659202467701e-05 -0.0054463934151656353 0 -0.00012134534826936315 -0.0053228422679598413 0 -3.7056191621712984e-06 -0.0052634364439872964 0 -3.7056191621712984e-06 -0.0052634364439872964 0 -5.4978125213387958e-05 -0.0051806974643094786 0 4.9021130031701996e-05 -0.0051194437095807054 0 -3.7056191621712984e-06 -0.0052634364439872964 0 -9.0387297204661286e-05 -0.0052513436953717093 0 -5.4978125213387958e-05 -0.0051806974643094786 0 -0.00012134534826936315 -0.0053228422679598413 0 -3.7056191621712984e-06 -0.0052634364439872964 0 -9.0387297204661286e-05 -0.0052513436953717093 0 -9.0387297204661286e-05 -0.0052513436953717093 0 -0.00011982721826861238 -0.0051967313182560877 0 -0.00019384623475118495 -0.0052494296606057037 0 -0.00012134534826936315 -0.0053228422679598413 0 -9.0387297204661286e-05 -0.0052513436953717093 0 -0.00019384623475118495 -0.0052494296606057037 0 -9.0387297204661286e-05 -0.0052513436953717093 0 -0.00011982721826861238 -0.0051967313182560877 0 -5.4978125213387958e-05 -0.0051806974643094786 0 -0.00011982721826861238 -0.0051967313182560877 0 -0.00017644456197010686 -0.0051592965283824505 0 -0.00011768143024323993 -0.0051335577847435318 0 -0.00011982721826861238 -0.0051967313182560877 0 -5.4978125213387958e-05 -0.0051806974643094786 0 -0.00011768143024323993 -0.0051335577847435318 0 -0.00027035207803800825 -0.0052930578390793489 0 -0.00019384623475118495 -0.0052494296606057037 0 -0.00023309329682941047 -0.0051199450612602112 0 -0.00029657714433254528 -0.0053005859128624879 0 -0.00025995280372153684 -0.0051198558010511772 0 -0.00011982721826861238 -0.0051967313182560877 0 -0.00019384623475118495 -0.0052494296606057037 0 -0.00017644456197010686 -0.0051592965283824505 0 -0.00019384623475118495 -0.0052494296606057037 0 -0.00017644456197010686 -0.0051592965283824505 0 -0.00023309329682941047 -0.0051199450612602112 0 -0.00035408225400812912 -0.0049999974848328153 0 -0.0001530216183762386 -0.0050684828894960758 0 -7.0918662717784365e-05 -0.0049999960448003315 0 -0.00035408225400812912 -0.0049999974848328153 0 -0.00023309329682941047 -0.0051199450612602112 0 -0.0001530216183762386 -0.0050684828894960758 0 -0.00023309329682941047 -0.0051199450612602112 0 -0.00017805041451212102 -0.0051150960654075244 0 -0.0001530216183762386 -0.0050684828894960758 0 -0.00023309329682941047 -0.0051199450612602112 0 -0.00020633272879786672 -0.0051303377170768341 0 -0.00017805041451212102 -0.0051150960654075244 0 -0.00017644456197010686 -0.0051592965283824505 0 -0.00023309329682941047 -0.0051199450612602112 0 -0.00020633272879786672 -0.0051303377170768341 0 -0.00017644456197010686 -0.0051592965283824505 0 -0.00020633272879786672 -0.0051303377170768341 0 -0.00017805041451212102 -0.0051150960654075244 0 -0.00017644456197010686 -0.0051592965283824505 0 -0.00017805041451212102 -0.0051150960654075244 0 -0.00011768143024323993 -0.0051335577847435318 0 -5.4978125213387958e-05 -0.0051806974643094786 0 -5.6321828181198525e-05 -0.005108586415911766 0 4.9021130031701996e-05 -0.0051194437095807054 0 -5.6321828181198525e-05 -0.005108586415911766 0 -7.0918662717784365e-05 -0.0049999960448003315 0 4.9021130031701996e-05 -0.0051194437095807054 0 -5.6321828181198525e-05 -0.005108586415911766 0 -0.00011768143024323993 -0.0051335577847435318 0 -0.0001530216183762386 -0.0050684828894960758 0 -5.4978125213387958e-05 -0.0051806974643094786 0 -5.6321828181198525e-05 -0.005108586415911766 0 -0.00011768143024323993 -0.0051335577847435318 0 -0.00017805041451212102 -0.0051150960654075244 0 -0.00011768143024323993 -0.0051335577847435318 0 -0.0001530216183762386 -0.0050684828894960758 0 -5.6321828181198525e-05 -0.005108586415911766 0 -0.0001530216183762386 -0.0050684828894960758 0 -7.0918662717784365e-05 -0.0049999960448003315 0 -7.0918662717784365e-05 -0.0049999960448003315 0 4.9021130031701996e-05 -0.0051194437095807054 0 0.00021222210915324569 -0.0049999971674240451 0 4.9021130031701996e-05 -0.0051194437095807054 0 0.00021222210915324569 -0.0049999971674240451 0 0.00024202726328135182 -0.0051377076277297771 0 0.00024656553777984298 -0.0051274611059371486 0 0.00012450166452460177 -0.0052910377085050283 0 0.00031895465541489899 -0.0051471640331566485 0 0.00013550428075619482 -0.0052828753566394413 0 0.00032991037589208985 -0.0051270854128827705 0 0.00026840379616754868 -0.0052535216335017924 0 0.00012450166452460177 -0.0052910377085050283 0 0.00033528285114448704 -0.0051170088520949833 0 0.00026840379616754868 -0.0052535216335017924 0 0.00033528285114448704 -0.0051170088520949833 0 0.00038414126477760019 -0.0051974309326454204 0 -3.7056191621712984e-06 -0.0052634364439872964 0 4.9021130031701996e-05 -0.0051194437095807054 0 0.00024202726328135182 -0.0051377076277297771 0 8.8577707732456369e-06 -0.0052576154557382789 0 0.00024170744991174013 -0.0051338317626195198 0 -3.7056191621712984e-06 -0.0052634364439872964 0 0.00024656553777984298 -0.0051274611059371486 0 0.00012450166452460177 -0.0052910377085050283 0 0.00054536868427421266 -0.0049545543359036581 0 0.00047207064076575079 -0.0050435345221971177 0 0.00060742224301192432 -0.0052238978875841901 0 0.0006621606717387888 -0.0050788690552723741 0 0.00051214402810836142 -0.0049930800135950587 0 0.00062908144243353824 -0.0052464547399142239 0 0.00051214752478288556 -0.0050141895619669535 0 0.00079976388285087476 -0.0051008265728014757 0 0.00051189178697818585 -0.0049935696926087566 0 0.0004955301219624499 -0.0049995837312531554 0 0.00031895465541489899 -0.0051471640331566485 0 0.00024170744991174013 -0.0051338317626195198 0 0.00049534848231477216 -0.0050000199340492438 0 0.00021222210915324569 -0.0049999971674240451 0 0.00024202726328135182 -0.0051377076277297771 0 0.00049539014270823093 -0.0050000006159085057 0 0.00054536868427421266 -0.0049545543359036581 0 0.00047207064076575079 -0.0050435345221971177 0 0.00033528285114448704 -0.0051170088520949833 0 0.00051214752478288556 -0.0050141895619669535 0 0.00032991037589208985 -0.0051270854128827705 0 0.00024656553777984298 -0.0051274611059371486 0 0.0004955301219624499 -0.0049995837312531554 0 0.00031895465541489899 -0.0051471640331566485 0 0.00047207064076575079 -0.0050435345221971177 0 0.00038414126477760019 -0.0051974309326454204 0 0.00047843981409060839 -0.0052784252389053554 0 0.00026840379616754868 -0.0052535216335017924 0 0.00038414126477760019 -0.0051974309326454204 0 0.00047843981409060839 -0.0052784252389053554 0 0.00047143113102775702 -0.005150395548888906 0 0.0004991656477457883 -0.0050386748802913901 0 0.00047207064076575079 -0.0050435345221971177 0 0.00033528285114448704 -0.0051170088520949833 0 0.00038414126477760019 -0.0051974309326454204 0 0.00047207064076575079 -0.0050435345221971177 0 0.00047928549943255367 -0.0052633550363011348 0 0.00060742224301192432 -0.0052238978875841901 0 0.0004991656477457883 -0.0050386748802913901 0 0.00079976388285087476 -0.0051008265728014757 0 0.00086943780294643051 -0.0049296124110560684 0 0.00096485145282646748 -0.0050076809761808111 0 0.0008765908730530436 -0.0051925313763785622 0 0.00079976388285087476 -0.0051008265728014757 0 0.0010999092385749279 -0.0050919449698694193 0 0.00099364726294607123 -0.0048907693068962876 0 0.00096485145282646748 -0.0050076809761808111 0 0.0010647373590907333 -0.0051519604514854885 0 0.00086943780294643051 -0.0049296124110560684 0 0.00099364726294607123 -0.0048907693068962876 0 0.00096485145282646748 -0.0050076809761808111 0 0.0004991656477457883 -0.0050386748802913901 0 0.00078005764894956001 -0.0051774104583400468 0 0.00030751092664403769 -0.0049698573166748108 0 0.0003043096965229391 -0.0048169512500049402 0 0.00038672046099014781 -0.0048547183799951907 0 0.00078005764894956001 -0.0051774104583400468 0 0.00069238679967818914 -0.0052665283857721576 0 0.0003043096965229391 -0.0048169512500049402 0 0.00038672046099014781 -0.0048547183799951907 0 0.00040145864580069378 -0.0047595382908978186 0 0.00096485145282646748 -0.0050076809761808111 0 0.0008765908730530436 -0.0051925313763785622 0 0.0010139116342823746 -0.0051206077714057762 0 0.00078005764894956001 -0.0051774104583400468 0 0.0010047395617896156 -0.0051205545154454643 0 0.00084047894716066834 -0.0052221678322344044 0 0.0010038977124917994 -0.0052242351958969547 0 0.00099511017450664785 -0.0053519787320541979 0 0.00084047894716066834 -0.0052221678322344044 0 0.0010038977124917994 -0.0052242351958969547 0 0.0010139116342823746 -0.0051206077714057762 0 0.0010038977124917994 -0.0052242351958969547 0 0.0010647373590907333 -0.0051519604514854885 0 0.0011027529125202096 -0.0052831117712892287 0 0.0010038977124917994 -0.0052242351958969547 0 0.00099511017450664785 -0.0053519787320541979 0 0.0011027529125202096 -0.0052831117712892287 0 0.00096485145282646748 -0.0050076809761808111 0 0.0010139116342823746 -0.0051206077714057762 0 0.0010647373590907333 -0.0051519604514854885 0 0.0010038977124917994 -0.0052242351958969547 0 0.0010139116342823746 -0.0051206077714057762 0 0.0010647373590907333 -0.0051519604514854885 0 0.00034027630738520229 -0.0051492615140389317 0 0.0002838611222669116 -0.0051627902540496628 0 -8.7647659202467701e-05 -0.0054463934151656353 0 0.00012450166452460177 -0.0052910377085050283 0 0.00018020594813598586 -0.0053723612288705622 0 -8.7647659202467701e-05 -0.0054463934151656353 0 -3.7056191621712984e-06 -0.0052634364439872964 0 0.00012450166452460177 -0.0052910377085050283 0 0.0004991656477457883 -0.0050386748802913901 0 0.0002838611222669116 -0.0051627902540496628 0 0.00026840379616754868 -0.0052535216335017924 0 0.00047843981409060839 -0.0052784252389053554 0 0.00018020594813598586 -0.0053723612288705622 0 0.00026840379616754868 -0.0052535216335017924 0 0.00012450166452460177 -0.0052910377085050283 0 0.00018020594813598586 -0.0053723612288705622 0 0.00030751092664403769 -0.0049698573166748108 0 0.00046364922162102601 -0.0049197390788836429 0 0.00038672046099014781 -0.0048547183799951907 0 0.00046214242150317733 -0.0047854879463096666 0 0.00038672046099014781 -0.0048547183799951907 0 0.00040145864580069378 -0.0047595382908978186 0 0.00046364922162102601 -0.0049197390788836429 0 0.00046214242150317733 -0.0047854879463096666 0 0.00038672046099014781 -0.0048547183799951907 0 0.00046364922162102601 -0.0049197390788836429 0 0.00046214242150317733 -0.0047854879463096666 0 0.00056271499732650401 -0.0047774785323275526 0 0.00063161203778753995 -0.0048671788872723821 0 0.00046364922162102601 -0.0049197390788836429 0 0.00056271499732650401 -0.0047774785323275526 0 0.00058557444919491168 -0.0046988135370337218 0 0.00060535541675692001 -0.0046362923118185321 0 0.0005010368403514403 -0.0046957537323356925 0 0.00046214242150317733 -0.0047854879463096666 0 0.00056271499732650401 -0.0047774785323275526 0 0.0005010368403514403 -0.0046957537323356925 0 0.00058557444919491168 -0.0046988135370337218 0 0.00056271499732650401 -0.0047774785323275526 0 0.0005010368403514403 -0.0046957537323356925 0 0.00084594975562845111 -0.0046510836698086264 0 0.0009576759180879935 -0.004765988992269459 0 0.00060535541675692001 -0.0046362923118185321 0 0.00060540261335383289 -0.0046262378004503493 0 0.0005010368403514403 -0.0046957537323356925 0 0.0012870055228137237 -0.0045035792988079096 0 0.0022198440956412852 -0.0049131692941808943 0 0.0013951849166147197 -0.0048545086160927831 0 0.0013967749491588318 -0.0047916545499886885 0 0.0012979124083464925 -0.0049092431566820464 0 0.0013967749491588318 -0.0047916545499886885 0 0.0012979124083464925 -0.0049092431566820464 0 0.0012333659090945329 -0.0048037708437641642 0 0.00089659410271734083 -0.0056434310002900353 0 0.0008911925894365618 -0.0056212531905124414 0 0.00089987443032216446 -0.0056383745517804684 0 0.0022198440956412852 -0.0049131692941808943 0 0.00069238679967818914 -0.0052665283857721576 0 0.0009576759180879935 -0.004765988992269459 0 0.00069238679967818914 -0.0052665283857721576 0 0.00046214242150317733 -0.0047854879463096666 0 0.0005010368403514403 -0.0046957537323356925 0 0.00040145864580069378 -0.0047595382908978186 0 0.0012979124083464925 -0.0049092431566820464 0 0.0012333659090945329 -0.0048037708437641642 0 0.0011944451881378253 -0.0049661112670774058 0 0.00091149419133747277 -0.0056055047360673189 0 0.0008911925894365618 -0.0056212531905124414 0 0.00091202520351878929 -0.0056286202308414362 0 0.0008911925894365618 -0.0056212531905124414 0 0.00091202520351878929 -0.0056286202308414362 0 0.00089987443032216446 -0.0056383745517804684 0 0.00078005764894956001 -0.0051774104583400468 0 0.00088534046998771203 -0.0055756141138150967 0 0.00084047894716066834 -0.0052221678322344044 0 0.00086028531985758488 -0.0054491941504314027 0 0.00099511017450664785 -0.0053519787320541979 0 0.00086028531985758488 -0.0054491941504314027 0 0.00099511017450664785 -0.0053519787320541979 0 0.00097408955719130268 -0.0055237439032703207 0 0.00099511017450664785 -0.0053519787320541979 0 0.0010528890726644474 -0.0054709262783287664 0 0.0011686426723488974 -0.0054470473690961365 0 0.00099511017450664785 -0.0053519787320541979 0 0.00097408955719130268 -0.0055237439032703207 0 0.0010528890726644474 -0.0054709262783287664 0 0.00097408955719130268 -0.0055237439032703207 0 0.0010528890726644474 -0.0054709262783287664 0 0.0010763913817572811 -0.005559070379514512 0 0.0023866766784715982 -0.0055510915850575668 0 0.0019535137559123857 -0.0055938616953712878 0 0.0010134871239409391 -0.0056237743882583567 0 0.0009130370499056611 -0.0056717428438528231 0 0.0012470871502572017 -0.0057227468806511682 0 0.00097408955719130268 -0.0055237439032703207 0 0.0010763913817572811 -0.005559070379514512 0 0.0010134871239409391 -0.0056237743882583567 0 0.00097408955719130268 -0.0055237439032703207 0 0.0010134871239409391 -0.0056237743882583567 0 0.00090620511587077607 -0.0056562598614616289 0 0.00086028531985758488 -0.0054491941504314027 0 0.00097408955719130268 -0.0055237439032703207 0 0.00090620511587077607 -0.0056562598614616289 0 0.0010134871239409391 -0.0056237743882583567 0 0.0009130370499056611 -0.0056717428438528231 0 0.00090620511587077607 -0.0056562598614616289 0 0.0022198440956412852 -0.0049131692941808943 0 0.0023866766784715982 -0.0055510915850575668 0 0.00089659410271734083 -0.0056434310002900353 0 0.0009130370499056611 -0.0056717428438528231 0 0.00090620511587077607 -0.0056562598614616289 0 0.00089659410271734083 -0.0056434310002900353 0 0.00089987443032216446 -0.0056383745517804684 0 0.00090620511587077607 -0.0056562598614616289 0 0.00091202520351878929 -0.0056286202308414362 0 0.00089987443032216446 -0.0056383745517804684 0 0.00090620511587077607 -0.0056562598614616289 0 0.00088534046998771203 -0.0055756141138150967 0 0.00089872402043124941 -0.0056247062004669253 0 0.0043997553879506334 -0.0051801035614627124 0 0.0036853194853481461 -0.0053283233312227517 0 0.003990052911646909 -0.0049286222524366884 0 0.0043997553879506334 -0.0051801035614627124 0 0.003990052911646909 -0.0049286222524366884 0 0.004178951957503587 -0.0047287413182740667 0 0.0039673170785376917 -0.0049187054368129484 0 0.0034237361825245447 -0.0048299970357547272 0 0.0036853194853481461 -0.0053283233312227517 0 0.003990052911646909 -0.0049286222524366884 0 0.0032575511407031271 -0.0048329253005490562 0 0.0036853194853481461 -0.0053283233312227517 0 0.0032575511407031271 -0.0048329253005490562 0 0.0027116815599085402 -0.0054879245968275968 0 0.003990052911646909 -0.0049286222524366884 0 0.0036701080993920931 -0.0048207353143020154 0 0.0037658549140141251 -0.004593009388110387 0 0.0037658549140141251 -0.004593009388110387 0 0.0039794134451763647 -0.0044863048655395506 0 0.0037338981581137979 -0.0043007737990462484 0 0.003990052911646909 -0.0049286222524366884 0 0.004178951957503587 -0.0047287413182740667 0 0.0039794134451763647 -0.0044863048655395506 0 0.003990052911646909 -0.0049286222524366884 0 0.0037658549140141251 -0.004593009388110387 0 0.0039794134451763647 -0.0044863048655395506 0 0.004178951957503587 -0.0047287413182740667 0 0.0039794134451763647 -0.0044863048655395506 0 0.0042423310448661197 -0.0044854501099014892 0 0.0033991830069626029 -0.0045859188708450528 0 0.0032974065519844427 -0.0042649337940579291 0 0.0042423310448661197 -0.0044854501099014892 0 0.0044338295290983964 -0.0047191593137701389 0 0.0044728943822813236 -0.0043396936532800372 0 0.0022799501569403745 -0.0044834063360880737 0 0.0022577257049498601 -0.0046170630733689049 0 0.0022240604493600703 -0.0046027580655711607 0 0.004178951957503587 -0.0047287413182740667 0 0.0042423310448661197 -0.0044854501099014892 0 0.0044338295290983964 -0.0047191593137701389 0 0.0015842317686775174 -0.0043317216978071976 0 0.0028292698345862627 -0.0040108108927040141 0 0.002091385472847949 -0.0045446449327160594 0 0.0022799501569403745 -0.0044834063360880737 0 0.0022240604493600703 -0.0046027580655711607 0 0.0020877612164785747 -0.0043597185369733064 0 0.0023027243306984542 -0.0043499583485119824 0 0.0022799501569403745 -0.0044834063360880737 0 0.0020877612164785747 -0.0043597185369733064 0 0.002091385472847949 -0.0045446449327160594 0 0.0022799501569403745 -0.0044834063360880737 0 0.0022198440956412852 -0.0049131692941808943 0 0.0033991830069626029 -0.0045859188708450528 0 0.0043997553879506334 -0.0051801035614627124 0 0.004178951957503587 -0.0047287413182740667 0 0.0044338295290983964 -0.0047191593137701389 0 0.0029337952312425948 -0.0048205621293603146 0 0.0029482016462037226 -0.0048118830459153283 0 0.0029407958623237549 -0.0048411187442373559 0 0.0029337952312425948 -0.0048205621293603146 0 0.0029482016462037226 -0.0048118830459153283 0 0.0029424661951219025 -0.0048023084626158466 0 0.0029697480966662227 -0.00480607435905182 0 0.0029407958623237549 -0.0048411187442373559 0 0.0030025863963082074 -0.0048829492685814975 0 0.0029482016462037226 -0.0048118830459153283 0 0.0029697480966662227 -0.00480607435905182 0 0.0029562132798921412 -0.0048026923637325795 0 0.0029482016462037226 -0.0048118830459153283 0 0.0029697480966662227 -0.00480607435905182 0 0.0029407958623237549 -0.0048411187442373559 0 0.0033113477260458516 -0.0045698971112301239 0 0.0032527971424271829 -0.0046036470144785431 0 0.0036028718309885129 -0.0043141296066018684 0 0.0035110666222106326 -0.0043221519111504491 0 0.0035744196819942099 -0.0042440860899743468 0 0.0036028718309885129 -0.0043141296066018684 0 0.0036312570545083125 -0.0042625467253212977 0 0.0035744196819942099 -0.0042440860899743468 0 0.0033113477260458516 -0.0045698971112301239 0 0.0030963199323345205 -0.0046967347431280462 0 0.0036773381323422401 -0.0043228695532232433 0 0.0036720619957135566 -0.0042384679602694795 0 0.0036312570545083125 -0.0042625467253212977 0 0.0036028718309885129 -0.0043141296066018684 0 0.0036773381323422401 -0.0043228695532232433 0 0.0036312570545083125 -0.0042625467253212977 0 0.0037658549140141251 -0.004593009388110387 0 0.0032592985795052987 -0.0047594390219856475 0 0.0037338981581137979 -0.0043007737990462484 0 0.0036701080993920931 -0.0048207353143020154 0 0.0037658549140141251 -0.004593009388110387 0 0.0032592985795052987 -0.0047594390219856475 0 0.0030963199323345205 -0.0046967347431280462 0 0.0038674053790600802 -0.0042228362002442593 0 0.0036773381323422401 -0.0043228695532232433 0 0.0037338981581137979 -0.0043007737990462484 0 0.0036720619957135566 -0.0042384679602694795 0 0.0034237361825245447 -0.0048299970357547272 0 0.0030963199323345205 -0.0046967347431280462 0 0.0032575511407031271 -0.0048329253005490562 0 0.0024380974381879306 -0.0047340014804223493 0 0.0027116815599085402 -0.0054879245968275968 0 0.0024380974381879306 -0.0047340014804223493 0 0.0017141638812851639 -0.0056336130429776492 0 0.0016272624512072974 -0.0056956601676304607 0 0.0030963199323345205 -0.0046967347431280462 0 0.0022237144212077092 -0.0052705531669407753 0 0.0029337952312425948 -0.0048205621293603146 0 0.0029069192042551458 -0.0048293265223778607 0 0.0029424661951219025 -0.0048023084626158466 0 0.0024380974381879306 -0.0047340014804223493 0 0.0027116815599085402 -0.0054879245968275968 0 0.0017141638812851639 -0.0056336130429776492 0 0.0029337952312425948 -0.0048205621293603146 0 0.0029407958623237549 -0.0048411187442373559 0 0.0029069192042551458 -0.0048293265223778607 0 0.0015527398803454073 -0.0056176733353212787 0 0.0012470871502572017 -0.0057227468806511682 0 0.0017141638812851639 -0.0056336130429776492 0 0.0019535137559123857 -0.0055938616953712878 0 0.0017295671660316843 -0.0056329018278185447 0 0.0014794838449636025 -0.0055638354279213187 0 0.0015527398803454073 -0.0056176733353212787 0 0.0012470871502572017 -0.0057227468806511682 0 0.0014794838449636025 -0.0055638354279213187 0 0.0012470871502572017 -0.0057227468806511682 0 0.0013356878167047044 -0.0055172438488989405 0 0.0014794838449636025 -0.0055638354279213187 0 0.0015986902532488399 -0.0055830378024755642 0 0.0015527398803454073 -0.0056176733353212787 0 0.0014794838449636025 -0.0055638354279213187 0 0.0015986902532488399 -0.0055830378024755642 0 0.0015699640196118064 -0.0055336307932742478 0 0.0015986902532488399 -0.0055830378024755642 0 0.0015527398803454073 -0.0056176733353212787 0 0.0016394742181668805 -0.0056291622803385857 0 0.0010763913817572811 -0.005559070379514512 0 0.0012470871502572017 -0.0057227468806511682 0 0.0011686426723488974 -0.0054470473690961365 0 0.0012470871502572017 -0.0057227468806511682 0 0.0011686426723488974 -0.0054470473690961365 0 0.0013356878167047044 -0.0055172438488989405 0 0.0010763913817572811 -0.005559070379514512 0 0.0010134871239409391 -0.0056237743882583567 0 0.0012470871502572017 -0.0057227468806511682 0 0.0010528890726644474 -0.0054709262783287664 0 0.0010763913817572811 -0.005559070379514512 0 0.0011686426723488974 -0.0054470473690961365 0 0.0011686426723488974 -0.0054470473690961365 0 0.0013356878167047044 -0.0055172438488989405 0 0.0013281212372401217 -0.0053982271367272383 0 0.0011686426723488974 -0.0054470473690961365 0 0.0013281212372401217 -0.0053982271367272383 0 0.0012344760729525463 -0.0052795340218752462 0 0.0013281212372401217 -0.0053982271367272383 0 0.001337993479892579 -0.0053141072204371583 0 0.0012344760729525463 -0.0052795340218752462 0 0.0011686426723488974 -0.0054470473690961365 0 0.0011027529125202096 -0.0052831117712892287 0 0.0012344760729525463 -0.0052795340218752462 0 0.00099511017450664785 -0.0053519787320541979 0 0.0011686426723488974 -0.0054470473690961365 0 0.0011027529125202096 -0.0052831117712892287 0 0.0015699640196118064 -0.0055336307932742478 0 0.0014546947119783444 -0.0054691648603087846 0 0.0015682291441437622 -0.0054351839946758674 0 0.0014794838449636025 -0.0055638354279213187 0 0.0015699640196118064 -0.0055336307932742478 0 0.0014546947119783444 -0.0054691648603087846 0 0.0014794838449636025 -0.0055638354279213187 0 0.0013356878167047044 -0.0055172438488989405 0 0.0014546947119783444 -0.0054691648603087846 0 0.0013356878167047044 -0.0055172438488989405 0 0.0014546947119783444 -0.0054691648603087846 0 0.0013281212372401217 -0.0053982271367272383 0 0.0014546947119783444 -0.0054691648603087846 0 0.0013281212372401217 -0.0053982271367272383 0 0.0014394299496233555 -0.0053573906193342081 0 0.0013281212372401217 -0.0053982271367272383 0 0.001337993479892579 -0.0053141072204371583 0 0.0014394299496233555 -0.0053573906193342081 0 0.0014394299496233555 -0.0053573906193342081 0 0.0015682291441437622 -0.0054351839946758674 0 0.0015377723977365765 -0.0052601750348173519 0 0.0014546947119783444 -0.0054691648603087846 0 0.0014394299496233555 -0.0053573906193342081 0 0.0015682291441437622 -0.0054351839946758674 0 0.0016833939971141192 -0.0055318354283839556 0 0.0016272624512072974 -0.0056956601676304607 0 0.0021675112662501422 -0.0054076409116111702 0 0.0015682291441437622 -0.0054351839946758674 0 0.0017370096447852407 -0.0053620278644090297 0 0.0015377723977365765 -0.0052601750348173519 0 0.0017370096447852407 -0.0053620278644090297 0 0.0016833939971141192 -0.0055318354283839556 0 0.0021675112662501422 -0.0054076409116111702 0 0.0015682291441437622 -0.0054351839946758674 0 0.0017370096447852407 -0.0053620278644090297 0 0.0016833939971141192 -0.0055318354283839556 0 0.0015699640196118064 -0.0055336307932742478 0 0.0015682291441437622 -0.0054351839946758674 0 0.0016833939971141192 -0.0055318354283839556 0 0.0015986902532488399 -0.0055830378024755642 0 0.0015699640196118064 -0.0055336307932742478 0 0.0016833939971141192 -0.0055318354283839556 0 0.0015527398803454073 -0.0056176733353212787 0 0.0016394742181668805 -0.0056291622803385857 0 0.0017141638812851639 -0.0056336130429776492 0 0.0015986902532488399 -0.0055830378024755642 0 0.0016833939971141192 -0.0055318354283839556 0 0.0016394742181668805 -0.0056291622803385857 0 0.0016833939971141192 -0.0055318354283839556 0 0.0016394742181668805 -0.0056291622803385857 0 0.0016272624512072974 -0.0056956601676304607 0 0.0029482016462037226 -0.0048118830459153283 0 0.0029424661951219025 -0.0048023084626158466 0 0.0029562132798921412 -0.0048026923637325795 0 0.0016394742181668805 -0.0056291622803385857 0 0.0017141638812851639 -0.0056336130429776492 0 0.0016272624512072974 -0.0056956601676304607 0 0.0029697480966662227 -0.00480607435905182 0 0.0029562132798921412 -0.0048026923637325795 0 0.0029655733084162673 -0.00479483201456689 0 0.0029424661951219025 -0.0048023084626158466 0 0.0029562132798921412 -0.0048026923637325795 0 0.0029537126913961745 -0.0048179960470657954 0 0.0029562132798921412 -0.0048026923637325795 0 0.0029537126913961745 -0.0048179960470657954 0 0.0029655733084162673 -0.00479483201456689 0 0.0022237144212077092 -0.0052705531669407753 0 0.0025752355155787606 -0.0050894761738054092 0 0.0021675112662501422 -0.0054076409116111702 0 0.0022177082735427172 -0.0049896984057185775 0 0.0017888544495593651 -0.0050852551204790993 0 0.0017370096447852407 -0.0053620278644090297 0 0.0021675112662501422 -0.0054076409116111702 0 0.0017888544495593651 -0.0050852551204790993 0 0.0017370096447852407 -0.0053620278644090297 0 0.0017888544495593651 -0.0050852551204790993 0 0.0015377723977365765 -0.0052601750348173519 0 0.0012480961905825467 -0.0049797003363696458 0 0.0016683866494768367 -0.0049331640290415681 0 0.0017888544495593651 -0.0050852551204790993 0 0.001544920316844829 -0.0047488576476757017 0 0.0021717825637794287 -0.0046002865992017961 0 0.0022177082735427172 -0.0049896984057185775 0 0.0017888544495593651 -0.0050852551204790993 0 0.0021717825637794287 -0.0046002865992017961 0 0.0010647373590907333 -0.0051519604514854885 0 0.0011472801721483792 -0.0052183913184919578 0 0.0011836909239909097 -0.0051632240203184484 0 0.0010647373590907333 -0.0051519604514854885 0 0.0011836909239909097 -0.0051632240203184484 0 0.0010603696333982158 -0.0050917310576433193 0 0.0010647373590907333 -0.0051519604514854885 0 0.0011472801721483792 -0.0052183913184919578 0 0.0011027529125202096 -0.0052831117712892287 0 0.0011472801721483792 -0.0052183913184919578 0 0.0011027529125202096 -0.0052831117712892287 0 0.0012344760729525463 -0.0052795340218752462 0 0.0011472801721483792 -0.0052183913184919578 0 0.0012344760729525463 -0.0052795340218752462 0 0.0011836909239909097 -0.0051632240203184484 0 0.0012344760729525463 -0.0052795340218752462 0 0.0011836909239909097 -0.0051632240203184484 0 0.001354880133284347 -0.0052360127798401716 0 0.0011836909239909097 -0.0051632240203184484 0 0.0013160728543595527 -0.0050887741714260269 0 0.0010603696333982158 -0.0050917310576433193 0 0.0017888544495593651 -0.0050852551204790993 0 0.0013160728543595527 -0.0050887741714260269 0 0.0015377723977365765 -0.0052601750348173519 0 0.0011836909239909097 -0.0051632240203184484 0 0.0013160728543595527 -0.0050887741714260269 0 0.001354880133284347 -0.0052360127798401716 0 0.0013160728543595527 -0.0050887741714260269 0 0.001354880133284347 -0.0052360127798401716 0 0.0015377723977365765 -0.0052601750348173519 0 0.001337993479892579 -0.0053141072204371583 0 0.0012344760729525463 -0.0052795340218752462 0 0.001354880133284347 -0.0052360127798401716 0 0.001337993479892579 -0.0053141072204371583 0 0.0014394299496233555 -0.0053573906193342081 0 0.001354880133284347 -0.0052360127798401716 0 0.0014394299496233555 -0.0053573906193342081 0 0.001354880133284347 -0.0052360127798401716 0 0.0015377723977365765 -0.0052601750348173519 0 0.0012480961905825467 -0.0049797003363696458 0 0.0010393087594678001 -0.0050305516499446132 0 0.0017888544495593651 -0.0050852551204790993 0 0.0013160728543595527 -0.0050887741714260269 0 0.001544920316844829 -0.0047488576476757017 0 0.0013160728543595527 -0.0050887741714260269 0 0.001544920316844829 -0.0047488576476757017 0 0.0010094664188109708 -0.005042149329195356 0 0.00098599745957437981 -0.0050387923568087469 0 0.0010094664188109708 -0.005042149329195356 0 0.0010603696333982158 -0.0050917310576433193 0 0.00098599745957437981 -0.0050387923568087469 0 0.0010647373590907333 -0.0051519604514854885 0 0.0010603696333982158 -0.0050917310576433193 0 0.0013160728543595527 -0.0050887741714260269 0 0.0010094664188109708 -0.005042149329195356 0 0.0010603696333982158 -0.0050917310576433193 0 0.00091596768917013205 -0.0052060872323250124 0 0.0010094664188109708 -0.005042149329195356 0 0.00086369819990349207 -0.0051582668054795831 0 0.00098599745957437981 -0.0050387923568087469 0 0.0010094664188109708 -0.005042149329195356 0 0.00086369819990349207 -0.0051582668054795831 0 0.00079976388285087476 -0.0051008265728014757 0 0.00084450039942033782 -0.0051517466397605124 0 0.0006621606717387888 -0.0050788690552723741 0 0.00062908144243353824 -0.0052464547399142239 0 0.00086369819990349207 -0.0051582668054795831 0 0.00091596768917013205 -0.0052060872323250124 0 0.00086369819990349207 -0.0051582668054795831 0 0.00094461318302324192 -0.0051323954208915409 0 0.00086369819990349207 -0.0051582668054795831 0 0.00080432751839304515 -0.0050000078567560349 0 0.00094461318302324192 -0.0051323954208915409 0 0.0006621606717387888 -0.0050788690552723741 0 0.00086369819990349207 -0.0051582668054795831 0 0.00080432751839304515 -0.0050000078567560349 0 0.0006621606717387888 -0.0050788690552723741 0 0.00051214402810836142 -0.0049930800135950587 0 0.00080432751839304515 -0.0050000078567560349 0 0.0011618225515261976 -0.0052581228383523646 0 0.00094461318302324192 -0.0051323954208915409 0 0.0010875528757061392 -0.0049999643326799851 0 0.00091596768917013205 -0.0052060872323250124 0 0.0011618225515261976 -0.0052581228383523646 0 0.00094461318302324192 -0.0051323954208915409 0 0.00080432751839304515 -0.0050000078567560349 0 0.00094461318302324192 -0.0051323954208915409 0 0.0010875528757061392 -0.0049999643326799851 0 0.0011618225515261976 -0.0052581228383523646 0 0.0010875528757061392 -0.0049999643326799851 0 0.0012895068368141624 -0.0051379270835922837 0 0.0012895068368141624 -0.0051379270835922837 0 0.0013709998516203083 -0.0049999881459603934 0 0.0015310736789502896 -0.0051258517216414756 0 0.0010875528757061392 -0.0049999643326799851 0 0.0012895068368141624 -0.0051379270835922837 0 0.0013709998516203083 -0.0049999881459603934 0 0.0011618225515261976 -0.0052581228383523646 0 0.0012895068368141624 -0.0051379270835922837 0 0.0014302049020430976 -0.0052567802068278439 0 0.0016683866494768367 -0.0049331640290415681 0 0.0020989050040435653 -0.0049321724549733067 0 0.0014302049020430976 -0.0052567802068278439 0 0.0015310736789502896 -0.0051258517216414756 0 0.0016883091539434032 -0.0052318321898922075 0 0.0020989050040435653 -0.0049321724549733067 0 0.0023043604001945334 -0.0049371818027216631 0 0.0012895068368141624 -0.0051379270835922837 0 0.0014302049020430976 -0.0052567802068278439 0 0.0015310736789502896 -0.0051258517216414756 0 0.0013709998516203083 -0.0049999881459603934 0 0.0015310736789502896 -0.0051258517216414756 0 0.0016544043330962708 -0.004999993715733517 0 0.0016544043330962708 -0.004999993715733517 0 0.0016715836145722578 -0.005118480935359368 0 0.0018108974888565476 -0.0051169662973077432 0 0.0015310736789502896 -0.0051258517216414756 0 0.0016544043330962708 -0.004999993715733517 0 0.0016715836145722578 -0.005118480935359368 0 0.0016544043330962708 -0.004999993715733517 0 0.0018108974888565476 -0.0051169662973077432 0 0.0019377990310729457 -0.0049999998287857221 0 0.0017945000137495424 -0.0051583754259604368 0 0.0019378441475197661 -0.0049999764872502199 0 0.0019016129577414493 -0.0050904795575888459 0 0.0019093699121650175 -0.0050979802442408309 0 0.0019289484411239401 -0.0050854469047710155 0 0.0030482440310527444 -0.0046471412394677421 0 0.0029501604513780819 -0.0046596936379614791 0 0.002938235980560356 -0.0048154942537195185 0 0.0027844969498970517 -0.0046141936456876569 0 0.0019263829563020581 -0.005316084265349276 0 0.0019016129577414493 -0.0050904795575888459 0 0.0019093699121650175 -0.0050979802442408309 0 0.0019086908871364021 -0.0050943572363095621 0 0.0016715836145722578 -0.005118480935359368 0 0.0018108974888565476 -0.0051169662973077432 0 0.0016883091539434032 -0.0052318321898922075 0 0.0027844969498970517 -0.0046141936456876569 0 0.0023043604001945334 -0.0049371818027216631 0 0.0017945000137495424 -0.0051583754259604368 0 0.0023043604001945334 -0.0049371818027216631 0 0.0027792272418273125 -0.0046055163126676553 0 0.0029667910064879854 -0.0046675331405942573 0 0.0029146636620310698 -0.0047013203824689386 0 0.0015310736789502896 -0.0051258517216414756 0 0.0016715836145722578 -0.005118480935359368 0 0.0016883091539434032 -0.0052318321898922075 0 0.0023043604001945334 -0.0049371818027216631 0 0.0029082137223104768 -0.0045736314297479064 0 0.0029501604513780819 -0.0046596936379614791 0 0.0029146636620310698 -0.0047013203824689386 0 0.002938235980560356 -0.0048154942537195185 0 0.0029146636620310698 -0.0047013203824689386 0 0.002938235980560356 -0.0048154942537195185 0 0.0028657863484012739 -0.0048025262498577635 0 0.0027844969498970517 -0.0046141936456876569 0 0.0033404401802745063 -0.00444106872564453 0 0.0037229908177232483 -0.0039711444956620108 0 0.0035270245753334655 -0.0042471534385472298 0 0.0037973343615639978 -0.0042250272993407745 0 0.0036838479296174569 -0.0043619478524547601 0 0.0035270245753334655 -0.0042471534385472298 0 0.0037973343615639978 -0.0042250272993407745 0 0.0033404401802745063 -0.00444106872564453 0 0.00307296794827466 -0.0046893229094461869 0 0.002938235980560356 -0.0048154942537195185 0 0.0028496682887412172 -0.0048462633615912196 0 0.0028727431696476645 -0.0048325057009097668 0 0.002938235980560356 -0.0048154942537195185 0 0.0028496682887412172 -0.0048462633615912196 0 0.0028657863484012739 -0.0048025262498577635 0 0.0036838479296174569 -0.0043619478524547601 0 0.0035270245753334655 -0.0042471534385472298 0 0.0033110350439194847 -0.0044845761823553206 0 0.0028496682887412172 -0.0048462633615912196 0 0.0027717939324644293 -0.0048647463357712837 0 0.0028657863484012739 -0.0048025262498577635 0 0.0029537126913961745 -0.0048179960470657954 0 0.0028496682887412172 -0.0048462633615912196 0 0.0027717939324644293 -0.0048647463357712837 0 0.0025752355155787606 -0.0050894761738054092 0 0.002764291937847775 -0.0048786933449329753 0 0.0021675112662501422 -0.0054076409116111702 0 0.0022177082735427172 -0.0049896984057185775 0 0.0027717939324644293 -0.0048647463357712837 0 0.0021717825637794287 -0.0046002865992017961 0 0.0027792272418273125 -0.0046055163126676553 0 0.0027717939324644293 -0.0048647463357712837 0 0.0022177082735427172 -0.0049896984057185775 0 0.0021717825637794287 -0.0046002865992017961 0 0.0027717939324644293 -0.0048647463357712837 0 0.0027792272418273125 -0.0046055163126676553 0 0.0027717939324644293 -0.0048647463357712837 0 0.0028657863484012739 -0.0048025262498577635 0 0.0027792272418273125 -0.0046055163126676553 0 0.0029146636620310698 -0.0047013203824689386 0 0.0028657863484012739 -0.0048025262498577635 0 0.0044578633505780191 -0.0040215867803612155 0 0.0043639600728618824 -0.0042376927118952237 0 0.0045925720222850762 -0.0042071203048474805 0 0.0024196450234763114 -0.0051435394915751052 0 0.0024808613972893815 -0.0049999984436655577 0 0.0022093099269662503 -0.0049999783003612233 0 0.0024196450234763114 -0.0051435394915751052 0 0.0022093099269662503 -0.0049999783003612233 0 0.0021289030238228501 -0.0051665080637753108 0 0.0034309021748500312 -0.0045858154673821191 0 0.0031227647038115165 -0.0045619422922178587 0 0.0044578633505780191 -0.0040215867803612155 0 0.0041107743457186709 -0.0039671994147703815 0 0.0043639600728618824 -0.0042376927118952237 0 0.0041107743457186709 -0.0039671994147703815 0 0.0039210094389328393 -0.0040870378807756451 0 0.004048728661000877 -0.0041943092724308524 0 0.0022093099269662503 -0.0049999783003612233 0 0.0020295266589361012 -0.0050841660304299218 0 0.0019378900962575246 -0.0050000155051894649 0 0.0022093099269662503 -0.0049999783003612233 0 0.0021289030238228501 -0.0051665080637753108 0 0.0020295266589361012 -0.0050841660304299218 0 0.0018799831200241733 -0.0051705032581099413 0 0.0020295266589361012 -0.0050841660304299218 0 0.0019289484411239401 -0.0050854469047710155 0 0.0019016129577414493 -0.0050904795575888459 0 0.0019378900962575246 -0.0050000155051894649 0 0.0019289484411239401 -0.0050854469047710155 0 0.0020295266589361012 -0.0050841660304299218 0 0.0019378900962575246 -0.0050000155051894649 0 0.0019289484411239401 -0.0050854469047710155 0 0.0018799831200241733 -0.0051705032581099413 0 0.0021289030238228501 -0.0051665080637753108 0 0.0020295266589361012 -0.0050841660304299218 0 0.0027844969498970517 -0.0046141936456876569 0 0.0031227647038115165 -0.0045619422922178587 0 0.0037229908177232483 -0.0039711444956620108 0 0.0041107743457186709 -0.0039671994147703815 0 0.0039210094389328393 -0.0040870378807756451 0 0.0037229908177232483 -0.0039711444956620108 0 0.0039210094389328393 -0.0040870378807756451 0 0.0037973343615639978 -0.0042250272993407745 0 0.0039210094389328393 -0.0040870378807756451 0 0.0037973343615639978 -0.0042250272993407745 0 0.004048728661000877 -0.0041943092724308524 0 0.0037973343615639978 -0.0042250272993407745 0 0.004048728661000877 -0.0041943092724308524 0 0.0039027746627143499 -0.0044689807222530083 0 0.0036838479296174569 -0.0043619478524547601 0 0.0037973343615639978 -0.0042250272993407745 0 0.0039027746627143499 -0.0044689807222530083 0 0.0040454586604876091 -0.0041999793452814922 0 0.0039822953754817935 -0.00444701332704797 0 0.0041982807507113945 -0.0043529011185835945 0 0.004048728661000877 -0.0041943092724308524 0 0.0040586945461431609 -0.0044402121591129353 0 0.0041107743457186709 -0.0039671994147703815 0 0.004048728661000877 -0.0041943092724308524 0 0.0043639600728618824 -0.0042376927118952237 0 0.0041982807507113945 -0.0043529011185835945 0 0.004048728661000877 -0.0041943092724308524 0 0.0043639600728618824 -0.0042376927118952237 0 0.0041982807507113945 -0.0043529011185835945 0 0.0043639600728618824 -0.0042376927118952237 0 0.0043699766729735816 -0.004426584401765684 0 0.0043639600728618824 -0.0042376927118952237 0 0.0043699766729735816 -0.004426584401765684 0 0.0046660202928081847 -0.0044014807058205384 0 0.0043639600728618824 -0.0042376927118952237 0 0.0045925720222850762 -0.0042071203048474805 0 0.0046660202928081847 -0.0044014807058205384 0 0.0044224962549500695 -0.0045645291393506269 0 0.0045257478747990423 -0.0046944595528081289 0 0.0045848545432721271 -0.0045875549050367059 0 0.0044224962549500695 -0.0045645291393506269 0 0.0043699766729735816 -0.004426584401765684 0 0.0046660202928081847 -0.0044014807058205384 0 0.0044224962549500695 -0.0045645291393506269 0 0.0043699766729735816 -0.004426584401765684 0 0.0041855091397147255 -0.0045664857641169159 0 0.0041982807507113945 -0.0043529011185835945 0 0.0043699766729735816 -0.004426584401765684 0 0.0041855091397147255 -0.0045664857641169159 0 0.0044224962549500695 -0.0045645291393506269 0 0.0041855091397147255 -0.0045664857641169159 0 0.0043368371758915579 -0.0046901885850892605 0 0.0041855091397147255 -0.0045664857641169159 0 0.0040586945461431609 -0.0044402121591129353 0 0.0039908411354472005 -0.004657170046854551 0 0.0041855091397147255 -0.0045664857641169159 0 0.0039908411354472005 -0.004657170046854551 0 0.0041437230044708536 -0.0047092427719837536 0 0.0041982807507113945 -0.0043529011185835945 0 0.0041855091397147255 -0.0045664857641169159 0 0.0040586945461431609 -0.0044402121591129353 0 0.0036838479296174569 -0.0043619478524547601 0 0.0039027746627143499 -0.0044689807222530083 0 0.003632203133675997 -0.0045365860825490045 0 0.0039027746627143499 -0.0044689807222530083 0 0.0038429230234092887 -0.0047279253315530654 0 0.003632203133675997 -0.0045365860825490045 0 0.0039822953754817935 -0.00444701332704797 0 0.0039171749287044222 -0.0047007948444629235 0 0.0038429230234092887 -0.0047279253315530654 0 0.003872497729079008 -0.0049435507030503173 0 0.0037581852508971735 -0.0047922366188232002 0 0.0039908411354472005 -0.004657170046854551 0 0.003872497729079008 -0.0049435507030503173 0 0.0040355769448995318 -0.0048123569216698883 0 0.0039171749287044222 -0.0047007948444629235 0 0.0038720604889338497 -0.004936552546951454 0 0.003872497729079008 -0.0049435507030503173 0 0.0040355769448995318 -0.0048123569216698883 0 0.0040401573426697059 -0.0049536806589027338 0 0.0040355769448995318 -0.0048123569216698883 0 0.0040401573426697059 -0.0049536806589027338 0 0.0041358227858166695 -0.0048304282166572905 0 0.0040401573426697059 -0.0049536806589027338 0 0.0041358227858166695 -0.0048304282166572905 0 0.004266759717634871 -0.0049543534220668779 0 0.0041358227858166695 -0.0048304282166572905 0 0.0041437230044708536 -0.0047092427719837536 0 0.0042735702423401696 -0.0048105573204643964 0 0.0039908411354472005 -0.004657170046854551 0 0.0040355769448995318 -0.0048123569216698883 0 0.0041437230044708536 -0.0047092427719837536 0 0.0040355769448995318 -0.0048123569216698883 0 0.0041358227858166695 -0.0048304282166572905 0 0.0041437230044708536 -0.0047092427719837536 0 0.0041437230044708536 -0.0047092427719837536 0 0.0043368371758915579 -0.0046901885850892605 0 0.0042735702423401696 -0.0048105573204643964 0 0.0041855091397147255 -0.0045664857641169159 0 0.0041437230044708536 -0.0047092427719837536 0 0.0043368371758915579 -0.0046901885850892605 0 0.0043368371758915579 -0.0046901885850892605 0 0.0042735702423401696 -0.0048105573204643964 0 0.004432551681431798 -0.0048251218247762212 0 0.0042735702423401696 -0.0048105573204643964 0 0.004432551681431798 -0.0048251218247762212 0 0.004266759717634871 -0.0049543534220668779 0 0.0041358227858166695 -0.0048304282166572905 0 0.0042735702423401696 -0.0048105573204643964 0 0.004266759717634871 -0.0049543534220668779 0 0.004432551681431798 -0.0048251218247762212 0 0.0045090528215271852 -0.0049842803680008726 0 0.004266759717634871 -0.0049543534220668779 0 0.004432551681431798 -0.0048251218247762212 0 0.0045090528215271852 -0.0049842803680008726 0 0.0046631023408797937 -0.0047964809456680305 0 0.0044224962549500695 -0.0045645291393506269 0 0.0043368371758915579 -0.0046901885850892605 0 0.0045257478747990423 -0.0046944595528081289 0 0.0043368371758915579 -0.0046901885850892605 0 0.004432551681431798 -0.0048251218247762212 0 0.0045257478747990423 -0.0046944595528081289 0 0.00307296794827466 -0.0046893229094461869 0 0.0030488611600939506 -0.0047586878524896771 0 0.0029655733084162673 -0.00479483201456689 0 0.0028727431696476645 -0.0048325057009097668 0 0.0030465459221467538 -0.0047668821635749002 0 0.0032840039222401633 -0.0047025134927101359 0 0.0033110350439194847 -0.0044845761823553206 0 0.0030465459221467538 -0.0047668821635749002 0 0.0029697480966662227 -0.00480607435905182 0 0.0029655733084162673 -0.00479483201456689 0 0.0030465459221467538 -0.0047668821635749002 0 0.0029537126913961745 -0.0048179960470657954 0 0.0028496682887412172 -0.0048462633615912196 0 0.0029655733084162673 -0.00479483201456689 0 0.0028496682887412172 -0.0048462633615912196 0 0.0029655733084162673 -0.00479483201456689 0 0.0028727431696476645 -0.0048325057009097668 0 0.0036838479296174569 -0.0043619478524547601 0 0.0033110350439194847 -0.0044845761823553206 0 0.003632203133675997 -0.0045365860825490045 0 0.003632203133675997 -0.0045365860825490045 0 0.0034756431713491051 -0.0047465365204468896 0 0.0035403778216613053 -0.0047834082630271836 0 0.0036230315232734325 -0.0045048456855781667 0 0.0036667741058847621 -0.0048554886619477681 0 0.003632203133675997 -0.0045365860825490045 0 0.0034160806998538716 -0.0046539310280963881 0 0.0034756431713491051 -0.0047465365204468896 0 0.0038429230234092887 -0.0047279253315530654 0 0.003632203133675997 -0.0045365860825490045 0 0.0037581852508971735 -0.0047922366188232002 0 0.0032840039222401633 -0.0047025134927101359 0 0.0033110350439194847 -0.0044845761823553206 0 0.0034160806998538716 -0.0046539310280963881 0 0.0033110350439194847 -0.0044845761823553206 0 0.003632203133675997 -0.0045365860825490045 0 0.0034160806998538716 -0.0046539310280963881 0 0.0032840039222401633 -0.0047025134927101359 0 0.0034160806998538716 -0.0046539310280963881 0 0.0033742581072142659 -0.0047694296064372307 0 0.0032840039222401633 -0.0047025134927101359 0 0.0033742581072142659 -0.0047694296064372307 0 0.0032504727162016109 -0.0048121363175004685 0 0.0034160806998538716 -0.0046539310280963881 0 0.0033742581072142659 -0.0047694296064372307 0 0.0034756431713491051 -0.0047465365204468896 0 0.0033742581072142659 -0.0047694296064372307 0 0.0034756431713491051 -0.0047465365204468896 0 0.0034205172502107732 -0.0048210564566635496 0 0.0033742581072142659 -0.0047694296064372307 0 0.0033447718764812121 -0.0048302011020080861 0 0.0032504727162016109 -0.0048121363175004685 0 0.0033742581072142659 -0.0047694296064372307 0 0.0033447718764812121 -0.0048302011020080861 0 0.0034205172502107732 -0.0048210564566635496 0 0.0033447718764812121 -0.0048302011020080861 0 0.0032919004373052102 -0.0048714743220075575 0 0.0032504727162016109 -0.0048121363175004685 0 0.0034756431713491051 -0.0047465365204468896 0 0.0035403778216613053 -0.0047834082630271836 0 0.003498819047871045 -0.0048225121199404371 0 0.0034756431713491051 -0.0047465365204468896 0 0.003498819047871045 -0.0048225121199404371 0 0.0034205172502107732 -0.0048210564566635496 0 0.0036667741058847621 -0.0048554886619477681 0 0.0036084418141801035 -0.0046200549091052409 0 0.003498819047871045 -0.0048225121199404371 0 0.0035076619067355517 -0.0048397507397939191 0 0.0035215717661317677 -0.0048739834894816671 0 0.0035403778216613053 -0.0047834082630271836 0 0.003498819047871045 -0.0048225121199404371 0 0.0035215717661317677 -0.0048739834894816671 0 0.003872497729079008 -0.0049435507030503173 0 0.0037581852508971735 -0.0047922366188232002 0 0.0038583385705265733 -0.0050292939086887022 0 0.003498819047871045 -0.0048225121199404371 0 0.0034205172502107732 -0.0048210564566635496 0 0.0034473359553255679 -0.00484258753543581 0 0.003498819047871045 -0.0048225121199404371 0 0.0035076619067355517 -0.0048397507397939191 0 0.0034473359553255679 -0.00484258753543581 0 0.0035076619067355517 -0.0048397507397939191 0 0.0033744920794506442 -0.0048697246854285435 0 0.0032610092301040838 -0.0049466952331527515 0 0.0035076619067355517 -0.0048397507397939191 0 0.0034428316568661009 -0.0043776440342568447 0 0.0034880689012491057 -0.0047410667603804621 0 0.0034757413292744706 -0.0044170247894188483 0 0.0034599580892040647 -0.0044974707309563709 0 0.0034650564710800259 -0.0048005938961485145 0 0.0033405899823549922 -0.0046741566128762225 0 0.0034439517817897239 -0.0043624077631618779 0 0.0034428316568661009 -0.0043776440342568447 0 0.0034880689012491057 -0.0047410667603804621 0 0.0033744920794506442 -0.0048697246854285435 0 0.0032610092301040838 -0.0049466952331527515 0 0.0032919004373052102 -0.0048714743220075575 0 0.0033447718764812121 -0.0048302011020080861 0 0.0033744920794506442 -0.0048697246854285435 0 0.0032919004373052102 -0.0048714743220075575 0 0.0033447718764812121 -0.0048302011020080861 0 0.0033744920794506442 -0.0048697246854285435 0 0.0034205172502107732 -0.0048210564566635496 0 0.0033744920794506442 -0.0048697246854285435 0 0.0034205172502107732 -0.0048210564566635496 0 0.0034473359553255679 -0.00484258753543581 0 0.0035076619067355517 -0.0048397507397939191 0 0.0033744920794506442 -0.0048697246854285435 0 0.0034473359553255679 -0.00484258753543581 0 0.0033405899823549922 -0.0046741566128762225 0 0.0032527971424271829 -0.0046036470144785431 0 0.0032610092301040838 -0.0049466952331527515 0 0.0031246613295800576 -0.0048713872482615914 0 0.0030025863963082074 -0.0048829492685814975 0 0.0034439517817897239 -0.0043624077631618779 0 0.0034428316568661009 -0.0043776440342568447 0 0.0035110666222106326 -0.0043221519111504491 0 0.0034439517817897239 -0.0043624077631618779 0 0.0035110666222106326 -0.0043221519111504491 0 0.0034638565178163267 -0.0042881558923175611 0 0.0031246613295800576 -0.0048713872482615914 0 0.003232075069163664 -0.0048725162153924516 0 0.0032504727162016109 -0.0048121363175004685 0 0.003232075069163664 -0.0048725162153924516 0 0.0032919004373052102 -0.0048714743220075575 0 0.0032504727162016109 -0.0048121363175004685 0 0.0032610092301040838 -0.0049466952331527515 0 0.0031246613295800576 -0.0048713872482615914 0 0.003232075069163664 -0.0048725162153924516 0 0.0032610092301040838 -0.0049466952331527515 0 0.003232075069163664 -0.0048725162153924516 0 0.0032919004373052102 -0.0048714743220075575 0 0.0031246613295800576 -0.0048713872482615914 0 0.0032504727162016109 -0.0048121363175004685 0 0.0030465459221467538 -0.0047668821635749002 0 0.0032840039222401633 -0.0047025134927101359 0 0.0032504727162016109 -0.0048121363175004685 0 0.0030465459221467538 -0.0047668821635749002 0 0.0031246613295800576 -0.0048713872482615914 0 0.0030465459221467538 -0.0047668821635749002 0 0.0030025863963082074 -0.0048829492685814975 0 0.0029697480966662227 -0.00480607435905182 0 0.0030465459221467538 -0.0047668821635749002 0 0.0030025863963082074 -0.0048829492685814975 0 0.0035110666222106326 -0.0043221519111504491 0 0.0034862694827145456 -0.0042633783454723217 0 0.0035744196819942099 -0.0042440860899743468 0 0.0035110666222106326 -0.0043221519111504491 0 0.0034862694827145456 -0.0042633783454723217 0 0.0034638565178163267 -0.0042881558923175611 0 0.0034862694827145456 -0.0042633783454723217 0 0.0035433528898971985 -0.0040450383860608811 0 0.0032024193954464904 -0.0040519706822715476 0 0.0034862694827145456 -0.0042633783454723217 0 0.0035433528898971985 -0.0040450383860608811 0 0.0035836441150528622 -0.004119174752851079 0 0.0034737229564478539 -0.0042639381976002097 0 0.0033278234263069265 -0.0041444857323759184 0 0.0034504958031893254 -0.0042618773026923363 0 0.0034638565178163267 -0.0042881558923175611 0 0.003448119006218258 -0.0042801254821433861 0 0.0034862694827145456 -0.0042633783454723217 0 0.0034504958031893254 -0.0042618773026923363 0 0.0034638565178163267 -0.0042881558923175611 0 0.0034439517817897239 -0.0043624077631618779 0 0.0034638565178163267 -0.0042881558923175611 0 0.0034471198577932178 -0.0043081760058937763 0 0.0034439517817897239 -0.0043624077631618779 0 0.0034471198577932178 -0.0043081760058937763 0 0.0034410732247804844 -0.0042968321455545489 0 0.0034638565178163267 -0.0042881558923175611 0 0.0034471198577932178 -0.0043081760058937763 0 0.003448119006218258 -0.0042801254821433861 0 0.0034439517817897239 -0.0043624077631618779 0 0.0034410732247804844 -0.0042968321455545489 0 0.0034377526316014748 -0.0042868242505226086 0 0.0034471198577932178 -0.0043081760058937763 0 0.0034410732247804844 -0.0042968321455545489 0 0.003448119006218258 -0.0042801254821433861 0 0.0034410732247804844 -0.0042968321455545489 0 0.0034377526316014748 -0.0042868242505226086 0 0.0034439025971636167 -0.0042770509050133413 0 0.0034377526316014748 -0.0042868242505226086 0 0.0034439025971636167 -0.0042770509050133413 0 0.0034461435350691088 -0.0042739408179611272 0 0.0034410732247804844 -0.0042968321455545489 0 0.0034439025971636167 -0.0042770509050133413 0 0.003448119006218258 -0.0042801254821433861 0 0.0034599580892040647 -0.0044974707309563709 0 0.0036084418141801035 -0.0046200549091052409 0 0.0035076619067355517 -0.0048397507397939191 0 0.0034880689012491057 -0.0047410667603804621 0 0.0035215717661317677 -0.0048739834894816671 0 0.0034377526316014748 -0.0042868242505226086 0 0.0034489613615436348 -0.0042698875601390306 0 0.0034461435350691088 -0.0042739408179611272 0 0.0034489613615436348 -0.0042698875601390306 0 0.0034461435350691088 -0.0042739408179611272 0 0.0034543231903942677 -0.0042608134164604612 0 0.0034439025971636167 -0.0042770509050133413 0 0.0034461435350691088 -0.0042739408179611272 0 0.0034543231903942677 -0.0042608134164604612 0 0.0034489613615436348 -0.0042698875601390306 0 0.0034543231903942677 -0.0042608134164604612 0 0.0034778590817279406 -0.0042474353253981823 0 0.0034504958031893254 -0.0042618773026923363 0 0.003448119006218258 -0.0042801254821433861 0 0.0034479283064631329 -0.0042655434428489989 0 0.0034543231903942677 -0.0042608134164604612 0 0.0034479283064631329 -0.0042655434428489989 0 0.0034514230802529938 -0.0042735107652550489 0 0.0034439025971636167 -0.0042770509050133413 0 0.003448119006218258 -0.0042801254821433861 0 0.0034479283064631329 -0.0042655434428489989 0 0.0034439025971636167 -0.0042770509050133413 0 0.0034543231903942677 -0.0042608134164604612 0 0.0034479283064631329 -0.0042655434428489989 0 0.0034504958031893254 -0.0042618773026923363 0 0.0034479283064631329 -0.0042655434428489989 0 0.0034514230802529938 -0.0042735107652550489 0 0.0033278234263069265 -0.0041444857323759184 0 0.0031471303139095027 -0.0040367594021686456 0 0.0034543231903942677 -0.0042608134164604612 0 0.0034514230802529938 -0.0042735107652550489 0 0.0034778590817279406 -0.0042474353253981823 0 0.0034753817323181523 -0.0042846769494965277 0 0.0034514230802529938 -0.0042735107652550489 0 0.0034778590817279406 -0.0042474353253981823 0 0.0031471303139095027 -0.0040367594021686456 0 0.0031444170646005966 -0.0034431984698077636 0 0.0034753817323181523 -0.0042846769494965277 0 0.0034514230802529938 -0.0042735107652550489 0 0.0034862339602887609 -0.0043108144192725529 0 0.0028550580066186615 -0.0036876577374875771 0 0.0024971232206246062 -0.0033126891228049782 0 0.0028473521747343312 -0.0033099906000491879 0 0.0028550580066186615 -0.0036876577374875771 0 0.0031808232263290637 -0.003288369733471054 0 0.0028473521747343312 -0.0033099906000491879 0 0.0028550580066186615 -0.0036876577374875771 0 0.0033207035994673876 -0.0036390345306960927 0 0.0031808232263290637 -0.003288369733471054 0 0.0033207035994673876 -0.0036390345306960927 0 0.0036307003512027146 -0.0035532697348908491 0 0.003496620835418168 -0.0031821556361396378 0 0.0035433528898971985 -0.0040450383860608811 0 0.0033207035994673876 -0.0036390345306960927 0 0.0036307003512027146 -0.0035532697348908491 0 0.0032024193954464904 -0.0040519706822715476 0 0.0028550580066186615 -0.0036876577374875771 0 0.0033207035994673876 -0.0036390345306960927 0 0.0035433528898971985 -0.0040450383860608811 0 0.0032024193954464904 -0.0040519706822715476 0 0.0033207035994673876 -0.0036390345306960927 0 0.0056807536099560008 -0.0029610370961288719 0 0.005713275077689396 -0.003602475714543777 0 0.0061457618495488016 -0.0031218618507793524 0 0.0051817927620406911 -0.0026684819789359574 0 0.0051552067364449726 -0.002679285925664473 0 0.00514482652805477 -0.0026312897559110627 0 0.0055219540634370836 -0.0028515389427076318 0 0.0047405874538135198 -0.0037724335140698114 0 0.0051581537496237376 -0.0043172107549104581 0 0.0047405874538135198 -0.0037724335140698114 0 0.004266759717634871 -0.0049543534220668779 0 0.004347489346614811 -0.0051606537703561862 0 0.0041042901568764494 -0.0051011490082551398 0 0.0045090528215271852 -0.0049842803680008726 0 0.004266759717634871 -0.0049543534220668779 0 0.004347489346614811 -0.0051606537703561862 0 0.0047405874538135198 -0.0037724335140698114 0 0.0037365866224947511 -0.0046941939362822377 0 0.0036794459846857448 -0.0041893216773260817 0 0.0035495963831263661 -0.0042238844283417308 0 0.0035692686658375032 -0.0041641740769294971 0 0.0036794459846857448 -0.0041893216773260817 0 0.0035495963831263661 -0.0042238844283417308 0 0.0035699503047211031 -0.0042749369840445898 0 0.0035495963831263661 -0.0042238844283417308 0 0.0035692686658375032 -0.0041641740769294971 0 0.0035067312434795476 -0.0041841283326027288 0 0.0040401573426697059 -0.0049536806589027338 0 0.004266759717634871 -0.0049543534220668779 0 0.0041042901568764494 -0.0051011490082551398 0 0.0040401573426697059 -0.0049536806589027338 0 0.0038583385705265733 -0.0050292939086887022 0 0.0041042901568764494 -0.0051011490082551398 0 0.003872497729079008 -0.0049435507030503173 0 0.0040401573426697059 -0.0049536806589027338 0 0.0038583385705265733 -0.0050292939086887022 0 0.0036084418141801035 -0.0046200549091052409 0 0.0037365866224947511 -0.0046941939362822377 0 0.0034654777341842653 -0.0041367127020323627 0 0.0035692686658375032 -0.0041641740769294971 0 0.0035067312434795476 -0.0041841283326027288 0 0.0036084418141801035 -0.0046200549091052409 0 0.0034352347610550151 -0.0040770300417675258 0 0.0034654777341842653 -0.0041367127020323627 0 0.0035067312434795476 -0.0041841283326027288 0 0.0034778590817279406 -0.0042474353253981823 0 0.0035495963831263661 -0.0042238844283417308 0 0.0035067312434795476 -0.0041841283326027288 0 0.0034778590817279406 -0.0042474353253981823 0 0.0034753817323181523 -0.0042846769494965277 0 0.0034778590817279406 -0.0042474353253981823 0 0.0035081771163539403 -0.0042692963158011219 0 0.0035081771163539403 -0.0042692963158011219 0 0.0035083672195936376 -0.0042833313278345976 0 0.0035699503047211031 -0.0042749369840445898 0 0.0035495963831263661 -0.0042238844283417308 0 0.0034778590817279406 -0.0042474353253981823 0 0.0035081771163539403 -0.0042692963158011219 0 0.0044798058340706614 -0.0034367015884256076 0 0.0038661900808343468 -0.0029486663671729882 0 0.0052533899171873979 -0.0026304965084063669 0 0.0054134274211177641 -0.0023185836309121081 0 0.0056074426659958806 -0.0023216060792574378 0 0.0035083672195936376 -0.0042833313278345976 0 0.0035699503047211031 -0.0042749369840445898 0 0.0034921103679599608 -0.0043069193044488448 0 0.0034753817323181523 -0.0042846769494965277 0 0.0035081771163539403 -0.0042692963158011219 0 0.0035083672195936376 -0.0042833313278345976 0 0.0034753817323181523 -0.0042846769494965277 0 0.0035083672195936376 -0.0042833313278345976 0 0.0034921103679599608 -0.0043069193044488448 0 0.0034753817323181523 -0.0042846769494965277 0 0.0034862339602887609 -0.0043108144192725529 0 0.0034921103679599608 -0.0043069193044488448 0 0.0052806230860019295 -0.0023931894707062925 0 0.0052533899171873979 -0.0026304965084063669 0 0.0054134274211177641 -0.0023185836309121081 0 0.0052806230860019295 -0.0023931894707062925 0 0.0052533899171873979 -0.0026304965084063669 0 0.0051923422164066382 -0.0024905093999786007 0 0.0052806230860019295 -0.0023931894707062925 0 0.0051923422164066382 -0.0024905093999786007 0 0.0051187906250197623 -0.0023256032747980397 0 0.0035495963831263661 -0.0042238844283417308 0 0.0035081771163539403 -0.0042692963158011219 0 0.0035699503047211031 -0.0042749369840445898 0 0.0051552067364449726 -0.002679285925664473 0 0.0052533899171873979 -0.0026304965084063669 0 0.00514482652805477 -0.0026312897559110627 0 0.0047405874538135198 -0.0037724335140698114 0 0.0044798058340706614 -0.0034367015884256076 0 0.0052533899171873979 -0.0026304965084063669 0 0.00514482652805477 -0.0026312897559110627 0 0.005101899366343943 -0.0025735592223986698 0 0.005101899366343943 -0.0025735592223986698 0 0.0046438178649332819 -0.0021429860900739213 0 0.0051187906250197623 -0.0023256032747980397 0 0.0052533899171873979 -0.0026304965084063669 0 0.0051923422164066382 -0.0024905093999786007 0 0.005101899366343943 -0.0025735592223986698 0 0.0051923422164066382 -0.0024905093999786007 0 0.005101899366343943 -0.0025735592223986698 0 0.0051187906250197623 -0.0023256032747980397 0 0.005101899366343943 -0.0025735592223986698 0 0.005208596851709598 -0.0026558331432321677 0 0.0052124086684098066 -0.0026066045489406076 0 0.005089385219967592 -0.0025474645265843288 0 0.0049038949168802555 -0.0024408307688305016 0 0.005101899366343943 -0.0025735592223986698 0 0.0051865840560909654 -0.0026164722445773123 0 0.0052124086684098066 -0.0026066045489406076 0 0.0051817927620406911 -0.0026684819789359574 0 0.00514482652805477 -0.0026312897559110627 0 0.0051865840560909654 -0.0026164722445773123 0 0.00514482652805477 -0.0026312897559110627 0 0.005101899366343943 -0.0025735592223986698 0 0.0051865840560909654 -0.0026164722445773123 0 0.0047654060475966833 -0.0019083490001281999 0 0.0046438178649332819 -0.0021429860900739213 0 0.0045671596289235949 -0.0018305704829017068 0 0.0047654060475966833 -0.0019083490001281999 0 0.0047128355137900898 -0.001685007944689741 0 0.0045671596289235949 -0.0018305704829017068 0 0.0047128355137900898 -0.001685007944689741 0 0.0045671596289235949 -0.0018305704829017068 0 0.0045313749625780914 -0.0016945921857674602 0 0.0047654060475966833 -0.0019083490001281999 0 0.0049828001790549444 -0.0018286202243023505 0 0.0047128355137900898 -0.001685007944689741 0 0.0047654060475966833 -0.0019083490001281999 0 0.0046438178649332819 -0.0021429860900739213 0 0.0049419316412250653 -0.0020543266963319673 0 0.0046438178649332819 -0.0021429860900739213 0 0.0049419316412250653 -0.0020543266963319673 0 0.0051187906250197623 -0.0023256032747980397 0 0.0049419316412250653 -0.0020543266963319673 0 0.0051187906250197623 -0.0023256032747980397 0 0.0051499305497924343 -0.0020701476833478584 0 0.0051499305497924343 -0.0020701476833478584 0 0.0049828001790549444 -0.0018286202243023505 0 0.0051921639147971569 -0.0018711859996330873 0 0.0049419316412250653 -0.0020543266963319673 0 0.0051499305497924343 -0.0020701476833478584 0 0.0049828001790549444 -0.0018286202243023505 0 0.0047654060475966833 -0.0019083490001281999 0 0.0049419316412250653 -0.0020543266963319673 0 0.0049828001790549444 -0.0018286202243023505 0 0.0049828001790549444 -0.0018286202243023505 0 0.0051921639147971569 -0.0018711859996330873 0 0.0051691426537812625 -0.001634110237079648 0 0.0051921639147971569 -0.0018711859996330873 0 0.0053455423844829767 -0.0018097991569919359 0 0.0051691426537812625 -0.001634110237079648 0 0.0051921639147971569 -0.0018711859996330873 0 0.0053455423844829767 -0.0018097991569919359 0 0.005310229876994344 -0.0020093431997019406 0 0.005310229876994344 -0.0020093431997019406 0 0.0054169250137744819 -0.00213943154697613 0 0.0054382232768577302 -0.0019676773560939609 0 0.0053455423844829767 -0.0018097991569919359 0 0.005310229876994344 -0.0020093431997019406 0 0.0054382232768577302 -0.0019676773560939609 0 0.0051499305497924343 -0.0020701476833478584 0 0.0051921639147971569 -0.0018711859996330873 0 0.005310229876994344 -0.0020093431997019406 0 0.0051499305497924343 -0.0020701476833478584 0 0.005310229876994344 -0.0020093431997019406 0 0.0052830317689595216 -0.0022134339054529573 0 0.0052806230860019295 -0.0023931894707062925 0 0.0051187906250197623 -0.0023256032747980397 0 0.0052830317689595216 -0.0022134339054529573 0 0.0051187906250197623 -0.0023256032747980397 0 0.0051499305497924343 -0.0020701476833478584 0 0.0052830317689595216 -0.0022134339054529573 0 0.0052830317689595216 -0.0022134339054529573 0 0.0054134274211177641 -0.0023185836309121081 0 0.0054169250137744819 -0.00213943154697613 0 0.0052806230860019295 -0.0023931894707062925 0 0.0052830317689595216 -0.0022134339054529573 0 0.0054134274211177641 -0.0023185836309121081 0 0.005310229876994344 -0.0020093431997019406 0 0.0052830317689595216 -0.0022134339054529573 0 0.0054169250137744819 -0.00213943154697613 0 0.0055172867085037294 -0.0021230828230378146 0 0.0054169250137744819 -0.00213943154697613 0 0.0054382232768577302 -0.0019676773560939609 0 0.0025967874202878338 -0.0032127151566519979 0 0.0025604996242312413 -0.0032543547805235808 0 0.0025368893584666163 -0.0027792872440605496 0 0.0055172867085037294 -0.0021230828230378146 0 0.0056074426659958806 -0.0023216060792574378 0 0.0056058992644318663 -0.0017493797802710463 0 0.0054134274211177641 -0.0023185836309121081 0 0.0055172867085037294 -0.0021230828230378146 0 0.0056074426659958806 -0.0023216060792574378 0 0.0054134274211177641 -0.0023185836309121081 0 0.0055172867085037294 -0.0021230828230378146 0 0.0054169250137744819 -0.00213943154697613 0 0.0031444170646005966 -0.0034431984698077636 0 0.0038661900808343468 -0.0029486663671729882 0 0.0038661900808343468 -0.0029486663671729882 0 0.0041057389367425336 -0.0022204650938259353 0 0.0025967874202878338 -0.0032127151566519979 0 0.0025368893584666163 -0.0027792872440605496 0 0.0026382518441305171 -0.0030320023330520605 0 0.0055172867085037294 -0.0021230828230378146 0 0.0054382232768577302 -0.0019676773560939609 0 0.0056058992644318663 -0.0017493797802710463 0 0.0053455423844829767 -0.0018097991569919359 0 0.0054382232768577302 -0.0019676773560939609 0 0.0056058992644318663 -0.0017493797802710463 0 0.0056058992644318663 -0.0017493797802710463 0 0.0055184453996493877 -0.0011633350783826274 0 0.0053610599267247521 -0.0015196210851504916 0 0.0041057389367425336 -0.0022204650938259353 0 0.0039852003949850875 -0.0017483616868971073 0 0.0053455423844829767 -0.0018097991569919359 0 0.0056058992644318663 -0.0017493797802710463 0 0.0053610599267247521 -0.0015196210851504916 0 0.0055184453996493877 -0.0011633350783826274 0 0.0051678414156374969 -0.001254449752414374 0 0.0053610599267247521 -0.0015196210851504916 0 0.0051678414156374969 -0.001254449752414374 0 0.0053610599267247521 -0.0015196210851504916 0 0.0051691426537812625 -0.001634110237079648 0 0.0053455423844829767 -0.0018097991569919359 0 0.0053610599267247521 -0.0015196210851504916 0 0.0051691426537812625 -0.001634110237079648 0 0.0049828001790549444 -0.0018286202243023505 0 0.0049483625917367919 -0.00150958599075829 0 0.0047128355137900898 -0.001685007944689741 0 0.0049828001790549444 -0.0018286202243023505 0 0.0051691426537812625 -0.001634110237079648 0 0.0049483625917367919 -0.00150958599075829 0 0.0051678414156374969 -0.001254449752414374 0 0.0051691426537812625 -0.001634110237079648 0 0.0049483625917367919 -0.00150958599075829 0 0.0051678414156374969 -0.001254449752414374 0 0.0049483625917367919 -0.00150958599075829 0 0.0049197244804734088 -0.0012528605291236678 0 0.0051678414156374969 -0.001254449752414374 0 0.0049197244804734088 -0.0012528605291236678 0 0.0050080128621576249 -0.00091912883638160879 0 0.0049483625917367919 -0.00150958599075829 0 0.0049197244804734088 -0.0012528605291236678 0 0.0047202105800374563 -0.0014165819540694041 0 0.0047412033684031693 -0.0011680187943079773 0 0.0045045256879537423 -0.0013060554519769686 0 0.0047119699636965244 -0.00094355771524997408 0 0.0049197244804734088 -0.0012528605291236678 0 0.0047202105800374563 -0.0014165819540694041 0 0.0047412033684031693 -0.0011680187943079773 0 0.0047202105800374563 -0.0014165819540694041 0 0.0047412033684031693 -0.0011680187943079773 0 0.0045045256879537423 -0.0013060554519769686 0 0.0047202105800374563 -0.0014165819540694041 0 0.0045347604964966594 -0.0015667844109917943 0 0.0045045256879537423 -0.0013060554519769686 0 0.0047202105800374563 -0.0014165819540694041 0 0.0047128355137900898 -0.001685007944689741 0 0.0045347604964966594 -0.0015667844109917943 0 0.0049483625917367919 -0.00150958599075829 0 0.0047202105800374563 -0.0014165819540694041 0 0.0047128355137900898 -0.001685007944689741 0 0.0047128355137900898 -0.001685007944689741 0 0.0045313749625780914 -0.0016945921857674602 0 0.0045347604964966594 -0.0015667844109917943 0 0.0032099184855192975 -0.0029431817740092486 0 0.003496620835418168 -0.0031821556361396378 0 0.0034853101629730432 -0.0027723754765709031 0 0.0032099184855192975 -0.0029431817740092486 0 0.0030258653041887688 -0.0027605390826341445 0 0.0032371601404281455 -0.0026999976978671529 0 0.0032099184855192975 -0.0029431817740092486 0 0.0032371601404281455 -0.0026999976978671529 0 0.0034853101629730432 -0.0027723754765709031 0 0.0036743541206283804 -0.0026872337823856209 0 0.0034853101629730432 -0.0027723754765709031 0 0.0037975510326314662 -0.0028902060264933802 0 0.003496620835418168 -0.0031821556361396378 0 0.0034853101629730432 -0.0027723754765709031 0 0.0037975510326314662 -0.0028902060264933802 0 0.0036307003512027146 -0.0035532697348908491 0 0.003496620835418168 -0.0031821556361396378 0 0.0038351477063185255 -0.0032868220011160226 0 0.0033207035994673876 -0.0036390345306960927 0 0.003496620835418168 -0.0031821556361396378 0 0.0031808232263290637 -0.003288369733471054 0 0.0032099184855192975 -0.0029431817740092486 0 0.003496620835418168 -0.0031821556361396378 0 0.0031808232263290637 -0.003288369733471054 0 0.0031808232263290637 -0.003288369733471054 0 0.0028473521747343312 -0.0033099906000491879 0 0.0028442112816807383 -0.0029467248091972348 0 0.0024971232206246062 -0.0033126891228049782 0 0.0028473521747343312 -0.0033099906000491879 0 0.0028442112816807383 -0.0029467248091972348 0 0.0025967874202878338 -0.0032127151566519979 0 0.0026382518441305171 -0.0030320023330520605 0 0.0028442112816807383 -0.0029467248091972348 0 0.0031444170646005966 -0.0034431984698077636 0 0.0026677772446979569 -0.0029730290040721257 0 0.0025368893584666163 -0.0027792872440605496 0 0.0028442112816807383 -0.0029467248091972348 0 0.0028411137206661636 -0.0026228976979005294 0 0.0025368893584666163 -0.0027792872440605496 0 0.0026382518441305171 -0.0030320023330520605 0 0.0028442112816807383 -0.0029467248091972348 0 0.0032099184855192975 -0.0029431817740092486 0 0.0031808232263290637 -0.003288369733471054 0 0.0028442112816807383 -0.0029467248091972348 0 0.0028442112816807383 -0.0029467248091972348 0 0.0030258653041887688 -0.0027605390826341445 0 0.0028411137206661636 -0.0026228976979005294 0 0.0032099184855192975 -0.0029431817740092486 0 0.0028442112816807383 -0.0029467248091972348 0 0.0030258653041887688 -0.0027605390826341445 0 0.0030258653041887688 -0.0027605390826341445 0 0.0031088402166498741 -0.0025002232519017362 0 0.0032371601404281455 -0.0026999976978671529 0 0.0030258653041887688 -0.0027605390826341445 0 0.0031088402166498741 -0.0025002232519017362 0 0.0028411137206661636 -0.0026228976979005294 0 0.0025368893584666163 -0.0027792872440605496 0 0.0025382403164955656 -0.0022412504286698615 0 0.0028411137206661636 -0.0026228976979005294 0 0.0025382403164955656 -0.0022412504286698615 0 0.0028411137206661636 -0.0026228976979005294 0 0.0028896165830260378 -0.0023021904507370275 0 0.0031088402166498741 -0.0025002232519017362 0 0.0028411137206661636 -0.0026228976979005294 0 0.0028896165830260378 -0.0023021904507370275 0 0.0031088402166498741 -0.0025002232519017362 0 0.0028896165830260378 -0.0023021904507370275 0 0.0030903314090962152 -0.0022554408812121701 0 0.003280002013351884 -0.0023222406362526987 0 0.0035346985637556153 -0.0022518660615132523 0 0.0031957514077210749 -0.0020783139374481317 0 0.0030903314090962152 -0.0022554408812121701 0 0.003280002013351884 -0.0023222406362526987 0 0.0031957514077210749 -0.0020783139374481317 0 0.003280002013351884 -0.0023222406362526987 0 0.0033669880881006609 -0.0025226838100970909 0 0.0035346985637556153 -0.0022518660615132523 0 0.0031088402166498741 -0.0025002232519017362 0 0.003280002013351884 -0.0023222406362526987 0 0.0033669880881006609 -0.0025226838100970909 0 0.0031088402166498741 -0.0025002232519017362 0 0.0030903314090962152 -0.0022554408812121701 0 0.003280002013351884 -0.0023222406362526987 0 0.0031088402166498741 -0.0025002232519017362 0 0.0033669880881006609 -0.0025226838100970909 0 0.0032371601404281455 -0.0026999976978671529 0 0.0033669880881006609 -0.0025226838100970909 0 0.0032371601404281455 -0.0026999976978671529 0 0.0034853101629730432 -0.0027723754765709031 0 0.0036743541206283804 -0.0026872337823856209 0 0.0034853101629730432 -0.0027723754765709031 0 0.0035805047046146986 -0.0025507016275661972 0 0.0033669880881006609 -0.0025226838100970909 0 0.0034853101629730432 -0.0027723754765709031 0 0.0035805047046146986 -0.0025507016275661972 0 0.0036743541206283804 -0.0026872337823856209 0 0.0035805047046146986 -0.0025507016275661972 0 0.0038352035659010462 -0.0025365585119170703 0 0.0033669880881006609 -0.0025226838100970909 0 0.0035805047046146986 -0.0025507016275661972 0 0.0035346985637556153 -0.0022518660615132523 0 0.0042228580044013763 -0.00071035448355015994 0 0.0040628596178991531 -0.0014343932730805226 0 0.0035805047046146986 -0.0025507016275661972 0 0.0035346985637556153 -0.0022518660615132523 0 0.0038352035659010462 -0.0025365585119170703 0 0.0042228580044013763 -0.00071035448355015994 0 0.0043113738201310623 -0.0002231275837314694 0 0.0044380830248791558 -0.00020627892070581737 0 0.004361761410278088 -0.00023843760710541472 0 0.0043212151274922552 -0.00021892346506292528 0 0.004361761410278088 -0.00023843760710541472 0 0.0043092303164366606 -0.00024596475118742649 0 0.0043212151274922552 -0.00021892346506292528 0 0.0043649449370265934 -0.00024098210453673627 0 0.0043212151274922552 -0.00021892346506292528 0 0.0043079402612280753 -0.00020304642029597586 0 0.0043092303164366606 -0.00024596475118742649 0 0.0042590216846939864 -0.0002501667036537947 0 0.0042853786443505576 -0.00027915050123890383 0 0.0043092303164366606 -0.00024596475118742649 0 0.0042906841429605031 -0.00022790263571490673 0 0.0042590216846939864 -0.0002501667036537947 0 0.0042906841429605031 -0.00022790263571490673 0 0.0042525664963824449 -0.00022572966133337679 0 0.0043079402612280753 -0.00020304642029597586 0 0.0042906841429605031 -0.00022790263571490673 0 0.0042590216846939864 -0.0002501667036537947 0 0.0042525664963824449 -0.00022572966133337679 0 0.0043092303164366606 -0.00024596475118742649 0 0.0042906841429605031 -0.00022790263571490673 0 0.0043212151274922552 -0.00021892346506292528 0 0.0042906841429605031 -0.00022790263571490673 0 0.0043212151274922552 -0.00021892346506292528 0 0.0043079402612280753 -0.00020304642029597586 0 0.0041938968291118277 -0.00024736402708137786 0 0.004151926767118605 -0.00029622336927339081 0 0.0042185867987482055 -0.00028239623664970181 0 0.0042590216846939864 -0.0002501667036537947 0 0.0042185867987482055 -0.00028239623664970181 0 0.0042853786443505576 -0.00027915050123890383 0 0.0042590216846939864 -0.0002501667036537947 0 0.0041938968291118277 -0.00024736402708137786 0 0.0042185867987482055 -0.00028239623664970181 0 0.0042590216846939864 -0.0002501667036537947 0 0.0042525664963824449 -0.00022572966133337679 0 0.0041938968291118277 -0.00024736402708137786 0 0.0042115883295059959 -0.00020759623531607806 0 0.0042137944945896408 -0.00016176214190306639 0 0.0041213362862856069 -0.00021277397180400015 0 0.0042525664963824449 -0.00022572966133337679 0 0.0042115883295059959 -0.00020759623531607806 0 0.0043079402612280753 -0.00020304642029597586 0 0.0042115883295059959 -0.00020759623531607806 0 0.0043079402612280753 -0.00020304642029597586 0 0.0042137944945896408 -0.00016176214190306639 0 0.0041938968291118277 -0.00024736402708137786 0 0.0042115883295059959 -0.00020759623531607806 0 0.0041213362862856069 -0.00021277397180400015 0 0.0042525664963824449 -0.00022572966133337679 0 0.0041938968291118277 -0.00024736402708137786 0 0.0042115883295059959 -0.00020759623531607806 0 0.0040628596178991531 -0.0014343932730805226 0 0.0042108278299266329 -0.0014521805739106518 0 0.0036743541206283804 -0.0026872337823856209 0 0.0038352035659010462 -0.0025365585119170703 0 0.0037975510326314662 -0.0028902060264933802 0 0.0038352035659010462 -0.0025365585119170703 0 0.0037975510326314662 -0.0028902060264933802 0 0.0041468506629628648 -0.0028328441430125963 0 0.0042108278299266329 -0.0014521805739106518 0 0.0038935430352301389 -0.0020511155730889965 0 0.0041468506629628648 -0.0028328441430125963 0 0.004100404193960753 -0.0031346973875270544 0 0.0044655047516261029 -0.0031365737967456323 0 0.0037975510326314662 -0.0028902060264933802 0 0.0041468506629628648 -0.0028328441430125963 0 0.004100404193960753 -0.0031346973875270544 0 0.004100404193960753 -0.0031346973875270544 0 0.0044655047516261029 -0.0031365737967456323 0 0.0041849216496747969 -0.0034338537742908135 0 0.004100404193960753 -0.0031346973875270544 0 0.0038351477063185255 -0.0032868220011160226 0 0.0041849216496747969 -0.0034338537742908135 0 0.0037975510326314662 -0.0028902060264933802 0 0.004100404193960753 -0.0031346973875270544 0 0.0038351477063185255 -0.0032868220011160226 0 0.003496620835418168 -0.0031821556361396378 0 0.0037975510326314662 -0.0028902060264933802 0 0.0038351477063185255 -0.0032868220011160226 0 0.0036997481240398974 -0.00097320582240769846 0 0.0033794675555797646 -0.00098291341971273242 0 0.0037039259274351155 -0.0012606948871214188 0 0.0038935430352301389 -0.0020511155730889965 0 0.0036748149051258326 -0.0026755691164627843 0 0.0038935430352301389 -0.0020511155730889965 0 0.0038159287337316745 -0.0038747828408464105 0 0.0038935430352301389 -0.0020511155730889965 0 0.0039212438454855631 -0.00026936705744393281 0 0.0042137944945896408 -0.00016176214190306639 0 0.0041171404028249392 -8.8277310961755025e-05 0 0.0041213362862856069 -0.00021277397180400015 0 0.0041171404028249392 -8.8277310961755025e-05 0 0.0040297384410257417 -0.00015821622981540852 0 0.0041213362862856069 -0.00021277397180400015 0 0.0036997481240398974 -0.00097320582240769846 0 0.0035952414486571534 -0.00072279423881477364 0 0.0039146754193259475 -0.00079454545752601145 0 0.0036997481240398974 -0.00097320582240769846 0 0.0033794675555797646 -0.00098291341971273242 0 0.0035952414486571534 -0.00072279423881477364 0 0.004009065574306003 -0.00026664029510237565 0 0.0041213362862856069 -0.00021277397180400015 0 0.0040360492674286191 -0.0002796250648174166 0 0.0039212438454855631 -0.00026936705744393281 0 0.0038600925610630388 -0.00041445246099053507 0 0.0040297384410257417 -0.00015821622981540852 0 0.004009065574306003 -0.00026664029510237565 0 0.0039143894416914828 -0.00036122328955689531 0 0.0040297384410257417 -0.00015821622981540852 0 0.004009065574306003 -0.00026664029510237565 0 0.0041213362862856069 -0.00021277397180400015 0 0.004009065574306003 -0.00026664029510237565 0 0.0039695214334209104 -0.00029721516015772452 0 0.0040360492674286191 -0.0002796250648174166 0 0.004009065574306003 -0.00026664029510237565 0 0.0039695214334209104 -0.00029721516015772452 0 0.0039143894416914828 -0.00036122328955689531 0 0.0041213362862856069 -0.00021277397180400015 0 0.004110819344494668 -0.00026947012138990671 0 0.0040360492674286191 -0.0002796250648174166 0 0.0041938968291118277 -0.00024736402708137786 0 0.0041213362862856069 -0.00021277397180400015 0 0.004110819344494668 -0.00026947012138990671 0 0.004110819344494668 -0.00026947012138990671 0 0.0040914278175682118 -0.00030204844328456424 0 0.0040462927885550068 -0.00029346950783844369 0 0.004110819344494668 -0.00026947012138990671 0 0.0040914278175682118 -0.00030204844328456424 0 0.004151926767118605 -0.00029622336927339081 0 0.0041938968291118277 -0.00024736402708137786 0 0.004110819344494668 -0.00026947012138990671 0 0.004151926767118605 -0.00029622336927339081 0 0.0040360492674286191 -0.0002796250648174166 0 0.0040462927885550068 -0.00029346950783844369 0 0.0039971170304557721 -0.00029505540630339079 0 0.0039695214334209104 -0.00029721516015772452 0 0.0040360492674286191 -0.0002796250648174166 0 0.0039971170304557721 -0.00029505540630339079 0 0.004110819344494668 -0.00026947012138990671 0 0.0040360492674286191 -0.0002796250648174166 0 0.0040462927885550068 -0.00029346950783844369 0 0.0040914278175682118 -0.00030204844328456424 0 0.0040462927885550068 -0.00029346950783844369 0 0.0040395895855637109 -0.00032094904770431045 0 0.0040462927885550068 -0.00029346950783844369 0 0.0039971170304557721 -0.00029505540630339079 0 0.0040395895855637109 -0.00032094904770431045 0 0.0039971170304557721 -0.00029505540630339079 0 0.0039626404351989107 -0.00029407223881922724 0 0.0039837630279127706 -0.00031850199497183908 0 0.0039971170304557721 -0.00029505540630339079 0 0.0039618084177609559 -0.0002706579051983806 0 0.0039626404351989107 -0.00029407223881922724 0 0.0039695214334209104 -0.00029721516015772452 0 0.0039971170304557721 -0.00029505540630339079 0 0.0039618084177609559 -0.0002706579051983806 0 0.0039618084177609559 -0.0002706579051983806 0 0.0039626404351989107 -0.00029407223881922724 0 0.0039181268158602501 -0.00027733596937853705 0 0.0039626404351989107 -0.00029407223881922724 0 0.0039406077191829186 -0.00030739421673615794 0 0.0039181268158602501 -0.00027733596937853705 0 0.0039626404351989107 -0.00029407223881922724 0 0.0039406077191829186 -0.00030739421673615794 0 0.0039837630279127706 -0.00031850199497183908 0 0.0039406077191829186 -0.00030739421673615794 0 0.0039181268158602501 -0.00027733596937853705 0 0.0038816664874412364 -0.00031639083065497639 0 0.0039181268158602501 -0.00027733596937853705 0 0.0038485891459012519 -0.0002528938989233352 0 0.0038816664874412364 -0.00031639083065497639 0 0.0039618084177609559 -0.0002706579051983806 0 0.0039181268158602501 -0.00027733596937853705 0 0.0038991392420892773 -0.00022122487503923894 0 0.0039181268158602501 -0.00027733596937853705 0 0.0038991392420892773 -0.00022122487503923894 0 0.0038485891459012519 -0.0002528938989233352 0 0.004201798713629387 -0.00043176749330249629 0 0.0045985842963374842 -0.00066655685016188328 0 0.0041460035702520831 -0.00070215864967253564 0 0.004201798713629387 -0.00043176749330249629 0 0.004034242724572569 -0.00056836182971987958 0 0.0041460035702520831 -0.00070215864967253564 0 0.004201798713629387 -0.00043176749330249629 0 0.004034242724572569 -0.00056836182971987958 0 0.0039143894416914828 -0.00036122328955689531 0 0.0039568607409339578 -0.00026991917246866221 0 0.0040906633130889927 -0.00032512661389887088 0 0.004034242724572569 -0.00056836182971987958 0 0.0039143894416914828 -0.00036122328955689531 0 0.0039146754193259475 -0.00079454545752601145 0 0.0039618084177609559 -0.0002706579051983806 0 0.004201798713629387 -0.00043176749330249629 0 0.0039143894416914828 -0.00036122328955689531 0 0.0039695214334209104 -0.00029721516015772452 0 0.0039618084177609559 -0.0002706579051983806 0 0.0039143894416914828 -0.00036122328955689531 0 0.0037015845171499877 -0.00028084555148748014 0 0.0037971371162988884 -0.0002995418890616314 0 0.0037652080065913311 -0.00023053276567651306 0 0.0022000719557704797 -0.00072572548341398612 0 0.0033160935479723641 -0.00067541826778843997 0 0.0037971371162988884 -0.0002995418890616314 0 0.0038485891459012519 -0.0002528938989233352 0 0.0038816664874412364 -0.00031639083065497639 0 0.0037971371162988884 -0.0002995418890616314 0 0.0038485891459012519 -0.0002528938989233352 0 0.0037652080065913311 -0.00023053276567651306 0 0.0040906633130889927 -0.00032512661389887088 0 0.0037715823179059072 -0.00083511980280870672 0 0.0038485891459012519 -0.0002528938989233352 0 0.0037652080065913311 -0.00023053276567651306 0 0.0038279551046828627 -0.00018078311210923043 0 0.0038991392420892773 -0.00022122487503923894 0 0.0038485891459012519 -0.0002528938989233352 0 0.0038279551046828627 -0.00018078311210923043 0 0.0033160935479723641 -0.00067541826778843997 0 0.0037715823179059072 -0.00083511980280870672 0 0.0035321215334223836 -0.001252537959447349 0 0.0038842343189969169 -0.0013819584565478524 0 0.0038916867125566791 -0.0011026541875820161 0 0.0025781488379631825 -0.00078819873575005706 0 0.0027275190369621108 -0.0012195606455883503 0 0.0029706153140356094 -0.0010140728495477498 0 0.0031297805368976366 -0.00099090286275698401 0 0.0037715823179059072 -0.00083511980280870672 0 0.0038842343189969169 -0.0013819584565478524 0 0.0038916867125566791 -0.0011026541875820161 0 0.0041252302634420673 -0.0010642622145650741 0 0.0037715823179059072 -0.00083511980280870672 0 0.0042535794080488685 -0.0010678591195886118 0 0.0035321215334223836 -0.001252537959447349 0 0.0038916867125566791 -0.0011026541875820161 0 0.00363848414653818 -0.0009896630201842655 0 0.0035952414486571534 -0.00072279423881477364 0 0.0039143894416914828 -0.00036122328955689531 0 0.0039146754193259475 -0.00079454545752601145 0 0.004034242724572569 -0.00056836182971987958 0 0.0039146754193259475 -0.00079454545752601145 0 0.0041460035702520831 -0.00070215864967253564 0 0.0045985842963374842 -0.00066655685016188328 0 0.0041460035702520831 -0.00070215864967253564 0 0.0041252302634420673 -0.0010642622145650741 0 0.0039146754193259475 -0.00079454545752601145 0 0.0041460035702520831 -0.00070215864967253564 0 0.0041252302634420673 -0.0010642622145650741 0 0.0038916867125566791 -0.0011026541875820161 0 0.0041252302634420673 -0.0010642622145650741 0 0.0040934931333550771 -0.0010987709063329887 0 0.0041252302634420673 -0.0010642622145650741 0 0.0039192536340909873 -0.0010709860007034168 0 0.0040934931333550771 -0.0010987709063329887 0 0.0039146754193259475 -0.00079454545752601145 0 0.0041252302634420673 -0.0010642622145650741 0 0.0039192536340909873 -0.0010709860007034168 0 0.0036997481240398974 -0.00097320582240769846 0 0.0039146754193259475 -0.00079454545752601145 0 0.0039192536340909873 -0.0010709860007034168 0 0.0036997481240398974 -0.00097320582240769846 0 0.0039192536340909873 -0.0010709860007034168 0 0.0037039259274351155 -0.0012606948871214188 0 0.0039561044499662034 -0.0012548312812513509 0 0.0039681016281553454 -0.0015233424185430572 0 0.0037039259274351155 -0.0012606948871214188 0 0.0039192536340909873 -0.0010709860007034168 0 0.0039561044499662034 -0.0012548312812513509 0 0.0037039259274351155 -0.0012606948871214188 0 0.0039037097852857618 -0.0027292562513063674 0 0.0036748149051258326 -0.0026755691164627843 0 0.0039192536340909873 -0.0010709860007034168 0 0.0039561044499662034 -0.0012548312812513509 0 0.0040934931333550771 -0.0010987709063329887 0 0.0039561044499662034 -0.0012548312812513509 0 0.0041146380202294634 -0.001354251102621982 0 0.0039681016281553454 -0.0015233424185430572 0 0.0039561044499662034 -0.0012548312812513509 0 0.0040934931333550771 -0.0010987709063329887 0 0.0041146380202294634 -0.001354251102621982 0 0.0040851237820791701 -0.0010907553353309062 0 0.0041574897814946532 -0.0011256268765296056 0 0.0040934931333550771 -0.0010987709063329887 0 0.0041146380202294634 -0.001354251102621982 0 0.0043448114233534865 -0.0013411362154981982 0 0.0039681016281553454 -0.0015233424185430572 0 0.0042986733856853355 -0.001577082287803196 0 0.0042655465310460113 -0.0018376418850853762 0 0.0041146380202294634 -0.001354251102621982 0 0.0039681016281553454 -0.0015233424185430572 0 0.0042986733856853355 -0.001577082287803196 0 0.0037988409514235289 -0.0040542630314621859 0 0.0037133375397744553 -0.0040988084164108518 0 0.0037361654098544902 -0.0039839911382941783 0 0.00363848414653818 -0.0009896630201842655 0 0.003904277812484857 -0.00089458382613346048 0 0.0036766216051730889 -0.00074618167192036153 0 0.0034379112058794273 -0.00088631859016113207 0 0.00363848414653818 -0.0009896630201842655 0 0.0036766216051730889 -0.00074618167192036153 0 0.0038916867125566791 -0.0011026541875820161 0 0.00363848414653818 -0.0009896630201842655 0 0.003904277812484857 -0.00089458382613346048 0 0.0038916867125566791 -0.0011026541875820161 0 0.0040934931333550771 -0.0010987709063329887 0 0.003904277812484857 -0.00089458382613346048 0 0.0043448114233534865 -0.0013411362154981982 0 0.0042986733856853355 -0.001577082287803196 0 0.0045773127533372659 -0.0015613472982847628 0 0.0041146380202294634 -0.001354251102621982 0 0.0043448114233534865 -0.0013411362154981982 0 0.0042986733856853355 -0.001577082287803196 0 0.0041574897814946532 -0.0011256268765296056 0 0.0036901815792075351 -0.0013904879425786899 0 0.0034400818667559511 -0.00052738078731533308 0 0.003681005362740436 -0.00072030318566421408 0 0.0036766216051730889 -0.00074618167192036153 0 0.003904277812484857 -0.00089458382613346048 0 0.0036813010671025324 -0.00072062412303806726 0 0.0036766216051730889 -0.00074618167192036153 0 0.0036901815792075351 -0.0013904879425786899 0 0.0037009998241096646 -0.0013094328141250652 0 0.0026104073147200551 -0.0017970420946651858 0 0.0036901815792075351 -0.0013904879425786899 0 0.0029636077843927526 -0.0021154928531517052 0 0.0029641207139009347 -0.0021387804591752628 0 0.0031120717052867432 -0.002117342999272292 0 0.0029641207139009347 -0.0021387804591752628 0 0.0030898253048355028 -0.0022374667434447971 0 0.0031120717052867432 -0.002117342999272292 0 0.0025672561069411399 -0.0035921433688535002 0 0.0025733053393410229 -0.0035909568563720243 0 0.0025698788933215433 -0.0035932136466669067 0 0.0036901815792075351 -0.0013904879425786899 0 0.0034853897309656923 -0.0026854667583173873 0 0.0022345549755272568 -0.0031565195833722728 0 0.0034853897309656923 -0.0026854667583173873 0 0.0034853897309656923 -0.0026854667583173873 0 0.003855457263729697 -0.0033659787730333803 0 0.0042986733856853355 -0.001577082287803196 0 0.0045224780299385602 -0.0018424471772828337 0 0.0042655465310460113 -0.0018376418850853762 0 0.0035168872327263753 -0.0033322981280917994 0 0.0035294041955891333 -0.0033334928364049418 0 0.0035175409666200223 -0.0033267384762448136 0 0.0042986733856853355 -0.001577082287803196 0 0.0045773127533372659 -0.0015613472982847628 0 0.0045224780299385602 -0.0018424471772828337 0 0.0042423310448661197 -0.0044854501099014892 0 0.0044728943822813236 -0.0043396936532800372 0 0.0041447248039436406 -0.0042068764475909426 0 0.0037092995046159464 -0.0039885789729483829 0 0.0035339968322493577 -0.0038270028166327318 0 0.0037530726908439594 -0.0038957003032945602 0 0.0032974065519844427 -0.0042649337940579291 0 0.0040510284016269764 -0.0040927595053967458 0 0.0035392376990979811 -0.0037992060561153279 0 0.0035339968322493577 -0.0038270028166327318 0 0.0037530726908439594 -0.0038957003032945602 0 0.0032974065519844427 -0.0042649337940579291 0 0.0032485919952466307 -0.003883163436337636 0 0.003855457263729697 -0.0033659787730333803 0 0.0032485919952466307 -0.003883163436337636 0 0.0025620175956728056 -0.0035980368143153771 0 0.0025699227883422496 -0.0035946678758009428 0 0.0025698788933215433 -0.0035932136466669067 0 0.0025733053393410229 -0.0035909568563720243 0 0.0025719356087462162 -0.0035940262768945101 0 0.0025698788933215433 -0.0035932136466669067 0 0.0034853897309656923 -0.0026854667583173873 0 0.0032485919952466307 -0.003883163436337636 0 0.0032974065519844427 -0.0042649337940579291 0 0.0028292698345862627 -0.0040108108927040141 0 0.0032623927463956773 -0.0041287593252291475 0 0.0032353991329416537 -0.0042710342851227032 0 0.0029789027776224212 -0.003996631805423036 0 0.0032485919952466307 -0.003883163436337636 0 0.0028292698345862627 -0.0040108108927040141 0 0.0025719356087462162 -0.0035940262768945101 0 0.0025699227883422496 -0.0035946678758009428 0 0.0025698788933215433 -0.0035932136466669067 0 0.0038303102279097887 -0.0041439570278959453 0 0.0038475080935726322 -0.0041426227793862026 0 0.0037133375397744553 -0.0040988084164108518 0 0.0038432636505731214 -0.0040926794341719754 0 0.0037146776719651979 -0.0041041570510335608 0 0.0038303102279097887 -0.0041439570278959453 0 0.0038462304557417906 -0.0042257038860232963 0 0.0037243763378935163 -0.0041891091210494568 0 0.0037988409514235289 -0.0040542630314621859 0 0.0037940049237241615 -0.0041110972560343432 0 0.0037133375397744553 -0.0040988084164108518 0 0.0038303102279097887 -0.0041439570278959453 0 0.0038627102950212961 -0.0041278828402176561 0 0.0038462304557417906 -0.0042257038860232963 0 0.0038439098258678203 -0.0040965554352317213 0 0.0038432636505731214 -0.0040926794341719754 0 0.0039037097852857618 -0.0027292562513063674 0 0.003855457263729697 -0.0033659787730333803 0 0.003855457263729697 -0.0033659787730333803 0 0.0038432636505731214 -0.0040926794341719754 0 0.0038432636505731214 -0.0040926794341719754 0 0.0040510284016269764 -0.0040927595053967458 0 0.0037092995046159464 -0.0039885789729483829 0 0.0039608848397685451 -0.0039927763261627131 0 0.0037530726908439594 -0.0038957003032945602 0 0.0037988409514235289 -0.0040542630314621859 0 0.0038519655269533644 -0.0041021772019975908 0 0.0037940049237241615 -0.0041110972560343432 0 0.0039794134451763647 -0.0044863048655395506 0 0.0042423310448661197 -0.0044854501099014892 0 0.0041447248039436406 -0.0042068764475909426 0 0.0038627102950212961 -0.0041278828402176561 0 0.0041447248039436406 -0.0042068764475909426 0 0.0038462304557417906 -0.0042257038860232963 0 0.0039794134451763647 -0.0044863048655395506 0 0.0041447248039436406 -0.0042068764475909426 0 0.0038462304557417906 -0.0042257038860232963 0 0.0037338981581137979 -0.0043007737990462484 0 0.0038462304557417906 -0.0042257038860232963 0 0.0037243763378935163 -0.0041891091210494568 0 0.0039794134451763647 -0.0044863048655395506 0 0.0037338981581137979 -0.0043007737990462484 0 0.0038462304557417906 -0.0042257038860232963 0 0.0037338981581137979 -0.0043007737990462484 0 0.0037243763378935163 -0.0041891091210494568 0 0.0036720619957135566 -0.0042384679602694795 0 0.0037243763378935163 -0.0041891091210494568 0 0.0037133375397744553 -0.0040988084164108518 0 0.00366035150047828 -0.0041523833213792417 0 0.0038303102279097887 -0.0041439570278959453 0 0.0037243763378935163 -0.0041891091210494568 0 0.0037133375397744553 -0.0040988084164108518 0 0.0037243763378935163 -0.0041891091210494568 0 0.00366035150047828 -0.0041523833213792417 0 0.0036720619957135566 -0.0042384679602694795 0 0.00366035150047828 -0.0041523833213792417 0 0.0036720619957135566 -0.0042384679602694795 0 0.0036191945993772107 -0.0041710869571926828 0 0.0037133375397744553 -0.0040988084164108518 0 0.00366035150047828 -0.0041523833213792417 0 0.0036331257857488697 -0.0040735723427424578 0 0.0036720619957135566 -0.0042384679602694795 0 0.0036312570545083125 -0.0042625467253212977 0 0.0036191945993772107 -0.0041710869571926828 0 0.0036312570545083125 -0.0042625467253212977 0 0.0035744196819942099 -0.0042440860899743468 0 0.0036191945993772107 -0.0041710869571926828 0 0.0034862694827145456 -0.0042633783454723217 0 0.0035744196819942099 -0.0042440860899743468 0 0.0035836441150528622 -0.004119174752851079 0 0.0035744196819942099 -0.0042440860899743468 0 0.0035836441150528622 -0.004119174752851079 0 0.0036191945993772107 -0.0041710869571926828 0 0.00366035150047828 -0.0041523833213792417 0 0.0036191945993772107 -0.0041710869571926828 0 0.0036331257857488697 -0.0040735723427424578 0 0.0035836441150528622 -0.004119174752851079 0 0.0036191945993772107 -0.0041710869571926828 0 0.0036331257857488697 -0.0040735723427424578 0 0.0035836441150528622 -0.004119174752851079 0 0.0036331257857488697 -0.0040735723427424578 0 0.0035719128386658082 -0.0040374761549064227 0 0.0035433528898971985 -0.0040450383860608811 0 0.0035836441150528622 -0.004119174752851079 0 0.0035719128386658082 -0.0040374761549064227 0 0.0035433528898971985 -0.0040450383860608811 0 0.0036307003512027146 -0.0035532697348908491 0 0.0038940058605995559 -0.0037355688911164921 0 0.003554089638814855 -0.0040434267642815609 0 0.0037504517269808767 -0.0038576644077450203 0 0.0036307003512027146 -0.0035532697348908491 0 0.0038351477063185255 -0.0032868220011160226 0 0.0038940058605995559 -0.0037355688911164921 0 0.0038351477063185255 -0.0032868220011160226 0 0.0038940058605995559 -0.0037355688911164921 0 0.0041849216496747969 -0.0034338537742908135 0 0.0036331257857488697 -0.0040735723427424578 0 0.0035719128386658082 -0.0040374761549064227 0 0.0036108078069077452 -0.0039759037646276392 0 0.0037504517269808767 -0.0038576644077450203 0 0.0038159287337316745 -0.0038747828408464105 0 0.0036673167420219845 -0.0039005715487388216 0 0.0036108078069077452 -0.0039759037646276392 0 0.0036724145061097836 -0.004008292277883678 0 0.0036331257857488697 -0.0040735723427424578 0 0.0036108078069077452 -0.0039759037646276392 0 0.0036724145061097836 -0.004008292277883678 0 0.0036673167420219845 -0.0039005715487388216 0 0.0036724145061097836 -0.004008292277883678 0 0.0037361654098544902 -0.0039839911382941783 0 0.0037133375397744553 -0.0040988084164108518 0 0.0036724145061097836 -0.004008292277883678 0 0.0037361654098544902 -0.0039839911382941783 0 0.0037133375397744553 -0.0040988084164108518 0 0.0036331257857488697 -0.0040735723427424578 0 0.0036724145061097836 -0.004008292277883678 0 0.0049998170983161045 -0.0037960541536927656 0 0.0050344767545813518 -0.0039000253535035174 0 0.0049870944526956371 -0.0041136770878926372 0 0.0049998170983161045 -0.0037960541536927656 0 0.0049995238220424641 -0.0043126838285299897 0 0.0049870944526956371 -0.0041136770878926372 0 0.0050344767545813518 -0.0039000253535035174 0 0.0050340848873184586 -0.0039451618644311733 0 0.0050671338082719898 -0.0037689531933008352 0 0.0050344767545813518 -0.0039000253535035174 0 0.0049707613896102249 -0.0040908961036233912 0 0.0050340848873184586 -0.0039451618644311733 0 0.0050344767545813518 -0.0039000253535035174 0 0.0049651033262017924 -0.0041632308377103563 0 0.0049870944526956371 -0.0041136770878926372 0 0.0050344767545813518 -0.0039000253535035174 0 0.0049707613896102249 -0.0040908961036233912 0 0.0049651033262017924 -0.0041632308377103563 0 0.0049651033262017924 -0.0041632308377103563 0 0.00493097307818024 -0.0043843059253246214 0 0.0049870944526956371 -0.0041136770878926372 0 0.0049707613896102249 -0.0040908961036233912 0 0.004884263832143681 -0.0042795760775066142 0 0.0049074288895622755 -0.0041684184005972083 0 0.0049707613896102249 -0.0040908961036233912 0 0.0049651033262017924 -0.0041632308377103563 0 0.004884263832143681 -0.0042795760775066142 0 0.004884263832143681 -0.0042795760775066142 0 0.00493097307818024 -0.0043843059253246214 0 0.0047893678196661484 -0.0043379782677303094 0 0.0049651033262017924 -0.0041632308377103563 0 0.004884263832143681 -0.0042795760775066142 0 0.00493097307818024 -0.0043843059253246214 0 0.00493097307818024 -0.0043843059253246214 0 0.0049995238220424641 -0.0043126838285299897 0 0.0049870944526956371 -0.0041136770878926372 0 0.0049995238220424641 -0.0043126838285299897 0 0.0048777858019372344 -0.004688795191664815 0 0.0049997192526296114 -0.0049997943753464303 0 0.00493097307818024 -0.0043843059253246214 0 0.0049995238220424641 -0.0043126838285299897 0 0.0048777858019372344 -0.004688795191664815 0 0.0048777858019372344 -0.004688795191664815 0 0.0049997192526296114 -0.0049997943753464303 0 0.0046615228523658363 -0.0048783782853678535 0 0.0049997192526296114 -0.0049997943753464303 0 0.0043905533293585484 -0.0049995312384843007 0 0.0046615228523658363 -0.0048783782853678535 0 0.0043905533293585484 -0.0049995312384843007 0 0.0046615228523658363 -0.0048783782853678535 0 0.0043502776683468939 -0.0049141523782723047 0 0.0046615228523658363 -0.0048783782853678535 0 0.0047796481633408869 -0.0047635814178273632 0 0.0044881231452833254 -0.0049212644610380782 0 0.0048777858019372344 -0.004688795191664815 0 0.0046615228523658363 -0.0048783782853678535 0 0.0047796481633408869 -0.0047635814178273632 0 0.00493097307818024 -0.0043843059253246214 0 0.0048777858019372344 -0.004688795191664815 0 0.0047796481633408869 -0.0047635814178273632 0 0.0048910997173711706 -0.0044064616956407234 0 0.0047723678978381888 -0.0045397108382650092 0 0.0047893678196661484 -0.0043379782677303094 0 0.0045801823503042972 -0.0043989727611068816 0 0.0047567820752375742 -0.0043464550453122088 0 0.0047893678196661484 -0.0043379782677303094 0 0.0045801823503042972 -0.0043989727611068816 0 0.0045400814281077945 -0.0044292187927804979 0 0.0045801823503042972 -0.0043989727611068816 0 0.0045400814281077945 -0.0044292187927804979 0 0.0043992928342908742 -0.0045646064647632051 0 0.0047723678978381888 -0.0045397108382650092 0 0.0045175217443876514 -0.0046867514301693709 0 0.0046615228523658363 -0.0048783782853678535 0 0.0044881231452833254 -0.0049212644610380782 0 0.0043502776683468939 -0.0049141523782723047 0 0.0043905533293585484 -0.0049995312384843007 0 0.0043502776683468939 -0.0049141523782723047 0 0.0039456152862059699 -0.0049997327547390696 0 0.0044881231452833254 -0.0049212644610380782 0 0.0043502776683468939 -0.0049141523782723047 0 0.0042638014547368855 -0.0048288399825983166 0 0.0045400814281077945 -0.0044292187927804979 0 0.0042638014547368855 -0.0048288399825983166 0 0.0043992928342908742 -0.0045646064647632051 0 0.0045175217443876514 -0.0046867514301693709 0 0.0043211160874924307 -0.0048058026147896988 0 0.0043502776683468939 -0.0049141523782723047 0 0.0042638014547368855 -0.0048288399825983166 0 0.0039456152862059699 -0.0049997327547390696 0 0.0039456152862059699 -0.0049997327547390696 0 0.0038274505019047752 -0.0050221746557198594 0 0.0036201131787798099 -0.0049999920199470691 0 0.0039456152862059699 -0.0049997327547390696 0 0.0042457709444682851 -0.0048417086946116123 0 0.0038274505019047752 -0.0050221746557198594 0 0.004176174797027957 -0.0048279496736796214 0 0.0042360847590262292 -0.0048955098857115945 0 0.0042638014547368855 -0.0048288399825983166 0 0.0039456152862059699 -0.0049997327547390696 0 0.0042457709444682851 -0.0048417086946116123 0 0.0042638014547368855 -0.0048288399825983166 0 0.0042457709444682851 -0.0048417086946116123 0 0.0043992928342908742 -0.0045646064647632051 0 0.0042457709444682851 -0.0048417086946116123 0 0.0045657172820944879 -0.0046012579352422917 0 0.0045576001437541789 -0.0047604558166599734 0 0.0042457709444682851 -0.0048417086946116123 0 0.0045657172820944879 -0.0046012579352422917 0 0.0043992928342908742 -0.0045646064647632051 0 0.0045657172820944879 -0.0046012579352422917 0 0.0045550115523643004 -0.0044724795286084527 0 0.0043992928342908742 -0.0045646064647632051 0 0.0045801823503042972 -0.0043989727611068816 0 0.0043992928342908742 -0.0045646064647632051 0 0.0045197030853117055 -0.0044163282874467268 0 0.0045550115523643004 -0.0044724795286084527 0 0.0043992928342908742 -0.0045646064647632051 0 0.0045197030853117055 -0.0044163282874467268 0 0.0045801823503042972 -0.0043989727611068816 0 0.0045197030853117055 -0.0044163282874467268 0 0.0045542622898959188 -0.004350534112654984 0 0.0045550115523643004 -0.0044724795286084527 0 0.0045197030853117055 -0.0044163282874467268 0 0.0045911954503681605 -0.0043800685747277099 0 0.0045550115523643004 -0.0044724795286084527 0 0.0045911954503681605 -0.0043800685747277099 0 0.004666383849622314 -0.0044509686532259642 0 0.0050352723655383985 -0.0041896568739832338 0 0.0050247982104139905 -0.0040788463521989685 0 0.0050599691142201456 -0.0040948646520930212 0 0.0045197030853117055 -0.0044163282874467268 0 0.0045911954503681605 -0.0043800685747277099 0 0.0045542622898959188 -0.004350534112654984 0 0.0045911954503681605 -0.0043800685747277099 0 0.0045542622898959188 -0.004350534112654984 0 0.0046690183225559061 -0.0042349472048399915 0 0.0047942056160784801 -0.0042688626390689419 0 0.0048675434358746135 -0.0041730792016135207 0 0.0050352723655383985 -0.0041896568739832338 0 0.0047567820752375742 -0.0043464550453122088 0 0.0050247982104139905 -0.0040788463521989685 0 0.0047942056160784801 -0.0042688626390689419 0 0.0047560909554391654 -0.0043362049495650912 0 0.0045801823503042972 -0.0043989727611068816 0 0.0045542622898959188 -0.004350534112654984 0 0.0047567820752375742 -0.0043464550453122088 0 0.004884263832143681 -0.0042795760775066142 0 0.0047893678196661484 -0.0043379782677303094 0 0.0047567820752375742 -0.0043464550453122088 0 0.004884263832143681 -0.0042795760775066142 0 0.0047567820752375742 -0.0043464550453122088 0 0.0049074288895622755 -0.0041684184005972083 0 0.0047567820752375742 -0.0043464550453122088 0 0.0049074288895622755 -0.0041684184005972083 0 0.0050247982104139905 -0.0040788463521989685 0 0.0050089507531362806 -0.0040176634633175374 0 0.0050458935726638331 -0.0039605111600637451 0 0.0050247982104139905 -0.0040788463521989685 0 0.0049074288895622755 -0.0041684184005972083 0 0.0050089507531362806 -0.0040176634633175374 0 0.0050247982104139905 -0.0040788463521989685 0 0.0049707613896102249 -0.0040908961036233912 0 0.0050089507531362806 -0.0040176634633175374 0 0.0050340848873184586 -0.0039451618644311733 0 0.0049707613896102249 -0.0040908961036233912 0 0.0049074288895622755 -0.0041684184005972083 0 0.0050089507531362806 -0.0040176634633175374 0 0.0050089507531362806 -0.0040176634633175374 0 0.0050340848873184586 -0.0039451618644311733 0 0.0051243413605862433 -0.0038720947689164882 0 0.0050089507531362806 -0.0040176634633175374 0 0.0050458935726638331 -0.0039605111600637451 0 0.0051243413605862433 -0.0038720947689164882 0 0.0050426424930508362 -0.0040326549465141076 0 0.0050247982104139905 -0.0040788463521989685 0 0.0050599691142201456 -0.0040948646520930212 0 0.0050458935726638331 -0.0039605111600637451 0 0.0050426424930508362 -0.0040326549465141076 0 0.0050032015052929512 -0.0039243617129376034 0 0.0050426424930508362 -0.0040326549465141076 0 0.0050444973320444356 -0.0040224887109238027 0 0.0050032015052929512 -0.0039243617129376034 0 0.0050458935726638331 -0.0039605111600637451 0 0.0050426424930508362 -0.0040326549465141076 0 0.0050247982104139905 -0.0040788463521989685 0 0.00503156395806052 -0.0040903609703395946 0 0.0050303359923441308 -0.0040730847006629784 0 0.0049437179645574559 -0.0041558968237120067 0 0.0050426424930508362 -0.0040326549465141076 0 0.00503156395806052 -0.0040903609703395946 0 0.0050599691142201456 -0.0040948646520930212 0 0.0050444973320444356 -0.0040224887109238027 0 0.0050303359923441308 -0.0040730847006629784 0 0.005062234484890577 -0.0039474843592089944 0 0.00503156395806052 -0.0040903609703395946 0 0.0050444973320444356 -0.0040224887109238027 0 0.0050303359923441308 -0.0040730847006629784 0 0.0050426424930508362 -0.0040326549465141076 0 0.00503156395806052 -0.0040903609703395946 0 0.0050444973320444356 -0.0040224887109238027 0 0.0050181249374701689 -0.0040793176188151092 0 0.0050536873552816169 -0.0041100585703829767 0 0.0050655066367939327 -0.003961629276748666 0 0.0050181249374701689 -0.0040793176188151092 0 0.0050536873552816169 -0.0041100585703829767 0 0.0049761272939125873 -0.0041829476991299243 0 0.0051396571998702477 -0.0040442612510350889 0 0.0050536873552816169 -0.0041100585703829767 0 0.0050655066367939327 -0.003961629276748666 0 0.0051396571998702477 -0.0040442612510350889 0 0.0050536873552816169 -0.0041100585703829767 0 0.0051175117853090347 -0.0040940312326725598 0 0.0050536873552816169 -0.0041100585703829767 0 0.0051175117853090347 -0.0040940312326725598 0 0.0050261066227566299 -0.0041654594652880874 0 0.0050756428306777731 -0.004143061056042641 0 0.0048409734596509858 -0.0040869948829034405 0 0.0048409734596509858 -0.0040869948829034405 0 0.0049608432028172902 -0.0041180719260219632 0 0.0048409734596509858 -0.0040869948829034405 0 0.0046189898563123062 -0.0043279830741874215 0 0.0050094304413679817 -0.0041806039854601221 0 0.0049754320634510102 -0.0042048568351479177 0 0.0049430519155190741 -0.0042508861205549373 0 0.0050094304413679817 -0.0041806039854601221 0 0.0050261066227566299 -0.0041654594652880874 0 0.0049754320634510102 -0.0042048568351479177 0 0.0050261066227566299 -0.0041654594652880874 0 0.0049754320634510102 -0.0042048568351479177 0 0.0049761272939125873 -0.0041829476991299243 0 0.0049754320634510102 -0.0042048568351479177 0 0.0049761272939125873 -0.0041829476991299243 0 0.0049490357015248418 -0.004240328996276875 0 0.0050303359923441308 -0.0040730847006629784 0 0.0049761272939125873 -0.0041829476991299243 0 0.0049437179645574559 -0.0041558968237120067 0 0.0050536873552816169 -0.0041100585703829767 0 0.0050261066227566299 -0.0041654594652880874 0 0.0049761272939125873 -0.0041829476991299243 0 0.0050193197137273935 -0.0040759273891567875 0 0.0049884175417025233 -0.0041693774008671235 0 0.0049204341655549608 -0.0042611785881767079 0 0.0049437179645574559 -0.0041558968237120067 0 0.0048242065102254063 -0.0042744489330668331 0 0.0049761272939125873 -0.0041829476991299243 0 0.0049204341655549608 -0.0042611785881767079 0 0.0049437179645574559 -0.0041558968237120067 0 0.0049761272939125873 -0.0041829476991299243 0 0.0049204341655549608 -0.0042611785881767079 0 0.0049490357015248418 -0.004240328996276875 0 0.0049204341655549608 -0.0042611785881767079 0 0.0049490357015248418 -0.004240328996276875 0 0.0049220355143817889 -0.0042965703320286862 0 0.0049754320634510102 -0.0042048568351479177 0 0.0049490357015248418 -0.004240328996276875 0 0.0049377403065627313 -0.0042641086285531721 0 0.0049490357015248418 -0.004240328996276875 0 0.0049220355143817889 -0.0042965703320286862 0 0.0049377403065627313 -0.0042641086285531721 0 0.0049204341655549608 -0.0042611785881767079 0 0.0048984720808126769 -0.0043208991536940015 0 0.0049220355143817889 -0.0042965703320286862 0 0.0048984720808126769 -0.0043208991536940015 0 0.0049220355143817889 -0.0042965703320286862 0 0.0048897608398303736 -0.004339834955265914 0 0.0049204341655549608 -0.0042611785881767079 0 0.0048984720808126769 -0.0043208991536940015 0 0.0048240767048725259 -0.0043295930611149573 0 0.0049204341655549608 -0.0042611785881767079 0 0.0048242065102254063 -0.0042744489330668331 0 0.0048240767048725259 -0.0043295930611149573 0 0.0048242065102254063 -0.0042744489330668331 0 0.0048240767048725259 -0.0043295930611149573 0 0.0047139950783285003 -0.0043545272703122374 0 0.0049394330726600481 -0.0041522660816654296 0 0.0048675434358746135 -0.0041730792016135207 0 0.0049437179645574559 -0.0041558968237120067 0 0.0048242065102254063 -0.0042744489330668331 0 0.0046690183225559061 -0.0042349472048399915 0 0.00503156395806052 -0.0040903609703395946 0 0.0049437179645574559 -0.0041558968237120067 0 0.0050599691142201456 -0.0040948646520930212 0 0.0048242065102254063 -0.0042744489330668331 0 0.0046690183225559061 -0.0042349472048399915 0 0.0047139950783285003 -0.0043545272703122374 0 0.0045911954503681605 -0.0043800685747277099 0 0.0046690183225559061 -0.0042349472048399915 0 0.0047139950783285003 -0.0043545272703122374 0 0.0045911954503681605 -0.0043800685747277099 0 0.0047139950783285003 -0.0043545272703122374 0 0.004666383849622314 -0.0044509686532259642 0 0.0047139950783285003 -0.0043545272703122374 0 0.0048007246681801242 -0.0044161887472421568 0 0.004666383849622314 -0.0044509686532259642 0 0.0048240767048725259 -0.0043295930611149573 0 0.0047139950783285003 -0.0043545272703122374 0 0.0048007246681801242 -0.0044161887472421568 0 0.0048007246681801242 -0.0044161887472421568 0 0.004666383849622314 -0.0044509686532259642 0 0.0047388385345634842 -0.0045221210382043586 0 0.0045657172820944879 -0.0046012579352422917 0 0.004666383849622314 -0.0044509686532259642 0 0.0047388385345634842 -0.0045221210382043586 0 0.0045657172820944879 -0.0046012579352422917 0 0.0045550115523643004 -0.0044724795286084527 0 0.004666383849622314 -0.0044509686532259642 0 0.0045657172820944879 -0.0046012579352422917 0 0.0045576001437541789 -0.0047604558166599734 0 0.0046713655173990561 -0.0046449408589225652 0 0.0045657172820944879 -0.0046012579352422917 0 0.0047388385345634842 -0.0045221210382043586 0 0.0046713655173990561 -0.0046449408589225652 0 0.0047388385345634842 -0.0045221210382043586 0 0.00476229769463247 -0.0045647283401390763 0 0.0046713655173990561 -0.0046449408589225652 0 0.00476229769463247 -0.0045647283401390763 0 0.004695589554848013 -0.0046959638660303109 0 0.0046713655173990561 -0.0046449408589225652 0 0.00476229769463247 -0.0045647283401390763 0 0.004695589554848013 -0.0046959638660303109 0 0.004826743298509374 -0.0045170525218663268 0 0.0037095088736800817 -0.004857057510069842 0 0.0036214343560578874 -0.00499969644650508 0 0.0035595178509425472 -0.0050222964230466965 0 0.0038274505019047752 -0.0050221746557198594 0 0.0036201131787798099 -0.0049999920199470691 0 0.004695589554848013 -0.0046959638660303109 0 0.0045576001437541789 -0.0047604558166599734 0 0.0046713655173990561 -0.0046449408589225652 0 0.0037095088736800817 -0.004857057510069842 0 0.0042360847590262292 -0.0048955098857115945 0 0.0041450081775222516 -0.0047728535903767194 0 0.003894461868481506 -0.0047057072727192516 0 0.004826743298509374 -0.0045170525218663268 0 0.0048454906136460437 -0.0044394136332587594 0 0.0048535594614411183 -0.0043307397232393383 0 0.0032876030056237632 -0.0050410233630228353 0 0.0032954220060635738 -0.0049999955831233215 0 0.003023900235562307 -0.0049999980215125377 0 0.0037095088736800817 -0.004857057510069842 0 0.0041450081775222516 -0.0047728535903767194 0 0.00476229769463247 -0.0045647283401390763 0 0.004826743298509374 -0.0045170525218663268 0 0.0048454906136460437 -0.0044394136332587594 0 0.0035768698342881528 -0.004994631718382072 0 0.0032876030056237632 -0.0050410233630228353 0 0.0032954220060635738 -0.0049999955831233215 0 0.0047388385345634842 -0.0045221210382043586 0 0.00476229769463247 -0.0045647283401390763 0 0.0048454906136460437 -0.0044394136332587594 0 0.0048716516419010942 -0.0043728820422627027 0 0.0048897608398303736 -0.004339834955265914 0 0.0048637282267211413 -0.0043478013739524255 0 0.0048454906136460437 -0.0044394136332587594 0 0.0048716516419010942 -0.0043728820422627027 0 0.0048637282267211413 -0.0043478013739524255 0 0.0048007246681801242 -0.0044161887472421568 0 0.0047388385345634842 -0.0045221210382043586 0 0.0048454906136460437 -0.0044394136332587594 0 0.0048007246681801242 -0.0044161887472421568 0 0.0048454906136460437 -0.0044394136332587594 0 0.0048716516419010942 -0.0043728820422627027 0 0.0048984720808126769 -0.0043208991536940015 0 0.0048240767048725259 -0.0043295930611149573 0 0.0048491322280136799 -0.0043615443351628725 0 0.0048007246681801242 -0.0044161887472421568 0 0.0048491322280136799 -0.0043615443351628725 0 0.0048716516419010942 -0.0043728820422627027 0 0.0048984720808126769 -0.0043208991536940015 0 0.0048491322280136799 -0.0043615443351628725 0 0.0048716516419010942 -0.0043728820422627027 0 0.0048240767048725259 -0.0043295930611149573 0 0.0048007246681801242 -0.0044161887472421568 0 0.0048491322280136799 -0.0043615443351628725 0 0.0048984720808126769 -0.0043208991536940015 0 0.0048716516419010942 -0.0043728820422627027 0 0.0048897608398303736 -0.004339834955265914 0 0.0048897608398303736 -0.004339834955265914 0 0.0048499800402979952 -0.00433180152175706 0 0.0048812337063197054 -0.004338218560684835 0 0.0048499800402979952 -0.00433180152175706 0 0.0048062131080300833 -0.0043550624613608322 0 0.0048812337063197054 -0.004338218560684835 0 0.0048499800402979952 -0.00433180152175706 0 0.0047524582292097607 -0.0042834387006766526 0 0.0048062131080300833 -0.0043550624613608322 0 0.0048499800402979952 -0.00433180152175706 0 0.0048637282267211413 -0.0043478013739524255 0 0.0048160768391715012 -0.0042791398804424511 0 0.0048499800402979952 -0.00433180152175706 0 0.0048160768391715012 -0.0042791398804424511 0 0.0047524582292097607 -0.0042834387006766526 0 0.0048897608398303736 -0.004339834955265914 0 0.0048499800402979952 -0.00433180152175706 0 0.0048637282267211413 -0.0043478013739524255 0 0.0048637282267211413 -0.0043478013739524255 0 0.0048160768391715012 -0.0042791398804424511 0 0.0048535594614411183 -0.0043307397232393383 0 0.0048454906136460437 -0.0044394136332587594 0 0.0048637282267211413 -0.0043478013739524255 0 0.0048535594614411183 -0.0043307397232393383 0 0.0029986665626159262 -0.0050758793982213718 0 0.0027097325638307753 -0.0051105595675917303 0 0.0027523781759377351 -0.0049999955557208549 0 0.003023900235562307 -0.0049999980215125377 0 0.0029986665626159262 -0.0050758793982213718 0 0.0027523781759377351 -0.0049999955557208549 0 0.003894461868481506 -0.0047057072727192516 0 0.0037130048111927508 -0.004630111147309773 0 0.0048160768391715012 -0.0042791398804424511 0 0.0048535594614411183 -0.0043307397232393383 0 0.0047229615197488988 -0.0041459122382498173 0 0.0032876030056237632 -0.0050410233630228353 0 0.003023900235562307 -0.0049999980215125377 0 0.0029986665626159262 -0.0050758793982213718 0 0.0034309021748500312 -0.0045858154673821191 0 0.0037130048111927508 -0.004630111147309773 0 0.0024196450234763114 -0.0051435394915751052 0 0.0024808613972893815 -0.0049999984436655577 0 0.0027097325638307753 -0.0051105595675917303 0 0.0024808613972893815 -0.0049999984436655577 0 0.0027097325638307753 -0.0051105595675917303 0 0.0027523781759377351 -0.0049999955557208549 0 0.0048160768391715012 -0.0042791398804424511 0 0.0047229615197488988 -0.0041459122382498173 0 0.0047524582292097607 -0.0042834387006766526 0 0.0047229615197488988 -0.0041459122382498173 0 0.0045925720222850762 -0.0042071203048474805 0 0.0047524582292097607 -0.0042834387006766526 0 0.0044578633505780191 -0.0040215867803612155 0 0.0047229615197488988 -0.0041459122382498173 0 0.0045925720222850762 -0.0042071203048474805 0 0.0045925720222850762 -0.0042071203048474805 0 0.0047524582292097607 -0.0042834387006766526 0 0.0046660202928081847 -0.0044014807058205384 0 0.0047524582292097607 -0.0042834387006766526 0 0.0048062131080300833 -0.0043550624613608322 0 0.0046660202928081847 -0.0044014807058205384 0 0.0046660202928081847 -0.0044014807058205384 0 0.0045848545432721271 -0.0045875549050367059 0 0.0047028148856687203 -0.0045602709376082757 0 0.0044224962549500695 -0.0045645291393506269 0 0.0046660202928081847 -0.0044014807058205384 0 0.0045848545432721271 -0.0045875549050367059 0 0.0045848545432721271 -0.0045875549050367059 0 0.0047028148856687203 -0.0045602709376082757 0 0.0046578698664777232 -0.0046237092117896146 0 0.0047028148856687203 -0.0045602709376082757 0 0.004739642898351595 -0.0045948318358371293 0 0.0047757053845376264 -0.0045279093715841854 0 0.0047028148856687203 -0.0045602709376082757 0 0.0046578698664777232 -0.0046237092117896146 0 0.0047757053845376264 -0.0045279093715841854 0 0.0046657696230086023 -0.004396340312760095 0 0.0047924757797609572 -0.0044704047623347282 0 0.0048062131080300833 -0.0043550624613608322 0 0.0046660202928081847 -0.0044014807058205384 0 0.0048596247357069796 -0.0043676713317109895 0 0.0046660202928081847 -0.0044014807058205384 0 0.0047028148856687203 -0.0045602709376082757 0 0.004739642898351595 -0.0045948318358371293 0 0.0048062131080300833 -0.0043550624613608322 0 0.0048812337063197054 -0.004338218560684835 0 0.0048596247357069796 -0.0043676713317109895 0 0.0048812337063197054 -0.004338218560684835 0 0.0049084217692570526 -0.0043097656467609219 0 0.0048596247357069796 -0.0043676713317109895 0 0.0049220355143817889 -0.0042965703320286862 0 0.0048897608398303736 -0.004339834955265914 0 0.0048812337063197054 -0.004338218560684835 0 0.0049220355143817889 -0.0042965703320286862 0 0.0048812337063197054 -0.004338218560684835 0 0.0049084217692570526 -0.0043097656467609219 0 0.0049084217692570526 -0.0043097656467609219 0 0.0049377403065627313 -0.0042641086285531721 0 0.0049430519155190741 -0.0042508861205549373 0 0.0049220355143817889 -0.0042965703320286862 0 0.0049084217692570526 -0.0043097656467609219 0 0.0049377403065627313 -0.0042641086285531721 0 0.0049084217692570526 -0.0043097656467609219 0 0.0048596247357069796 -0.0043676713317109895 0 0.0049430519155190741 -0.0042508861205549373 0 0.004739642898351595 -0.0045948318358371293 0 0.0045572199109213223 -0.0043750485245567091 0 0.0047757053845376264 -0.0045279093715841854 0 0.0047924757797609572 -0.0044704047623347282 0 0.0046189898563123062 -0.0043279830741874215 0 0.004739642898351595 -0.0045948318358371293 0 0.0045572199109213223 -0.0043750485245567091 0 0.0044059308039822859 -0.0044198112519560125 0 0.0045572199109213223 -0.0043750485245567091 0 0.0048577949088589797 -0.004042115527980214 0 0.0047757053845376264 -0.0045279093715841854 0 0.0049754320634510102 -0.0042048568351479177 0 0.0049377403065627313 -0.0042641086285531721 0 0.0049430519155190741 -0.0042508861205549373 0 0.0045572199109213223 -0.0043750485245567091 0 0.0044059308039822859 -0.0044198112519560125 0 0.0044416098149694635 -0.00424413528853455 0 0.0040770550867955677 -0.0041365015592748329 0 0.004398945662645066 -0.0040779154149758867 0 0.004399506394178845 -0.003877390401151354 0 0.0040770550867955677 -0.0041365015592748329 0 0.004398945662645066 -0.0040779154149758867 0 0.0044416098149694635 -0.00424413528853455 0 0.004398945662645066 -0.0040779154149758867 0 0.0044416098149694635 -0.00424413528853455 0 0.004696088763651865 -0.0039776412297704115 0 0.0040770550867955677 -0.0041365015592748329 0 0.0044059308039822859 -0.0044198112519560125 0 0.0044416098149694635 -0.00424413528853455 0 0.0045572199109213223 -0.0043750485245567091 0 0.0048577949088589797 -0.004042115527980214 0 0.0046064853019274991 -0.0036639269604177766 0 0.0045580748091447057 -0.0043358446529047669 0 0.0046604760015750753 -0.0038145892666361578 0 0.0045572199109213223 -0.0043750485245567091 0 0.0044416098149694635 -0.00424413528853455 0 0.004696088763651865 -0.0039776412297704115 0 0.0048577949088589797 -0.004042115527980214 0 0.0052622383904974536 -0.0040986803397916917 0 0.0051526923067254649 -0.0034461402932766359 0 0.0051581537496237376 -0.0043172107549104581 0 0.004947202139378588 -0.0044426909292008482 0 0.004432551681431798 -0.0048251218247762212 0 0.0045257478747990423 -0.0046944595528081289 0 0.0046631023408797937 -0.0047964809456680305 0 0.0045257478747990423 -0.0046944595528081289 0 0.0046631023408797937 -0.0047964809456680305 0 0.0046578698664777232 -0.0046237092117896146 0 0.0045257478747990423 -0.0046944595528081289 0 0.0045848545432721271 -0.0045875549050367059 0 0.0046578698664777232 -0.0046237092117896146 0 0.004947202139378588 -0.0044426909292008482 0 0.0047992857082486502 -0.0045330726116902626 0 0.0046631023408797937 -0.0047964809456680305 0 0.0046578698664777232 -0.0046237092117896146 0 0.0047757053845376264 -0.0045279093715841854 0 0.0048577949088589797 -0.004042115527980214 0 0.0052622383904974536 -0.0040986803397916917 0 0.0047757053845376264 -0.0045279093715841854 0 0.0048118588797518369 -0.00289751476981236 0 0.0051526923067254649 -0.0034461402932766359 0 0.0051838689363089734 -0.0027808707818339487 0 0.0055219540634370836 -0.0028515389427076318 0 0.0051711383957353972 -0.0027620024750714643 0 0.0056807536099560008 -0.0029610370961288719 0 0.0051526923067254649 -0.0034461402932766359 0 0.0051838689363089734 -0.0027808707818339487 0 0.005713275077689396 -0.003602475714543777 0 0.0052622383904974536 -0.0040986803397916917 0 0.0051526923067254649 -0.0034461402932766359 0 0.0056807536099560008 -0.0029610370961288719 0 0.005713275077689396 -0.003602475714543777 0 0.0051526923067254649 -0.0034461402932766359 0 0.0048577949088589797 -0.004042115527980214 0 0.0051526923067254649 -0.0034461402932766359 0 0.0046064853019274991 -0.0036639269604177766 0 0.0048118588797518369 -0.00289751476981236 0 0.0051526923067254649 -0.0034461402932766359 0 0.0046064853019274991 -0.0036639269604177766 0 0.004696088763651865 -0.0039776412297704115 0 0.004399506394178845 -0.003877390401151354 0 0.0045104716724512668 -0.0036442925104556993 0 0.0047897518893595756 -0.0032664255883978464 0 0.0046604760015750753 -0.0038145892666361578 0 0.004398945662645066 -0.0040779154149758867 0 0.004696088763651865 -0.0039776412297704115 0 0.004399506394178845 -0.003877390401151354 0 0.0045104716724512668 -0.0036442925104556993 0 0.0043312250930950978 -0.0033804142621020445 0 0.0041976889710970446 -0.0037663762041828053 0 0.004399506394178845 -0.003877390401151354 0 0.0045104716724512668 -0.0036442925104556993 0 0.0041976889710970446 -0.0037663762041828053 0 0.0048130227160156453 -0.0035534861598765506 0 0.004696088763651865 -0.0039776412297704115 0 0.0045104716724512668 -0.0036442925104556993 0 0.0048130227160156453 -0.0035534861598765506 0 0.0045104716724512668 -0.0036442925104556993 0 0.0046305153133532088 -0.0033018796476476861 0 0.0048130227160156453 -0.0035534861598765506 0 0.0046305153133532088 -0.0033018796476476861 0 0.0049197918948890003 -0.0031254811885407054 0 0.0045104716724512668 -0.0036442925104556993 0 0.0046305153133532088 -0.0033018796476476861 0 0.0043312250930950978 -0.0033804142621020445 0 0.0046305153133532088 -0.0033018796476476861 0 0.0043312250930950978 -0.0033804142621020445 0 0.00447183027876784 -0.0029929056864196682 0 0.005509346686426689 -0.0036146831372902916 0 0.0056117709020443024 -0.0033581586576042675 0 0.0054048630286245274 -0.0034724368519830251 0 0.0048919773271914775 -0.0035298133758176775 0 0.0052764557651027704 -0.0030312885398031827 0 0.0057011228373970921 -0.0025288251734659779 0 0.0054386846805814671 -0.0024500196441071603 0 0.0055311299065527175 -0.0025961177991433051 0 0.0046305153133532088 -0.0033018796476476861 0 0.00447183027876784 -0.0029929056864196682 0 0.0049197918948890003 -0.0031254811885407054 0 0.0052764557651027704 -0.0030312885398031827 0 0.0051710915226160156 -0.0026796679236960994 0 0.0052024622000020069 -0.0025640318647599399 0 0.0050498192384560974 -0.0024806260666610843 0 0.0051287193061630319 -0.0026677935635512828 0 0.0051665229038584462 -0.0026084619199509664 0 0.0051710915226160156 -0.0026796679236960994 0 0.0052024622000020069 -0.0025640318647599399 0 0.0052672789932765073 -0.0025714126653149354 0 0.0052694912657038524 -0.0026023043292157364 0 0.0048118588797518369 -0.00289751476981236 0 0.0050498192384560974 -0.0024806260666610843 0 0.0051287193061630319 -0.0026677935635512828 0 0.0047897518893595756 -0.0032664255883978464 0 0.0051710915226160156 -0.0026796679236960994 0 0.0048118588797518369 -0.00289751476981236 0 0.0051287193061630319 -0.0026677935635512828 0 0.0051838689363089734 -0.0027808707818339487 0 0.0051817927620406911 -0.0026684819789359574 0 0.0051865840560909654 -0.0026164722445773123 0 0.0052053612346873506 -0.0026573414172845161 0 0.0051817927620406911 -0.0026684819789359574 0 0.0051838689363089734 -0.0027808707818339487 0 0.0052053612346873506 -0.0026573414172845161 0 0.0051287193061630319 -0.0026677935635512828 0 0.0051838689363089734 -0.0027808707818339487 0 0.0052053612346873506 -0.0026573414172845161 0 0.0052024622000020069 -0.0025640318647599399 0 0.0051287193061630319 -0.0026677935635512828 0 0.0052053612346873506 -0.0026573414172845161 0 0.0051865840560909654 -0.0026164722445773123 0 0.0052053612346873506 -0.0026573414172845161 0 0.005215549138356439 -0.002594528962320158 0 0.0051865840560909654 -0.0026164722445773123 0 0.005215549138356439 -0.002594528962320158 0 0.0052124086684098066 -0.0026066045489406076 0 0.0052024622000020069 -0.0025640318647599399 0 0.005215549138356439 -0.002594528962320158 0 0.0052694912657038524 -0.0026023043292157364 0 0.0052024622000020069 -0.0025640318647599399 0 0.0052053612346873506 -0.0026573414172845161 0 0.005215549138356439 -0.002594528962320158 0 0.005215549138356439 -0.002594528962320158 0 0.0052694912657038524 -0.0026023043292157364 0 0.0052124086684098066 -0.0026066045489406076 0 0.005208596851709598 -0.0026558331432321677 0 0.0052694912657038524 -0.0026023043292157364 0 0.0052124086684098066 -0.0026066045489406076 0 0.005208596851709598 -0.0026558331432321677 0 0.0052694912657038524 -0.0026023043292157364 0 0.0053822445227121847 -0.0026570317585138271 0 0.005208596851709598 -0.0026558331432321677 0 0.0053822445227121847 -0.0026570317585138271 0 0.0053751065348540943 -0.0027046202160870302 0 0.0051710915226160156 -0.0026796679236960994 0 0.0054118616374918879 -0.0025803538975750964 0 0.0052672789932765073 -0.0025714126653149354 0 0.0052694912657038524 -0.0026023043292157364 0 0.0053822445227121847 -0.0026570317585138271 0 0.0054386846805814671 -0.0024500196441071603 0 0.0053822445227121847 -0.0026570317585138271 0 0.0055311299065527175 -0.0025961177991433051 0 0.0053822445227121847 -0.0026570317585138271 0 0.0055317448173295919 -0.0027143296511989066 0 0.0055311299065527175 -0.0025961177991433051 0 0.0053822445227121847 -0.0026570317585138271 0 0.0054574942480030185 -0.002717718465512321 0 0.0055317448173295919 -0.0027143296511989066 0 0.0053822445227121847 -0.0026570317585138271 0 0.0054574942480030185 -0.002717718465512321 0 0.0053751065348540943 -0.0027046202160870302 0 0.0054574942480030185 -0.002717718465512321 0 0.0053751065348540943 -0.0027046202160870302 0 0.0054223288373723613 -0.002743747138212732 0 0.0054574942480030185 -0.002717718465512321 0 0.0054223288373723613 -0.002743747138212732 0 0.0054907376540215243 -0.0027327166829368278 0 0.0054574942480030185 -0.002717718465512321 0 0.0055267211127348007 -0.0027223469182327724 0 0.0054907376540215243 -0.0027327166829368278 0 0.0054574942480030185 -0.002717718465512321 0 0.0055267211127348007 -0.0027223469182327724 0 0.0055317448173295919 -0.0027143296511989066 0 0.0046438178649332819 -0.0021429860900739213 0 0.0045671596289235949 -0.0018305704829017068 0 0.0043058705637198146 -0.0016961097696749233 0 0.005208596851709598 -0.0026558331432321677 0 0.0053751065348540943 -0.0027046202160870302 0 0.0054124544134320322 -0.0027556630680514839 0 0.0049038949168802555 -0.0024408307688305016 0 0.0050994123420231669 -0.0019303207227390673 0 0.0053751065348540943 -0.0027046202160870302 0 0.0054223288373723613 -0.002743747138212732 0 0.0054124544134320322 -0.0027556630680514839 0 0.0045671596289235949 -0.0018305704829017068 0 0.0045313749625780914 -0.0016945921857674602 0 0.0043058705637198146 -0.0016961097696749233 0 0.0045313749625780914 -0.0016945921857674602 0 0.0045347604964966594 -0.0015667844109917943 0 0.0043058705637198146 -0.0016961097696749233 0 0.0045347604964966594 -0.0015667844109917943 0 0.0043058705637198146 -0.0016961097696749233 0 0.0045045256879537423 -0.0013060554519769686 0 0.0051645006123890716 -0.0010184698207044327 0 0.0052075672606372711 -0.00094938159668998324 0 0.0051664984360151444 -0.00096167239536571305 0 0.0050994123420231669 -0.0019303207227390673 0 0.0048445301344212906 -0.0010407760842354814 0 0.005081725922011099 -0.0020369491963659297 0 0.0050994123420231669 -0.0019303207227390673 0 0.0050994123420231669 -0.0019303207227390673 0 0.0054063659893856817 -0.0018289347354846414 0 0.0051645006123890716 -0.0010184698207044327 0 0.005154405876879934 -0.00096417223145982224 0 0.0051664984360151444 -0.00096167239536571305 0 0.0054907376540215243 -0.0027327166829368278 0 0.0055991694266046043 -0.0026916806457916169 0 0.0055599348881181475 -0.0027156827671617227 0 0.0054223288373723613 -0.002743747138212732 0 0.0054315599877315223 -0.0027481030240759288 0 0.0054907376540215243 -0.0027327166829368278 0 0.0054315599877315223 -0.0027481030240759288 0 0.0054907376540215243 -0.0027327166829368278 0 0.0055991694266046043 -0.0026916806457916169 0 0.0055267211127348007 -0.0027223469182327724 0 0.0054907376540215243 -0.0027327166829368278 0 0.0055599348881181475 -0.0027156827671617227 0 0.005154405876879934 -0.00096417223145982224 0 0.0051664984360151444 -0.00096167239536571305 0 0.0051690631707933489 -0.0009420805412661019 0 0.0052075672606372711 -0.00094938159668998324 0 0.0051664984360151444 -0.00096167239536571305 0 0.0051876614462031357 -0.00085547918949512676 0 0.0056232293923510574 -0.0026482517733072684 0 0.0056193798357862907 -0.0026466635430353542 0 0.0056363746297513071 -0.0025837440125602447 0 0.0056232293923510574 -0.0026482517733072684 0 0.0056193798357862907 -0.0026466635430353542 0 0.0056139801568434221 -0.0026775462401722292 0 0.0055991694266046043 -0.0026916806457916169 0 0.0056193798357862907 -0.0026466635430353542 0 0.0055988510040718663 -0.0026947096765851729 0 0.0056193798357862907 -0.0026466635430353542 0 0.0055988510040718663 -0.0026947096765851729 0 0.0056139801568434221 -0.0026775462401722292 0 0.0055988510040718663 -0.0026947096765851729 0 0.0056047001664288592 -0.0027134657409723997 0 0.0056139801568434221 -0.0026775462401722292 0 0.0055988510040718663 -0.0026947096765851729 0 0.0055599348881181475 -0.0027156827671617227 0 0.0056047001664288592 -0.0027134657409723997 0 0.0055991694266046043 -0.0026916806457916169 0 0.0055988510040718663 -0.0026947096765851729 0 0.0055599348881181475 -0.0027156827671617227 0 0.0055267211127348007 -0.0027223469182327724 0 0.0055599348881181475 -0.0027156827671617227 0 0.0056047001664288592 -0.0027134657409723997 0 0.0056047001664288592 -0.0027134657409723997 0 0.0056139801568434221 -0.0026775462401722292 0 0.0056109712347443491 -0.0026874002419506721 0 0.0056232293923510574 -0.0026482517733072684 0 0.0056139801568434221 -0.0026775462401722292 0 0.0056109712347443491 -0.0026874002419506721 0 0.0056047001664288592 -0.0027134657409723997 0 0.0055845729688878054 -0.0027299279727264298 0 0.0056330260791187282 -0.0027359632935384944 0 0.0056047001664288592 -0.0027134657409723997 0 0.0056109712347443491 -0.0026874002419506721 0 0.0055845729688878054 -0.0027299279727264298 0 0.0055845729688878054 -0.0027299279727264298 0 0.0056330260791187282 -0.0027359632935384944 0 0.0055912492476691495 -0.002855307760858444 0 0.0055267211127348007 -0.0027223469182327724 0 0.0056047001664288592 -0.0027134657409723997 0 0.0055317448173295919 -0.0027143296511989066 0 0.0056047001664288592 -0.0027134657409723997 0 0.0056330260791187282 -0.0027359632935384944 0 0.0055317448173295919 -0.0027143296511989066 0 0.0057011228373970921 -0.0025288251734659779 0 0.0056330260791187282 -0.0027359632935384944 0 0.0055311299065527175 -0.0025961177991433051 0 0.0056330260791187282 -0.0027359632935384944 0 0.0055317448173295919 -0.0027143296511989066 0 0.0055311299065527175 -0.0025961177991433051 0 0.0056442162447376352 -0.0029800720815771186 0 0.0055912492476691495 -0.002855307760858444 0 0.0054462057770132254 -0.0030116929560398257 0 0.0052764557651027704 -0.0030312885398031827 0 0.0054839087479510397 -0.0031699920973612015 0 0.0056442162447376352 -0.0029800720815771186 0 0.0056330260791187282 -0.0027359632935384944 0 0.0055912492476691495 -0.002855307760858444 0 0.0052764557651027704 -0.0030312885398031827 0 0.0057149763839157257 -0.0026186811561483866 0 0.0055845729688878054 -0.0027299279727264298 0 0.0055912492476691495 -0.002855307760858444 0 0.0054462057770132254 -0.0030116929560398257 0 0.0055845729688878054 -0.0027299279727264298 0 0.0054462057770132254 -0.0030116929560398257 0 0.0052164348364487139 -0.0030345409278727344 0 0.0054839087479510397 -0.0031699920973612015 0 0.005175304714615323 -0.0031135268891784324 0 0.0054073644601111285 -0.0032840663722588305 0 0.0051982688767773667 -0.0031353109221975545 0 0.0051879927061210659 -0.003344498648558764 0 0.0054462057770132254 -0.0030116929560398257 0 0.0051982688767773667 -0.0031353109221975545 0 0.0052164348364487139 -0.0030345409278727344 0 0.0051982688767773667 -0.0031353109221975545 0 0.0052164348364487139 -0.0030345409278727344 0 0.0050946193469529775 -0.0032355141867450236 0 0.0056336173176037953 -0.0027322004433809966 0 0.0056227006273519287 -0.0027210054759804298 0 0.0056362917709437514 -0.0027424181899920576 0 0.0056227006273519287 -0.0027210054759804298 0 0.0056362917709437514 -0.0027424181899920576 0 0.0056307336755810275 -0.0026741521688621751 0 0.0055845729688878054 -0.0027299279727264298 0 0.0056336173176037953 -0.0027322004433809966 0 0.0056227006273519287 -0.0027210054759804298 0 0.0055845729688878054 -0.0027299279727264298 0 0.0056227006273519287 -0.0027210054759804298 0 0.0056191229737467922 -0.0026991579339619809 0 0.0056053441422264736 -0.00274306769971895 0 0.0053930675635412628 -0.0028830822107633724 0 0.0056109712347443491 -0.0026874002419506721 0 0.0055845729688878054 -0.0027299279727264298 0 0.0056191229737467922 -0.0026991579339619809 0 0.0056232293923510574 -0.0026482517733072684 0 0.0056109712347443491 -0.0026874002419506721 0 0.0056310259100579678 -0.0026452274158673887 0 0.0056109712347443491 -0.0026874002419506721 0 0.0056310259100579678 -0.0026452274158673887 0 0.0056191229737467922 -0.0026991579339619809 0 0.0056310259100579678 -0.0026452274158673887 0 0.0056191229737467922 -0.0026991579339619809 0 0.0056307336755810275 -0.0026741521688621751 0 0.0056227006273519287 -0.0027210054759804298 0 0.0056191229737467922 -0.0026991579339619809 0 0.0056307336755810275 -0.0026741521688621751 0 0.0056310259100579678 -0.0026452274158673887 0 0.0056307336755810275 -0.0026741521688621751 0 0.0056363746404250129 -0.0025711237531058089 0 0.0056310259100579678 -0.0026452274158673887 0 0.0056363746404250129 -0.0025711237531058089 0 0.0056363746297513071 -0.0025837440125602447 0 0.0056232293923510574 -0.0026482517733072684 0 0.0056310259100579678 -0.0026452274158673887 0 0.0056363746297513071 -0.0025837440125602447 0 0.0056977273432750426 -0.0026811437543040866 0 0.005587388173712864 -0.0026366123640153244 0 0.0056115501217802533 -0.0024309462869698288 0 0.00560102008450026 -0.0026316010886079958 0 0.0055079007706048825 -0.0023886565908050458 0 0.0056363746404250129 -0.0025711237531058089 0 0.0055057248444202178 -0.0025920216834809206 0 0.0055562123866768178 -0.0023998774626866307 0 0.0056307336755810275 -0.0026741521688621751 0 0.0056363746404250129 -0.0025711237531058089 0 0.0055057248444202178 -0.0025920216834809206 0 0.0056353769740943175 -0.0027329980126440346 0 0.00560102008450026 -0.0026316010886079958 0 0.0056362917709437514 -0.0027424181899920576 0 0.0056307336755810275 -0.0026741521688621751 0 0.0055057248444202178 -0.0025920216834809206 0 0.0056362917709437514 -0.0027424181899920576 0 0.0056977273432750426 -0.0026811437543040866 0 0.0056633690358910572 -0.0027499788525050619 0 0.0056977273432750426 -0.0026811437543040866 0 0.0056633690358910572 -0.0027499788525050619 0 0.005587388173712864 -0.0026366123640153244 0 0.0056633690358910572 -0.0027499788525050619 0 0.005669208029296365 -0.002779345349112906 0 0.0056363295130282933 -0.0028219030679382008 0 0.005669208029296365 -0.002779345349112906 0 0.0056363295130282933 -0.0028219030679382008 0 0.0056653104712661509 -0.0029001456756961755 0 0.0056362917709437514 -0.0027424181899920576 0 0.0056633690358910572 -0.0027499788525050619 0 0.005669208029296365 -0.002779345349112906 0 0.0056336173176037953 -0.0027322004433809966 0 0.0056362917709437514 -0.0027424181899920576 0 0.005669208029296365 -0.002779345349112906 0 0.0052164348364487139 -0.0030345409278727344 0 0.0050946193469529775 -0.0032355141867450236 0 0.0048924718032655728 -0.003289945376490308 0 0.0053930675635412628 -0.0028830822107633724 0 0.0054599001073573497 -0.0030294114709758552 0 0.0056336173176037953 -0.0027322004433809966 0 0.005669208029296365 -0.002779345349112906 0 0.0056820453905526824 -0.0027719056314727069 0 0.0051982688767773667 -0.0031353109221975545 0 0.0050946193469529775 -0.0032355141867450236 0 0.0051879927061210659 -0.003344498648558764 0 0.0050946193469529775 -0.0032355141867450236 0 0.0048924718032655728 -0.003289945376490308 0 0.0049833704949477295 -0.0033713650800344455 0 0.0056363295130282933 -0.0028219030679382008 0 0.0056653104712661509 -0.0029001456756961755 0 0.0055870858579008262 -0.0028939632199620033 0 0.0057095093481439206 -0.0027372491913689855 0 0.0054599001073573497 -0.0030294114709758552 0 0.0048924718032655728 -0.003289945376490308 0 0.0049833704949477295 -0.0033713650800344455 0 0.0049265707606485276 -0.0034955976484580954 0 0.0048924718032655728 -0.003289945376490308 0 0.0049265707606485276 -0.0034955976484580954 0 0.0048466088522142528 -0.0036007661585502086 0 0.0049833704949477295 -0.0033713650800344455 0 0.0049265707606485276 -0.0034955976484580954 0 0.0050400424288414986 -0.0034461168624514804 0 0.0049265707606485276 -0.0034955976484580954 0 0.0049744859916715503 -0.0036168757406277812 0 0.0050400424288414986 -0.0034461168624514804 0 0.0049265707606485276 -0.0034955976484580954 0 0.0049744859916715503 -0.0036168757406277812 0 0.0049050202415528961 -0.0036531648186574001 0 0.0049744859916715503 -0.0036168757406277812 0 0.0049261054547714263 -0.003743988920427121 0 0.0050167190745472054 -0.0037414897504747199 0 0.0049744859916715503 -0.0036168757406277812 0 0.0049261054547714263 -0.003743988920427121 0 0.0049050202415528961 -0.0036531648186574001 0 0.0050593741248887757 -0.0036033281754252826 0 0.0051595687883087635 -0.0036558149084586497 0 0.0050167190745472054 -0.0037414897504747199 0 0.0049744859916715503 -0.0036168757406277812 0 0.0050593741248887757 -0.0036033281754252826 0 0.0050167190745472054 -0.0037414897504747199 0 0.0050593741248887757 -0.0036033281754252826 0 0.0051347922914951293 -0.003503140943955982 0 0.0051595687883087635 -0.0036558149084586497 0 0.0050593741248887757 -0.0036033281754252826 0 0.0051347922914951293 -0.003503140943955982 0 0.0050400424288414986 -0.0034461168624514804 0 0.0049744859916715503 -0.0036168757406277812 0 0.0050593741248887757 -0.0036033281754252826 0 0.0050400424288414986 -0.0034461168624514804 0 0.0050946193469529775 -0.0032355141867450236 0 0.0049833704949477295 -0.0033713650800344455 0 0.0050400424288414986 -0.0034461168624514804 0 0.0051347922914951293 -0.003503140943955982 0 0.0050400424288414986 -0.0034461168624514804 0 0.0051879927061210659 -0.003344498648558764 0 0.0050946193469529775 -0.0032355141867450236 0 0.0050400424288414986 -0.0034461168624514804 0 0.0051879927061210659 -0.003344498648558764 0 0.0054073644601111285 -0.0032840663722588305 0 0.0051879927061210659 -0.003344498648558764 0 0.0052579416345144014 -0.0034820115176106099 0 0.0051347922914951293 -0.003503140943955982 0 0.0051879927061210659 -0.003344498648558764 0 0.0052579416345144014 -0.0034820115176106099 0 0.0056117709020443024 -0.0033581586576042675 0 0.0054073644601111285 -0.0032840663722588305 0 0.0054048630286245274 -0.0034724368519830251 0 0.0054073644601111285 -0.0032840663722588305 0 0.0052579416345144014 -0.0034820115176106099 0 0.0054048630286245274 -0.0034724368519830251 0 0.005509346686426689 -0.0036146831372902916 0 0.0053139824833983327 -0.0036080267835211116 0 0.0052736160969083495 -0.0037551519333786565 0 0.005509346686426689 -0.0036146831372902916 0 0.0054048630286245274 -0.0034724368519830251 0 0.0053139824833983327 -0.0036080267835211116 0 0.0052579416345144014 -0.0034820115176106099 0 0.0054048630286245274 -0.0034724368519830251 0 0.0053139824833983327 -0.0036080267835211116 0 0.0051347922914951293 -0.003503140943955982 0 0.0052579416345144014 -0.0034820115176106099 0 0.0051595687883087635 -0.0036558149084586497 0 0.0052579416345144014 -0.0034820115176106099 0 0.0053139824833983327 -0.0036080267835211116 0 0.0051595687883087635 -0.0036558149084586497 0 0.0053139824833983327 -0.0036080267835211116 0 0.0051595687883087635 -0.0036558149084586497 0 0.0052736160969083495 -0.0037551519333786565 0 0.0051595687883087635 -0.0036558149084586497 0 0.0051369433488517302 -0.0038056227443366421 0 0.0052736160969083495 -0.0037551519333786565 0 0.0051369433488517302 -0.0038056227443366421 0 0.0052736160969083495 -0.0037551519333786565 0 0.0051872647912298555 -0.0038958098524321818 0 0.005509346686426689 -0.0036146831372902916 0 0.0052736160969083495 -0.0037551519333786565 0 0.0053783175948464053 -0.0038624937005645459 0 0.0048919773271914775 -0.0035298133758176775 0 0.0047716292003134597 -0.0038177924998279958 0 0.0052736160969083495 -0.0037551519333786565 0 0.0053783175948464053 -0.0038624937005645459 0 0.0051872647912298555 -0.0038958098524321818 0 0.0051396571998702477 -0.0040442612510350889 0 0.0052256706167345505 -0.004121179899382362 0 0.0053783175948464053 -0.0038624937005645459 0 0.0048409734596509858 -0.0040869948829034405 0 0.0047716292003134597 -0.0038177924998279958 0 0.0051396571998702477 -0.0040442612510350889 0 0.0053783175948464053 -0.0038624937005645459 0 0.0051872647912298555 -0.0038958098524321818 0 0.0040770550867955677 -0.0041365015592748329 0 0.004399506394178845 -0.003877390401151354 0 0.0041976889710970446 -0.0037663762041828053 0 0.0051369433488517302 -0.0038056227443366421 0 0.0051872647912298555 -0.0038958098524321818 0 0.0050655066367939327 -0.003961629276748666 0 0.0051396571998702477 -0.0040442612510350889 0 0.0051872647912298555 -0.0038958098524321818 0 0.0050655066367939327 -0.003961629276748666 0 0.0050181249374701689 -0.0040793176188151092 0 0.0050655066367939327 -0.003961629276748666 0 0.0049078948958696548 -0.0038561727555240896 0 0.0050655066367939327 -0.003961629276748666 0 0.0049078948958696548 -0.0038561727555240896 0 0.0050264239362340637 -0.0038425051656697088 0 0.0051369433488517302 -0.0038056227443366421 0 0.0050655066367939327 -0.003961629276748666 0 0.0050264239362340637 -0.0038425051656697088 0 0.0050193197137273935 -0.0040759273891567875 0 0.0049829052071966844 -0.0039029972593004319 0 0.0049078948958696548 -0.0038561727555240896 0 0.0049261054547714263 -0.003743988920427121 0 0.0050167190745472054 -0.0037414897504747199 0 0.0049078948958696548 -0.0038561727555240896 0 0.0050167190745472054 -0.0037414897504747199 0 0.0050264239362340637 -0.0038425051656697088 0 0.0051595687883087635 -0.0036558149084586497 0 0.0051369433488517302 -0.0038056227443366421 0 0.0050167190745472054 -0.0037414897504747199 0 0.0051369433488517302 -0.0038056227443366421 0 0.0050167190745472054 -0.0037414897504747199 0 0.0050264239362340637 -0.0038425051656697088 0 0.0049388523365180778 -0.0038476329551490958 0 0.0049697478106338726 -0.0038745200052563897 0 0.0050032015052929512 -0.0039243617129376034 0 0.0049388523365180778 -0.0038476329551490958 0 0.0049697478106338726 -0.0038745200052563897 0 0.0049206084235006772 -0.0037676612073932812 0 0.0049829052071966844 -0.0039029972593004319 0 0.0049224586444371124 -0.0037794416429528187 0 0.0049078948958696548 -0.0038561727555240896 0 0.0049261054547714263 -0.003743988920427121 0 0.0049206084235006772 -0.0037676612073932812 0 0.005062234484890577 -0.0039474843592089944 0 0.0049697478106338726 -0.0038745200052563897 0 0.0049206084235006772 -0.0037676612073932812 0 0.0050444973320444356 -0.0040224887109238027 0 0.005062234484890577 -0.0039474843592089944 0 0.0050032015052929512 -0.0039243617129376034 0 0.005062234484890577 -0.0039474843592089944 0 0.0049697478106338726 -0.0038745200052563897 0 0.0050032015052929512 -0.0039243617129376034 0 0.0049388523365180778 -0.0038476329551490958 0 0.0050032015052929512 -0.0039243617129376034 0 0.0051243413605862433 -0.0038720947689164882 0 0.0050458935726638331 -0.0039605111600637451 0 0.0050032015052929512 -0.0039243617129376034 0 0.0051243413605862433 -0.0038720947689164882 0 0.0051243413605862433 -0.0038720947689164882 0 0.005200729520001772 -0.0035343892658579565 0 0.0050671338082719898 -0.0037689531933008352 0 0.0050340848873184586 -0.0039451618644311733 0 0.0051243413605862433 -0.0038720947689164882 0 0.0050671338082719898 -0.0037689531933008352 0 0.005200729520001772 -0.0035343892658579565 0 0.0051063623943845881 -0.0033890633783020749 0 0.0050671338082719898 -0.0037689531933008352 0 0.0054711339249202831 -0.0035356119964152538 0 0.0051243413605862433 -0.0038720947689164882 0 0.005200729520001772 -0.0035343892658579565 0 0.0052085513563312766 -0.0036749536105020993 0 0.0051311800854697111 -0.0038532999929524951 0 0.0053294766369053415 -0.0034014399626301267 0 0.0052426913781968253 -0.0032389251295227087 0 0.0054121896457825346 -0.0032673511696392045 0 0.005200729520001772 -0.0035343892658579565 0 0.0053294766369053415 -0.0034014399626301267 0 0.0052426913781968253 -0.0032389251295227087 0 0.0054711339249202831 -0.0035356119964152538 0 0.005200729520001772 -0.0035343892658579565 0 0.0053294766369053415 -0.0034014399626301267 0 0.005200729520001772 -0.0035343892658579565 0 0.0051063623943845881 -0.0033890633783020749 0 0.0052426913781968253 -0.0032389251295227087 0 0.0052426913781968253 -0.0032389251295227087 0 0.0052646740162451081 -0.0030238496465057412 0 0.0051060803272510074 -0.003123248814530407 0 0.0051063623943845881 -0.0033890633783020749 0 0.0052426913781968253 -0.0032389251295227087 0 0.0051060803272510074 -0.003123248814530407 0 0.0052426913781968253 -0.0032389251295227087 0 0.0054121896457825346 -0.0032673511696392045 0 0.0053866826505892728 -0.0030546522835943933 0 0.0052426913781968253 -0.0032389251295227087 0 0.0053866826505892728 -0.0030546522835943933 0 0.0052646740162451081 -0.0030238496465057412 0 0.0054121896457825346 -0.0032673511696392045 0 0.005643852469890037 -0.0032434904666291103 0 0.0055549142919240528 -0.0030368929141251153 0 0.0054121896457825346 -0.0032673511696392045 0 0.0055549142919240528 -0.0030368929141251153 0 0.0053866826505892728 -0.0030546522835943933 0 0.0052085513563312766 -0.0036749536105020993 0 0.0052358386344987734 -0.0034393616577066289 0 0.0054711339249202831 -0.0035356119964152538 0 0.0054121896457825346 -0.0032673511696392045 0 0.005643852469890037 -0.0032434904666291103 0 0.0049388523365180778 -0.0038476329551490958 0 0.0049206084235006772 -0.0037676612073932812 0 0.0048466088522142528 -0.0036007661585502086 0 0.0054711339249202831 -0.0035356119964152538 0 0.0053294766369053415 -0.0034014399626301267 0 0.0054121896457825346 -0.0032673511696392045 0 0.0049261054547714263 -0.003743988920427121 0 0.0049206084235006772 -0.0037676612073932812 0 0.0049050202415528961 -0.0036531648186574001 0 0.0049206084235006772 -0.0037676612073932812 0 0.0049050202415528961 -0.0036531648186574001 0 0.0048466088522142528 -0.0036007661585502086 0 0.0054599001073573497 -0.0030294114709758552 0 0.0052358386344987734 -0.0034393616577066289 0 0.0058367263366888049 -0.0029621792150316176 0 0.005643852469890037 -0.0032434904666291103 0 0.0055549142919240528 -0.0030368929141251153 0 0.0049265707606485276 -0.0034955976484580954 0 0.0049050202415528961 -0.0036531648186574001 0 0.0048466088522142528 -0.0036007661585502086 0 0.0054599001073573497 -0.0030294114709758552 0 0.0056755086821120779 -0.0029892742932944557 0 0.0056653104712661509 -0.0029001456756961755 0 0.0055549142919240528 -0.0030368929141251153 0 0.0055870858579008262 -0.0028939632199620033 0 0.0055549142919240528 -0.0030368929141251153 0 0.0055870858579008262 -0.0028939632199620033 0 0.0054924264836219141 -0.0029261363478095526 0 0.0054924264836219141 -0.0029261363478095526 0 0.0053678025233952634 -0.0028887145035065192 0 0.0053866826505892728 -0.0030546522835943933 0 0.0055549142919240528 -0.0030368929141251153 0 0.0054924264836219141 -0.0029261363478095526 0 0.0053866826505892728 -0.0030546522835943933 0 0.0055471243637739438 -0.0027856479265299886 0 0.0053251438073706392 -0.002743572318710931 0 0.0053678025233952634 -0.0028887145035065192 0 0.0054924264836219141 -0.0029261363478095526 0 0.0055471243637739438 -0.0027856479265299886 0 0.0053678025233952634 -0.0028887145035065192 0 0.0055870858579008262 -0.0028939632199620033 0 0.0054924264836219141 -0.0029261363478095526 0 0.0055471243637739438 -0.0027856479265299886 0 0.0056633690358910572 -0.0027499788525050619 0 0.0056363295130282933 -0.0028219030679382008 0 0.0055471243637739438 -0.0027856479265299886 0 0.0056363295130282933 -0.0028219030679382008 0 0.0055870858579008262 -0.0028939632199620033 0 0.0055471243637739438 -0.0027856479265299886 0 0.0056633690358910572 -0.0027499788525050619 0 0.0055471243637739438 -0.0027856479265299886 0 0.005587388173712864 -0.0026366123640153244 0 0.0055471243637739438 -0.0027856479265299886 0 0.0054377552361125001 -0.002606960423852089 0 0.005587388173712864 -0.0026366123640153244 0 0.0055471243637739438 -0.0027856479265299886 0 0.0054377552361125001 -0.002606960423852089 0 0.0053251438073706392 -0.002743572318710931 0 0.0054377552361125001 -0.002606960423852089 0 0.005587388173712864 -0.0026366123640153244 0 0.0056115501217802533 -0.0024309462869698288 0 0.0053432677294121215 -0.0026406257002407245 0 0.0052201712033431054 -0.0025445374717608044 0 0.0053949103864854211 -0.0023928884467201532 0 0.0054377552361125001 -0.002606960423852089 0 0.0051749528379134652 -0.0026134061635082824 0 0.0053599524452755199 -0.0023723245964439063 0 0.0054377552361125001 -0.002606960423852089 0 0.0051749528379134652 -0.0026134061635082824 0 0.0053251438073706392 -0.002743572318710931 0 0.0052582456789532174 -0.0026225440484009249 0 0.0052349448029960456 -0.0028244546733502632 0 0.0051749528379134652 -0.0026134061635082824 0 0.0053251438073706392 -0.002743572318710931 0 0.0052311789353710328 -0.0028488784186213147 0 0.0053432677294121215 -0.0026406257002407245 0 0.0052311789353710328 -0.0028488784186213147 0 0.0051349440850522229 -0.0027663459078188265 0 0.0053251438073706392 -0.002743572318710931 0 0.0052311789353710328 -0.0028488784186213147 0 0.0053678025233952634 -0.0028887145035065192 0 0.0052311789353710328 -0.0028488784186213147 0 0.0053678025233952634 -0.0028887145035065192 0 0.0052646740162451081 -0.0030238496465057412 0 0.0053678025233952634 -0.0028887145035065192 0 0.0053866826505892728 -0.0030546522835943933 0 0.0052646740162451081 -0.0030238496465057412 0 0.0052311789353710328 -0.0028488784186213147 0 0.0052646740162451081 -0.0030238496465057412 0 0.0051060803272510074 -0.003123248814530407 0 0.0052311789353710328 -0.0028488784186213147 0 0.0050684512062456359 -0.0029663220982626506 0 0.0051060803272510074 -0.003123248814530407 0 0.0050684512062456359 -0.0029663220982626506 0 0.0049268036624947843 -0.0031387237104415168 0 0.0051060803272510074 -0.003123248814530407 0 0.0050684512062456359 -0.0029663220982626506 0 0.0050041988423203928 -0.0029466725452111935 0 0.0049268036624947843 -0.0031387237104415168 0 0.0050684512062456359 -0.0029663220982626506 0 0.0051349440850522229 -0.0027663459078188265 0 0.0050041988423203928 -0.0029466725452111935 0 0.0052311789353710328 -0.0028488784186213147 0 0.0050684512062456359 -0.0029663220982626506 0 0.0051349440850522229 -0.0027663459078188265 0 0.0051349440850522229 -0.0027663459078188265 0 0.0050990052327653844 -0.0025887815997025338 0 0.0049594382813436411 -0.0028233998172861128 0 0.0051349440850522229 -0.0027663459078188265 0 0.0049594382813436411 -0.0028233998172861128 0 0.0050041988423203928 -0.0029466725452111935 0 0.0051349440850522229 -0.0027663459078188265 0 0.0050990052327653844 -0.0025887815997025338 0 0.0052201712033431054 -0.0025445374717608044 0 0.0053432677294121215 -0.0026406257002407245 0 0.0051349440850522229 -0.0027663459078188265 0 0.0052201712033431054 -0.0025445374717608044 0 0.0049999740829830925 -0.0026092664441473008 0 0.0050758110379819929 -0.0026040083093987693 0 0.0050539465064615976 -0.0024400135475305504 0 0.0050990052327653844 -0.0025887815997025338 0 0.0050758110379819929 -0.0026040083093987693 0 0.0051356101509859352 -0.0027150841795525321 0 0.0050990052327653844 -0.0025887815997025338 0 0.0050758110379819929 -0.0026040083093987693 0 0.0050539465064615976 -0.0024400135475305504 0 0.0050758110379819929 -0.0026040083093987693 0 0.0051356101509859352 -0.0027150841795525321 0 0.0050640999194374601 -0.0027318308078765944 0 0.0050987221954077655 -0.0026134132810827848 0 0.0050512718681668799 -0.0027704908537134984 0 0.0049999740829830925 -0.0026092664441473008 0 0.0050640999194374601 -0.0027318308078765944 0 0.004999946230378716 -0.0028631193915792295 0 0.0049999740829830925 -0.0026092664441473008 0 0.0050758110379819929 -0.0026040083093987693 0 0.0050640999194374601 -0.0027318308078765944 0 0.004985018008986381 -0.0030000781341126591 0 0.0049995940094504513 -0.0031173271948653231 0 0.0051313817024469773 -0.0032646153874152511 0 0.0050640999194374601 -0.0027318308078765944 0 0.0050988147447068389 -0.0029219534484473137 0 0.004999946230378716 -0.0028631193915792295 0 0.0050512718681668799 -0.0027704908537134984 0 0.0050318827502488835 -0.0029535481586621063 0 0.0049594382813436411 -0.0028233998172861128 0 0.0049680468283346078 -0.0029963219046070309 0 0.004985018008986381 -0.0030000781341126591 0 0.0051356101509859352 -0.0027150841795525321 0 0.0050640999194374601 -0.0027318308078765944 0 0.0050988147447068389 -0.0029219534484473137 0 0.0049594382813436411 -0.0028233998172861128 0 0.0050041988423203928 -0.0029466725452111935 0 0.004985018008986381 -0.0030000781341126591 0 0.0049838838567688379 -0.0030190760963539499 0 0.0050271376420242889 -0.0032043742624729265 0 0.0050041988423203928 -0.0029466725452111935 0 0.004985018008986381 -0.0030000781341126591 0 0.0049268036624947843 -0.0031387237104415168 0 0.0049680468283346078 -0.0029963219046070309 0 0.004985018008986381 -0.0030000781341126591 0 0.0049995940094504513 -0.0031173271948653231 0 0.0050988147447068389 -0.0029219534484473137 0 0.004999946230378716 -0.0028631193915792295 0 0.0050000166670563324 -0.0031169668722820084 0 0.0050318827502488835 -0.0029535481586621063 0 0.0050000034908679897 -0.0031169213580533438 0 0.0049998170983161045 -0.0037960541536927656 0 0.0049995940094504513 -0.0031173271948653231 0 0.0051313817024469773 -0.0032646153874152511 0 0.0049268036624947843 -0.0031387237104415168 0 0.0051060803272510074 -0.003123248814530407 0 0.0049472569832234511 -0.0034177711385871986 0 0.0051063623943845881 -0.0033890633783020749 0 0.0051060803272510074 -0.003123248814530407 0 0.0049472569832234511 -0.0034177711385871986 0 0.0050271376420242889 -0.0032043742624729265 0 0.0050473735772882094 -0.0034807539254176774 0 0.0050344767545813518 -0.0039000253535035174 0 0.0051527660580864987 -0.0035384994133615625 0 0.0050671338082719898 -0.0037689531933008352 0 0.0050473735772882094 -0.0034807539254176774 0 0.0050774539281162488 -0.0037393085050838712 0 0.0051063623943845881 -0.0033890633783020749 0 0.0049472569832234511 -0.0034177711385871986 0 0.0050671338082719898 -0.0037689531933008352 0 0.0049998170983161045 -0.0037960541536927656 0 0.0051313817024469773 -0.0032646153874152511 0 0.0051527660580864987 -0.0035384994133615625 0 0.0049998170983161045 -0.0037960541536927656 0 0.0050344767545813518 -0.0039000253535035174 0 0.0051527660580864987 -0.0035384994133615625 0 0.0050642376907872964 -0.0015301795377187281 0 0.0051340078085885584 -0.0014224938101018792 0 0.0049999469901998699 -0.0012894305072152356 0 0.0050642376907872964 -0.0015301795377187281 0 0.0051340078085885584 -0.0014224938101018792 0 0.0051123144449816841 -0.0016093900445525292 0 0.0050642376907872964 -0.0015301795377187281 0 0.0049999469901998699 -0.0012894305072152356 0 0.0049998570623561271 -0.0015742723463384506 0 0.0051340078085885584 -0.0014224938101018792 0 0.0049999469901998699 -0.0012894305072152356 0 0.0051161424726544969 -0.0012135497926309365 0 0.0051340078085885584 -0.0014224938101018792 0 0.0052027708767516511 -0.0013040244332521314 0 0.0052071470918305185 -0.0014630644174793224 0 0.0051340078085885584 -0.0014224938101018792 0 0.0052027708767516511 -0.0013040244332521314 0 0.0051161424726544969 -0.0012135497926309365 0 0.0052027708767516511 -0.0013040244332521314 0 0.0052071470918305185 -0.0014630644174793224 0 0.0052521174507837972 -0.0014137047477013993 0 0.0052027708767516511 -0.0013040244332521314 0 0.0052521174507837972 -0.0014137047477013993 0 0.0052800479471563355 -0.0012757931074609955 0 0.0052071470918305185 -0.0014630644174793224 0 0.005248718521360907 -0.0015386015897924632 0 0.0051946331062692613 -0.0016300194774379201 0 0.0052071470918305185 -0.0014630644174793224 0 0.005248718521360907 -0.0015386015897924632 0 0.0052521174507837972 -0.0014137047477013993 0 0.0051340078085885584 -0.0014224938101018792 0 0.0052071470918305185 -0.0014630644174793224 0 0.0051946331062692613 -0.0016300194774379201 0 0.0051340078085885584 -0.0014224938101018792 0 0.0051946331062692613 -0.0016300194774379201 0 0.0051123144449816841 -0.0016093900445525292 0 0.0051946331062692613 -0.0016300194774379201 0 0.005145403988077786 -0.0018338535624323814 0 0.0051123144449816841 -0.0016093900445525292 0 0.005248718521360907 -0.0015386015897924632 0 0.0051946331062692613 -0.0016300194774379201 0 0.005284596586895912 -0.0016687371985405406 0 0.0051946331062692613 -0.0016300194774379201 0 0.0052161426594209744 -0.0018759609001652801 0 0.005284596586895912 -0.0016687371985405406 0 0.0051946331062692613 -0.0016300194774379201 0 0.005145403988077786 -0.0018338535624323814 0 0.0052161426594209744 -0.0018759609001652801 0 0.005145403988077786 -0.0018338535624323814 0 0.0051123144449816841 -0.0016093900445525292 0 0.0050319321007400398 -0.0016652531223427015 0 0.005145403988077786 -0.0018338535624323814 0 0.0051084143754474235 -0.0017369973615279193 0 0.0050932707532786795 -0.0019385319086981114 0 0.0051441368744626122 -0.0018164186970553024 0 0.005071636389889566 -0.001703552805087899 0 0.0050642376907872964 -0.0015301795377187281 0 0.0051123144449816841 -0.0016093900445525292 0 0.0050319321007400398 -0.0016652531223427015 0 0.0049999897415316293 -0.0015744746618031986 0 0.0051084143754474235 -0.0017369973615279193 0 0.0049999705147542291 -0.0018348044972173714 0 0.0050642376907872964 -0.0015301795377187281 0 0.0049998570623561271 -0.0015742723463384506 0 0.0050319321007400398 -0.0016652531223427015 0 0.0050000073588899446 -0.0015744586662923899 0 0.005071636389889566 -0.001703552805087899 0 0.0051084143754474235 -0.0017369973615279193 0 0.0049999705147542291 -0.0018348044972173714 0 0.0050932707532786795 -0.0019385319086981114 0 0.0049999705147542291 -0.0018348044972173714 0 0.0050932707532786795 -0.0019385319086981114 0 0.0049999484628193052 -0.0020950880948238733 0 0.005145403988077786 -0.0018338535624323814 0 0.0050932707532786795 -0.0019385319086981114 0 0.0051990212414327851 -0.0019804086809672595 0 0.0050932707532786795 -0.0019385319086981114 0 0.0051301430361246451 -0.0021629688277425433 0 0.0051990212414327851 -0.0019804086809672595 0 0.0050104374068182531 -0.0022837249837622639 0 0.0050845702450197225 -0.0022659350530078053 0 0.0050739088664395714 -0.0020995599543609769 0 0.0050672297774026903 -0.002219789988665905 0 0.0051396085259851421 -0.0020394007543205277 0 0.0050932707532786795 -0.0019385319086981114 0 0.0049999484628193052 -0.0020950880948238733 0 0.0051301430361246451 -0.0021629688277425433 0 0.0049999484628193052 -0.0020950880948238733 0 0.0051301430361246451 -0.0021629688277425433 0 0.0050000023492002407 -0.0023555056365508215 0 0.0050104374068182531 -0.0022837249837622639 0 0.0050539465064615976 -0.0024400135475305504 0 0.0049998227655161723 -0.0023557710940417483 0 0.0050672297774026903 -0.002219789988665905 0 0.0050000048943504346 -0.0023555092377104325 0 0.0050104374068182531 -0.0022837249837622639 0 0.0050539465064615976 -0.0024400135475305504 0 0.0050845702450197225 -0.0022659350530078053 0 0.0049999740829830925 -0.0026092664441473008 0 0.0050539465064615976 -0.0024400135475305504 0 0.0049998227655161723 -0.0023557710940417483 0 0.0052201712033431054 -0.0025445374717608044 0 0.0051617078433448893 -0.0023717192037399424 0 0.0053949103864854211 -0.0023928884467201532 0 0.0050990052327653844 -0.0025887815997025338 0 0.0052201712033431054 -0.0025445374717608044 0 0.0051617078433448893 -0.0023717192037399424 0 0.0050990052327653844 -0.0025887815997025338 0 0.0050539465064615976 -0.0024400135475305504 0 0.0051617078433448893 -0.0023717192037399424 0 0.0050539465064615976 -0.0024400135475305504 0 0.0051617078433448893 -0.0023717192037399424 0 0.0050845702450197225 -0.0022659350530078053 0 0.0051617078433448893 -0.0023717192037399424 0 0.0050845702450197225 -0.0022659350530078053 0 0.0052325068604309414 -0.0021319078527949494 0 0.0051617078433448893 -0.0023717192037399424 0 0.0052325068604309414 -0.0021319078527949494 0 0.0053949103864854211 -0.0023928884467201532 0 0.0052325068604309414 -0.0021319078527949494 0 0.0050739088664395714 -0.0020995599543609769 0 0.0052161426594209744 -0.0018759609001652801 0 0.0050845702450197225 -0.0022659350530078053 0 0.0052325068604309414 -0.0021319078527949494 0 0.0050739088664395714 -0.0020995599543609769 0 0.005145403988077786 -0.0018338535624323814 0 0.0051990212414327851 -0.0019804086809672595 0 0.0052161426594209744 -0.0018759609001652801 0 0.0051396085259851421 -0.0020394007543205277 0 0.0052179575012437579 -0.0018953747028489336 0 0.0053184911352730894 -0.0018850562151498252 0 0.0052996216964715463 -0.002107492515275278 0 0.0052325068604309414 -0.0021319078527949494 0 0.0052161426594209744 -0.0018759609001652801 0 0.0053203046367298612 -0.0018563718342306872 0 0.0053203046367298612 -0.0018563718342306872 0 0.0053802710730767112 -0.0019360109680226546 0 0.0053862067008461322 -0.0017661219140416859 0 0.0053203046367298612 -0.0018563718342306872 0 0.0052023809850893186 -0.0020706152055060515 0 0.0053802710730767112 -0.0019360109680226546 0 0.0052023809850893186 -0.0020706152055060515 0 0.0053862347828432374 -0.0021335812697779559 0 0.0053802710730767112 -0.0019360109680226546 0 0.0052325068604309414 -0.0021319078527949494 0 0.0053203046367298612 -0.0018563718342306872 0 0.0053976061404622921 -0.0021368152367374337 0 0.0052996216964715463 -0.002107492515275278 0 0.0052791484524166432 -0.0023708105779469599 0 0.0052325068604309414 -0.0021319078527949494 0 0.0053976061404622921 -0.0021368152367374337 0 0.0053949103864854211 -0.0023928884467201532 0 0.0052023809850893186 -0.0020706152055060515 0 0.0051628659424884302 -0.0023516041661817682 0 0.0053599524452755199 -0.0023723245964439063 0 0.0052023809850893186 -0.0020706152055060515 0 0.0053599524452755199 -0.0023723245964439063 0 0.0053862347828432374 -0.0021335812697779559 0 0.0051749528379134652 -0.0026134061635082824 0 0.0051628659424884302 -0.0023516041661817682 0 0.0053599524452755199 -0.0023723245964439063 0 0.0052582456789532174 -0.0026225440484009249 0 0.0052791484524166432 -0.0023708105779469599 0 0.0054377552361125001 -0.002606960423852089 0 0.0056115501217802533 -0.0024309462869698288 0 0.0053599524452755199 -0.0023723245964439063 0 0.0056115501217802533 -0.0024309462869698288 0 0.0053599524452755199 -0.0023723245964439063 0 0.0053862347828432374 -0.0021335812697779559 0 0.0055079007706048825 -0.0023886565908050458 0 0.0053898209531432857 -0.0021539827938924535 0 0.0054055107741853899 -0.0023473849808377236 0 0.0053862347828432374 -0.0021335812697779559 0 0.0054891899763604545 -0.0021695518469314308 0 0.0053862347828432374 -0.0021335812697779559 0 0.0054742363268486093 -0.001983422025294355 0 0.0054891899763604545 -0.0021695518469314308 0 0.0053862347828432374 -0.0021335812697779559 0 0.0053802710730767112 -0.0019360109680226546 0 0.0054742363268486093 -0.001983422025294355 0 0.0053802710730767112 -0.0019360109680226546 0 0.005487536891647677 -0.0017983293480712688 0 0.0053862067008461322 -0.0017661219140416859 0 0.0053802710730767112 -0.0019360109680226546 0 0.0054742363268486093 -0.001983422025294355 0 0.005487536891647677 -0.0017983293480712688 0 0.005487536891647677 -0.0017983293480712688 0 0.0054289232599011574 -0.0016051031690871799 0 0.0053862067008461322 -0.0017661219140416859 0 0.005487536891647677 -0.0017983293480712688 0 0.0054289232599011574 -0.0016051031690871799 0 0.0055184042836344963 -0.0015902875945649918 0 0.0054289232599011574 -0.0016051031690871799 0 0.0053862067008461322 -0.0017661219140416859 0 0.005351482566785342 -0.0015941687891919884 0 0.0053203046367298612 -0.0018563718342306872 0 0.0053862067008461322 -0.0017661219140416859 0 0.0053357992164084333 -0.0017216564434767844 0 0.0053203046367298612 -0.0018563718342306872 0 0.0053357992164084333 -0.0017216564434767844 0 0.005284596586895912 -0.0016687371985405406 0 0.0053862067008461322 -0.0017661219140416859 0 0.0053357992164084333 -0.0017216564434767844 0 0.005351482566785342 -0.0015941687891919884 0 0.0052161426594209744 -0.0018759609001652801 0 0.0053203046367298612 -0.0018563718342306872 0 0.005284596586895912 -0.0016687371985405406 0 0.005248718521360907 -0.0015386015897924632 0 0.005284596586895912 -0.0016687371985405406 0 0.0053067487920036511 -0.0014665131997575887 0 0.005284596586895912 -0.0016687371985405406 0 0.005351482566785342 -0.0015941687891919884 0 0.0053067487920036511 -0.0014665131997575887 0 0.0053357992164084333 -0.0017216564434767844 0 0.005284596586895912 -0.0016687371985405406 0 0.005351482566785342 -0.0015941687891919884 0 0.005351482566785342 -0.0015941687891919884 0 0.0053067487920036511 -0.0014665131997575887 0 0.0053860251228474302 -0.0014555011539131031 0 0.005248718521360907 -0.0015386015897924632 0 0.0053067487920036511 -0.0014665131997575887 0 0.0052521174507837972 -0.0014137047477013993 0 0.0053067487920036511 -0.0014665131997575887 0 0.0052521174507837972 -0.0014137047477013993 0 0.0052800479471563355 -0.0012757931074609955 0 0.0053067487920036511 -0.0014665131997575887 0 0.0053483853292387281 -0.0013286828284346237 0 0.0052800479471563355 -0.0012757931074609955 0 0.0053067487920036511 -0.0014665131997575887 0 0.0053483853292387281 -0.0013286828284346237 0 0.0053860251228474302 -0.0014555011539131031 0 0.0053483853292387281 -0.0013286828284346237 0 0.0054222926655367867 -0.0012924074835366024 0 0.0053860251228474302 -0.0014555011539131031 0 0.0054222926655367867 -0.0012924074835366024 0 0.0054526972246803562 -0.0014203949611237012 0 0.0055122316532205309 -0.0013222778397827609 0 0.0054222926655367867 -0.0012924074835366024 0 0.0054526972246803562 -0.0014203949611237012 0 0.0053860251228474302 -0.0014555011539131031 0 0.0054289232599011574 -0.0016051031690871799 0 0.0054526972246803562 -0.0014203949611237012 0 0.0055184042836344963 -0.0015902875945649918 0 0.0054289232599011574 -0.0016051031690871799 0 0.005351482566785342 -0.0015941687891919884 0 0.0053860251228474302 -0.0014555011539131031 0 0.0054289232599011574 -0.0016051031690871799 0 0.0054526972246803562 -0.0014203949611237012 0 0.0053860251228474302 -0.0014555011539131031 0 0.0056157983226673546 -0.0013707204758164808 0 0.0057308253621805669 -0.0014559051846916972 0 0.005642118430733473 -0.0015575872370922519 0 0.005545477132429727 -0.0014505333837777792 0 0.0056157983226673546 -0.0013707204758164808 0 0.005642118430733473 -0.0015575872370922519 0 0.0054526972246803562 -0.0014203949611237012 0 0.005545477132429727 -0.0014505333837777792 0 0.0055184042836344963 -0.0015902875945649918 0 0.005545477132429727 -0.0014505333837777792 0 0.005642118430733473 -0.0015575872370922519 0 0.0055184042836344963 -0.0015902875945649918 0 0.005545477132429727 -0.0014505333837777792 0 0.0055122316532205309 -0.0013222778397827609 0 0.0056157983226673546 -0.0013707204758164808 0 0.0054526972246803562 -0.0014203949611237012 0 0.005545477132429727 -0.0014505333837777792 0 0.0055122316532205309 -0.0013222778397827609 0 0.0055122316532205309 -0.0013222778397827609 0 0.0056157983226673546 -0.0013707204758164808 0 0.0055837473529500347 -0.0012171850192475042 0 0.0056157983226673546 -0.0013707204758164808 0 0.0057108950905861485 -0.0012532353570611381 0 0.0055837473529500347 -0.0012171850192475042 0 0.0056157983226673546 -0.0013707204758164808 0 0.0057108950905861485 -0.0012532353570611381 0 0.0057308253621805669 -0.0014559051846916972 0 0.0057108950905861485 -0.0012532353570611381 0 0.0058484067757321317 -0.0014040579934567479 0 0.0057308253621805669 -0.0014559051846916972 0 0.0057108950905861485 -0.0012532353570611381 0 0.0058484067757321317 -0.0014040579934567479 0 0.0058378162442074772 -0.0011559664886861437 0 0.005739798171207503 -0.0013313973728865767 0 0.0057442510984503916 -0.0010725104535506938 0 0.0058484067757321317 -0.0014040579934567479 0 0.0057308253621805669 -0.0014559051846916972 0 0.0058288051115066609 -0.0016468035777092915 0 0.0058288051115066609 -0.0016468035777092915 0 0.0056972193214738804 -0.0017470605645981247 0 0.005642118430733473 -0.0015575872370922519 0 0.0057308253621805669 -0.0014559051846916972 0 0.0058288051115066609 -0.0016468035777092915 0 0.005642118430733473 -0.0015575872370922519 0 0.0056275196591862803 -0.00151030992003466 0 0.0057666668817012825 -0.0016228236935403209 0 0.005760733593096444 -0.0014368658771122364 0 0.0056305509542179614 -0.001260582698647819 0 0.0056275196591862803 -0.00151030992003466 0 0.005760733593096444 -0.0014368658771122364 0 0.005739798171207503 -0.0013313973728865767 0 0.0057275543523997944 -0.0015763336416132819 0 0.0056275196591862803 -0.00151030992003466 0 0.0057011462704707723 -0.0017325385098725674 0 0.0057666668817012825 -0.0016228236935403209 0 0.0057275543523997944 -0.0015763336416132819 0 0.0056992591636724141 -0.0018299312743401967 0 0.0058288051115066609 -0.0016468035777092915 0 0.0056972193214738804 -0.0017470605645981247 0 0.0057767502298910738 -0.0019021745965135575 0 0.0056275196591862803 -0.00151030992003466 0 0.0057011462704707723 -0.0017325385098725674 0 0.0056237191625555455 -0.0017551177983259161 0 0.005597038151553462 -0.0017363467060442564 0 0.0056972193214738804 -0.0017470605645981247 0 0.0056448420612397179 -0.0019043905030988182 0 0.005597038151553462 -0.0017363467060442564 0 0.0056972193214738804 -0.0017470605645981247 0 0.005642118430733473 -0.0015575872370922519 0 0.005597038151553462 -0.0017363467060442564 0 0.005642118430733473 -0.0015575872370922519 0 0.0055184042836344963 -0.0015902875945649918 0 0.005487536891647677 -0.0017983293480712688 0 0.005597038151553462 -0.0017363467060442564 0 0.0055184042836344963 -0.0015902875945649918 0 0.005487536891647677 -0.0017983293480712688 0 0.005597038151553462 -0.0017363467060442564 0 0.0055534591076671696 -0.0018738813468786664 0 0.0054742363268486093 -0.001983422025294355 0 0.0055534591076671696 -0.0018738813468786664 0 0.0055580115516925977 -0.0020109345878059313 0 0.0054742363268486093 -0.001983422025294355 0 0.005487536891647677 -0.0017983293480712688 0 0.0055534591076671696 -0.0018738813468786664 0 0.005597038151553462 -0.0017363467060442564 0 0.0055534591076671696 -0.0018738813468786664 0 0.0056448420612397179 -0.0019043905030988182 0 0.0056972193214738804 -0.0017470605645981247 0 0.0056448420612397179 -0.0019043905030988182 0 0.0057767502298910738 -0.0019021745965135575 0 0.0055534591076671696 -0.0018738813468786664 0 0.0056448420612397179 -0.0019043905030988182 0 0.0055580115516925977 -0.0020109345878059313 0 0.0056448420612397179 -0.0019043905030988182 0 0.0055580115516925977 -0.0020109345878059313 0 0.005629685449777929 -0.0021646067490746295 0 0.0055580115516925977 -0.0020109345878059313 0 0.0054891899763604545 -0.0021695518469314308 0 0.005629685449777929 -0.0021646067490746295 0 0.0054742363268486093 -0.001983422025294355 0 0.0055580115516925977 -0.0020109345878059313 0 0.0054891899763604545 -0.0021695518469314308 0 0.0054891899763604545 -0.0021695518469314308 0 0.005629685449777929 -0.0021646067490746295 0 0.0055562123866768178 -0.0023998774626866307 0 0.005629685449777929 -0.0021646067490746295 0 0.0055562123866768178 -0.0023998774626866307 0 0.0056746167290542132 -0.0024905146271354166 0 0.0054055107741853899 -0.0023473849808377236 0 0.0054891899763604545 -0.0021695518469314308 0 0.0055562123866768178 -0.0023998774626866307 0 0.0055057248444202178 -0.0025920216834809206 0 0.0054055107741853899 -0.0023473849808377236 0 0.0055562123866768178 -0.0023998774626866307 0 0.0056363746297513071 -0.0025837440125602447 0 0.0056746167290542132 -0.0024905146271354166 0 0.0056397410945380972 -0.0025643525204689386 0 0.0056363746404250129 -0.0025711237531058089 0 0.0055562123866768178 -0.0023998774626866307 0 0.0056746167290542132 -0.0024905146271354166 0 0.0056363746404250129 -0.0025711237531058089 0 0.0056363746297513071 -0.0025837440125602447 0 0.0056746167290542132 -0.0024905146271354166 0 0.0056953019043245552 -0.0024678656690486282 0 0.005707760286865972 -0.0024714876028622034 0 0.005629685449777929 -0.0021646067490746295 0 0.0058417438429360534 -0.00227268927648374 0 0.0057844932129267864 -0.002096041726458448 0 0.005629685449777929 -0.0021646067490746295 0 0.0056746167290542132 -0.0024905146271354166 0 0.0058417438429360534 -0.00227268927648374 0 0.0058417438429360534 -0.00227268927648374 0 0.0060120787843006927 -0.0020599316760273865 0 0.0057844932129267864 -0.002096041726458448 0 0.005707760286865972 -0.0024714876028622034 0 0.005627861893592127 -0.0017346017757066767 0 0.005627861893592127 -0.0017346017757066767 0 0.0058118551863824072 -0.0018391812564350857 0 0.0060120787843006927 -0.0020599316760273865 0 0.0057379143739395341 -0.0019611406001166089 0 0.0057011462704707723 -0.0017325385098725674 0 0.0060120787843006927 -0.0020599316760273865 0 0.0057844932129267864 -0.002096041726458448 0 0.0057379143739395341 -0.0019611406001166089 0 0.0056335133410474773 -0.0021335396325578896 0 0.0056992591636724141 -0.0018299312743401967 0 0.005629685449777929 -0.0021646067490746295 0 0.0057844932129267864 -0.002096041726458448 0 0.0057379143739395341 -0.0019611406001166089 0 0.005629685449777929 -0.0021646067490746295 0 0.0057379143739395341 -0.0019611406001166089 0 0.0056237191625555455 -0.0017551177983259161 0 0.0056448420612397179 -0.0019043905030988182 0 0.005629685449777929 -0.0021646067490746295 0 0.0057767502298910738 -0.0019021745965135575 0 0.0057379143739395341 -0.0019611406001166089 0 0.0057011462704707723 -0.0017325385098725674 0 0.0056237191625555455 -0.0017551177983259161 0 0.0057679448657092756 -0.0018139052153378007 0 0.0057011462704707723 -0.0017325385098725674 0 0.0057696632157538588 -0.0017261351834750587 0 0.0057011462704707723 -0.0017325385098725674 0 0.0057696632157538588 -0.0017261351834750587 0 0.0057666668817012825 -0.0016228236935403209 0 0.0057679448657092756 -0.0018139052153378007 0 0.0057696632157538588 -0.0017261351834750587 0 0.0058554055725660763 -0.0017158056657358368 0 0.0057696632157538588 -0.0017261351834750587 0 0.0058554055725660763 -0.0017158056657358368 0 0.0057666668817012825 -0.0016228236935403209 0 0.0051135483206254263 -0.00081140079799669226 0 0.0051827937370574973 -0.00083533431061141069 0 0.0051880931338507399 -0.00077557800206302528 0 0.0051135483206254263 -0.00081140079799669226 0 0.0051357770182132367 -0.00087356583950110587 0 0.0051827937370574973 -0.00083533431061141069 0 0.0051357770182132367 -0.00087356583950110587 0 0.0051783485379358523 -0.00089683324220006749 0 0.0051827937370574973 -0.00083533431061141069 0 0.0050795342450634211 -0.00087814496312393128 0 0.0051135483206254263 -0.00081140079799669226 0 0.0051357770182132367 -0.00087356583950110587 0 0.005627861893592127 -0.0017346017757066767 0 0.005480671206440595 -0.0012061494665161518 0 0.005627861893592127 -0.0017346017757066767 0 0.0053286617489681698 -0.0017461766268559472 0 0.0056397410945380972 -0.0025643525204689386 0 0.0056389446379217101 -0.0025580866553767219 0 0.0056324987034551211 -0.002592131414042402 0 0.0050795342450634211 -0.00087814496312393128 0 0.0051357770182132367 -0.00087356583950110587 0 0.0051295877076706466 -0.00093508335725169857 0 0.0051357770182132367 -0.00087356583950110587 0 0.0051295877076706466 -0.00093508335725169857 0 0.0051783485379358523 -0.00089683324220006749 0 0.0051295877076706466 -0.00093508335725169857 0 0.0051690631707933489 -0.0009420805412661019 0 0.0051783485379358523 -0.00089683324220006749 0 0.0055991694266046043 -0.0026916806457916169 0 0.0056193798357862907 -0.0026466635430353542 0 0.0056324987034551211 -0.002592131414042402 0 0.005154405876879934 -0.00096417223145982224 0 0.0051295877076706466 -0.00093508335725169857 0 0.0051690631707933489 -0.0009420805412661019 0 0.0054063659893856817 -0.0018289347354846414 0 0.0053286617489681698 -0.0017461766268559472 0 0.0056363746297513071 -0.0025837440125602447 0 0.0056397410945380972 -0.0025643525204689386 0 0.0056324987034551211 -0.002592131414042402 0 0.0056193798357862907 -0.0026466635430353542 0 0.0056363746297513071 -0.0025837440125602447 0 0.0056324987034551211 -0.002592131414042402 0 0.0051876614462031357 -0.00085547918949512676 0 0.0051381480990871442 -0.00073312312773855565 0 0.0052464959912745688 -0.00077247269008281073 0 0.0051664984360151444 -0.00096167239536571305 0 0.0051876614462031357 -0.00085547918949512676 0 0.0051381480990871442 -0.00073312312773855565 0 0.0051657280519567007 -0.00094810708278331482 0 0.0051803737359735272 -0.00082821898083437295 0 0.0052075672606372711 -0.00094938159668998324 0 0.0051876614462031357 -0.00085547918949512676 0 0.0052464959912745688 -0.00077247269008281073 0 0.0051664984360151444 -0.00096167239536571305 0 0.0051690631707933489 -0.0009420805412661019 0 0.0052154215447904207 -0.00092421843864795951 0 0.0051690631707933489 -0.0009420805412661019 0 0.0051783485379358523 -0.00089683324220006749 0 0.0052154215447904207 -0.00092421843864795951 0 0.0051381480990871442 -0.00073312312773855565 0 0.0051798133995733398 -0.00059052213242524135 0 0.0052021873685152197 -0.00067273040436862741 0 0.0051803737359735272 -0.00082821898083437295 0 0.0052200920705987013 -0.00071858674538872417 0 0.0051783485379358523 -0.00089683324220006749 0 0.0052154215447904207 -0.00092421843864795951 0 0.0052602996370717005 -0.00084489959328589586 0 0.0051783485379358523 -0.00089683324220006749 0 0.0052602996370717005 -0.00084489959328589586 0 0.0051827937370574973 -0.00083533431061141069 0 0.0051827937370574973 -0.00083533431061141069 0 0.0051880931338507399 -0.00077557800206302528 0 0.0052327488342517568 -0.00079236383289642222 0 0.0052602996370717005 -0.00084489959328589586 0 0.0052327488342517568 -0.00079236383289642222 0 0.0052988408085106187 -0.00073213497422205585 0 0.0052200920705987013 -0.00071858674538872417 0 0.0052613220807869732 -0.00065625967890323286 0 0.0052602996370717005 -0.00084489959328589586 0 0.0051827937370574973 -0.00083533431061141069 0 0.0052327488342517568 -0.00079236383289642222 0 0.0052485611610003889 -0.00074138899722612595 0 0.0052740239217016023 -0.00067451154595029336 0 0.0052988408085106187 -0.00073213497422205585 0 0.0052327488342517568 -0.00079236383289642222 0 0.0052485611610003889 -0.00074138899722612595 0 0.0052988408085106187 -0.00073213497422205585 0 0.0052485611610003889 -0.00074138899722612595 0 0.0052740239217016023 -0.00067451154595029336 0 0.0052477964230280326 -0.00065845218580264792 0 0.0052094119929338443 -0.00066999276476752676 0 0.005203981650752104 -0.00072729302716712137 0 0.0051591998089275384 -0.0007349271700240142 0 0.0052485611610003889 -0.00074138899722612595 0 0.0052094119929338443 -0.00066999276476752676 0 0.005203981650752104 -0.00072729302716712137 0 0.0054574790318043347 -0.00083883449847041924 0 0.0055714926987604401 -0.0011768503777282824 0 0.0051772776359886238 -0.00065451359367457338 0 0.0054574790318043347 -0.00083883449847041924 0 0.0051880931338507399 -0.00077557800206302528 0 0.0052485611610003889 -0.00074138899722612595 0 0.005203981650752104 -0.00072729302716712137 0 0.0051880931338507399 -0.00077557800206302528 0 0.0052327488342517568 -0.00079236383289642222 0 0.0052485611610003889 -0.00074138899722612595 0 0.0051880931338507399 -0.00077557800206302528 0 0.005203981650752104 -0.00072729302716712137 0 0.0051591998089275384 -0.0007349271700240142 0 0.0051135483206254263 -0.00081140079799669226 0 0.0051880931338507399 -0.00077557800206302528 0 0.0051591998089275384 -0.0007349271700240142 0 0.005480671206440595 -0.0012061494665161518 0 0.0055714926987604401 -0.0011768503777282824 0 0.005960992840704088 -0.0015606179561507476 0 0.0057666668817012825 -0.0016228236935403209 0 0.005760733593096444 -0.0014368658771122364 0 0.0058554055725660763 -0.0017158056657358368 0 0.005960992840704088 -0.0015606179561507476 0 0.0057666668817012825 -0.0016228236935403209 0 0.0060827005675829753 -0.0013829145576370965 0 0.005960992840704088 -0.0015606179561507476 0 0.0059087879137682498 -0.0013641149100962486 0 0.005960992840704088 -0.0015606179561507476 0 0.005760733593096444 -0.0014368658771122364 0 0.0059087879137682498 -0.0013641149100962486 0 0.0059087879137682498 -0.0013641149100962486 0 0.0057979544330691545 -0.0011849319895674058 0 0.0059963456482975304 -0.0012029136503222797 0 0.005760733593096444 -0.0014368658771122364 0 0.0059087879137682498 -0.0013641149100962486 0 0.0057979544330691545 -0.0011849319895674058 0 0.0056305509542179614 -0.001260582698647819 0 0.005760733593096444 -0.0014368658771122364 0 0.0057979544330691545 -0.0011849319895674058 0 0.0056305509542179614 -0.001260582698647819 0 0.0057979544330691545 -0.0011849319895674058 0 0.0056618357395598071 -0.00097911469364376667 0 0.0057979544330691545 -0.0011849319895674058 0 0.0058755432643517761 -0.0010106668687862744 0 0.0056618357395598071 -0.00097911469364376667 0 0.0057979544330691545 -0.0011849319895674058 0 0.0059963456482975304 -0.0012029136503222797 0 0.0058755432643517761 -0.0010106668687862744 0 0.0057996649707250277 -0.00092851995761963294 0 0.0057376536456909691 -0.00085172403038176903 0 0.0055446198306663671 -0.00058727027953683658 0 0.0054217221668893959 -0.00055018411874846386 0 0.0054749579404846076 -0.00068515940658158759 0 0.0055446198306663671 -0.00058727027953683658 0 0.0054749579404846076 -0.00068515940658158759 0 0.0056088653338445919 -0.00069336723551136818 0 0.0053437188307739747 -0.00064728924448894201 0 0.0054217221668893959 -0.00055018411874846386 0 0.0054749579404846076 -0.00068515940658158759 0 0.0053350210078641032 -0.00064678539052757803 0 0.0053770636758558952 -0.00058384643494842467 0 0.0053437188307739747 -0.00064728924448894201 0 0.0052919499229820248 -0.00063788323467044107 0 0.0052891202264767727 -0.00063149449217895603 0 0.0052740239217016023 -0.00067451154595029336 0 0.0052477964230280326 -0.00065845218580264792 0 0.0052919499229820248 -0.00063788323467044107 0 0.0052740239217016023 -0.00067451154595029336 0 0.0052919499229820248 -0.00063788323467044107 0 0.0052891202264767727 -0.00063149449217895603 0 0.0060827005675829753 -0.0013829145576370965 0 0.0059087879137682498 -0.0013641149100962486 0 0.0059963456482975304 -0.0012029136503222797 0 0.0054574790318043347 -0.00083883449847041924 0 0.0057996649707250277 -0.00092851995761963294 0 0.0054574790318043347 -0.00083883449847041924 0 0.0053770636758558952 -0.00058384643494842467 0 0.0054841234987940491 -0.00047010888543991643 0 0.0055446198306663671 -0.00058727027953683658 0 0.0054217221668893959 -0.00055018411874846386 0 0.0054526720589499755 -0.00077118565442718028 0 0.0055603821772351354 -0.00081642074914783913 0 0.0054861023145948993 -0.00081894866256383215 0 0.0054526720589499755 -0.00077118565442718028 0 0.005521439458826485 -0.00074194365001397017 0 0.0055603821772351354 -0.00081642074914783913 0 0.0053998389141955063 -0.00078644927320016328 0 0.0054526720589499755 -0.00077118565442718028 0 0.0053941502858331838 -0.00071880907920567419 0 0.0053998389141955063 -0.00078644927320016328 0 0.0054526720589499755 -0.00077118565442718028 0 0.0054861023145948993 -0.00081894866256383215 0 0.0053437188307739747 -0.00064728924448894201 0 0.0053941502858331838 -0.00071880907920567419 0 0.0053336406429765311 -0.00073171036761022492 0 0.0053437188307739747 -0.00064728924448894201 0 0.0053941502858331838 -0.00071880907920567419 0 0.0054749579404846076 -0.00068515940658158759 0 0.0054526720589499755 -0.00077118565442718028 0 0.0053941502858331838 -0.00071880907920567419 0 0.0054749579404846076 -0.00068515940658158759 0 0.0054526720589499755 -0.00077118565442718028 0 0.0054749579404846076 -0.00068515940658158759 0 0.005521439458826485 -0.00074194365001397017 0 0.0054749579404846076 -0.00068515940658158759 0 0.005521439458826485 -0.00074194365001397017 0 0.0056088653338445919 -0.00069336723551136818 0 0.005521439458826485 -0.00074194365001397017 0 0.0056088653338445919 -0.00069336723551136818 0 0.0055603821772351354 -0.00081642074914783913 0 0.0057376536456909691 -0.00085172403038176903 0 0.0057223340614606889 -0.0008599442147775682 0 0.0058755432643517761 -0.0010106668687862744 0 0.0057102583907459739 -0.00085359580247565967 0 0.0056618357395598071 -0.00097911469364376667 0 0.0057146146321487828 -0.00087787264501430437 0 0.0057377401042952416 -0.0010030827978270266 0 0.0058378162442074772 -0.0011559664886861437 0 0.0057102583907459739 -0.00085359580247565967 0 0.0057146146321487828 -0.00087787264501430437 0 0.0056618357395598071 -0.00097911469364376667 0 0.0057244650462759663 -0.00090272204376744812 0 0.0057442510984503916 -0.0010725104535506938 0 0.0057102583907459739 -0.00085359580247565967 0 0.0056358227309455805 -0.00085903638378968133 0 0.0057146146321487828 -0.00087787264501430437 0 0.0057102583907459739 -0.00085359580247565967 0 0.0055603821772351354 -0.00081642074914783913 0 0.0056358227309455805 -0.00085903638378968133 0 0.0056088653338445919 -0.00069336723551136818 0 0.0057102583907459739 -0.00085359580247565967 0 0.0055603821772351354 -0.00081642074914783913 0 0.0055603821772351354 -0.00081642074914783913 0 0.0055553677824417705 -0.0008485518243613767 0 0.0056358227309455805 -0.00085903638378968133 0 0.0055553677824417705 -0.0008485518243613767 0 0.0056358227309455805 -0.00085903638378968133 0 0.0056481790640582445 -0.00087827498165187921 0 0.0057146146321487828 -0.00087787264501430437 0 0.0057014234072162674 -0.00090030863685005018 0 0.0057163767821317973 -0.00092799363197739653 0 0.0056358227309455805 -0.00085903638378968133 0 0.0057146146321487828 -0.00087787264501430437 0 0.0056481790640582445 -0.00087827498165187921 0 0.0057146146321487828 -0.00087787264501430437 0 0.0056481790640582445 -0.00087827498165187921 0 0.0057014234072162674 -0.00090030863685005018 0 0.0055067296663253882 -0.00083031917540409201 0 0.0055235442868820442 -0.00085871697487523439 0 0.0056481790640582445 -0.00087827498165187921 0 0.0056927965386758574 -0.00089887480349207498 0 0.0057014234072162674 -0.00090030863685005018 0 0.0056481790640582445 -0.00087827498165187921 0 0.0055901716940703911 -0.00088614187610302499 0 0.0056927965386758574 -0.00089887480349207498 0 0.0055553677824417705 -0.0008485518243613767 0 0.0056481790640582445 -0.00087827498165187921 0 0.0055901716940703911 -0.00088614187610302499 0 0.0055553677824417705 -0.0008485518243613767 0 0.0054771685866515383 -0.00082026657457083877 0 0.0055901716940703911 -0.00088614187610302499 0 0.0055553677824417705 -0.0008485518243613767 0 0.0054771685866515383 -0.00082026657457083877 0 0.0054861023145948993 -0.00081894866256383215 0 0.0055603821772351354 -0.00081642074914783913 0 0.0055553677824417705 -0.0008485518243613767 0 0.0054861023145948993 -0.00081894866256383215 0 0.0053998389141955063 -0.00078644927320016328 0 0.0054861023145948993 -0.00081894866256383215 0 0.0054296954329694823 -0.00080869637818301618 0 0.0054771685866515383 -0.00082026657457083877 0 0.0054861023145948993 -0.00081894866256383215 0 0.0054296954329694823 -0.00080869637818301618 0 0.0054771685866515383 -0.00082026657457083877 0 0.0054296954329694823 -0.00080869637818301618 0 0.005427358253192279 -0.00077090718849745987 0 0.0054771685866515383 -0.00082026657457083877 0 0.0054480955195400195 -0.00074905805531144134 0 0.005427358253192279 -0.00077090718849745987 0 0.0054771685866515383 -0.00082026657457083877 0 0.0054736740561584785 -0.00078145808356265556 0 0.0055901716940703911 -0.00088614187610302499 0 0.0054771685866515383 -0.00082026657457083877 0 0.0054480955195400195 -0.00074905805531144134 0 0.0054736740561584785 -0.00078145808356265556 0 0.0054736740561584785 -0.00078145808356265556 0 0.0054598508908254469 -0.00068124572389488081 0 0.0054390848361342056 -0.00068404034720902175 0 0.0054480955195400195 -0.00074905805531144134 0 0.0054598508908254469 -0.00068124572389488081 0 0.0054411481071101149 -0.00068564620651705252 0 0.0054480955195400195 -0.00074905805531144134 0 0.0054736740561584785 -0.00078145808356265556 0 0.0054598508908254469 -0.00068124572389488081 0 0.0054598508908254469 -0.00068124572389488081 0 0.005445371401673259 -0.00063003449338722769 0 0.0054626406362220407 -0.0006081929336967328 0 0.0054598508908254469 -0.00068124572389488081 0 0.0054411481071101149 -0.00068564620651705252 0 0.005445371401673259 -0.00063003449338722769 0 0.0054626406362220407 -0.0006081929336967328 0 0.0054445924179618854 -0.00059684402658586222 0 0.0054390848361342056 -0.00068404034720902175 0 0.0054598508908254469 -0.00068124572389488081 0 0.0054626406362220407 -0.0006081929336967328 0 0.0054390848361342056 -0.00068404034720902175 0 0.0054626406362220407 -0.0006081929336967328 0 0.0054634917804032039 -0.0005597008117176073 0 0.0054718851786092308 -0.00055350771605180537 0 0.0054626406362220407 -0.0006081929336967328 0 0.0054634917804032039 -0.0005597008117176073 0 0.0054445924179618854 -0.00059684402658586222 0 0.0054634917804032039 -0.0005597008117176073 0 0.0054718851786092308 -0.00055350771605180537 0 0.0054843087209154127 -0.00049880858712291181 0 0.005445371401673259 -0.00063003449338722769 0 0.0054626406362220407 -0.0006081929336967328 0 0.0054548882760186721 -0.00057156077565147982 0 0.0054718851786092308 -0.00055350771605180537 0 0.0054548882760186721 -0.00057156077565147982 0 0.0054853736701882937 -0.00051299268053958257 0 0.0054626406362220407 -0.0006081929336967328 0 0.0054718851786092308 -0.00055350771605180537 0 0.0054548882760186721 -0.00057156077565147982 0 0.005391751730908635 -0.00056422318278374515 0 0.0053911128279748284 -0.00049715511215603001 0 0.0054325864213247352 -0.00054068290568650725 0 0.005391751730908635 -0.00056422318278374515 0 0.0054325864213247352 -0.00054068290568650725 0 0.0054135098392809828 -0.00062231410349242026 0 0.005391751730908635 -0.00056422318278374515 0 0.0053911128279748284 -0.00049715511215603001 0 0.0053416052627581539 -0.00053237302924729983 0 0.0053911128279748284 -0.00049715511215603001 0 0.0053535370609493812 -0.00045795693140073923 0 0.0053416052627581539 -0.00053237302924729983 0 0.0053911128279748284 -0.00049715511215603001 0 0.0054325864213247352 -0.00054068290568650725 0 0.0054350582635157756 -0.00046775205678781305 0 0.0054325864213247352 -0.00054068290568650725 0 0.0054350582635157756 -0.00046775205678781305 0 0.0054843087209154127 -0.00049880858712291181 0 0.0054634917804032039 -0.0005597008117176073 0 0.0054325864213247352 -0.00054068290568650725 0 0.0054843087209154127 -0.00049880858712291181 0 0.0054634917804032039 -0.0005597008117176073 0 0.0054325864213247352 -0.00054068290568650725 0 0.0054445924179618854 -0.00059684402658586222 0 0.0054445924179618854 -0.00059684402658586222 0 0.0054135098392809828 -0.00062231410349242026 0 0.0054390848361342056 -0.00068404034720902175 0 0.0054325864213247352 -0.00054068290568650725 0 0.0054445924179618854 -0.00059684402658586222 0 0.0054135098392809828 -0.00062231410349242026 0 0.0054135098392809828 -0.00062231410349242026 0 0.0053673358047651269 -0.00062657294592781214 0 0.0053914997642464432 -0.00069232724572028718 0 0.005391751730908635 -0.00056422318278374515 0 0.0054135098392809828 -0.00062231410349242026 0 0.0053673358047651269 -0.00062657294592781214 0 0.005391751730908635 -0.00056422318278374515 0 0.0053673358047651269 -0.00062657294592781214 0 0.0053416052627581539 -0.00053237302924729983 0 0.0053914997642464432 -0.00069232724572028718 0 0.0054390848361342056 -0.00068404034720902175 0 0.0054153823916068969 -0.00078714873255322012 0 0.0054135098392809828 -0.00062231410349242026 0 0.0053914997642464432 -0.00069232724572028718 0 0.0054390848361342056 -0.00068404034720902175 0 0.0054879877049522751 -0.00079127359511086477 0 0.0055067296663253882 -0.00083031917540409201 0 0.0054736740561584785 -0.00078145808356265556 0 0.0054390848361342056 -0.00068404034720902175 0 0.0054153823916068969 -0.00078714873255322012 0 0.0054153823916068969 -0.00078714873255322012 0 0.0053639808812836962 -0.00076329666715731551 0 0.0053602667366397065 -0.00082124368980602842 0 0.0053914997642464432 -0.00069232724572028718 0 0.0054153823916068969 -0.00078714873255322012 0 0.0053639808812836962 -0.00076329666715731551 0 0.0053639808812836962 -0.00076329666715731551 0 0.0053299849459875143 -0.00081748332689367438 0 0.0053602667366397065 -0.00082124368980602842 0 0.0053639808812836962 -0.00076329666715731551 0 0.0053299849459875143 -0.00081748332689367438 0 0.0053297276468171097 -0.00070546055332208323 0 0.0053299849459875143 -0.00081748332689367438 0 0.0053297276468171097 -0.00070546055332208323 0 0.005258353577013335 -0.00077665233911444027 0 0.0052685027246028929 -0.0006407309706145172 0 0.0052013137635990043 -0.00062905084017211268 0 0.005258353577013335 -0.00077665233911444027 0 0.0053297276468171097 -0.00070546055332208323 0 0.0052685027246028929 -0.0006407309706145172 0 0.005258353577013335 -0.00077665233911444027 0 0.0053914997642464432 -0.00069232724572028718 0 0.0053639808812836962 -0.00076329666715731551 0 0.0053297276468171097 -0.00070546055332208323 0 0.0053673358047651269 -0.00062657294592781214 0 0.0053914997642464432 -0.00069232724572028718 0 0.0053297276468171097 -0.00070546055332208323 0 0.0053673358047651269 -0.00062657294592781214 0 0.0053297276468171097 -0.00070546055332208323 0 0.005318993839097454 -0.00061539891217929365 0 0.0053673358047651269 -0.00062657294592781214 0 0.005318993839097454 -0.00061539891217929365 0 0.0053416052627581539 -0.00053237302924729983 0 0.005318993839097454 -0.00061539891217929365 0 0.0052825122590065181 -0.00056238831844038965 0 0.0053416052627581539 -0.00053237302924729983 0 0.0053297276468171097 -0.00070546055332208323 0 0.005318993839097454 -0.00061539891217929365 0 0.0052685027246028929 -0.0006407309706145172 0 0.0052685027246028929 -0.0006407309706145172 0 0.0052170521257736621 -0.00053789404036851248 0 0.0052013137635990043 -0.00062905084017211268 0 0.0052685027246028929 -0.0006407309706145172 0 0.0052825122590065181 -0.00056238831844038965 0 0.0052170521257736621 -0.00053789404036851248 0 0.005318993839097454 -0.00061539891217929365 0 0.0052685027246028929 -0.0006407309706145172 0 0.0052825122590065181 -0.00056238831844038965 0 0.0052825122590065181 -0.00056238831844038965 0 0.0052488898467030268 -0.00050628727273599125 0 0.0052796580611734929 -0.0004808679196953514 0 0.0052825122590065181 -0.00056238831844038965 0 0.0052488898467030268 -0.00050628727273599125 0 0.0052170521257736621 -0.00053789404036851248 0 0.0052488898467030268 -0.00050628727273599125 0 0.0052170521257736621 -0.00053789404036851248 0 0.0052185651142847341 -0.00048142136231210404 0 0.0052170521257736621 -0.00053789404036851248 0 0.0052185651142847341 -0.00048142136231210404 0 0.0051774423647151357 -0.0004417554897641825 0 0.0052488898467030268 -0.00050628727273599125 0 0.0052185651142847341 -0.00048142136231210404 0 0.0052442478030404758 -0.00044939808081128702 0 0.0052185651142847341 -0.00048142136231210404 0 0.0052442478030404758 -0.00044939808081128702 0 0.0052145904105563665 -0.00044651190309571114 0 0.0052185651142847341 -0.00048142136231210404 0 0.0052145904105563665 -0.00044651190309571114 0 0.0051774423647151357 -0.0004417554897641825 0 0.0052442478030404758 -0.00044939808081128702 0 0.0052796580611734929 -0.0004808679196953514 0 0.0052730610961583008 -0.00039425156030818242 0 0.0052488898467030268 -0.00050628727273599125 0 0.0052442478030404758 -0.00044939808081128702 0 0.0052796580611734929 -0.0004808679196953514 0 0.0052796580611734929 -0.0004808679196953514 0 0.0053149418860807063 -0.00043653662910078032 0 0.0052730610961583008 -0.00039425156030818242 0 0.0052796580611734929 -0.0004808679196953514 0 0.0053416052627581539 -0.00053237302924729983 0 0.0053149418860807063 -0.00043653662910078032 0 0.0053535370609493812 -0.00045795693140073923 0 0.0053416052627581539 -0.00053237302924729983 0 0.0053149418860807063 -0.00043653662910078032 0 0.0052825122590065181 -0.00056238831844038965 0 0.0052796580611734929 -0.0004808679196953514 0 0.0053416052627581539 -0.00053237302924729983 0 0.0051678415772305397 -0.00051520804592143036 0 0.0050340331409460416 -0.00049171602494974995 0 0.0051033907594224825 -0.00041300495603356413 0 0.0051678415772305397 -0.00051520804592143036 0 0.0051195907477185774 -0.00061433937015111136 0 0.0050340331409460416 -0.00049171602494974995 0 0.0051678415772305397 -0.00051520804592143036 0 0.005169951898449379 -0.00040556876227374345 0 0.0051033907594224825 -0.00041300495603356413 0 0.0053237365578809332 -0.00055447747057307784 0 0.0053263786096858466 -0.00075698536515266673 0 0.0051678415772305397 -0.00051520804592143036 0 0.0052722490937923885 -0.00041312039796177589 0 0.0052299985485997017 -0.00040503342381922262 0 0.0051678415772305397 -0.00051520804592143036 0 0.0052722490937923885 -0.00041312039796177589 0 0.0052142700928528756 -0.00066436916065277509 0 0.0052170521257736621 -0.00053789404036851248 0 0.0051774423647151357 -0.0004417554897641825 0 0.0052013137635990043 -0.00062905084017211268 0 0.0053237365578809332 -0.00055447747057307784 0 0.0053196975154303633 -0.00077241804378172356 0 0.0051678415772305397 -0.00051520804592143036 0 0.0052299985485997017 -0.00040503342381922262 0 0.005169951898449379 -0.00040556876227374345 0 0.0054520104049328791 -0.0008610240815591873 0 0.0054211039056996091 -0.00085595065299628602 0 0.005425715487094725 -0.00088769815107571305 0 0.0054529138197649506 -0.00080096475439910323 0 0.0054520104049328791 -0.0008610240815591873 0 0.0054211039056996091 -0.00085595065299628602 0 0.0051678415772305397 -0.00051520804592143036 0 0.0052142700928528756 -0.00066436916065277509 0 0.0051195907477185774 -0.00061433937015111136 0 0.0052142700928528756 -0.00066436916065277509 0 0.0051195907477185774 -0.00061433937015111136 0 0.005180093766580322 -0.00077020474862795154 0 0.0052142700928528756 -0.00066436916065277509 0 0.0052341625526826276 -0.0008493459189824439 0 0.005180093766580322 -0.00077020474862795154 0 0.005425715487094725 -0.00088769815107571305 0 0.0054212602117974977 -0.00090340964410260218 0 0.0054029093041147794 -0.00088914683877027367 0 0.0053196975154303633 -0.00077241804378172356 0 0.0053148881794428445 -0.00087231619634891568 0 0.0054211039056996091 -0.00085595065299628602 0 0.005425715487094725 -0.00088769815107571305 0 0.0054029093041147794 -0.00088914683877027367 0 0.0053263786096858466 -0.00075698536515266673 0 0.0053529376304222442 -0.000835428608544674 0 0.0054520104049328791 -0.0008610240815591873 0 0.005425715487094725 -0.00088769815107571305 0 0.0054417111632282461 -0.00091453890090231738 0 0.005425715487094725 -0.00088769815107571305 0 0.0054417111632282461 -0.00091453890090231738 0 0.0054212602117974977 -0.00090340964410260218 0 0.0054417111632282461 -0.00091453890090231738 0 0.0054290114045486507 -0.00092255271470468821 0 0.0054395363304485878 -0.00092930921951587999 0 0.0054417111632282461 -0.00091453890090231738 0 0.0054212602117974977 -0.00090340964410260218 0 0.0054290114045486507 -0.00092255271470468821 0 0.0054212602117974977 -0.00090340964410260218 0 0.005401130754265137 -0.00091977555137448313 0 0.0054029093041147794 -0.00088914683877027367 0 0.0054212602117974977 -0.00090340964410260218 0 0.0054290114045486507 -0.00092255271470468821 0 0.005401130754265137 -0.00091977555137448313 0 0.0054290114045486507 -0.00092255271470468821 0 0.0054285358638146673 -0.00095843351098405896 0 0.005401130754265137 -0.00091977555137448313 0 0.0054290114045486507 -0.00092255271470468821 0 0.0054285358638146673 -0.00095843351098405896 0 0.0054395363304485878 -0.00092930921951587999 0 0.0054285358638146673 -0.00095843351098405896 0 0.0054773093357445256 -0.00095880552781078029 0 0.0054395363304485878 -0.00092930921951587999 0 0.0054285358638146673 -0.00095843351098405896 0 0.0054773093357445256 -0.00095880552781078029 0 0.0054546801044403946 -0.0010562956117237939 0 0.0054680655776535919 -0.00094624444646071676 0 0.005496809320754463 -0.00089122912869501634 0 0.0054773093357445256 -0.00095880552781078029 0 0.0056013304226453639 -0.00099269210957996152 0 0.0056475618479165336 -0.00089573772045108146 0 0.0054773093357445256 -0.00095880552781078029 0 0.0056013304226453639 -0.00099269210957996152 0 0.0055404428526078606 -0.001080078042753051 0 0.0054773093357445256 -0.00095880552781078029 0 0.0053918328240833658 -0.00090355061735184373 0 0.005353057229717263 -0.00086863816574139947 0 0.0054417111632282461 -0.00091453890090231738 0 0.0053918328240833658 -0.00090355061735184373 0 0.0054395363304485878 -0.00092930921951587999 0 0.0053529376304222442 -0.000835428608544674 0 0.005383331197252505 -0.00089115892381780748 0 0.0054773093357445256 -0.00095880552781078029 0 0.0053918328240833658 -0.00090355061735184373 0 0.0054395363304485878 -0.00092930921951587999 0 0.005496809320754463 -0.00089122912869501634 0 0.0055235442868820442 -0.00085871697487523439 0 0.0053299849459875143 -0.00081748332689367438 0 0.0053918328240833658 -0.00090355061735184373 0 0.005353057229717263 -0.00086863816574139947 0 0.0053299849459875143 -0.00081748332689367438 0 0.005353057229717263 -0.00086863816574139947 0 0.0053602667366397065 -0.00082124368980602842 0 0.0053299849459875143 -0.00081748332689367438 0 0.005258353577013335 -0.00077665233911444027 0 0.0053918328240833658 -0.00090355061735184373 0 0.0056475618479165336 -0.00089573772045108146 0 0.0056927965386758574 -0.00089887480349207498 0 0.0056857262812987867 -0.00091379599482399089 0 0.0056927965386758574 -0.00089887480349207498 0 0.0057014234072162674 -0.00090030863685005018 0 0.0056857262812987867 -0.00091379599482399089 0 0.0057014234072162674 -0.00090030863685005018 0 0.0056857262812987867 -0.00091379599482399089 0 0.0056980692246366175 -0.00094712397056833872 0 0.0057014234072162674 -0.00090030863685005018 0 0.0056980692246366175 -0.00094712397056833872 0 0.0057163767821317973 -0.00092799363197739653 0 0.0056013304226453639 -0.00099269210957996152 0 0.0056475618479165336 -0.00089573772045108146 0 0.0056644598737483525 -0.00094903327126273326 0 0.0056475618479165336 -0.00089573772045108146 0 0.0056857262812987867 -0.00091379599482399089 0 0.0056644598737483525 -0.00094903327126273326 0 0.0056857262812987867 -0.00091379599482399089 0 0.0056980692246366175 -0.00094712397056833872 0 0.0056644598737483525 -0.00094903327126273326 0 0.0056980692246366175 -0.00094712397056833872 0 0.0056644598737483525 -0.00094903327126273326 0 0.0056795624139408347 -0.0010135658586070764 0 0.0056013304226453639 -0.00099269210957996152 0 0.0056644598737483525 -0.00094903327126273326 0 0.0056795624139408347 -0.0010135658586070764 0 0.0056013304226453639 -0.00099269210957996152 0 0.0056795624139408347 -0.0010135658586070764 0 0.0056379112695554064 -0.0010982544280578141 0 0.0056795624139408347 -0.0010135658586070764 0 0.0056379112695554064 -0.0010982544280578141 0 0.0057195110464798131 -0.0011111326270950204 0 0.0057146146321487828 -0.00087787264501430437 0 0.0057163767821317973 -0.00092799363197739653 0 0.0057377401042952416 -0.0010030827978270266 0 0.0056980692246366175 -0.00094712397056833872 0 0.0057163767821317973 -0.00092799363197739653 0 0.0057377401042952416 -0.0010030827978270266 0 0.0056980692246366175 -0.00094712397056833872 0 0.0056795624139408347 -0.0010135658586070764 0 0.0057377401042952416 -0.0010030827978270266 0 0.0056795624139408347 -0.0010135658586070764 0 0.0057377401042952416 -0.0010030827978270266 0 0.0057195110464798131 -0.0011111326270950204 0 0.0057377401042952416 -0.0010030827978270266 0 0.0058378162442074772 -0.0011559664886861437 0 0.0057195110464798131 -0.0011111326270950204 0 0.0057108950905861485 -0.0012532353570611381 0 0.0058378162442074772 -0.0011559664886861437 0 0.0057195110464798131 -0.0011111326270950204 0 0.0057108950905861485 -0.0012532353570611381 0 0.0056379112695554064 -0.0010982544280578141 0 0.0055837473529500347 -0.0012171850192475042 0 0.0057108950905861485 -0.0012532353570611381 0 0.0056379112695554064 -0.0010982544280578141 0 0.0057195110464798131 -0.0011111326270950204 0 0.0056379112695554064 -0.0010982544280578141 0 0.0055837473529500347 -0.0012171850192475042 0 0.0055404428526078606 -0.001080078042753051 0 0.0055837473529500347 -0.0012171850192475042 0 0.0054925480931099571 -0.0011874928850299311 0 0.0055404428526078606 -0.001080078042753051 0 0.0055122316532205309 -0.0013222778397827609 0 0.0055837473529500347 -0.0012171850192475042 0 0.0054925480931099571 -0.0011874928850299311 0 0.0054773093357445256 -0.00095880552781078029 0 0.0054546801044403946 -0.0010562956117237939 0 0.0055404428526078606 -0.001080078042753051 0 0.0054925480931099571 -0.0011874928850299311 0 0.0054546801044403946 -0.0010562956117237939 0 0.0055404428526078606 -0.001080078042753051 0 0.0056013304226453639 -0.00099269210957996152 0 0.0056379112695554064 -0.0010982544280578141 0 0.0055404428526078606 -0.001080078042753051 0 0.0054207710958193668 -0.0011506938331461039 0 0.0053488186413854335 -0.0011768685850719785 0 0.0053884372440840544 -0.001049497542016704 0 0.0053488186413854335 -0.0011768685850719785 0 0.0053108893856403383 -0.001040486933379843 0 0.0053884372440840544 -0.001049497542016704 0 0.0054925480931099571 -0.0011874928850299311 0 0.0054546801044403946 -0.0010562956117237939 0 0.0054207710958193668 -0.0011506938331461039 0 0.0054546801044403946 -0.0010562956117237939 0 0.0054207710958193668 -0.0011506938331461039 0 0.0053884372440840544 -0.001049497542016704 0 0.0054222926655367867 -0.0012924074835366024 0 0.0054925480931099571 -0.0011874928850299311 0 0.0054207710958193668 -0.0011506938331461039 0 0.0054222926655367867 -0.0012924074835366024 0 0.0055122316532205309 -0.0013222778397827609 0 0.0054925480931099571 -0.0011874928850299311 0 0.0054222926655367867 -0.0012924074835366024 0 0.0054207710958193668 -0.0011506938331461039 0 0.0053488186413854335 -0.0011768685850719785 0 0.0053483853292387281 -0.0013286828284346237 0 0.0054222926655367867 -0.0012924074835366024 0 0.0053488186413854335 -0.0011768685850719785 0 0.0053488186413854335 -0.0011768685850719785 0 0.0052800479471563355 -0.0012757931074609955 0 0.0052814837192142576 -0.0011293451170712157 0 0.0053483853292387281 -0.0013286828284346237 0 0.0053488186413854335 -0.0011768685850719785 0 0.0052800479471563355 -0.0012757931074609955 0 0.0052800479471563355 -0.0012757931074609955 0 0.0052814837192142576 -0.0011293451170712157 0 0.0052327033497495271 -0.001145684333897819 0 0.0052814837192142576 -0.0011293451170712157 0 0.0052407114674522656 -0.0010297211197662843 0 0.0052327033497495271 -0.001145684333897819 0 0.0053488186413854335 -0.0011768685850719785 0 0.0052814837192142576 -0.0011293451170712157 0 0.0053108893856403383 -0.001040486933379843 0 0.0053108893856403383 -0.001040486933379843 0 0.0052407114674522656 -0.0010297211197662843 0 0.0052878547571826705 -0.000956318347344281 0 0.0052814837192142576 -0.0011293451170712157 0 0.0053108893856403383 -0.001040486933379843 0 0.0052407114674522656 -0.0010297211197662843 0 0.0052407114674522656 -0.0010297211197662843 0 0.0052440728133155831 -0.00092524471742622637 0 0.0051932975208432717 -0.00095909304398343045 0 0.0052407114674522656 -0.0010297211197662843 0 0.0052878547571826705 -0.000956318347344281 0 0.0052440728133155831 -0.00092524471742622637 0 0.0052878547571826705 -0.000956318347344281 0 0.0053387560709460694 -0.00093005061360508469 0 0.0052778745531722434 -0.00089161237090073456 0 0.0053108893856403383 -0.001040486933379843 0 0.0052878547571826705 -0.000956318347344281 0 0.0053387560709460694 -0.00093005061360508469 0 0.0053108893856403383 -0.001040486933379843 0 0.0053387560709460694 -0.00093005061360508469 0 0.0053884372440840544 -0.001049497542016704 0 0.0054285358638146673 -0.00095843351098405896 0 0.0053387560709460694 -0.00093005061360508469 0 0.0053884372440840544 -0.001049497542016704 0 0.0054285358638146673 -0.00095843351098405896 0 0.0054546801044403946 -0.0010562956117237939 0 0.0053884372440840544 -0.001049497542016704 0 0.0054285358638146673 -0.00095843351098405896 0 0.0053387560709460694 -0.00093005061360508469 0 0.005401130754265137 -0.00091977555137448313 0 0.0053280466262732949 -0.00093045142466737006 0 0.0053148881794428445 -0.00087231619634891568 0 0.0053387560709460694 -0.00093005061360508469 0 0.0052697251727910127 -0.0008560705496745008 0 0.0052341625526826276 -0.0008493459189824439 0 0.0053387560709460694 -0.00093005061360508469 0 0.005401130754265137 -0.00091977555137448313 0 0.0054029093041147794 -0.00088914683877027367 0 0.0053387560709460694 -0.00093005061360508469 0 0.0052697251727910127 -0.0008560705496745008 0 0.0052778745531722434 -0.00089161237090073456 0 0.0052697251727910127 -0.0008560705496745008 0 0.0052651410603806121 -0.00085176070398569311 0 0.0052778745531722434 -0.00089161237090073456 0 0.0052697251727910127 -0.0008560705496745008 0 0.0052619525385648189 -0.00083936341805446125 0 0.0052651410603806121 -0.00085176070398569311 0 0.0052697251727910127 -0.0008560705496745008 0 0.0052619525385648189 -0.00083936341805446125 0 0.0052521762137374079 -0.00083588404584791331 0 0.0052697251727910127 -0.0008560705496745008 0 0.0052521762137374079 -0.00083588404584791331 0 0.0052254840505157225 -0.00081827830215100471 0 0.0052697251727910127 -0.0008560705496745008 0 0.0052341625526826276 -0.0008493459189824439 0 0.0052254840505157225 -0.00081827830215100471 0 0.0052619525385648189 -0.00083936341805446125 0 0.0052521762137374079 -0.00083588404584791331 0 0.0052434221273171683 -0.00082913752479895915 0 0.0052521762137374079 -0.00083588404584791331 0 0.0052254840505157225 -0.00081827830215100471 0 0.0052434221273171683 -0.00082913752479895915 0 0.005180093766580322 -0.00077020474862795154 0 0.0052254840505157225 -0.00081827830215100471 0 0.0052434221273171683 -0.00082913752479895915 0 0.0052341625526826276 -0.0008493459189824439 0 0.005180093766580322 -0.00077020474862795154 0 0.0052254840505157225 -0.00081827830215100471 0 0.0051798518434178903 -0.0007522210283521176 0 0.0052059588645592368 -0.00069084904948322871 0 0.005180093766580322 -0.00077020474862795154 0 0.0052536344964456087 -0.00086838702880244261 0 0.0052434221273171683 -0.00082913752479895915 0 0.0051195907477185774 -0.00061433937015111136 0 0.005180093766580322 -0.00077020474862795154 0 0.0050050927957725902 -0.00070471073110849828 0 0.0051195907477185774 -0.00061433937015111136 0 0.0050050927957725902 -0.00070471073110849828 0 0.0050340331409460416 -0.00049171602494974995 0 0.0052059588645592368 -0.00069084904948322871 0 0.0050652167335413336 -0.00048546588708620118 0 0.0052619525385648189 -0.00083936341805446125 0 0.0052531711424178692 -0.00083923864203930699 0 0.0052434221273171683 -0.00082913752479895915 0 0.0052059588645592368 -0.00069084904948322871 0 0.0052277883244166747 -0.00074891299376349414 0 0.0052059588645592368 -0.00069084904948322871 0 0.0052093167927165637 -0.000678628744637111 0 0.0052837081514978679 -0.00056734869920770288 0 0.0052284125959288271 -0.00043421512348053878 0 0.0051316526286614749 -0.00048819529202520932 0 0.0052619525385648189 -0.00083936341805446125 0 0.0052531711424178692 -0.00083923864203930699 0 0.0052647854022904467 -0.00081948890778222184 0 0.0052619525385648189 -0.00083936341805446125 0 0.0052647854022904467 -0.00081948890778222184 0 0.0052651410603806121 -0.00085176070398569311 0 0.005152197842159598 -0.00039535563604497343 0 0.0052284125959288271 -0.00043421512348053878 0 0.0051316526286614749 -0.00048819529202520932 0 0.0048971102835924122 -0.00049641304917564535 0 0.0050340331409460416 -0.00049171602494974995 0 0.004967184999594013 -0.00035758329652860855 0 0.0050050927957725902 -0.00070471073110849828 0 0.0048971102835924122 -0.00049641304917564535 0 0.0050340331409460416 -0.00049171602494974995 0 0.0052181507857966547 -0.00077753273215929158 0 0.0052647854022904467 -0.00081948890778222184 0 0.0052134531570249398 -0.00080954435975415652 0 0.0052181507857966547 -0.00077753273215929158 0 0.0052134531570249398 -0.00080954435975415652 0 0.0051793218513905143 -0.0007911408485922792 0 0.0051340229879110952 -0.00041713711044573566 0 0.0050294336512345028 -3.1833259959327703e-05 0 0.0049822731872983823 -0.000410670150754605 0 0.0051316526286614749 -0.00048819529202520932 0 0.0050768819602595603 -0.00035694468134881639 0 0.005152197842159598 -0.00039535563604497343 0 0.0051316526286614749 -0.00048819529202520932 0 0.0050768819602595603 -0.00035694468134881639 0 0.0051340229879110952 -0.00041713711044573566 0 0.0052093167927165637 -0.000678628744637111 0 0.0052647854022904467 -0.00081948890778222184 0 0.0052367404194307412 -0.00084038145616854225 0 0.0052651410603806121 -0.00085176070398569311 0 0.0052647854022904467 -0.00081948890778222184 0 0.0052367404194307412 -0.00084038145616854225 0 0.0052134531570249398 -0.00080954435975415652 0 0.0052367404194307412 -0.00084038145616854225 0 0.0052134531570249398 -0.00080954435975415652 0 0.005184433645411414 -0.00086653587194731034 0 0.0052450585371342333 -0.00083449563064043038 0 0.0051663231203533614 -0.00089542506554348995 0 0.0052367404194307412 -0.00084038145616854225 0 0.005248187285540897 -0.00087511785456280736 0 0.0051943927020561588 -0.00087515084642812084 0 0.0052367404194307412 -0.00084038145616854225 0 0.005248187285540897 -0.00087511785456280736 0 0.0052651410603806121 -0.00085176070398569311 0 0.005248187285540897 -0.00087511785456280736 0 0.0052651410603806121 -0.00085176070398569311 0 0.0052778745531722434 -0.00089161237090073456 0 0.0052878547571826705 -0.000956318347344281 0 0.0052778745531722434 -0.00089161237090073456 0 0.0052440728133155831 -0.00092524471742622637 0 0.005248187285540897 -0.00087511785456280736 0 0.0052778745531722434 -0.00089161237090073456 0 0.0052440728133155831 -0.00092524471742622637 0 0.005248187285540897 -0.00087511785456280736 0 0.0052440728133155831 -0.00092524471742622637 0 0.0051943927020561588 -0.00087515084642812084 0 0.005138137978833902 -0.00091486317223297639 0 0.0051943927020561588 -0.00087515084642812084 0 0.0051932975208432717 -0.00095909304398343045 0 0.0052440728133155831 -0.00092524471742622637 0 0.0051943927020561588 -0.00087515084642812084 0 0.0051932975208432717 -0.00095909304398343045 0 0.0052053968631195621 -0.00073536526640602265 0 0.0051663231203533614 -0.00089542506554348995 0 0.0051228492819909753 -0.0009048766291108656 0 0.0051427843423206806 -0.0008415064051529573 0 0.0051074584905197295 -0.00081399686965751548 0 0.0051228492819909753 -0.0009048766291108656 0 0.0051427843423206806 -0.0008415064051529573 0 0.005184433645411414 -0.00086653587194731034 0 0.0052053968631195621 -0.00073536526640602265 0 0.0052236652091463293 -0.00053661602834327972 0 0.0051427843423206806 -0.0008415064051529573 0 0.005184433645411414 -0.00086653587194731034 0 0.0051701870789036593 -0.00081807622038949143 0 0.0052134531570249398 -0.00080954435975415652 0 0.0051701870789036593 -0.00081807622038949143 0 0.0051793218513905143 -0.0007911408485922792 0 0.0052134531570249398 -0.00080954435975415652 0 0.005184433645411414 -0.00086653587194731034 0 0.0051701870789036593 -0.00081807622038949143 0 0.0051701870789036593 -0.00081807622038949143 0 0.0051313947016200009 -0.00079415766278872102 0 0.0051793218513905143 -0.0007911408485922792 0 0.0051074584905197295 -0.00081399686965751548 0 0.0051313947016200009 -0.00079415766278872102 0 0.0051548758011129275 -0.00066123683845145534 0 0.0051427843423206806 -0.0008415064051529573 0 0.0051701870789036593 -0.00081807622038949143 0 0.0051313947016200009 -0.00079415766278872102 0 0.0051427843423206806 -0.0008415064051529573 0 0.0051074584905197295 -0.00081399686965751548 0 0.0051313947016200009 -0.00079415766278872102 0 0.0051395969023024452 -0.00079195603301003374 0 0.0052301143564828659 -0.00074988648100138191 0 0.0052236652091463293 -0.00053661602834327972 0 0.005224467454569298 -0.00018984059997890956 0 0.0051313947016200009 -0.00079415766278872102 0 0.0051548758011129275 -0.00066123683845145534 0 0.0052765168634868603 -0.00070495137792870135 0 0.0051074584905197295 -0.00081399686965751548 0 0.0051548758011129275 -0.00066123683845145534 0 0.005087717385547987 -0.00054456493483823719 0 0.0051548758011129275 -0.00066123683845145534 0 0.005260603296357527 -0.00062196266604578818 0 0.0051883253649200687 -0.00050118838207444019 0 0.0054218034277297164 -0.00062062446557896 0 0.005260603296357527 -0.00062196266604578818 0 0.0052765168634868603 -0.00070495137792870135 0 0.0054218034277297164 -0.00062062446557896 0 0.005260603296357527 -0.00062196266604578818 0 0.0051883253649200687 -0.00050118838207444019 0 0.0051340229879110952 -0.00041713711044573566 0 0.0052301143564828659 -0.00074988648100138191 0 0.0051548758011129275 -0.00066123683845145534 0 0.005260603296357527 -0.00062196266604578818 0 0.0052765168634868603 -0.00070495137792870135 0 0.0049999849862062944 -0.00010499413133459227 0 0.0051519335557700489 -2.4165101613128644e-05 0 0.0050977955061625047 7.6045514735218487e-05 0 0.0050000008449178762 -0.00010501298118846417 0 0.0051643351627694151 -4.1273864954619175e-05 0 0.0051341292456537919 -0.00022028783990961208 0 0.0050000104341437496 -0.00010499130166980617 0 0.0051868639137775761 -1.8542033876367961e-05 0 0.0053367343137470293 -0.0002445247173625103 0 0.0051643351627694151 -4.1273864954619175e-05 0 0.0053260195199037359 2.5512109295559422e-05 0 0.0053367343137470293 -0.0002445247173625103 0 0.0051643351627694151 -4.1273864954619175e-05 0 0.0051341292456537919 -0.00022028783990961208 0 0.0053367343137470293 -0.0002445247173625103 0 0.0051341292456537919 -0.00022028783990961208 0 0.0051668081089863531 -0.00040254788254938596 0 0.0051341292456537919 -0.00022028783990961208 0 0.0049999981488401532 -0.00030974613438940332 0 0.0051668081089863531 -0.00040254788254938596 0 0.0050000008449178762 -0.00010501298118846417 0 0.0051341292456537919 -0.00022028783990961208 0 0.0049999981488401532 -0.00030974613438940332 0 0.0049999981488401532 -0.00030974613438940332 0 0.0051668081089863531 -0.00040254788254938596 0 0.0049999989463341147 -0.00051449536838385165 0 0.0053465760255491266 -0.00051925660666403797 0 0.0053367343137470293 -0.0002445247173625103 0 0.0051668081089863531 -0.00040254788254938596 0 0.0053465760255491266 -0.00051925660666403797 0 0.0051668081089863531 -0.00040254788254938596 0 0.0051740444284485709 -0.00061789879399595706 0 0.0052053968631195621 -0.00073536526640602265 0 0.0051580615840950625 -0.00064195317909443645 0 0.0051668081089863531 -0.00040254788254938596 0 0.0051740444284485709 -0.00061789879399595706 0 0.0049999989463341147 -0.00051449536838385165 0 0.0051740444284485709 -0.00061789879399595706 0 0.0049999989463341147 -0.00051449536838385165 0 0.0049999991106413179 -0.00071923875973295415 0 0.0051008797583093762 -0.00070544058111761052 0 0.0049999362423928904 -0.00071948255509700061 0 0.0051047140724760848 -0.00088996965596110022 0 0.0051580615840950625 -0.00064195317909443645 0 0.0050000010776596526 -0.00071925334901603406 0 0.0049999362423928904 -0.00071948255509700061 0 0.0051047140724760848 -0.00088996965596110022 0 0.0049999418258312826 -0.0010043180376920224 0 0.0051047140724760848 -0.00088996965596110022 0 0.0052342228498687936 -0.00081285998062438668 0 0.0051860551215974406 -0.0010508036075650921 0 0.0051008797583093762 -0.00070544058111761052 0 0.0051047140724760848 -0.00088996965596110022 0 0.0052342228498687936 -0.00081285998062438668 0 0.0052330789113111589 -0.00063508016702337104 0 0.0051008797583093762 -0.00070544058111761052 0 0.0052342228498687936 -0.00081285998062438668 0 0.005148584890478371 -0.00099203812374764949 0 0.0051932975208432717 -0.00095909304398343045 0 0.0051969674971736072 -0.0010467604385294169 0 0.0052053968631195621 -0.00073536526640602265 0 0.0051885164824954531 -0.00091098450318186823 0 0.005138137978833902 -0.00091486317223297639 0 0.005148584890478371 -0.00099203812374764949 0 0.0051932975208432717 -0.00095909304398343045 0 0.0052407114674522656 -0.0010297211197662843 0 0.0051969674971736072 -0.0010467604385294169 0 0.0052327033497495271 -0.001145684333897819 0 0.0052407114674522656 -0.0010297211197662843 0 0.0051932975208432717 -0.00095909304398343045 0 0.0051969674971736072 -0.0010467604385294169 0 0.0051885164824954531 -0.00091098450318186823 0 0.0051882230608204733 -0.0010296995913951714 0 0.005148584890478371 -0.00099203812374764949 0 0.0051969674971736072 -0.0010467604385294169 0 0.0051860551215974406 -0.0010508036075650921 0 0.0051860551215974406 -0.0010508036075650921 0 0.0051929001033619391 -0.0011598829559960706 0 0.0051123007578169804 -0.0010573588748628759 0 0.0051969674971736072 -0.0010467604385294169 0 0.0051860551215974406 -0.0010508036075650921 0 0.0051929001033619391 -0.0011598829559960706 0 0.0051969674971736072 -0.0010467604385294169 0 0.0052327033497495271 -0.001145684333897819 0 0.0051929001033619391 -0.0011598829559960706 0 0.0052027708767516511 -0.0013040244332521314 0 0.0052327033497495271 -0.001145684333897819 0 0.0051929001033619391 -0.0011598829559960706 0 0.0052027708767516511 -0.0013040244332521314 0 0.0052800479471563355 -0.0012757931074609955 0 0.0052327033497495271 -0.001145684333897819 0 0.0052027708767516511 -0.0013040244332521314 0 0.0051929001033619391 -0.0011598829559960706 0 0.0051161424726544969 -0.0012135497926309365 0 0.0051929001033619391 -0.0011598829559960706 0 0.0051161424726544969 -0.0012135497926309365 0 0.0051123007578169804 -0.0010573588748628759 0 0.0049999469901998699 -0.0012894305072152356 0 0.0051161424726544969 -0.0012135497926309365 0 0.0049999418258312826 -0.0010043180376920224 0 0.0051161424726544969 -0.0012135497926309365 0 0.0049999418258312826 -0.0010043180376920224 0 0.0051123007578169804 -0.0010573588748628759 0 0.0051047140724760848 -0.00088996965596110022 0 0.0049999418258312826 -0.0010043180376920224 0 0.0051123007578169804 -0.0010573588748628759 0 0.0051047140724760848 -0.00088996965596110022 0 0.0051860551215974406 -0.0010508036075650921 0 0.0051123007578169804 -0.0010573588748628759 0 0.004195513294081187 -0.00062987533546953974 0 0.0040900800988334539 -0.00064395323582186123 0 0.0041762623846455195 -0.00070149364194736427 0 0.004195513294081187 -0.00062987533546953974 0 0.0040900800988334539 -0.00064395323582186123 0 0.0041226161542076778 -0.00059649392195901707 0 0.0040189826393022179 -0.00066817959274354584 0 0.0040900800988334539 -0.00064395323582186123 0 0.0040702163767678068 -0.00071503223134928684 0 0.0040189826393022179 -0.00066817959274354584 0 0.0040900800988334539 -0.00064395323582186123 0 0.0040382848834144957 -0.00061258365803618911 0 0.0040900800988334539 -0.00064395323582186123 0 0.0040382848834144957 -0.00061258365803618911 0 0.0041226161542076778 -0.00059649392195901707 0 0.0040382848834144957 -0.00061258365803618911 0 0.0039799567963723715 -0.00057277721331236691 0 0.0040840053237269436 -0.00053601237310194787 0 0.0040382848834144957 -0.00061258365803618911 0 0.0041226161542076778 -0.00059649392195901707 0 0.0040840053237269436 -0.00053601237310194787 0 0.0041226161542076778 -0.00059649392195901707 0 0.0042099923823846509 -0.00056002989458975804 0 0.0040840053237269436 -0.00053601237310194787 0 0.004195513294081187 -0.00062987533546953974 0 0.0041226161542076778 -0.00059649392195901707 0 0.0042099923823846509 -0.00056002989458975804 0 0.0042099923823846509 -0.00056002989458975804 0 0.004291030083029731 -0.00061124199373233101 0 0.0043202618118240409 -0.0005579844422651173 0 0.004195513294081187 -0.00062987533546953974 0 0.0042099923823846509 -0.00056002989458975804 0 0.004291030083029731 -0.00061124199373233101 0 0.0043202618118240409 -0.0005579844422651173 0 0.0043988403770275127 -0.00061407491346961596 0 0.00445460999334379 -0.00055800433875112054 0 0.004291030083029731 -0.00061124199373233101 0 0.0043202618118240409 -0.0005579844422651173 0 0.0043988403770275127 -0.00061407491346961596 0 0.0043988403770275127 -0.00061407491346961596 0 0.0043216545331914921 -0.00067886004351662053 0 0.0044906461621782639 -0.0006748156889080627 0 0.0043216545331914921 -0.00067886004351662053 0 0.004437385960728432 -0.00073698415604910429 0 0.0044906461621782639 -0.0006748156889080627 0 0.004291030083029731 -0.00061124199373233101 0 0.0043988403770275127 -0.00061407491346961596 0 0.0043216545331914921 -0.00067886004351662053 0 0.004195513294081187 -0.00062987533546953974 0 0.0043216545331914921 -0.00067886004351662053 0 0.0041762623846455195 -0.00070149364194736427 0 0.004195513294081187 -0.00062987533546953974 0 0.004291030083029731 -0.00061124199373233101 0 0.0043216545331914921 -0.00067886004351662053 0 0.0043216545331914921 -0.00067886004351662053 0 0.0042814798014666408 -0.00078063940992125099 0 0.0041762623846455195 -0.00070149364194736427 0 0.0042814798014666408 -0.00078063940992125099 0 0.0041228056125354228 -0.00077527449464517698 0 0.0041762623846455195 -0.00070149364194736427 0 0.0043216545331914921 -0.00067886004351662053 0 0.004437385960728432 -0.00073698415604910429 0 0.0042814798014666408 -0.00078063940992125099 0 0.0042814798014666408 -0.00078063940992125099 0 0.0045144200603026456 -0.00082394883436390221 0 0.004314284544957081 -0.00091235676175615123 0 0.004437385960728432 -0.00073698415604910429 0 0.0042814798014666408 -0.00078063940992125099 0 0.0045144200603026456 -0.00082394883436390221 0 0.0042814798014666408 -0.00078063940992125099 0 0.0041228056125354228 -0.00077527449464517698 0 0.004187830435617294 -0.00085751936384856516 0 0.0040900800988334539 -0.00064395323582186123 0 0.0041762623846455195 -0.00070149364194736427 0 0.0040702163767678068 -0.00071503223134928684 0 0.0041228056125354228 -0.00077527449464517698 0 0.0041762623846455195 -0.00070149364194736427 0 0.0040702163767678068 -0.00071503223134928684 0 0.0040702163767678068 -0.00071503223134928684 0 0.0040285606789847708 -0.00077790410276374039 0 0.0039921841844965814 -0.0007237988765709353 0 0.0040189826393022179 -0.00066817959274354584 0 0.0040702163767678068 -0.00071503223134928684 0 0.0039921841844965814 -0.0007237988765709353 0 0.0041228056125354228 -0.00077527449464517698 0 0.0040285606789847708 -0.00077790410276374039 0 0.0040705889532213326 -0.00085424867212648017 0 0.0041228056125354228 -0.00077527449464517698 0 0.0040702163767678068 -0.00071503223134928684 0 0.0040285606789847708 -0.00077790410276374039 0 0.0040285606789847708 -0.00077790410276374039 0 0.0039504784605549305 -0.0007847263138554718 0 0.0039921841844965814 -0.0007237988765709353 0 0.0040285606789847708 -0.00077790410276374039 0 0.0039504784605549305 -0.0007847263138554718 0 0.0039807137357213149 -0.00082557850399930625 0 0.0039504784605549305 -0.0007847263138554718 0 0.0039291369726851613 -0.00074126391431970115 0 0.0039921841844965814 -0.0007237988765709353 0 0.0039504784605549305 -0.0007847263138554718 0 0.0039291369726851613 -0.00074126391431970115 0 0.0039108512064628372 -0.00076955078088548066 0 0.0039291369726851613 -0.00074126391431970115 0 0.0039108512064628372 -0.00076955078088548066 0 0.0038879852263610918 -0.00075252259096226615 0 0.0039108512064628372 -0.00076955078088548066 0 0.0038906053018184002 -0.00079627987962492986 0 0.0038879852263610918 -0.00075252259096226615 0 0.0039504784605549305 -0.0007847263138554718 0 0.0039108512064628372 -0.00076955078088548066 0 0.0038906053018184002 -0.00079627987962492986 0 0.0032531922611778127 -0.00061106594895778317 0 0.0027613037577583878 -0.00064622178554200307 0 0.0017471067355209016 -0.00040588793401425988 0 0.00168922767013423 -0.00041738027558054945 0 0.0017322114088691883 -0.00044779617961761671 0 0.0038906053018184002 -0.00079627987962492986 0 0.0038879852263610918 -0.00075252259096226615 0 0.0038465753786239352 -0.00082428622791668967 0 0.003882876885732051 -0.00086057443847134551 0 0.0039285587829695446 -0.00072646045549698112 0 0.0038187381330552221 -0.00070354828742325622 0 0.0032531922611778127 -0.00061106594895778317 0 0.0027078813801633436 -0.00052167679246275655 0 0.0017471067355209016 -0.00040588793401425988 0 0.0016815921424678136 -0.00038058825774970717 0 0.0017164243764486848 -0.00033864682636012872 0 0.0039291369726851613 -0.00074126391431970115 0 0.0039921841844965814 -0.0007237988765709353 0 0.0039449503745389988 -0.00066048277314426269 0 0.0039291369726851613 -0.00074126391431970115 0 0.0038879852263610918 -0.00075252259096226615 0 0.0039449503745389988 -0.00066048277314426269 0 0.0032531922611778127 -0.00061106594895778317 0 0.0039899628297445063 -0.0007134087995847167 0 0.0040189826393022179 -0.00066817959274354584 0 0.0039921841844965814 -0.0007237988765709353 0 0.0039449503745389988 -0.00066048277314426269 0 0.0017471067355209016 -0.00040588793401425988 0 0.00168922767013423 -0.00041738027558054945 0 0.0016815921424678136 -0.00038058825774970717 0 0.0016286840612093319 -0.00040397287411901106 0 0.00168922767013423 -0.00041738027558054945 0 0.0016648364590970718 -0.00045327645568845172 0 0.0016286840612093319 -0.00040397287411901106 0 0.00168922767013423 -0.00041738027558054945 0 0.0016815921424678136 -0.00038058825774970717 0 0.0015665999802438213 -0.00036691123640891971 0 0.0016286840612093319 -0.00040397287411901106 0 0.0016225229096637035 -0.00033086241506652582 0 0.0016286840612093319 -0.00040397287411901106 0 0.0016815921424678136 -0.00038058825774970717 0 0.0016225229096637035 -0.00033086241506652582 0 0.0016815921424678136 -0.00038058825774970717 0 0.0016225229096637035 -0.00033086241506652582 0 0.0017164243764486848 -0.00033864682636012872 0 0.0016225229096637035 -0.00033086241506652582 0 0.0017164243764486848 -0.00033864682636012872 0 0.0016954800762187384 -0.00026269426101508764 0 0.0027078813801633436 -0.00052167679246275655 0 0.002686252533204727 -0.00034609051161582475 0 0.0016225229096637035 -0.00033086241506652582 0 0.0015551601015047478 -0.00024227002528366803 0 0.0016954800762187384 -0.00026269426101508764 0 0.0040189826393022179 -0.00066817959274354584 0 0.0040382848834144957 -0.00061258365803618911 0 0.0039449503745389988 -0.00066048277314426269 0 0.0039899628297445063 -0.0007134087995847167 0 0.0039665644491557279 -0.00057547211349301733 0 0.0040382848834144957 -0.00061258365803618911 0 0.0039449503745389988 -0.00066048277314426269 0 0.0039799567963723715 -0.00057277721331236691 0 0.0039285587829695446 -0.00072646045549698112 0 0.0038187381330552221 -0.00070354828742325622 0 0.0038732372430897635 -0.00060940293427983296 0 0.0038732372430897635 -0.00060940293427983296 0 0.0038877139517367616 -0.00051067706129729901 0 0.0037194697749165155 -0.00052337976944191787 0 0.0038187381330552221 -0.00070354828742325622 0 0.0038732372430897635 -0.00060940293427983296 0 0.0037194697749165155 -0.00052337976944191787 0 0.0038732372430897635 -0.00060940293427983296 0 0.0039799567963723715 -0.00057277721331236691 0 0.0038877139517367616 -0.00051067706129729901 0 0.0039285587829695446 -0.00072646045549698112 0 0.0038732372430897635 -0.00060940293427983296 0 0.0039799567963723715 -0.00057277721331236691 0 0.0039799567963723715 -0.00057277721331236691 0 0.0039611200813549578 -0.00048457023646635749 0 0.0040166114590313119 -0.00051399352567096934 0 0.0039799567963723715 -0.00057277721331236691 0 0.0039611200813549578 -0.00048457023646635749 0 0.0038877139517367616 -0.00051067706129729901 0 0.0039611200813549578 -0.00048457023646635749 0 0.0040391435045733972 -0.00046476683610192037 0 0.0040166114590313119 -0.00051399352567096934 0 0.0039611200813549578 -0.00048457023646635749 0 0.0038877139517367616 -0.00051067706129729901 0 0.0039054884484619884 -0.00045599290833354538 0 0.0038877139517367616 -0.00051067706129729901 0 0.0039054884484619884 -0.00045599290833354538 0 0.0038446091541857893 -0.00047268561207987607 0 0.003840444486441229 -0.00047026889581899866 0 0.0039121481992951184 -0.00050332007966879578 0 0.0039054884484619884 -0.00045599290833354538 0 0.0038694809404841539 -0.00043688353451567407 0 0.0038446091541857893 -0.00047268561207987607 0 0.0039054884484619884 -0.00045599290833354538 0 0.0038694809404841539 -0.00043688353451567407 0 0.003910550301505257 -0.0004107925105688629 0 0.0039054884484619884 -0.00045599290833354538 0 0.0039685044445911428 -0.00042819218010772402 0 0.003910550301505257 -0.0004107925105688629 0 0.0039685044445911428 -0.00042819218010772402 0 0.0040300443927313977 -0.00039979088474830367 0 0.0040391435045733972 -0.00046476683610192037 0 0.0039611200813549578 -0.00048457023646635749 0 0.0039685044445911428 -0.00042819218010772402 0 0.0040391435045733972 -0.00046476683610192037 0 0.0039611200813549578 -0.00048457023646635749 0 0.0039054884484619884 -0.00045599290833354538 0 0.0039685044445911428 -0.00042819218010772402 0 0.0015551601015047478 -0.00024227002528366803 0 0.0016954800762187384 -0.00026269426101508764 0 0.0016583392046286261 -1.2579738848421525e-05 0 0.0038877139517367616 -0.00051067706129729901 0 0.0037194697749165155 -0.00052337976944191787 0 0.0037483216402682943 -0.00038034559049951661 0 0.0038694809404841539 -0.00043688353451567407 0 0.0038446091541857893 -0.00047268561207987607 0 0.0037822644651277276 -0.00042997447019461362 0 0.002686252533204727 -0.00034609051161582475 0 0.0027796751855927735 -0.00031453980865916602 0 0.0037194697749165155 -0.00052337976944191787 0 0.0037483216402682943 -0.00038034559049951661 0 0.0035776403355966954 -0.00025559946220376389 0 0.0039121481992951184 -0.00050332007966879578 0 0.0027796751855927735 -0.00031453980865916602 0 0.0014332978584761821 -3.7690888221642335e-05 0 0.0015551601015047478 -0.00024227002528366803 0 0.0016583392046286261 -1.2579738848421525e-05 0 0.0027796751855927735 -0.00031453980865916602 0 0.0030201839669785559 -0.00037283629156527586 0 0.0016594399274080466 -6.0754017926166737e-05 0 0.0027796751855927735 -0.00031453980865916602 0 0.0020443124560958017 -0.00049551053396302788 0 0.002259842481378639 -0.00065745770085498946 0 0.0021436842575194453 -0.00041048934792962781 0 0.0037822644651277276 -0.00042997447019461362 0 0.0038282895173231573 -0.0003500988287006113 0 0.0037440848955586662 -0.00035635750063174517 0 0.0038694809404841539 -0.00043688353451567407 0 0.0037822644651277276 -0.00042997447019461362 0 0.0038642312286302112 -0.00039542246821981062 0 0.0038642312286302112 -0.00039542246821981062 0 0.0038282895173231573 -0.0003500988287006113 0 0.0038994966317420347 -0.00036509549026600652 0 0.0037822644651277276 -0.00042997447019461362 0 0.0038642312286302112 -0.00039542246821981062 0 0.0038282895173231573 -0.0003500988287006113 0 0.0037971371162988884 -0.0002995418890616314 0 0.0038282895173231573 -0.0003500988287006113 0 0.0038816664874412364 -0.00031639083065497639 0 0.0037015845171499877 -0.00028084555148748014 0 0.0037971371162988884 -0.0002995418890616314 0 0.0037440848955586662 -0.00035635750063174517 0 0.0037971371162988884 -0.0002995418890616314 0 0.0038282895173231573 -0.0003500988287006113 0 0.0037440848955586662 -0.00035635750063174517 0 0.0039615735426623425 -0.00038348320142569454 0 0.0039462299260384567 -0.00034101742762960403 0 0.0040052839820452994 -0.00035536687392338301 0 0.0039615735426623425 -0.00038348320142569454 0 0.0040052839820452994 -0.00035536687392338301 0 0.0040300443927313977 -0.00039979088474830367 0 0.0039685044445911428 -0.00042819218010772402 0 0.0039615735426623425 -0.00038348320142569454 0 0.0040300443927313977 -0.00039979088474830367 0 0.0039685044445911428 -0.00042819218010772402 0 0.0039615735426623425 -0.00038348320142569454 0 0.003910550301505257 -0.0004107925105688629 0 0.0038694809404841539 -0.00043688353451567407 0 0.0038642312286302112 -0.00039542246821981062 0 0.003910550301505257 -0.0004107925105688629 0 0.0038642312286302112 -0.00039542246821981062 0 0.003910550301505257 -0.0004107925105688629 0 0.0038994966317420347 -0.00036509549026600652 0 0.0039615735426623425 -0.00038348320142569454 0 0.003910550301505257 -0.0004107925105688629 0 0.0038994966317420347 -0.00036509549026600652 0 0.0039615735426623425 -0.00038348320142569454 0 0.0038994966317420347 -0.00036509549026600652 0 0.0039462299260384567 -0.00034101742762960403 0 0.0038994966317420347 -0.00036509549026600652 0 0.0038816664874412364 -0.00031639083065497639 0 0.0039462299260384567 -0.00034101742762960403 0 0.0038282895173231573 -0.0003500988287006113 0 0.0038994966317420347 -0.00036509549026600652 0 0.0038816664874412364 -0.00031639083065497639 0 0.0039406077191829186 -0.00030739421673615794 0 0.0038816664874412364 -0.00031639083065497639 0 0.0039462299260384567 -0.00034101742762960403 0 0.0039406077191829186 -0.00030739421673615794 0 0.0039462299260384567 -0.00034101742762960403 0 0.0039837630279127706 -0.00031850199497183908 0 0.0039462299260384567 -0.00034101742762960403 0 0.0040052839820452994 -0.00035536687392338301 0 0.0039837630279127706 -0.00031850199497183908 0 0.0039971170304557721 -0.00029505540630339079 0 0.0039837630279127706 -0.00031850199497183908 0 0.0040395895855637109 -0.00032094904770431045 0 0.0040914278175682118 -0.00030204844328456424 0 0.0040395895855637109 -0.00032094904770431045 0 0.0041019486218963177 -0.00033000515374782417 0 0.0040395895855637109 -0.00032094904770431045 0 0.0041019486218963177 -0.00033000515374782417 0 0.0040639974984667737 -0.00035748386659108998 0 0.0040052839820452994 -0.00035536687392338301 0 0.0040395895855637109 -0.00032094904770431045 0 0.0040639974984667737 -0.00035748386659108998 0 0.0040052839820452994 -0.00035536687392338301 0 0.0039837630279127706 -0.00031850199497183908 0 0.0040395895855637109 -0.00032094904770431045 0 0.004151926767118605 -0.00029622336927339081 0 0.004157908115470719 -0.00032886120608933229 0 0.0041986604566412195 -0.00031234172741835683 0 0.004151926767118605 -0.00029622336927339081 0 0.0041019486218963177 -0.00033000515374782417 0 0.004157908115470719 -0.00032886120608933229 0 0.0040914278175682118 -0.00030204844328456424 0 0.004151926767118605 -0.00029622336927339081 0 0.0041019486218963177 -0.00033000515374782417 0 0.0041019486218963177 -0.00033000515374782417 0 0.004157908115470719 -0.00032886120608933229 0 0.0041255002744582043 -0.00035909693902974013 0 0.0041019486218963177 -0.00033000515374782417 0 0.0041255002744582043 -0.00035909693902974013 0 0.0040639974984667737 -0.00035748386659108998 0 0.004157908115470719 -0.00032886120608933229 0 0.0041255002744582043 -0.00035909693902974013 0 0.0042030497339442313 -0.0003529570964223736 0 0.0041255002744582043 -0.00035909693902974013 0 0.0041428040380782072 -0.00039862476710206902 0 0.0042030497339442313 -0.0003529570964223736 0 0.0041428040380782072 -0.00039862476710206902 0 0.004088873599113271 -0.00038854263678981437 0 0.0040862734997453949 -0.00042365112388915597 0 0.0041255002744582043 -0.00035909693902974013 0 0.0041428040380782072 -0.00039862476710206902 0 0.004088873599113271 -0.00038854263678981437 0 0.0041428040380782072 -0.00039862476710206902 0 0.0042031575143344395 -0.00041842306186423624 0 0.0042030497339442313 -0.0003529570964223736 0 0.0040052839820452994 -0.00035536687392338301 0 0.0040639974984667737 -0.00035748386659108998 0 0.0040300443927313977 -0.00039979088474830367 0 0.0040639974984667737 -0.00035748386659108998 0 0.004088873599113271 -0.00038854263678981437 0 0.0040300443927313977 -0.00039979088474830367 0 0.0041255002744582043 -0.00035909693902974013 0 0.0040639974984667737 -0.00035748386659108998 0 0.004088873599113271 -0.00038854263678981437 0 0.004088873599113271 -0.00038854263678981437 0 0.0040300443927313977 -0.00039979088474830367 0 0.0040862734997453949 -0.00042365112388915597 0 0.0040300443927313977 -0.00039979088474830367 0 0.0040391435045733972 -0.00046476683610192037 0 0.0040862734997453949 -0.00042365112388915597 0 0.0040391435045733972 -0.00046476683610192037 0 0.0040862734997453949 -0.00042365112388915597 0 0.0041290786874890817 -0.00046053209776126923 0 0.0041290786874890817 -0.00046053209776126923 0 0.0041996114207327366 -0.00049565387212954315 0 0.0042031575143344395 -0.00041842306186423624 0 0.0041428040380782072 -0.00039862476710206902 0 0.0040862734997453949 -0.00042365112388915597 0 0.0041290786874890817 -0.00046053209776126923 0 0.0041428040380782072 -0.00039862476710206902 0 0.0041290786874890817 -0.00046053209776126923 0 0.0042031575143344395 -0.00041842306186423624 0 0.0042099923823846509 -0.00056002989458975804 0 0.0040840053237269436 -0.00053601237310194787 0 0.0041996114207327366 -0.00049565387212954315 0 0.0041290786874890817 -0.00046053209776126923 0 0.0040840053237269436 -0.00053601237310194787 0 0.0041996114207327366 -0.00049565387212954315 0 0.0040391435045733972 -0.00046476683610192037 0 0.0040840053237269436 -0.00053601237310194787 0 0.0040166114590313119 -0.00051399352567096934 0 0.0039799567963723715 -0.00057277721331236691 0 0.0040840053237269436 -0.00053601237310194787 0 0.0040166114590313119 -0.00051399352567096934 0 0.0040391435045733972 -0.00046476683610192037 0 0.0041290786874890817 -0.00046053209776126923 0 0.0040840053237269436 -0.00053601237310194787 0 0.0043202618118240409 -0.0005579844422651173 0 0.0043856737989468693 -0.00048160638518549253 0 0.00445460999334379 -0.00055800433875112054 0 0.0043202618118240409 -0.0005579844422651173 0 0.0043856737989468693 -0.00048160638518549253 0 0.0042974160303549357 -0.00050112934851485338 0 0.0042099923823846509 -0.00056002989458975804 0 0.0043202618118240409 -0.0005579844422651173 0 0.0042974160303549357 -0.00050112934851485338 0 0.0042099923823846509 -0.00056002989458975804 0 0.0041996114207327366 -0.00049565387212954315 0 0.0042974160303549357 -0.00050112934851485338 0 0.0041996114207327366 -0.00049565387212954315 0 0.0042974160303549357 -0.00050112934851485338 0 0.0042530188552908476 -0.00045993141280108212 0 0.0041996114207327366 -0.00049565387212954315 0 0.0042530188552908476 -0.00045993141280108212 0 0.0042031575143344395 -0.00041842306186423624 0 0.0042974160303549357 -0.00050112934851485338 0 0.0042530188552908476 -0.00045993141280108212 0 0.0043027123471064488 -0.00042286974670995405 0 0.0042530188552908476 -0.00045993141280108212 0 0.0042031575143344395 -0.00041842306186423624 0 0.0043027123471064488 -0.00042286974670995405 0 0.0042031575143344395 -0.00041842306186423624 0 0.0043027123471064488 -0.00042286974670995405 0 0.0042590730128270974 -0.00037906717797681527 0 0.0043856737989468693 -0.00048160638518549253 0 0.0042974160303549357 -0.00050112934851485338 0 0.0043027123471064488 -0.00042286974670995405 0 0.0043856737989468693 -0.00048160638518549253 0 0.0043027123471064488 -0.00042286974670995405 0 0.0043818396155215003 -0.00040213560130111748 0 0.0043818396155215003 -0.00040213560130111748 0 0.0043164581206248612 -0.00036738779507586896 0 0.0043759810579326441 -0.00034197655948981252 0 0.0043027123471064488 -0.00042286974670995405 0 0.0043164581206248612 -0.00036738779507586896 0 0.0042590730128270974 -0.00037906717797681527 0 0.0043027123471064488 -0.00042286974670995405 0 0.0043818396155215003 -0.00040213560130111748 0 0.0043164581206248612 -0.00036738779507586896 0 0.0043164581206248612 -0.00036738779507586896 0 0.0042676787655034926 -0.00034283333697041133 0 0.0043174791018968988 -0.00031907015123772858 0 0.0043164581206248612 -0.00036738779507586896 0 0.0043759810579326441 -0.00034197655948981252 0 0.0043174791018968988 -0.00031907015123772858 0 0.0043759810579326441 -0.00034197655948981252 0 0.0043696360928223909 -0.00029950520002149198 0 0.0043174791018968988 -0.00031907015123772858 0 0.0042031575143344395 -0.00041842306186423624 0 0.0042590730128270974 -0.00037906717797681527 0 0.0042030497339442313 -0.0003529570964223736 0 0.0042676787655034926 -0.00034283333697041133 0 0.0042030497339442313 -0.0003529570964223736 0 0.0042494819676555011 -0.00031040287558475909 0 0.0042590730128270974 -0.00037906717797681527 0 0.0042676787655034926 -0.00034283333697041133 0 0.0042030497339442313 -0.0003529570964223736 0 0.0043164581206248612 -0.00036738779507586896 0 0.0042590730128270974 -0.00037906717797681527 0 0.0042676787655034926 -0.00034283333697041133 0 0.0042030497339442313 -0.0003529570964223736 0 0.0041986604566412195 -0.00031234172741835683 0 0.0042494819676555011 -0.00031040287558475909 0 0.004157908115470719 -0.00032886120608933229 0 0.0042030497339442313 -0.0003529570964223736 0 0.0041986604566412195 -0.00031234172741835683 0 0.0042676787655034926 -0.00034283333697041133 0 0.0042494819676555011 -0.00031040287558475909 0 0.0043174791018968988 -0.00031907015123772858 0 0.0042494819676555011 -0.00031040287558475909 0 0.0042185867987482055 -0.00028239623664970181 0 0.0042853786443505576 -0.00027915050123890383 0 0.0041986604566412195 -0.00031234172741835683 0 0.0042494819676555011 -0.00031040287558475909 0 0.0042185867987482055 -0.00028239623664970181 0 0.004151926767118605 -0.00029622336927339081 0 0.0041986604566412195 -0.00031234172741835683 0 0.0042185867987482055 -0.00028239623664970181 0 0.0043696360928223909 -0.00029950520002149198 0 0.0043412761962518566 -0.0002703664081618888 0 0.0044024005319313756 -0.0002598970431572094 0 0.0043696360928223909 -0.00029950520002149198 0 0.0043174791018968988 -0.00031907015123772858 0 0.0043412761962518566 -0.0002703664081618888 0 0.0043174791018968988 -0.00031907015123772858 0 0.0042853786443505576 -0.00027915050123890383 0 0.0043412761962518566 -0.0002703664081618888 0 0.0042494819676555011 -0.00031040287558475909 0 0.0043174791018968988 -0.00031907015123772858 0 0.0042853786443505576 -0.00027915050123890383 0 0.0043092303164366606 -0.00024596475118742649 0 0.0042853786443505576 -0.00027915050123890383 0 0.0043412761962518566 -0.0002703664081618888 0 0.004361761410278088 -0.00023843760710541472 0 0.0043092303164366606 -0.00024596475118742649 0 0.0043412761962518566 -0.0002703664081618888 0 0.004361761410278088 -0.00023843760710541472 0 0.0043412761962518566 -0.0002703664081618888 0 0.0044024005319313756 -0.0002598970431572094 0 0.0044380830248791558 -0.00020627892070581737 0 0.004361761410278088 -0.00023843760710541472 0 0.0044024005319313756 -0.0002598970431572094 0 0.0044380830248791558 -0.00020627892070581737 0 0.0044024005319313756 -0.0002598970431572094 0 0.0044738499236272192 -0.00025799607622088423 0 0.0044380830248791558 -0.00020627892070581737 0 0.0044738499236272192 -0.00025799607622088423 0 0.0045799717717687118 -0.00024013398014430915 0 0.0044738499236272192 -0.00025799607622088423 0 0.0044334260149088128 -0.00030017604886624783 0 0.0045100359029906457 -0.00030572092877517823 0 0.0043696360928223909 -0.00029950520002149198 0 0.0044024005319313756 -0.0002598970431572094 0 0.0044334260149088128 -0.00030017604886624783 0 0.0044024005319313756 -0.0002598970431572094 0 0.0044738499236272192 -0.00025799607622088423 0 0.0044334260149088128 -0.00030017604886624783 0 0.0043759810579326441 -0.00034197655948981252 0 0.0044334260149088128 -0.00030017604886624783 0 0.004451018019116227 -0.00036154512510033375 0 0.0043759810579326441 -0.00034197655948981252 0 0.0043696360928223909 -0.00029950520002149198 0 0.0044334260149088128 -0.00030017604886624783 0 0.0044334260149088128 -0.00030017604886624783 0 0.0045100359029906457 -0.00030572092877517823 0 0.004451018019116227 -0.00036154512510033375 0 0.0045100359029906457 -0.00030572092877517823 0 0.004451018019116227 -0.00036154512510033375 0 0.0045438989897302485 -0.00036463613928551362 0 0.004451018019116227 -0.00036154512510033375 0 0.0045438989897302485 -0.00036463613928551362 0 0.0044785340554125584 -0.00043091523083823273 0 0.0043818396155215003 -0.00040213560130111748 0 0.0043759810579326441 -0.00034197655948981252 0 0.004451018019116227 -0.00036154512510033375 0 0.0046017144353681268 -0.00030591023271893159 0 0.0046299767565537503 -0.00020450599592684832 0 0.0047237558810092452 -0.00033541987780480161 0 0.0046453716592782367 -0.00038228343655332525 0 0.0046017144353681268 -0.00030591023271893159 0 0.0047237558810092452 -0.00033541987780480161 0 0.0046453716592782367 -0.00038228343655332525 0 0.0045438989897302485 -0.00036463613928551362 0 0.0046017144353681268 -0.00030591023271893159 0 0.0045100359029906457 -0.00030572092877517823 0 0.0046017144353681268 -0.00030591023271893159 0 0.0045799717717687118 -0.00024013398014430915 0 0.0045100359029906457 -0.00030572092877517823 0 0.0045438989897302485 -0.00036463613928551362 0 0.0046017144353681268 -0.00030591023271893159 0 0.0046017144353681268 -0.00030591023271893159 0 0.0045799717717687118 -0.00024013398014430915 0 0.0046299767565537503 -0.00020450599592684832 0 0.0042228580044013763 -0.00071035448355015994 0 0.0039135101268269225 -0.0011807654675199009 0 0.0044392396095517339 -0.0001299246791606669 0 0.0045799717717687118 -0.00024013398014430915 0 0.0046299767565537503 -0.00020450599592684832 0 0.0044738499236272192 -0.00025799607622088423 0 0.0045100359029906457 -0.00030572092877517823 0 0.0045799717717687118 -0.00024013398014430915 0 0.0042228580044013763 -0.00071035448355015994 0 0.0045355916154457511 -0.00015746728698741601 0 0.0030903314090962152 -0.0022554408812121701 0 0.0031957514077210749 -0.0020783139374481317 0 0.0028710686508842263 -0.0019001780750027403 0 0.0028896165830260378 -0.0023021904507370275 0 0.0030903314090962152 -0.0022554408812121701 0 0.0028710686508842263 -0.0019001780750027403 0 0.0039135101268269225 -0.0011807654675199009 0 0.0037952546996307536 -0.0010576777463238449 0 0.0025382403164955656 -0.0022412504286698615 0 0.0028896165830260378 -0.0023021904507370275 0 0.0028710686508842263 -0.0019001780750027403 0 0.0025382403164955656 -0.0022412504286698615 0 0.0028710686508842263 -0.0019001780750027403 0 0.0025515740623171632 -0.0017174255701095597 0 0.0037952546996307536 -0.0010576777463238449 0 0.0041945198513794807 -0.0010522621260619215 0 0.0048402294326734272 -0.00025598430420493241 0 0.0049047854398549624 -0.00041642837268782498 0 0.0051119156634311944 -0.00037145102710119213 0 0.0048402294326734272 -0.00025598430420493241 0 0.0047237558810092452 -0.00033541987780480161 0 0.0049047854398549624 -0.00041642837268782498 0 0.0046299767565537503 -0.00020450599592684832 0 0.0048402294326734272 -0.00025598430420493241 0 0.0047237558810092452 -0.00033541987780480161 0 0.0046453716592782367 -0.00038228343655332525 0 0.0047237558810092452 -0.00033541987780480161 0 0.0047661556060618511 -0.00046481026155494048 0 0.0047237558810092452 -0.00033541987780480161 0 0.0047661556060618511 -0.00046481026155494048 0 0.0049047854398549624 -0.00041642837268782498 0 0.0049358271192874526 -0.00051022144271036418 0 0.005129713367181361 -0.00053384684601572995 0 0.0050165122739136321 -0.00054731224405918171 0 0.0049047854398549624 -0.00041642837268782498 0 0.0049358271192874526 -0.00051022144271036418 0 0.005129713367181361 -0.00053384684601572995 0 0.0047661556060618511 -0.00046481026155494048 0 0.0049047854398549624 -0.00041642837268782498 0 0.0049358271192874526 -0.00051022144271036418 0 0.0047661556060618511 -0.00046481026155494048 0 0.0049358271192874526 -0.00051022144271036418 0 0.0048729215049285136 -0.0005579517371385878 0 0.0048729215049285136 -0.0005579517371385878 0 0.0050165122739136321 -0.00054731224405918171 0 0.0050293302535331045 -0.00058425109793418316 0 0.0049358271192874526 -0.00051022144271036418 0 0.0048729215049285136 -0.0005579517371385878 0 0.0050165122739136321 -0.00054731224405918171 0 0.0047661556060618511 -0.00046481026155494048 0 0.0048729215049285136 -0.0005579517371385878 0 0.0046666887452427638 -0.00056234733249442613 0 0.0047661556060618511 -0.00046481026155494048 0 0.0046666887452427638 -0.00056234733249442613 0 0.0046045404252808963 -0.00044678688355202014 0 0.0046666887452427638 -0.00056234733249442613 0 0.0045316912169005583 -0.00051082485157043233 0 0.0046045404252808963 -0.00044678688355202014 0 0.0046666887452427638 -0.00056234733249442613 0 0.0045316912169005583 -0.00051082485157043233 0 0.0045438447445186715 -0.00060807697045892105 0 0.0045316912169005583 -0.00051082485157043233 0 0.00445460999334379 -0.00055800433875112054 0 0.0045438447445186715 -0.00060807697045892105 0 0.0043856737989468693 -0.00048160638518549253 0 0.0045316912169005583 -0.00051082485157043233 0 0.00445460999334379 -0.00055800433875112054 0 0.0045316912169005583 -0.00051082485157043233 0 0.0044785340554125584 -0.00043091523083823273 0 0.0046045404252808963 -0.00044678688355202014 0 0.0043856737989468693 -0.00048160638518549253 0 0.0045316912169005583 -0.00051082485157043233 0 0.0044785340554125584 -0.00043091523083823273 0 0.0043856737989468693 -0.00048160638518549253 0 0.0043818396155215003 -0.00040213560130111748 0 0.0044785340554125584 -0.00043091523083823273 0 0.0043818396155215003 -0.00040213560130111748 0 0.004451018019116227 -0.00036154512510033375 0 0.0044785340554125584 -0.00043091523083823273 0 0.0046453716592782367 -0.00038228343655332525 0 0.0047661556060618511 -0.00046481026155494048 0 0.0046045404252808963 -0.00044678688355202014 0 0.0046453716592782367 -0.00038228343655332525 0 0.0045438989897302485 -0.00036463613928551362 0 0.0046045404252808963 -0.00044678688355202014 0 0.0045438989897302485 -0.00036463613928551362 0 0.0044785340554125584 -0.00043091523083823273 0 0.0046045404252808963 -0.00044678688355202014 0 0.0052021873685152197 -0.00067273040436862741 0 0.0052464959912745688 -0.00077247269008281073 0 0.005239174864691316 -0.00062554719681478231 0 0.0051381480990871442 -0.00073312312773855565 0 0.0052021873685152197 -0.00067273040436862741 0 0.0052464959912745688 -0.00077247269008281073 0 0.0049734925922626655 -0.00087956378681554369 0 0.0050877717773860414 -0.00064963996454511514 0 0.0048445301344212906 -0.0010407760842354814 0 0.0049734925922626655 -0.00087956378681554369 0 0.0047412033684031693 -0.0011680187943079773 0 0.0047119699636965244 -0.00094355771524997408 0 0.0050080128621576249 -0.00091912883638160879 0 0.0049197244804734088 -0.0012528605291236678 0 0.0047412033684031693 -0.0011680187943079773 0 0.0050080128621576249 -0.00091912883638160879 0 0.0050080128621576249 -0.00091912883638160879 0 0.0049368474863294501 -0.00064853675898530864 0 0.00509301564537663 -0.00063448983857621554 0 0.0047119699636965244 -0.00094355771524997408 0 0.0050080128621576249 -0.00091912883638160879 0 0.0049368474863294501 -0.00064853675898530864 0 0.0050080128621576249 -0.00091912883638160879 0 0.0051639602544711425 -0.00071599530599520875 0 0.0052492638884669403 -0.00086712349380172154 0 0.0050080128621576249 -0.00091912883638160879 0 0.0051639602544711425 -0.00071599530599520875 0 0.00509301564537663 -0.00063448983857621554 0 0.0051639602544711425 -0.00071599530599520875 0 0.0051863390197194525 -0.00060841018320537197 0 0.00509301564537663 -0.00063448983857621554 0 0.0051639602544711425 -0.00071599530599520875 0 0.0052211532358894487 -0.00058546012100230398 0 0.0051863390197194525 -0.00060841018320537197 0 0.0051639602544711425 -0.00071599530599520875 0 0.0052492638884669403 -0.00086712349380172154 0 0.0052211532358894487 -0.00058546012100230398 0 0.0055184453996493877 -0.0011633350783826274 0 0.0051678414156374969 -0.001254449752414374 0 0.0052492638884669403 -0.00086712349380172154 0 0.0051678414156374969 -0.001254449752414374 0 0.0050080128621576249 -0.00091912883638160879 0 0.0052492638884669403 -0.00086712349380172154 0 0.0055184453996493877 -0.0011633350783826274 0 0.0052492638884669403 -0.00086712349380172154 0 0.0053335542937045103 -0.00063603096989471575 0 0.0039852003949850875 -0.0017483616868971073 0 0.0041945198513794807 -0.0010522621260619215 0 0.0052492638884669403 -0.00086712349380172154 0 0.0052211532358894487 -0.00058546012100230398 0 0.0053335542937045103 -0.00063603096989471575 0 0.0052211532358894487 -0.00058546012100230398 0 0.0051938702789819787 -0.00056173436493448664 0 0.0051863390197194525 -0.00060841018320537197 0 0.0052211532358894487 -0.00058546012100230398 0 0.0051938702789819787 -0.00056173436493448664 0 0.0052096667758113994 -0.00057006635326471689 0 0.0046402908109342634 -0.0010825536858037005 0 0.0041945198513794807 -0.0010522621260619215 0 0.0051938702789819787 -0.00056173436493448664 0 0.005169479879263892 -0.00057036717571730844 0 0.0051705823952749672 -0.00058297424374755046 0 0.0051770513747588032 -0.00055938109382195603 0 0.0051266171183256548 -0.0005546175523509075 0 0.0051938702789819787 -0.00056173436493448664 0 0.005129713367181361 -0.00053384684601572995 0 0.0050644256032232526 -0.00054332047369542698 0 0.0051938702789819787 -0.00056173436493448664 0 0.0052096667758113994 -0.00057006635326471689 0 0.005129713367181361 -0.00053384684601572995 0 0.0049047854398549624 -0.00041642837268782498 0 0.0051119156634311944 -0.00037145102710119213 0 0.005129713367181361 -0.00053384684601572995 0 0.0041945198513794807 -0.0010522621260619215 0 0.0047152413158030463 -0.0005048057552899264 0 0.0050165122739136321 -0.00054731224405918171 0 0.0050644256032232526 -0.00054332047369542698 0 0.0050293302535331045 -0.00058425109793418316 0 0.005129713367181361 -0.00053384684601572995 0 0.0050165122739136321 -0.00054731224405918171 0 0.0050644256032232526 -0.00054332047369542698 0 0.005169479879263892 -0.00057036717571730844 0 0.0051705823952749672 -0.00058297424374755046 0 0.0051725360633706995 -0.0005625976873145645 0 0.0051705823952749672 -0.00058297424374755046 0 0.00509301564537663 -0.00063448983857621554 0 0.0051725360633706995 -0.0005625976873145645 0 0.0051938702789819787 -0.00056173436493448664 0 0.0051705823952749672 -0.00058297424374755046 0 0.0051863390197194525 -0.00060841018320537197 0 0.0051705823952749672 -0.00058297424374755046 0 0.0051863390197194525 -0.00060841018320537197 0 0.00509301564537663 -0.00063448983857621554 0 0.0050877717773860414 -0.00064963996454511514 0 0.0051531704777253084 -0.00057804899062146578 0 0.005239174864691316 -0.00062554719681478231 0 0.0051725360633706995 -0.0005625976873145645 0 0.0052061359715858489 -0.00057275740997484706 0 0.0049368474863294501 -0.00064853675898530864 0 0.00509301564537663 -0.00063448983857621554 0 0.0051725360633706995 -0.0005625976873145645 0 0.0051725360633706995 -0.0005625976873145645 0 0.0052061359715858489 -0.00057275740997484706 0 0.0052026214478941872 -0.00057831704396535714 0 0.005169479879263892 -0.00057036717571730844 0 0.0051725360633706995 -0.0005625976873145645 0 0.0052026214478941872 -0.00057831704396535714 0 0.0051798133995733398 -0.00059052213242524135 0 0.0052061359715858489 -0.00057275740997484706 0 0.0052254048484133356 -0.00057316919618381941 0 0.0051798133995733398 -0.00059052213242524135 0 0.005239174864691316 -0.00062554719681478231 0 0.0052061359715858489 -0.00057275740997484706 0 0.0051798133995733398 -0.00059052213242524135 0 0.0052021873685152197 -0.00067273040436862741 0 0.005239174864691316 -0.00062554719681478231 0 0.0052326990674794963 -0.00059464614791475846 0 0.0052254048484133356 -0.00057316919618381941 0 0.0052891202264767727 -0.00063149449217895603 0 0.0052740239217016023 -0.00067451154595029336 0 0.0052988408085106187 -0.00073213497422205585 0 0.0052891202264767727 -0.00063149449217895603 0 0.0052613220807869732 -0.00065625967890323286 0 0.005284243173263369 -0.0006369964570122216 0 0.0052326990674794963 -0.00059464614791475846 0 0.0052289121618326953 -0.00061422605081325806 0 0.0052891202264767727 -0.00063149449217895603 0 0.0052061359715858489 -0.00057275740997484706 0 0.0052254048484133356 -0.00057316919618381941 0 0.0052026214478941872 -0.00057831704396535714 0 0.0052326990674794963 -0.00059464614791475846 0 0.0052254048484133356 -0.00057316919618381941 0 0.0052026214478941872 -0.00057831704396535714 0 0.0052326990674794963 -0.00059464614791475846 0 0.0052026214478941872 -0.00057831704396535714 0 0.005187081283975381 -0.00059196222774855322 0 0.0052289121618326953 -0.00061422605081325806 0 0.005187081283975381 -0.00059196222774855322 0 0.0052114594620952691 -0.00063848351446480368 0 0.0052326990674794963 -0.00059464614791475846 0 0.0052289121618326953 -0.00061422605081325806 0 0.005187081283975381 -0.00059196222774855322 0 0.0051595217372264633 -0.00060402466845764697 0 0.0052051657487939369 -0.00064133446106863121 0 0.0051281783271172046 -0.00061213223994711766 0 0.0050942747662855604 -0.00063953162269978999 0 0.0052114594620952691 -0.00063848351446480368 0 0.0050644256032232526 -0.00054332047369542698 0 0.0051281783271172046 -0.00061213223994711766 0 0.0050293302535331045 -0.00058425109793418316 0 0.0051266171183256548 -0.0005546175523509075 0 0.0051595217372264633 -0.00060402466845764697 0 0.005169479879263892 -0.00057036717571730844 0 0.0052026214478941872 -0.00057831704396535714 0 0.005187081283975381 -0.00059196222774855322 0 0.0051281783271172046 -0.00061213223994711766 0 0.0050293302535331045 -0.00058425109793418316 0 0.0050160531186959033 -0.00064592625349214124 0 0.0051281783271172046 -0.00061213223994711766 0 0.0050160531186959033 -0.00064592625349214124 0 0.0050942747662855604 -0.00063953162269978999 0 0.0050160531186959033 -0.00064592625349214124 0 0.0050942747662855604 -0.00063953162269978999 0 0.005120541746074906 -0.00062705135108239937 0 0.0050942747662855604 -0.00063953162269978999 0 0.0051460640272683799 -0.00063951310367941041 0 0.005120541746074906 -0.00062705135108239937 0 0.0051460640272683799 -0.00063951310367941041 0 0.005120541746074906 -0.00062705135108239937 0 0.005167436083145985 -0.00062649163097131693 0 0.0051581645809730577 -0.00063966903815135517 0 0.0052418775702250753 -0.00067983203886465672 0 0.0051460640272683799 -0.00063951310367941041 0 0.0052114594620952691 -0.00063848351446480368 0 0.0052391131798874063 -0.00072463287806657812 0 0.0051460640272683799 -0.00063951310367941041 0 0.0052471781321849729 -0.00063075555949573489 0 0.005167436083145985 -0.00062649163097131693 0 0.0050942747662855604 -0.00063953162269978999 0 0.0051460640272683799 -0.00063951310367941041 0 0.0052114594620952691 -0.00063848351446480368 0 0.0052114594620952691 -0.00063848351446480368 0 0.005280673079332561 -0.000676373561115243 0 0.0052891202264767727 -0.00063149449217895603 0 0.0052289121618326953 -0.00061422605081325806 0 0.0052114594620952691 -0.00063848351446480368 0 0.0052891202264767727 -0.00063149449217895603 0 0.0052114594620952691 -0.00063848351446480368 0 0.005280673079332561 -0.000676373561115243 0 0.0052391131798874063 -0.00072463287806657812 0 0.0053437188307739747 -0.00064728924448894201 0 0.005280673079332561 -0.000676373561115243 0 0.0053336406429765311 -0.00073171036761022492 0 0.0053437188307739747 -0.00064728924448894201 0 0.005280673079332561 -0.000676373561115243 0 0.0052891202264767727 -0.00063149449217895603 0 0.0046493405453589846 -0.00068332724569471627 0 0.0044906461621782639 -0.0006748156889080627 0 0.0045438447445186715 -0.00060807697045892105 0 0.0046493405453589846 -0.00068332724569471627 0 0.0044906461621782639 -0.0006748156889080627 0 0.0045555404701895915 -0.00074376422188979511 0 0.0043988403770275127 -0.00061407491346961596 0 0.00445460999334379 -0.00055800433875112054 0 0.0045438447445186715 -0.00060807697045892105 0 0.0043988403770275127 -0.00061407491346961596 0 0.0044906461621782639 -0.0006748156889080627 0 0.0045438447445186715 -0.00060807697045892105 0 0.0046666887452427638 -0.00056234733249442613 0 0.0046493405453589846 -0.00068332724569471627 0 0.0045438447445186715 -0.00060807697045892105 0 0.0048729215049285136 -0.0005579517371385878 0 0.0046666887452427638 -0.00056234733249442613 0 0.0048385549492116096 -0.00062373984362972359 0 0.0046666887452427638 -0.00056234733249442613 0 0.0046493405453589846 -0.00068332724569471627 0 0.0048385549492116096 -0.00062373984362972359 0 0.0050293302535331045 -0.00058425109793418316 0 0.0050160531186959033 -0.00064592625349214124 0 0.0048385549492116096 -0.00062373984362972359 0 0.0048729215049285136 -0.0005579517371385878 0 0.0050293302535331045 -0.00058425109793418316 0 0.0048385549492116096 -0.00062373984362972359 0 0.0050160531186959033 -0.00064592625349214124 0 0.0048385549492116096 -0.00062373984362972359 0 0.0047844523209757111 -0.00072251883456183545 0 0.0046493405453589846 -0.00068332724569471627 0 0.0048385549492116096 -0.00062373984362972359 0 0.0047844523209757111 -0.00072251883456183545 0 0.0046493405453589846 -0.00068332724569471627 0 0.0047844523209757111 -0.00072251883456183545 0 0.004659670256432733 -0.00080522235675661922 0 0.0047844523209757111 -0.00072251883456183545 0 0.0048173598997916746 -0.00081433664973641054 0 0.004659670256432733 -0.00080522235675661922 0 0.0050159742073060381 -0.00063889547260753481 0 0.0049699679496718503 -0.00071244747035039573 0 0.0050160531186959033 -0.00064592625349214124 0 0.0047844523209757111 -0.00072251883456183545 0 0.0048173598997916746 -0.00081433664973641054 0 0.0049699679496718503 -0.00071244747035039573 0 0.0049081818813101908 -0.0007520088317091373 0 0.005120541746074906 -0.00062705135108239937 0 0.0051058528039114072 -0.00061482253570849742 0 0.005167436083145985 -0.00062649163097131693 0 0.0048173598997916746 -0.00081433664973641054 0 0.004659670256432733 -0.00080522235675661922 0 0.0047102011139984841 -0.00088885277415340456 0 0.004659670256432733 -0.00080522235675661922 0 0.0045144200603026456 -0.00082394883436390221 0 0.0045969499765513185 -0.00087943187768906581 0 0.004659670256432733 -0.00080522235675661922 0 0.0045555404701895915 -0.00074376422188979511 0 0.0045144200603026456 -0.00082394883436390221 0 0.0046493405453589846 -0.00068332724569471627 0 0.004659670256432733 -0.00080522235675661922 0 0.0045555404701895915 -0.00074376422188979511 0 0.004437385960728432 -0.00073698415604910429 0 0.0045555404701895915 -0.00074376422188979511 0 0.0045144200603026456 -0.00082394883436390221 0 0.004437385960728432 -0.00073698415604910429 0 0.0044906461621782639 -0.0006748156889080627 0 0.0045555404701895915 -0.00074376422188979511 0 0.0045969499765513185 -0.00087943187768906581 0 0.0045552096531072429 -0.00092173338504837339 0 0.0044456830917415863 -0.00082915160471370758 0 0.0045144200603026456 -0.00082394883436390221 0 0.0045969499765513185 -0.00087943187768906581 0 0.0044456830917415863 -0.00082915160471370758 0 0.0045969499765513185 -0.00087943187768906581 0 0.0046730691689156117 -0.0009497647473098585 0 0.0045552096531072429 -0.00092173338504837339 0 0.0051058528039114072 -0.00061482253570849742 0 0.0051689299229108112 -0.00072260001591794741 0 0.0052227925655385947 -0.00067370176072081454 0 0.004659670256432733 -0.00080522235675661922 0 0.0045969499765513185 -0.00087943187768906581 0 0.0047102011139984841 -0.00088885277415340456 0 0.0051058528039114072 -0.00061482253570849742 0 0.00499824495848701 -0.00068465023460769457 0 0.0051689299229108112 -0.00072260001591794741 0 0.0045969499765513185 -0.00087943187768906581 0 0.0047102011139984841 -0.00088885277415340456 0 0.0046730691689156117 -0.0009497647473098585 0 0.0049081818813101908 -0.0007520088317091373 0 0.0048323177643452737 -0.00082874393065336378 0 0.00499824495848701 -0.00068465023460769457 0 0.0051689299229108112 -0.00072260001591794741 0 0.0050174031184236469 -0.00085270221810389648 0 0.0051689299229108112 -0.00072260001591794741 0 0.0050174031184236469 -0.00085270221810389648 0 0.0052605719723599299 -0.00081462245659058878 0 0.00499824495848701 -0.00068465023460769457 0 0.0050174031184236469 -0.00085270221810389648 0 0.0047333209152759098 -0.0010180827776628302 0 0.0048323177643452737 -0.00082874393065336378 0 0.0047377343271902371 -0.0010181913857199077 0 0.0046730691689156117 -0.0009497647473098585 0 0.0046056789219755066 -0.0009825297380759079 0 0.0047333209152759098 -0.0010180827776628302 0 0.0046056789219755066 -0.0009825297380759079 0 0.0045652897358138831 -0.0010900019084107075 0 0.004484071361110442 -0.0010526669144763163 0 0.0046056789219755066 -0.0009825297380759079 0 0.004484071361110442 -0.0010526669144763163 0 0.004441556437777403 -0.00096358552905783138 0 0.0046056789219755066 -0.0009825297380759079 0 0.0045652897358138831 -0.0010900019084107075 0 0.0047333209152759098 -0.0010180827776628302 0 0.0046056789219755066 -0.0009825297380759079 0 0.0045552096531072429 -0.00092173338504837339 0 0.004441556437777403 -0.00096358552905783138 0 0.0046730691689156117 -0.0009497647473098585 0 0.0046056789219755066 -0.0009825297380759079 0 0.0045552096531072429 -0.00092173338504837339 0 0.0053998389141955063 -0.00078644927320016328 0 0.0053336406429765311 -0.00073171036761022492 0 0.0053549672909672308 -0.00080894226198597729 0 0.0053998389141955063 -0.00078644927320016328 0 0.0053941502858331838 -0.00071880907920567419 0 0.0053336406429765311 -0.00073171036761022492 0 0.005280673079332561 -0.000676373561115243 0 0.0053336406429765311 -0.00073171036761022492 0 0.0052391131798874063 -0.00072463287806657812 0 0.0052418775702250753 -0.00067983203886465672 0 0.0053520638328220247 -0.00074992668825849147 0 0.0053336406429765311 -0.00073171036761022492 0 0.0052391131798874063 -0.00072463287806657812 0 0.0053549672909672308 -0.00080894226198597729 0 0.0052471781321849729 -0.00063075555949573489 0 0.0052227925655385947 -0.00067370176072081454 0 0.0053490766524645272 -0.00069596161846928115 0 0.0052471781321849729 -0.00063075555949573489 0 0.005167436083145985 -0.00062649163097131693 0 0.0052227925655385947 -0.00067370176072081454 0 0.0051058528039114072 -0.00061482253570849742 0 0.005167436083145985 -0.00062649163097131693 0 0.0052227925655385947 -0.00067370176072081454 0 0.0052227925655385947 -0.00067370176072081454 0 0.0053055738978748093 -0.00074918114272742387 0 0.0053490766524645272 -0.00069596161846928115 0 0.0051689299229108112 -0.00072260001591794741 0 0.0052227925655385947 -0.00067370176072081454 0 0.0053055738978748093 -0.00074918114272742387 0 0.0051689299229108112 -0.00072260001591794741 0 0.0053055738978748093 -0.00074918114272742387 0 0.0052605719723599299 -0.00081462245659058878 0 0.0053490766524645272 -0.00069596161846928115 0 0.005427358253192279 -0.00077090718849745987 0 0.0053834135510439215 -0.00075942401880003062 0 0.0053055738978748093 -0.00074918114272742387 0 0.0053490766524645272 -0.00069596161846928115 0 0.0053834135510439215 -0.00075942401880003062 0 0.0053520638328220247 -0.00074992668825849147 0 0.0054177101488975393 -0.00077152611779679123 0 0.0054296954329694823 -0.00080869637818301618 0 0.0053549672909672308 -0.00080894226198597729 0 0.005427358253192279 -0.00077090718849745987 0 0.0053998389141955063 -0.00078644927320016328 0 0.0054296954329694823 -0.00080869637818301618 0 0.0053549672909672308 -0.00080894226198597729 0 0.0054480955195400195 -0.00074905805531144134 0 0.0054411481071101149 -0.00068564620651705252 0 0.0054166694487398472 -0.00070949661929562118 0 0.0054480955195400195 -0.00074905805531144134 0 0.0054166694487398472 -0.00070949661929562118 0 0.0053834135510439215 -0.00075942401880003062 0 0.0054480955195400195 -0.00074905805531144134 0 0.005427358253192279 -0.00077090718849745987 0 0.0053834135510439215 -0.00075942401880003062 0 0.0053834135510439215 -0.00075942401880003062 0 0.005378033087664629 -0.00073161457440646164 0 0.0053453103432499786 -0.00075585270425593991 0 0.0054166694487398472 -0.00070949661929562118 0 0.005378033087664629 -0.00073161457440646164 0 0.0054004155481143746 -0.00068844364943221141 0 0.0054166694487398472 -0.00070949661929562118 0 0.0053834135510439215 -0.00075942401880003062 0 0.005378033087664629 -0.00073161457440646164 0 0.005378033087664629 -0.00073161457440646164 0 0.0053834142490275187 -0.00070722364912319648 0 0.0054004155481143746 -0.00068844364943221141 0 0.005378033087664629 -0.00073161457440646164 0 0.0053834142490275187 -0.00070722364912319648 0 0.0053723992746898402 -0.00071048543117999878 0 0.005378033087664629 -0.00073161457440646164 0 0.0053723992746898402 -0.00071048543117999878 0 0.0053454736182550157 -0.00073806096216998682 0 0.005378033087664629 -0.00073161457440646164 0 0.0053454736182550157 -0.00073806096216998682 0 0.0053453103432499786 -0.00075585270425593991 0 0.0053723992746898402 -0.00071048543117999878 0 0.0053611168287411816 -0.00071732339883682019 0 0.0053454736182550157 -0.00073806096216998682 0 0.0053611168287411816 -0.00071732339883682019 0 0.0053454736182550157 -0.00073806096216998682 0 0.005347009405229689 -0.00072336569364762492 0 0.0053055738978748093 -0.00074918114272742387 0 0.0053834135510439215 -0.00075942401880003062 0 0.0053453103432499786 -0.00075585270425593991 0 0.0053055738978748093 -0.00074918114272742387 0 0.0053453103432499786 -0.00075585270425593991 0 0.0053076547181980975 -0.00076931636020356904 0 0.0053454736182550157 -0.00073806096216998682 0 0.0053453103432499786 -0.00075585270425593991 0 0.0053076547181980975 -0.00076931636020356904 0 0.0053055738978748093 -0.00074918114272742387 0 0.0052605719723599299 -0.00081462245659058878 0 0.0053076547181980975 -0.00076931636020356904 0 0.0052605719723599299 -0.00081462245659058878 0 0.0053138395483889964 -0.00074507375848845928 0 0.0053019297657867174 -0.00074297899334425628 0 0.0052605719723599299 -0.00081462245659058878 0 0.0053076547181980975 -0.00076931636020356904 0 0.0053138395483889964 -0.00074507375848845928 0 0.0053454736182550157 -0.00073806096216998682 0 0.0053076547181980975 -0.00076931636020356904 0 0.0053138395483889964 -0.00074507375848845928 0 0.0053138395483889964 -0.00074507375848845928 0 0.005347009405229689 -0.00072336569364762492 0 0.0053298720164058587 -0.00073045291650192636 0 0.0053454736182550157 -0.00073806096216998682 0 0.0053138395483889964 -0.00074507375848845928 0 0.005347009405229689 -0.00072336569364762492 0 0.0053138395483889964 -0.00074507375848845928 0 0.0053298720164058587 -0.00073045291650192636 0 0.0053170151586146063 -0.00073653165104615905 0 0.0053298720164058587 -0.00073045291650192636 0 0.0053279521255493309 -0.00073157052992437854 0 0.0053170151586146063 -0.00073653165104615905 0 0.0050639378174540508 0.00043224880678212807 0 0.004921621916798272 0.00062199441245803665 0 0.0049663886453070738 0.0019286215470412237 0 0.0048111475578498739 0.0018207273046931139 0 0.0044950107402368491 0.0019883376297610568 0 0.0053279521255493309 -0.00073157052992437854 0 0.0053602279174230346 -0.00071537171541120859 0 0.0052995397793665511 -0.00075108463185021522 0 0.0053298720164058587 -0.00073045291650192636 0 0.0053279521255493309 -0.00073157052992437854 0 0.0053448605900169961 -0.00072123127991118561 0 0.005347009405229689 -0.00072336569364762492 0 0.0053559731462672873 -0.00071382507465614625 0 0.0053448605900169961 -0.00072123127991118561 0 0.0053279521255493309 -0.00073157052992437854 0 0.0053448605900169961 -0.00072123127991118561 0 0.0053602279174230346 -0.00071537171541120859 0 0.005347009405229689 -0.00072336569364762492 0 0.0053298720164058587 -0.00073045291650192636 0 0.0053448605900169961 -0.00072123127991118561 0 0.005347009405229689 -0.00072336569364762492 0 0.0053559731462672873 -0.00071382507465614625 0 0.0053661226213271782 -0.00070902979255572831 0 0.0053559731462672873 -0.00071382507465614625 0 0.0053699038498203388 -0.0007065869145446099 0 0.0053661226213271782 -0.00070902979255572831 0 0.0053559731462672873 -0.00071382507465614625 0 0.0053448605900169961 -0.00072123127991118561 0 0.0053602279174230346 -0.00071537171541120859 0 0.0053559731462672873 -0.00071382507465614625 0 0.0053699038498203388 -0.0007065869145446099 0 0.0053602279174230346 -0.00071537171541120859 0 0.0050513429559355637 0.00025763737426299111 0 0.0050639378174540508 0.00043224880678212807 0 0.0049663886453070738 0.0019286215470412237 0 0.0048111475578498739 0.0018207273046931139 0 0.0049211107376145348 0.0015615831484650153 0 0.0054306770542830608 -0.00067190223137191972 0 0.0054192693486007724 -0.00061763926937168209 0 0.0054441961346496206 -0.00051189472091114322 0 0.0050639378174540508 0.00043224880678212807 0 0.0052052436215911267 0.00056597596237470003 0 0.0048111475578498739 0.0018207273046931139 0 0.0047961037159900055 0.0016839857167839137 0 0.0049211107376145348 0.0015615831484650153 0 0.0054192693486007724 -0.00061763926937168209 0 0.0054150923893674426 -0.00056500646453693101 0 0.0054441961346496206 -0.00051189472091114322 0 0.0048111475578498739 0.0018207273046931139 0 0.0047961037159900055 0.0016839857167839137 0 0.0046920516075534538 0.0017433839744123859 0 0.0054192693486007724 -0.00061763926937168209 0 0.0053927114591740188 -0.00064734503702456128 0 0.0054099407030722864 -0.00064982825428469343 0 0.005395693787611104 -0.00061346065111746693 0 0.0054192693486007724 -0.00061763926937168209 0 0.0053927114591740188 -0.00064734503702456128 0 0.005395693787611104 -0.00061346065111746693 0 0.0054192693486007724 -0.00061763926937168209 0 0.0054074148370914258 -0.00059328629763903326 0 0.0054150923893674426 -0.00056500646453693101 0 0.0053834165194608175 -0.00056676737153771306 0 0.0053834586008863579 -0.00051880884804903415 0 0.005395693787611104 -0.00061346065111746693 0 0.0054074148370914258 -0.00059328629763903326 0 0.0053834165194608175 -0.00056676737153771306 0 0.0054150923893674426 -0.00056500646453693101 0 0.0054074148370914258 -0.00059328629763903326 0 0.0053834165194608175 -0.00056676737153771306 0 0.0054192693486007724 -0.00061763926937168209 0 0.0054150923893674426 -0.00056500646453693101 0 0.0054074148370914258 -0.00059328629763903326 0 0.005395693787611104 -0.00061346065111746693 0 0.0053834165194608175 -0.00056676737153771306 0 0.0053861513708223846 -0.00063678967094738523 0 0.005395693787611104 -0.00061346065111746693 0 0.0053861513708223846 -0.00063678967094738523 0 0.0053927114591740188 -0.00064734503702456128 0 0.0053834165194608175 -0.00056676737153771306 0 0.0053861513708223846 -0.00063678967094738523 0 0.0053933686353929127 -0.00061576007267870163 0 0.0053861513708223846 -0.00063678967094738523 0 0.0053837839564813599 -0.00066920592322132423 0 0.0053927114591740188 -0.00064734503702456128 0 0.0053861513708223846 -0.00063678967094738523 0 0.0053837839564813599 -0.00066920592322132423 0 0.0053865997618075968 -0.00068158588219413931 0 0.0053927114591740188 -0.00064734503702456128 0 0.005392650329988034 -0.00067686596116127776 0 0.0053844972199377237 -0.00068024205759582661 0 0.0053837839564813599 -0.00066920592322132423 0 0.0053927114591740188 -0.00064734503702456128 0 0.0053844972199377237 -0.00068024205759582661 0 0.0054306770542830608 -0.00067190223137191972 0 0.0054192693486007724 -0.00061763926937168209 0 0.0054099407030722864 -0.00064982825428469343 0 0.0053927114591740188 -0.00064734503702456128 0 0.0054099407030722864 -0.00064982825428469343 0 0.005392650329988034 -0.00067686596116127776 0 0.0050639378174540508 0.00043224880678212807 0 0.0052658755021951749 0.00024399816263646136 0 0.0054306770542830608 -0.00067190223137191972 0 0.0054099407030722864 -0.00064982825428469343 0 0.005392650329988034 -0.00067686596116127776 0 0.0053699038498203388 -0.0007065869145446099 0 0.005392650329988034 -0.00067686596116127776 0 0.0053793236181064047 -0.00069640255972667586 0 0.0053699038498203388 -0.0007065869145446099 0 0.0053756003162895557 -0.00069797240138176001 0 0.005392650329988034 -0.00067686596116127776 0 0.0053837839564813599 -0.00066920592322132423 0 0.0053844972199377237 -0.00068024205759582661 0 0.0053763782965625248 -0.00069946805961034614 0 0.005392650329988034 -0.00067686596116127776 0 0.0053793236181064047 -0.00069640255972667586 0 0.0053844972199377237 -0.00068024205759582661 0 0.0053793236181064047 -0.00069640255972667586 0 0.0053844972199377237 -0.00068024205759582661 0 0.0053763782965625248 -0.00069946805961034614 0 0.0053793236181064047 -0.00069640255972667586 0 0.0053763782965625248 -0.00069946805961034614 0 0.0053661226213271782 -0.00070902979255572831 0 0.0053699038498203388 -0.0007065869145446099 0 0.0053793236181064047 -0.00069640255972667586 0 0.0053661226213271782 -0.00070902979255572831 0 0.0053611168287411816 -0.00071732339883682019 0 0.005347009405229689 -0.00072336569364762492 0 0.0053661226213271782 -0.00070902979255572831 0 0.0053611168287411816 -0.00071732339883682019 0 0.0053763782965625248 -0.00069946805961034614 0 0.0053661226213271782 -0.00070902979255572831 0 0.0053723992746898402 -0.00071048543117999878 0 0.0053611168287411816 -0.00071732339883682019 0 0.0053763782965625248 -0.00069946805961034614 0 0.0053723992746898402 -0.00071048543117999878 0 0.0053763782965625248 -0.00069946805961034614 0 0.0053795123768378954 -0.00069098880980339472 0 0.0053723992746898402 -0.00071048543117999878 0 0.0053795123768378954 -0.00069098880980339472 0 0.0053865997618075968 -0.00068158588219413931 0 0.0053837839564813599 -0.00066920592322132423 0 0.0053795123768378954 -0.00069098880980339472 0 0.0053865997618075968 -0.00068158588219413931 0 0.0053837839564813599 -0.00066920592322132423 0 0.0053763782965625248 -0.00069946805961034614 0 0.0053795123768378954 -0.00069098880980339472 0 0.0053834142490275187 -0.00070722364912319648 0 0.0053865997618075968 -0.00068158588219413931 0 0.0054004155481143746 -0.00068844364943221141 0 0.0053834142490275187 -0.00070722364912319648 0 0.0053723992746898402 -0.00071048543117999878 0 0.0053865997618075968 -0.00068158588219413931 0 0.0053865997618075968 -0.00068158588219413931 0 0.0054004155481143746 -0.00068844364943221141 0 0.005398858201617225 -0.00064664476449994939 0 0.0054004155481143746 -0.00068844364943221141 0 0.005398858201617225 -0.00064664476449994939 0 0.0054200465944454533 -0.00065871697598001973 0 0.0053861513708223846 -0.00063678967094738523 0 0.0053865997618075968 -0.00068158588219413931 0 0.005398858201617225 -0.00064664476449994939 0 0.0053861513708223846 -0.00063678967094738523 0 0.005398858201617225 -0.00064664476449994939 0 0.0053933686353929127 -0.00061576007267870163 0 0.0053834165194608175 -0.00056676737153771306 0 0.0053933686353929127 -0.00061576007267870163 0 0.0053971698849834375 -0.00058168377081270646 0 0.005398858201617225 -0.00064664476449994939 0 0.0053933686353929127 -0.00061576007267870163 0 0.0054177974291773779 -0.00060935255143327227 0 0.0053933686353929127 -0.00061576007267870163 0 0.0053971698849834375 -0.00058168377081270646 0 0.0054177974291773779 -0.00060935255143327227 0 0.0054548882760186721 -0.00057156077565147982 0 0.0054177974291773779 -0.00060935255143327227 0 0.0054162573361521754 -0.00056471621006059494 0 0.005445371401673259 -0.00063003449338722769 0 0.0054548882760186721 -0.00057156077565147982 0 0.0054177974291773779 -0.00060935255143327227 0 0.0053971698849834375 -0.00058168377081270646 0 0.0054177974291773779 -0.00060935255143327227 0 0.0054162573361521754 -0.00056471621006059494 0 0.005445371401673259 -0.00063003449338722769 0 0.0054177974291773779 -0.00060935255143327227 0 0.0054200465944454533 -0.00065871697598001973 0 0.005398858201617225 -0.00064664476449994939 0 0.0054177974291773779 -0.00060935255143327227 0 0.0054200465944454533 -0.00065871697598001973 0 0.0054166694487398472 -0.00070949661929562118 0 0.0054004155481143746 -0.00068844364943221141 0 0.0054200465944454533 -0.00065871697598001973 0 0.0054411481071101149 -0.00068564620651705252 0 0.0054166694487398472 -0.00070949661929562118 0 0.0054200465944454533 -0.00065871697598001973 0 0.0054411481071101149 -0.00068564620651705252 0 0.005445371401673259 -0.00063003449338722769 0 0.0054200465944454533 -0.00065871697598001973 0 0.0052137756870929463 -0.00070976455822654365 0 0.0052587352228468161 -0.0007351421890427715 0 0.0052999955092598661 -0.00073607523830179192 0 0.0052137756870929463 -0.00070976455822654365 0 0.0052587352228468161 -0.0007351421890427715 0 0.0052356641500580295 -0.00076285952397704573 0 0.0052587352228468161 -0.0007351421890427715 0 0.0052778604759422315 -0.00074308754339586175 0 0.0052356641500580295 -0.00076285952397704573 0 0.0049449957389069684 -0.001033948267987394 0 0.0045435464738744873 -0.00029358341090584476 0 0.0046323527060075911 -0.0012067431780283489 0 0.0045031158762134553 -0.0011801850868659268 0 0.004437153935705534 -0.0012616175852198492 0 0.0052137756870929463 -0.00070976455822654365 0 0.0052356641500580295 -0.00076285952397704573 0 0.0050887705842026162 -0.0007366699302921799 0 0.0047507670058290988 0.00070916545688163863 0 0.0045435464738744873 -0.00029358341090584476 0 0.0042633855364278489 0.0019375955555299312 0 0.0041681775863346817 0.0018814588932264929 0 0.0041484911641368367 0.0019073360620933046 0 0.0046323527060075911 -0.0012067431780283489 0 0.0045031158762134553 -0.0011801850868659268 0 0.0045652897358138831 -0.0010900019084107075 0 0.0045031158762134553 -0.0011801850868659268 0 0.0045652897358138831 -0.0010900019084107075 0 0.0044561009432190317 -0.0011353608596665888 0 0.0046323527060075911 -0.0012067431780283489 0 0.0045652897358138831 -0.0010900019084107075 0 0.0047333209152759098 -0.0010180827776628302 0 0.0049449957389069684 -0.001033948267987394 0 0.0051208668095870232 -0.00089662423415613941 0 0.0046323527060075911 -0.0012067431780283489 0 0.0047333209152759098 -0.0010180827776628302 0 0.0049647888022531002 -0.0010839471460742634 0 0.0050174031184236469 -0.00085270221810389648 0 0.0047333209152759098 -0.0010180827776628302 0 0.0049647888022531002 -0.0010839471460742634 0 0.0050174031184236469 -0.00085270221810389648 0 0.0052605719723599299 -0.00081462245659058878 0 0.0049647888022531002 -0.0010839471460742634 0 0.0052441540477676596 -0.00083391779722906715 0 0.0051208668095870232 -0.00089662423415613941 0 0.0052605719723599299 -0.00081462245659058878 0 0.0052999955092598661 -0.00073607523830179192 0 0.0053019297657867174 -0.00074297899334425628 0 0.0052999955092598661 -0.00073607523830179192 0 0.0053019297657867174 -0.00074297899334425628 0 0.005296932470836885 -0.00074116717012241977 0 0.0053138395483889964 -0.00074507375848845928 0 0.0053019297657867174 -0.00074297899334425628 0 0.0053170151586146063 -0.00073653165104615905 0 0.0053019297657867174 -0.00074297899334425628 0 0.005296932470836885 -0.00074116717012241977 0 0.0053092606901203815 -0.00073890959817193933 0 0.005296932470836885 -0.00074116717012241977 0 0.0053092606901203815 -0.00073890959817193933 0 0.0052995397793665511 -0.00075108463185021522 0 0.0053019297657867174 -0.00074297899334425628 0 0.0053092606901203815 -0.00073890959817193933 0 0.0053170151586146063 -0.00073653165104615905 0 0.0053279521255493309 -0.00073157052992437854 0 0.0053092606901203815 -0.00073890959817193933 0 0.0053170151586146063 -0.00073653165104615905 0 0.0052587352228468161 -0.0007351421890427715 0 0.0052999955092598661 -0.00073607523830179192 0 0.0052778604759422315 -0.00074308754339586175 0 0.0052778604759422315 -0.00074308754339586175 0 0.0052995397793665511 -0.00075108463185021522 0 0.0052356641500580295 -0.00076285952397704573 0 0.0052999955092598661 -0.00073607523830179192 0 0.005296932470836885 -0.00074116717012241977 0 0.0052778604759422315 -0.00074308754339586175 0 0.005296932470836885 -0.00074116717012241977 0 0.0052778604759422315 -0.00074308754339586175 0 0.0052995397793665511 -0.00075108463185021522 0 0.004921621916798272 0.00062199441245803665 0 0.0047507670058290988 0.00070916545688163863 0 0.0044057117292983124 0.0018828974558300876 0 0.0044950107402368491 0.0019883376297610568 0 0.0042633855364278489 0.0019375955555299312 0 0.0048111475578498739 0.0018207273046931139 0 0.0044950107402368491 0.0019883376297610568 0 0.0045794078377784731 0.001832453365132831 0 0.0053279521255493309 -0.00073157052992437854 0 0.0053092606901203815 -0.00073890959817193933 0 0.0052995397793665511 -0.00075108463185021522 0 0.0044057117292983124 0.0018828974558300876 0 0.0044950107402368491 0.0019883376297610568 0 0.0045794078377784731 0.001832453365132831 0 0.0048111475578498739 0.0018207273046931139 0 0.0045794078377784731 0.001832453365132831 0 0.0046920516075534538 0.0017433839744123859 0 0.0045794078377784731 0.001832453365132831 0 0.0045076071320853542 0.0017131979703017433 0 0.0046920516075534538 0.0017433839744123859 0 0.0044057117292983124 0.0018828974558300876 0 0.0045794078377784731 0.001832453365132831 0 0.0045076071320853542 0.0017131979703017433 0 0.0045076071320853542 0.0017131979703017433 0 0.0046920516075534538 0.0017433839744123859 0 0.0047139023386394332 0.0015972894357021189 0 0.0047961037159900055 0.0016839857167839137 0 0.0046920516075534538 0.0017433839744123859 0 0.0047139023386394332 0.0015972894357021189 0 0.0044057117292983124 0.0018828974558300876 0 0.0042921942890167923 0.0017168400343816777 0 0.004129791120256329 0.0017998244427160097 0 0.0044057117292983124 0.0018828974558300876 0 0.0045076071320853542 0.0017131979703017433 0 0.0042921942890167923 0.0017168400343816777 0 0.0045076071320853542 0.0017131979703017433 0 0.0042921942890167923 0.0017168400343816777 0 0.0043269452126521646 0.001572837174442695 0 0.0042921942890167923 0.0017168400343816777 0 0.0041074382743196717 0.0015776578200125723 0 0.0043269452126521646 0.001572837174442695 0 0.0042921942890167923 0.0017168400343816777 0 0.004129791120256329 0.0017998244427160097 0 0.0041074382743196717 0.0015776578200125723 0 0.0039108745984008965 0.0017424048317557148 0 0.004129791120256329 0.0017998244427160097 0 0.0041074382743196717 0.0015776578200125723 0 0.0039108745984008965 0.0017424048317557148 0 0.004129791120256329 0.0017998244427160097 0 0.0039681139862044225 0.0019967686199572612 0 0.0044057117292983124 0.0018828974558300876 0 0.0042615276080683936 0.0018864469344755522 0 0.0042633855364278489 0.0019375955555299312 0 0.0044057117292983124 0.0018828974558300876 0 0.004129791120256329 0.0017998244427160097 0 0.0039681139862044225 0.0019967686199572612 0 0.0043705793969454464 0.001890423661139079 0 0.0041429223437488942 0.0019247987959399092 0 0.0039681139862044225 0.0019967686199572612 0 0.0037192065351854156 0.0018733604255471471 0 0.0035498947880594116 0.0020859608334387741 0 0.0041429223437488942 0.0019247987959399092 0 0.0037631179709778327 0.0021244735446932159 0 0.0042615276080683936 0.0018864469344755522 0 0.0042633855364278489 0.0019375955555299312 0 0.0041681775863346817 0.0018814588932264929 0 0.0037192065351854156 0.0018733604255471471 0 0.0034886984776570386 0.0018372717882595574 0 0.0035498947880594116 0.0020859608334387741 0 0.0037192065351854156 0.0018733604255471471 0 0.0036665388547510555 0.00165724393962657 0 0.0034886984776570386 0.0018372717882595574 0 0.0039108745984008965 0.0017424048317557148 0 0.0037192065351854156 0.0018733604255471471 0 0.0036665388547510555 0.00165724393962657 0 0.0039108745984008965 0.0017424048317557148 0 0.0039681139862044225 0.0019967686199572612 0 0.0037192065351854156 0.0018733604255471471 0 0.0039108745984008965 0.0017424048317557148 0 0.0036665388547510555 0.00165724393962657 0 0.0038530456295561579 0.0015050230364546046 0 0.0036665388547510555 0.00165724393962657 0 0.0034886984776570386 0.0018372717882595574 0 0.0033860994143876323 0.0015671072654358372 0 0.0034886984776570386 0.0018372717882595574 0 0.0032238543605824744 0.0017781927905616999 0 0.0032823803998281052 0.0019594415422396578 0 0.0034886984776570386 0.0018372717882595574 0 0.0032238543605824744 0.0017781927905616999 0 0.0033860994143876323 0.0015671072654358372 0 0.0032238543605824744 0.0017781927905616999 0 0.0028984286173206891 0.0016577734179077869 0 0.0031603921431889136 0.0015293039297260785 0 0.0032238543605824744 0.0017781927905616999 0 0.0030236045731792788 0.0019251947528593327 0 0.0028984286173206891 0.0016577734179077869 0 0.0032238543605824744 0.0017781927905616999 0 0.0031603921431889136 0.0015293039297260785 0 0.0033860994143876323 0.0015671072654358372 0 0.0032238543605824744 0.0017781927905616999 0 0.0032823803998281052 0.0019594415422396578 0 0.0030236045731792788 0.0019251947528593327 0 0.0032823803998281052 0.0019594415422396578 0 0.0030236045731792788 0.0019251947528593327 0 0.0031291494380438502 0.0021682219568366608 0 0.0032823803998281052 0.0019594415422396578 0 0.0035498947880594116 0.0020859608334387741 0 0.0031291494380438502 0.0021682219568366608 0 0.0037631179709778327 0.0021244735446932159 0 0.0038538660701748642 0.00045906499216061123 0 0.0034886984776570386 0.0018372717882595574 0 0.0032823803998281052 0.0019594415422396578 0 0.0035498947880594116 0.0020859608334387741 0 0.0031724269458840056 0.00086752556600856409 0 0.0033098507201766319 0.00073488879041228776 0 0.0033116180422297671 0.00099614326736448115 0 0.0028847466291979824 0.0014965983962075141 0 0.0034600899928723919 0.0004797338346138208 0 0.0031724269458840056 0.00086752556600856409 0 0.0030372983155426861 0.00095547413487592737 0 0.0031022023258460711 0.0011172155810287474 0 0.0031724269458840056 0.00086752556600856409 0 0.0030372983155426861 0.00095547413487592737 0 0.0031152678857133838 0.00068668130748220893 0 0.0030236045731792788 0.0019251947528593327 0 0.0027699844445233943 0.0020365013687326755 0 0.0031291494380438502 0.0021682219568366608 0 0.0034600899928723919 0.0004797338346138208 0 0.0038538660701748642 0.00045906499216061123 0 0.0030236045731792788 0.0019251947528593327 0 0.0028984286173206891 0.0016577734179077869 0 0.0027699844445233943 0.0020365013687326755 0 0.0041801278756633392 -0.0012968948696160682 0 0.0042162630378959455 -0.0012608683407272243 0 0.0042578192109758804 -0.0012579124773365008 0 0.0031724269458840056 0.00086752556600856409 0 0.0031152678857133838 0.00068668130748220893 0 0.0033098507201766319 0.00073488879041228776 0 0.0029688073649611693 0.00050699520048184726 0 0.0032607810878156284 0.00061216443004078424 0 0.0032994999533759281 0.00033621820158883921 0 0.0034600899928723919 0.0004797338346138208 0 0.0032325857280547246 0.00065701344579632609 0 0.0029688073649611693 0.00050699520048184726 0 0.0032994999533759281 0.00033621820158883921 0 0.0031541094588881042 3.9501587506358884e-05 0 0.0032994999533759281 0.00033621820158883921 0 0.0031541094588881042 3.9501587506358884e-05 0 0.003433165420795642 0.00010552456636478876 0 0.0034600899928723919 0.0004797338346138208 0 0.0036752336493892056 -0.00075839381165990595 0 0.0041801278756633392 -0.0012968948696160682 0 0.0042162630378959455 -0.0012608683407272243 0 0.004109402684687743 -0.0011821478234571071 0 0.0042162630378959455 -0.0012608683407272243 0 0.0042091765193903157 -0.0011796530328149514 0 0.004109402684687743 -0.0011821478234571071 0 0.0042162630378959455 -0.0012608683407272243 0 0.0042091765193903157 -0.0011796530328149514 0 0.0042912410296233041 -0.0012145542564843447 0 0.0042091765193903157 -0.0011796530328149514 0 0.0042817614966730554 -0.0011290288433440431 0 0.0041565014003047945 -0.0011034629852455194 0 0.0042091765193903157 -0.0011796530328149514 0 0.004109402684687743 -0.0011821478234571071 0 0.0041565014003047945 -0.0011034629852455194 0 0.0031541094588881042 3.9501587506358884e-05 0 0.0033944488122819448 -0.00043808671143442002 0 0.0035373953051119843 -0.00016576533413018414 0 0.0041681775863346817 0.0018814588932264929 0 0.0041484911641368367 0.0019073360620933046 0 0.0040886690654254737 0.0018711335025072963 0 0.0044337156035074857 -0.001257167049432505 0 0.0043908879853826613 -0.0012494747707942058 0 0.0043067816928093229 -0.0012920624691288303 0 0.0045435464738744873 -0.00029358341090584476 0 0.0038538660701748642 0.00045906499216061123 0 0.0044331606273783873 -0.0012016264823770659 0 0.0043908879853826613 -0.0012494747707942058 0 0.0043733859561114552 -0.0011704465227472876 0 0.0044331606273783873 -0.0012016264823770659 0 0.004437153935705534 -0.0012616175852198492 0 0.0043908879853826613 -0.0012494747707942058 0 0.0045031158762134553 -0.0011801850868659268 0 0.0044331606273783873 -0.0012016264823770659 0 0.004437153935705534 -0.0012616175852198492 0 0.0045435464738744873 -0.00029358341090584476 0 0.0045298306754712357 -0.00055940338439365784 0 0.0043908879853826613 -0.0012494747707942058 0 0.0043067816928093229 -0.0012920624691288303 0 0.0042912410296233041 -0.0012145542564843447 0 0.0042162630378959455 -0.0012608683407272243 0 0.0043067816928093229 -0.0012920624691288303 0 0.0042912410296233041 -0.0012145542564843447 0 0.0044823059301729298 -0.00089865595841660643 0 0.0038538660701748642 0.00045906499216061123 0 0.0043908879853826613 -0.0012494747707942058 0 0.0042912410296233041 -0.0012145542564843447 0 0.0043733859561114552 -0.0011704465227472876 0 0.0042912410296233041 -0.0012145542564843447 0 0.0043733859561114552 -0.0011704465227472876 0 0.0042817614966730554 -0.0011290288433440431 0 0.0042091765193903157 -0.0011796530328149514 0 0.0042912410296233041 -0.0012145542564843447 0 0.0042817614966730554 -0.0011290288433440431 0 0.0043733859561114552 -0.0011704465227472876 0 0.0042817614966730554 -0.0011290288433440431 0 0.0043857671122515965 -0.001078231367390047 0 0.0044561009432190317 -0.0011353608596665888 0 0.004484071361110442 -0.0010526669144763163 0 0.0043857671122515965 -0.001078231367390047 0 0.0043733859561114552 -0.0011704465227472876 0 0.0044561009432190317 -0.0011353608596665888 0 0.0043857671122515965 -0.001078231367390047 0 0.0044331606273783873 -0.0012016264823770659 0 0.0043733859561114552 -0.0011704465227472876 0 0.0044561009432190317 -0.0011353608596665888 0 0.0045031158762134553 -0.0011801850868659268 0 0.0044331606273783873 -0.0012016264823770659 0 0.0044561009432190317 -0.0011353608596665888 0 0.0045652897358138831 -0.0010900019084107075 0 0.0044561009432190317 -0.0011353608596665888 0 0.004484071361110442 -0.0010526669144763163 0 0.004484071361110442 -0.0010526669144763163 0 0.0043857671122515965 -0.001078231367390047 0 0.004441556437777403 -0.00096358552905783138 0 0.004441556437777403 -0.00096358552905783138 0 0.0042779902466826376 -0.0010294927626446314 0 0.0042901060772327247 -0.00088017557659616325 0 0.0043857671122515965 -0.001078231367390047 0 0.004441556437777403 -0.00096358552905783138 0 0.0042779902466826376 -0.0010294927626446314 0 0.0042817614966730554 -0.0011290288433440431 0 0.0043857671122515965 -0.001078231367390047 0 0.0042779902466826376 -0.0010294927626446314 0 0.0042817614966730554 -0.0011290288433440431 0 0.0042779902466826376 -0.0010294927626446314 0 0.0041565014003047945 -0.0011034629852455194 0 0.0042779902466826376 -0.0010294927626446314 0 0.0041565014003047945 -0.0011034629852455194 0 0.0040778233438524252 -0.0010123510346074429 0 0.004109402684687743 -0.0011821478234571071 0 0.0041565014003047945 -0.0011034629852455194 0 0.0039959850076774052 -0.0010482560234444239 0 0.0036752336493892056 -0.00075839381165990595 0 0.0036865485802523947 -0.00068700683188173308 0 0.0041565014003047945 -0.0011034629852455194 0 0.0039959850076774052 -0.0010482560234444239 0 0.0040778233438524252 -0.0010123510346074429 0 0.0040778233438524252 -0.0010123510346074429 0 0.0039994720149315018 -0.00094406737077605877 0 0.0040652375857220067 -0.00093026154670943786 0 0.0039959850076774052 -0.0010482560234444239 0 0.0040778233438524252 -0.0010123510346074429 0 0.0039994720149315018 -0.00094406737077605877 0 0.0040778233438524252 -0.0010123510346074429 0 0.0041615286362914972 -0.00095519989290759595 0 0.0040652375857220067 -0.00093026154670943786 0 0.0040870040365184167 -0.0010097604399537934 0 0.004224928880328928 -0.00092261854400484513 0 0.0042779902466826376 -0.0010294927626446314 0 0.0040778233438524252 -0.0010123510346074429 0 0.0042901060772327247 -0.00088017557659616325 0 0.0041615286362914972 -0.00095519989290759595 0 0.0040652375857220067 -0.00093026154670943786 0 0.0040705889532213326 -0.00085424867212648017 0 0.0040652375857220067 -0.00093026154670943786 0 0.0039741694162105613 -0.00086770610473652879 0 0.0040705889532213326 -0.00085424867212648017 0 0.0039994720149315018 -0.00094406737077605877 0 0.0040652375857220067 -0.00093026154670943786 0 0.0039741694162105613 -0.00086770610473652879 0 0.0040285606789847708 -0.00077790410276374039 0 0.0039807137357213149 -0.00082557850399930625 0 0.0040705889532213326 -0.00085424867212648017 0 0.0039741694162105613 -0.00086770610473652879 0 0.0039807137357213149 -0.00082557850399930625 0 0.0040705889532213326 -0.00085424867212648017 0 0.0041228056125354228 -0.00077527449464517698 0 0.0040705889532213326 -0.00085424867212648017 0 0.004187830435617294 -0.00085751936384856516 0 0.0041615286362914972 -0.00095519989290759595 0 0.0040705889532213326 -0.00085424867212648017 0 0.004187830435617294 -0.00085751936384856516 0 0.0041615286362914972 -0.00095519989290759595 0 0.004187830435617294 -0.00085751936384856516 0 0.004314284544957081 -0.00091235676175615123 0 0.0042814798014666408 -0.00078063940992125099 0 0.004187830435617294 -0.00085751936384856516 0 0.004314284544957081 -0.00091235676175615123 0 0.0045034270405457464 -0.00082094123964573289 0 0.0043817784583279713 -0.00086862246866787306 0 0.0045552096531072429 -0.00092173338504837339 0 0.004441556437777403 -0.00096358552905783138 0 0.0044456830917415863 -0.00082915160471370758 0 0.004441556437777403 -0.00096358552905783138 0 0.0042901060772327247 -0.00088017557659616325 0 0.0044456830917415863 -0.00082915160471370758 0 0.004224928880328928 -0.00092261854400484513 0 0.0043817784583279713 -0.00086862246866787306 0 0.0016648364590970718 -0.00045327645568845172 0 0.001721785139816962 -0.0004881165210507269 0 0.0016604191038581059 -0.00051843534463068806 0 0.0015984102002226147 -0.00046400896994285332 0 0.0016648364590970718 -0.00045327645568845172 0 0.0016604191038581059 -0.00051843534463068806 0 0.0015984102002226147 -0.00046400896994285332 0 0.0016286840612093319 -0.00040397287411901106 0 0.0016648364590970718 -0.00045327645568845172 0 0.00168922767013423 -0.00041738027558054945 0 0.0016648364590970718 -0.00045327645568845172 0 0.0017322114088691883 -0.00044779617961761671 0 0.0016648364590970718 -0.00045327645568845172 0 0.0017322114088691883 -0.00044779617961761671 0 0.001721785139816962 -0.0004881165210507269 0 0.0038465753786239352 -0.00082428622791668967 0 0.0038778113045662456 -0.00083861695137195207 0 0.0038279375201152863 -0.00087035885385812624 0 0.0027613037577583878 -0.00064622178554200307 0 0.00333025840914534 -0.00080394931086077623 0 0.0038906053018184002 -0.00079627987962492986 0 0.0038465753786239352 -0.00082428622791668967 0 0.0038778113045662456 -0.00083861695137195207 0 0.0039504784605549305 -0.0007847263138554718 0 0.0039807137357213149 -0.00082557850399930625 0 0.0038778113045662456 -0.00083861695137195207 0 0.0039504784605549305 -0.0007847263138554718 0 0.0038906053018184002 -0.00079627987962492986 0 0.0038778113045662456 -0.00083861695137195207 0 0.0039741694162105613 -0.00086770610473652879 0 0.0039807137357213149 -0.00082557850399930625 0 0.0038778113045662456 -0.00083861695137195207 0 0.0038778113045662456 -0.00083861695137195207 0 0.0038170356021251114 -0.00084549086088093941 0 0.0038772924355107903 -0.00080195264550337545 0 0.0039741694162105613 -0.00086770610473652879 0 0.0038778113045662456 -0.00083861695137195207 0 0.0038170356021251114 -0.00084549086088093941 0 0.0039994720149315018 -0.00094406737077605877 0 0.0039741694162105613 -0.00086770610473652879 0 0.0038170356021251114 -0.00084549086088093941 0 0.0038170356021251114 -0.00084549086088093941 0 0.0038772924355107903 -0.00080195264550337545 0 0.0037873955077946382 -0.00066439368905850925 0 0.0040287071874446079 -0.00078366339701079813 0 0.00333025840914534 -0.00080394931086077623 0 0.00333025840914534 -0.00080394931086077623 0 0.0037559554868350762 -0.00062735358402573834 0 0.0039103189395702318 -0.00065104738497652134 0 0.0037873955077946382 -0.00066439368905850925 0 0.0038479744734890276 -0.00053437197827523541 0 0.0039103189395702318 -0.00065104738497652134 0 0.0038479744734890276 -0.00053437197827523541 0 0.0039658894107665833 -0.00039799764730690559 0 0.0038772924355107903 -0.00080195264550337545 0 0.0039103189395702318 -0.00065104738497652134 0 0.0037873955077946382 -0.00066439368905850925 0 0.0037873955077946382 -0.00066439368905850925 0 0.0038479744734890276 -0.00053437197827523541 0 0.003733282088835495 -0.00040375927009002923 0 0.0037873955077946382 -0.00066439368905850925 0 0.0036558036378311386 -0.00055022579306823695 0 0.003733282088835495 -0.00040375927009002923 0 0.0038170356021251114 -0.00084549086088093941 0 0.0037873955077946382 -0.00066439368905850925 0 0.0036558036378311386 -0.00055022579306823695 0 0.0036865485802523947 -0.00068700683188173308 0 0.0037999878605776264 -0.00084583704909767796 0 0.0033944488122819448 -0.00043808671143442002 0 0.0038170356021251114 -0.00084549086088093941 0 0.0036558036378311386 -0.00055022579306823695 0 0.0039959850076774052 -0.0010482560234444239 0 0.0039994720149315018 -0.00094406737077605877 0 0.0038170356021251114 -0.00084549086088093941 0 0.0033944488122819448 -0.00043808671143442002 0 0.0036558036378311386 -0.00055022579306823695 0 0.0035790237599377644 -0.00037944446731940371 0 0.0036558036378311386 -0.00055022579306823695 0 0.0035790237599377644 -0.00037944446731940371 0 0.003733282088835495 -0.00040375927009002923 0 0.0035790237599377644 -0.00037944446731940371 0 0.003733282088835495 -0.00040375927009002923 0 0.0035373953051119843 -0.00016576533413018414 0 0.0033944488122819448 -0.00043808671143442002 0 0.0035790237599377644 -0.00037944446731940371 0 0.0035373953051119843 -0.00016576533413018414 0 0.003733282088835495 -0.00040375927009002923 0 0.0035373953051119843 -0.00016576533413018414 0 0.0038091931388813155 -0.0001209665866328 0 0.0038479744734890276 -0.00053437197827523541 0 0.003733282088835495 -0.00040375927009002923 0 0.0039658894107665833 -0.00039799764730690559 0 0.003733282088835495 -0.00040375927009002923 0 0.0039658894107665833 -0.00039799764730690559 0 0.0038091931388813155 -0.0001209665866328 0 0.0039658894107665833 -0.00039799764730690559 0 0.0041772417832604911 -0.00054224646393215671 0 0.0042171311197960245 -0.00026774659581809893 0 0.0039658894107665833 -0.00039799764730690559 0 0.0040271303706852562 -0.00015875838499572012 0 0.0038091931388813155 -0.0001209665866328 0 0.0039658894107665833 -0.00039799764730690559 0 0.0042171311197960245 -0.00026774659581809893 0 0.0040271303706852562 -0.00015875838499572012 0 0.0039103189395702318 -0.00065104738497652134 0 0.0039658894107665833 -0.00039799764730690559 0 0.0041772417832604911 -0.00054224646393215671 0 0.0038689732595764675 -0.00081795597171742623 0 0.0039103189395702318 -0.00065104738497652134 0 0.0041772417832604911 -0.00054224646393215671 0 0.00333025840914534 -0.00080394931086077623 0 0.0027973975938530979 -0.0005322959748863031 0 0.0044856466140329228 -0.00024414276235037519 0 0.0041772417832604911 -0.00054224646393215671 0 0.0042171311197960245 -0.00026774659581809893 0 0.0031955028376037375 -0.00040803894460878789 0 0.0027973975938530979 -0.0005322959748863031 0 0.0044856466140329228 -0.00024414276235037519 0 0.0042171311197960245 -0.00026774659581809893 0 0.0043428415032946976 -0.00011576187903308905 0 0.0042171311197960245 -0.00026774659581809893 0 0.0043428415032946976 -0.00011576187903308905 0 0.0041863743714462779 -4.7344464517283917e-05 0 0.0043428415032946976 -0.00011576187903308905 0 0.0043337643923930802 5.2247007601431267e-05 0 0.0041863743714462779 -4.7344464517283917e-05 0 0.0043337643923930802 5.2247007601431267e-05 0 0.0041863743714462779 -4.7344464517283917e-05 0 0.0041915967122081142 0.00013727652842444844 0 0.0041863743714462779 -4.7344464517283917e-05 0 0.0039909877129770876 7.131596227615808e-05 0 0.0041915967122081142 0.00013727652842444844 0 0.0042171311197960245 -0.00026774659581809893 0 0.0041863743714462779 -4.7344464517283917e-05 0 0.0040271303706852562 -0.00015875838499572012 0 0.0040271303706852562 -0.00015875838499572012 0 0.0039909877129770876 7.131596227615808e-05 0 0.0038091931388813155 -0.0001209665866328 0 0.0041863743714462779 -4.7344464517283917e-05 0 0.0040271303706852562 -0.00015875838499572012 0 0.0039909877129770876 7.131596227615808e-05 0 0.0039909877129770876 7.131596227615808e-05 0 0.0037702664749934005 0.00019698791707523826 0 0.0039966064201940469 0.00039416629007085492 0 0.0039909877129770876 7.131596227615808e-05 0 0.0041915967122081142 0.00013727652842444844 0 0.0039966064201940469 0.00039416629007085492 0 0.004442470237347171 0.00022616571066044817 0 0.0043337643923930802 5.2247007601431267e-05 0 0.0041915967122081142 0.00013727652842444844 0 0.004442470237347171 0.00022616571066044817 0 0.0041915967122081142 0.00013727652842444844 0 0.0039966064201940469 0.00039416629007085492 0 0.0040279478669903359 0.00073876357323625146 0 0.004205395320852112 0.00024321183700881229 0 0.0031541094588881042 3.9501587506358884e-05 0 0.0035373953051119843 -0.00016576533413018414 0 0.003433165420795642 0.00010552456636478876 0 0.0035373953051119843 -0.00016576533413018414 0 0.0036145530053215626 5.0839491117984488e-05 0 0.003433165420795642 0.00010552456636478876 0 0.0035373953051119843 -0.00016576533413018414 0 0.0036145530053215626 5.0839491117984488e-05 0 0.0038091931388813155 -0.0001209665866328 0 0.0036145530053215626 5.0839491117984488e-05 0 0.0038091931388813155 -0.0001209665866328 0 0.0037702664749934005 0.00019698791707523826 0 0.0039909877129770876 7.131596227615808e-05 0 0.0038091931388813155 -0.0001209665866328 0 0.0037702664749934005 0.00019698791707523826 0 0.0037702664749934005 0.00019698791707523826 0 0.0037092323860058556 0.00048349510483758172 0 0.0039966064201940469 0.00039416629007085492 0 0.0037702664749934005 0.00019698791707523826 0 0.0035503421792863533 0.00026101813284391183 0 0.0037092323860058556 0.00048349510483758172 0 0.0036145530053215626 5.0839491117984488e-05 0 0.0037702664749934005 0.00019698791707523826 0 0.0035503421792863533 0.00026101813284391183 0 0.0036145530053215626 5.0839491117984488e-05 0 0.0035503421792863533 0.00026101813284391183 0 0.003433165420795642 0.00010552456636478876 0 0.0032994999533759281 0.00033621820158883921 0 0.0035503421792863533 0.00026101813284391183 0 0.0034642192377837373 0.00049134062538346371 0 0.0032994999533759281 0.00033621820158883921 0 0.0035503421792863533 0.00026101813284391183 0 0.003433165420795642 0.00010552456636478876 0 0.0032607810878156284 0.00061216443004078424 0 0.0034642192377837373 0.00049134062538346371 0 0.0035265569412215223 0.00074787367999046869 0 0.0032325857280547246 0.00065701344579632609 0 0.0035269194345853433 0.00075049428548131913 0 0.0032607810878156284 0.00061216443004078424 0 0.0032994999533759281 0.00033621820158883921 0 0.0034642192377837373 0.00049134062538346371 0 0.0035503421792863533 0.00026101813284391183 0 0.0034642192377837373 0.00049134062538346371 0 0.0037092323860058556 0.00048349510483758172 0 0.0034642192377837373 0.00049134062538346371 0 0.0037092323860058556 0.00048349510483758172 0 0.0035265569412215223 0.00074787367999046869 0 0.0037092323860058556 0.00048349510483758172 0 0.0035265569412215223 0.00074787367999046869 0 0.0038067825895344931 0.0007668336135558941 0 0.0035265569412215223 0.00074787367999046869 0 0.0038067825895344931 0.0007668336135558941 0 0.0035788941182750204 0.00099024996964487124 0 0.0033098507201766319 0.00073488879041228776 0 0.0035265569412215223 0.00074787367999046869 0 0.0033116180422297671 0.00099614326736448115 0 0.0035265569412215223 0.00074787367999046869 0 0.0035788941182750204 0.00099024996964487124 0 0.0033116180422297671 0.00099614326736448115 0 0.0040279478669903359 0.00073876357323625146 0 0.0035928704463307555 0.0013179823281288389 0 0.0044466727089322484 0.00030706943539280572 0 0.0039966064201940469 0.00039416629007085492 0 0.0041925138377164623 0.00073792505141605778 0 0.0037092323860058556 0.00048349510483758172 0 0.0039966064201940469 0.00039416629007085492 0 0.0038067825895344931 0.0007668336135558941 0 0.0039966064201940469 0.00039416629007085492 0 0.0038067825895344931 0.0007668336135558941 0 0.0041925138377164623 0.00073792505141605778 0 0.0038067825895344931 0.0007668336135558941 0 0.0041925138377164623 0.00073792505141605778 0 0.0038414590741859349 0.0011674170312884729 0 0.0029768177994180939 0.0017441868346279928 0 0.003130097955588499 0.0017366453261925515 0 0.0031361116347938217 0.0015764210478315993 0 0.003130097955588499 0.0017366453261925515 0 0.0031361116347938217 0.0015764210478315993 0 0.0033076789689883801 0.001565980747321002 0 0.0022058192470457106 0.0024854507085738968 0 0.0020068387545033087 0.0027163663331160521 0 0.0020894498576409012 0.0027059604838761643 0 0.0020068387545033087 0.0027163663331160521 0 0.0020411967938586536 0.0027351144037876403 0 0.0020894498576409012 0.0027059604838761643 0 0.0035928704463307555 0.0013179823281288389 0 0.0035879793880841788 0.0013330535817642675 0 0.0031361116347938217 0.0015764210478315993 0 0.0033076789689883801 0.001565980747321002 0 0.0033003755392247832 0.0014126136115517642 0 0.0033076789689883801 0.001565980747321002 0 0.0034533668925359178 0.0013975178539328515 0 0.0033003755392247832 0.0014126136115517642 0 0.0025810856441344861 0.0021461544918823738 0 0.0027165528768502969 0.0020920560734826641 0 0.0020411967938586536 0.0027351144037876403 0 0.0021214233319815584 0.0027762938111032271 0 0.0020225398239288195 0.0027239323420621799 0 0.0020068387545033087 0.0027163663331160521 0 0.0020411967938586536 0.0027351144037876403 0 0.0021214233319815584 0.0027762938111032271 0 0.0035788941182750204 0.00099024996964487124 0 0.0034428012369833957 0.0012520766127044546 0 0.0033116180422297671 0.00099614326736448115 0 0.0038067825895344931 0.0007668336135558941 0 0.0038414590741859349 0.0011674170312884729 0 0.0035788941182750204 0.00099024996964487124 0 0.0038414590741859349 0.0011674170312884729 0 0.0035788941182750204 0.00099024996964487124 0 0.0034428012369833957 0.0012520766127044546 0 0.0038414590741859349 0.0011674170312884729 0 0.0034428012369833957 0.0012520766127044546 0 0.0034533668925359178 0.0013975178539328515 0 0.0035879793880841788 0.0013330535817642675 0 0.0034681711052829685 0.0014017589451592145 0 0.0034428012369833957 0.0012520766127044546 0 0.0034093593250066286 0.0013373121089523649 0 0.0034281671232941967 0.0013763944940749814 0 0.0034428012369833957 0.0012520766127044546 0 0.0034093593250066286 0.0013373121089523649 0 0.0034533668925359178 0.0013975178539328515 0 0.0033902747051263605 0.0013576512905259111 0 0.0034093593250066286 0.0013373121089523649 0 0.0034533668925359178 0.0013975178539328515 0 0.0033902747051263605 0.0013576512905259111 0 0.0034533668925359178 0.0013975178539328515 0 0.0033892603295716914 0.0013698369853097925 0 0.0034533668925359178 0.0013975178539328515 0 0.0033726133819035925 0.0013587039152748875 0 0.0033892603295716914 0.0013698369853097925 0 0.0033726133819035925 0.0013587039152748875 0 0.0033892603295716914 0.0013698369853097925 0 0.0033295059607108264 0.0013714078014042364 0 0.0033902747051263605 0.0013576512905259111 0 0.0033892603295716914 0.0013698369853097925 0 0.0033295059607108264 0.0013714078014042364 0 0.0033902747051263605 0.0013576512905259111 0 0.0033295059607108264 0.0013714078014042364 0 0.0034043219112668242 0.0013278447199813969 0 0.0021214233319815584 0.0027762938111032271 0 0.0019764243960676219 0.002629914320341281 0 0.0020225398239288195 0.0027239323420621799 0 0.0034533668925359178 0.0013975178539328515 0 0.0033726133819035925 0.0013587039152748875 0 0.0033003755392247832 0.0014126136115517642 0 0.0029228934583375526 0.0019304692436479004 0 0.0027165528768502969 0.0020920560734826641 0 0.0024874353581301294 0.0025572228742965519 0 0.0021214233319815584 0.0027762938111032271 0 0.0019764243960676219 0.002629914320341281 0 0.0019764243960676219 0.002629914320341281 0 0.0018244724648474213 0.0023433370122578384 0 0.0022910258250574667 0.0021979136256599185 0 0.0018244724648474213 0.0023433370122578384 0 0.0018925660078753968 0.0021443971723175549 0 0.0022910258250574667 0.0021979136256599185 0 0.0018925660078753968 0.0021443971723175549 0 0.0017437125432328549 0.0022529416462018555 0 0.0017006613916136558 0.0022771535564293293 0 0.0018244724648474213 0.0023433370122578384 0 0.0018925660078753968 0.0021443971723175549 0 0.0017006613916136558 0.0022771535564293293 0 0.0018925660078753968 0.0021443971723175549 0 0.0022910258250574667 0.0021979136256599185 0 0.0029490885739160439 0.0015742286846766661 0 0.0019459252776818934 0.0021018237050153266 0 0.0024008834132773979 0.0019069940908878682 0 0.0018925660078753968 0.0021443971723175549 0 0.0018343037302402611 0.0022014373856718513 0 0.0018157911919737288 0.0022249196383695847 0 0.0018925660078753968 0.0021443971723175549 0 0.0018343037302402611 0.0022014373856718513 0 0.0018033963345957702 0.002228582795552604 0 0.0024874353581301294 0.0025572228742965519 0 0.0019764243960676219 0.002629914320341281 0 0.0022910258250574667 0.0021979136256599185 0 0.0033726133819035925 0.0013587039152748875 0 0.0032400222062247768 0.0014173015235883033 0 0.0030816310596280148 0.0015092926669237959 0 0.0024874353581301294 0.0025572228742965519 0 0.0030816310596280148 0.0015092926669237959 0 0.0029490885739160439 0.0015742286846766661 0 0.0024874353581301294 0.0025572228742965519 0 0.0022910258250574667 0.0021979136256599185 0 0.0029490885739160439 0.0015742286846766661 0 0.0029228934583375526 0.0019304692436479004 0 0.0030891784020272367 0.0015312758003955343 0 0.0033726133819035925 0.0013587039152748875 0 0.0033295059607108264 0.0013714078014042364 0 0.0032400222062247768 0.0014173015235883033 0 0.0032400222062247768 0.0014173015235883033 0 0.003419522252955031 0.0012297487980895061 0 0.0033705360789485737 0.0013362730629744106 0 0.0033295059607108264 0.0013714078014042364 0 0.0032400222062247768 0.0014173015235883033 0 0.0033705360789485737 0.0013362730629744106 0 0.0024008834132773979 0.0019069940908878682 0 0.0026831486673338208 0.0017761357461441249 0 0.0032400222062247768 0.0014173015235883033 0 0.0030816310596280148 0.0015092926669237959 0 0.003419522252955031 0.0012297487980895061 0 0.0018157911919737288 0.0022249196383695847 0 0.0018717618502523726 0.0021706588290980101 0 0.0019714326927930928 0.0022674560460257246 0 0.0030816310596280148 0.0015092926669237959 0 0.0029490885739160439 0.0015742286846766661 0 0.003419522252955031 0.0012297487980895061 0 0.0018157911919737288 0.0022249196383695847 0 0.001824890365024502 0.0022068420980089908 0 0.0018341068360641544 0.0021963654689625433 0 0.0018343037302402611 0.0022014373856718513 0 0.0018157911919737288 0.0022249196383695847 0 0.001824890365024502 0.0022068420980089908 0 0.0018157911919737288 0.0022249196383695847 0 0.0018341068360641544 0.0021963654689625433 0 0.0018717618502523726 0.0021706588290980101 0 0.001824890365024502 0.0022068420980089908 0 0.0018341068360641544 0.0021963654689625433 0 0.0018250267753490074 0.0022066816749981891 0 0.0018341068360641544 0.0021963654689625433 0 0.0018717618502523726 0.0021706588290980101 0 0.001841297693692267 0.0021833963677072221 0 0.0018341068360641544 0.0021963654689625433 0 0.001841297693692267 0.0021833963677072221 0 0.0018250267753490074 0.0022066816749981891 0 0.0018717618502523726 0.0021706588290980101 0 0.0020137663662370088 0.0021373162678237829 0 0.0019714326927930928 0.0022674560460257246 0 0.0018717618502523726 0.0021706588290980101 0 0.001849017978398532 0.0021687284327151983 0 0.0018451171128541161 0.0021605622432298993 0 0.0018726493725054914 0.0021626015836809123 0 0.0019239265981849326 0.0020670218257243158 0 0.001849017978398532 0.0021687284327151983 0 0.001841297693692267 0.0021833963677072221 0 0.0018222853005955845 0.0021862674120922661 0 0.0018717618502523726 0.0021706588290980101 0 0.001849017978398532 0.0021687284327151983 0 0.001841297693692267 0.0021833963677072221 0 0.001841297693692267 0.0021833963677072221 0 0.0018222853005955845 0.0021862674120922661 0 0.0018250267753490074 0.0022066816749981891 0 0.0018222853005955845 0.0021862674120922661 0 0.0017638586777518916 0.0022079937383845637 0 0.0018033963345957702 0.002228582795552604 0 0.0017638586777518916 0.0022079937383845637 0 0.0017437125432328549 0.0022529416462018555 0 0.0016182090897241114 0.0022788256150148758 0 0.0017638586777518916 0.0022079937383845637 0 0.0017707111516745725 0.0021389809424570859 0 0.0016182090897241114 0.0022788256150148758 0 0.0015944234627262479 0.0023021134905468373 0 0.0016124895365529197 0.0022819763646514143 0 0.0017638586777518916 0.0022079937383845637 0 0.0017437125432328549 0.0022529416462018555 0 0.0018033963345957702 0.002228582795552604 0 0.0018925660078753968 0.0021443971723175549 0 0.0017437125432328549 0.0022529416462018555 0 0.0018033963345957702 0.002228582795552604 0 0.0018222853005955845 0.0021862674120922661 0 0.0018250267753490074 0.0022066816749981891 0 0.0018033963345957702 0.002228582795552604 0 0.0018343037302402611 0.0022014373856718513 0 0.001824890365024502 0.0022068420980089908 0 0.0018250267753490074 0.0022066816749981891 0 0.0018343037302402611 0.0022014373856718513 0 0.0018250267753490074 0.0022066816749981891 0 0.0018033963345957702 0.002228582795552604 0 0.0029656244041108746 0.001692128123049433 0 0.0029568790049498586 0.0015267750161930293 0 0.0035771001524267376 0.00097700131272603638 0 0.0035898806912676821 0.00081691574111656133 0 0.0035366093035722143 0.0010275816195070874 0 0.0036007384587184018 0.0009379411115419253 0 0.0035771001524267376 0.00097700131272603638 0 0.0035898806912676821 0.00081691574111656133 0 0.0036209687828703163 0.00089028255683420347 0 0.0036484413249428253 0.00087981124323037159 0 0.0036449475957626223 0.0009258773498187332 0 0.0036209687828703163 0.00089028255683420347 0 0.0036007384587184018 0.0009379411115419253 0 0.0036449475957626223 0.0009258773498187332 0 0.0036484413249428253 0.00087981124323037159 0 0.0036449475957626223 0.0009258773498187332 0 0.0036984787834191324 0.00087973521465143192 0 0.0036490581754245041 0.0011084388712232641 0 0.0036274119352767437 0.0012037746321942571 0 0.0036209687828703163 0.00089028255683420347 0 0.0036007384587184018 0.0009379411115419253 0 0.0035898806912676821 0.00081691574111656133 0 0.0035771001524267376 0.00097700131272603638 0 0.0036265254068766489 0.00096502546936643341 0 0.003612791685387346 0.0010010661133106661 0 0.0036007384587184018 0.0009379411115419253 0 0.0035771001524267376 0.00097700131272603638 0 0.0036265254068766489 0.00096502546936643341 0 0.0036265254068766489 0.00096502546936643341 0 0.0036449475957626223 0.0009258773498187332 0 0.0036714429877398049 0.00098369368416886837 0 0.0036265254068766489 0.00096502546936643341 0 0.0036714429877398049 0.00098369368416886837 0 0.003612791685387346 0.0010010661133106661 0 0.0036449475957626223 0.0009258773498187332 0 0.0036984787834191324 0.00087973521465143192 0 0.0036714429877398049 0.00098369368416886837 0 0.0036007384587184018 0.0009379411115419253 0 0.0036265254068766489 0.00096502546936643341 0 0.0036449475957626223 0.0009258773498187332 0 0.0036984787834191324 0.00087973521465143192 0 0.0037397059662373118 0.00099451683493599727 0 0.0038354813725881886 0.0009457738790692266 0 0.0036274119352767437 0.0012037746321942571 0 0.0038416272694470014 0.0010130671913970435 0 0.0036984787834191324 0.00087973521465143192 0 0.0036714429877398049 0.00098369368416886837 0 0.0037397059662373118 0.00099451683493599727 0 0.0033692527894291003 0.0018970677092935866 0 0.0034867302691972851 0.0017848911126757 0 0.0036390024979653861 0.0019108833270755578 0 0.0033692527894291003 0.0018970677092935866 0 0.0034867302691972851 0.0017848911126757 0 0.003383073772058813 0.0017614800968144136 0 0.0034867302691972851 0.0017848911126757 0 0.003383073772058813 0.0017614800968144136 0 0.003464877040503753 0.0016725408248578131 0 0.003383073772058813 0.0017614800968144136 0 0.0032455188014072238 0.0018196295328483251 0 0.0033569766339617379 0.0016567526784888478 0 0.0033692527894291003 0.0018970677092935866 0 0.003383073772058813 0.0017614800968144136 0 0.0032455188014072238 0.0018196295328483251 0 0.0036484413249428253 0.00087981124323037159 0 0.0036959109406826266 0.00088305585542034024 0 0.0035898806912676821 0.00081691574111656133 0 0.0036274119352767437 0.0012037746321942571 0 0.0029656244041108746 0.001692128123049433 0 0.0036209687828703163 0.00089028255683420347 0 0.0036484413249428253 0.00087981124323037159 0 0.0035898806912676821 0.00081691574111656133 0 0.0022584433834252071 0.0020431488539476607 0 0.0022266076025005111 0.0020250734696388032 0 0.0021984908278728896 0.0020608267988896905 0 0.0029656244041108746 0.001692128123049433 0 0.0027207564737505453 0.0016712001299001569 0 0.0022571975863945092 0.0020425865017422531 0 0.0022266076025005111 0.0020250734696388032 0 0.00221224402926896 0.001942293754610644 0 0.0022266076025005111 0.0020250734696388032 0 0.0021634359576103127 0.002013888640194961 0 0.00221224402926896 0.001942293754610644 0 0.0021634359576103127 0.002013888640194961 0 0.0020851402080988052 0.0020474336508324244 0 0.0021211376739123265 0.001949702013211389 0 0.0021634359576103127 0.002013888640194961 0 0.0021487207785740774 0.0020801204288510575 0 0.0020851402080988052 0.0020474336508324244 0 0.0021487207785740774 0.0020801204288510575 0 0.0020851402080988052 0.0020474336508324244 0 0.0020921205888077823 0.0021379003196005542 0 0.0022584433834252071 0.0020431488539476607 0 0.0021984908278728896 0.0020608267988896905 0 0.0021962978109135002 0.0021435160674726731 0 0.0021634359576103127 0.002013888640194961 0 0.0021487207785740774 0.0020801204288510575 0 0.0021984908278728896 0.0020608267988896905 0 0.0021487207785740774 0.0020801204288510575 0 0.0021984908278728896 0.0020608267988896905 0 0.0021962978109135002 0.0021435160674726731 0 0.0022266076025005111 0.0020250734696388032 0 0.0021634359576103127 0.002013888640194961 0 0.0021984908278728896 0.0020608267988896905 0 0.0020851402080988052 0.0020474336508324244 0 0.0020137663662370088 0.0021373162678237829 0 0.0020045522271929842 0.0019600317168078293 0 0.0018717618502523726 0.0021706588290980101 0 0.0020137663662370088 0.0021373162678237829 0 0.0020045522271929842 0.0019600317168078293 0 0.0020851402080988052 0.0020474336508324244 0 0.0020045522271929842 0.0019600317168078293 0 0.0021211376739123265 0.001949702013211389 0 0.0020137663662370088 0.0021373162678237829 0 0.0020574430308460566 0.0022051797939520402 0 0.0019714326927930928 0.0022674560460257246 0 0.0020851402080988052 0.0020474336508324244 0 0.0020137663662370088 0.0021373162678237829 0 0.0020921205888077823 0.0021379003196005542 0 0.0020137663662370088 0.0021373162678237829 0 0.0020574430308460566 0.0022051797939520402 0 0.0020921205888077823 0.0021379003196005542 0 0.0020574430308460566 0.0022051797939520402 0 0.0021340713175903654 0.0021885719146602545 0 0.002210282717054948 0.0022627241628814985 0 0.0022584433834252071 0.0020431488539476607 0 0.0021962978109135002 0.0021435160674726731 0 0.002210282717054948 0.0022627241628814985 0 0.0021487207785740774 0.0020801204288510575 0 0.0021962978109135002 0.0021435160674726731 0 0.0020921205888077823 0.0021379003196005542 0 0.0021962978109135002 0.0021435160674726731 0 0.0020921205888077823 0.0021379003196005542 0 0.0021340713175903654 0.0021885719146602545 0 0.0020574430308460566 0.0022051797939520402 0 0.0020921205888077823 0.0021379003196005542 0 0.0021340713175903654 0.0021885719146602545 0 0.0021962978109135002 0.0021435160674726731 0 0.0021340713175903654 0.0021885719146602545 0 0.002210282717054948 0.0022627241628814985 0 0.0035179763331499229 0.0011343988019119815 0 0.0034737584813246862 0.0012064728937992073 0 0.003419522252955031 0.0012297487980895061 0 0.0029568790049498586 0.0015267750161930293 0 0.0026831486673338208 0.0017761357461441249 0 0.0035518943316573963 0.0010277625906354002 0 0.0035366093035722143 0.0010275816195070874 0 0.0035683433561706219 0.0010079540858181529 0 0.0035518943316573963 0.0010277625906354002 0 0.0035238379990355324 0.0010277043002130939 0 0.0035506448329693146 0.0010856997748924348 0 0.0030362623560078236 0.0015055217788919901 0 0.0029568790049498586 0.0015267750161930293 0 0.0035179763331499229 0.0011343988019119815 0 0.0034737584813246862 0.0012064728937992073 0 0.0035152063401141659 0.0011505087047350752 0 0.0035152063401141659 0.0011505087047350752 0 0.0035506448329693146 0.0010856997748924348 0 0.0035735045901803702 0.0011168693754143089 0 0.0029568790049498586 0.0015267750161930293 0 0.0032553643428344524 0.0011039494866501955 0 0.0035238379990355324 0.0010277043002130939 0 0.0035152063401141659 0.0011505087047350752 0 0.0035506448329693146 0.0010856997748924348 0 0.0020574430308460566 0.0022051797939520402 0 0.002210282717054948 0.0022627241628814985 0 0.0019714326927930928 0.0022674560460257246 0 0.003419522252955031 0.0012297487980895061 0 0.0033705360789485737 0.0013362730629744106 0 0.0034287402803539683 0.0012618900444464111 0 0.0034737584813246862 0.0012064728937992073 0 0.003419522252955031 0.0012297487980895061 0 0.0034287402803539683 0.0012618900444464111 0 0.0034737584813246862 0.0012064728937992073 0 0.0034287402803539683 0.0012618900444464111 0 0.0034429456472615809 0.0012755567655046913 0 0.0033705360789485737 0.0013362730629744106 0 0.0034287402803539683 0.0012618900444464111 0 0.0034429456472615809 0.0012755567655046913 0 0.0034429456472615809 0.0012755567655046913 0 0.0034043219112668242 0.0013278447199813969 0 0.0034750005208842192 0.0012797931731067013 0 0.0033705360789485737 0.0013362730629744106 0 0.0034429456472615809 0.0012755567655046913 0 0.0034043219112668242 0.0013278447199813969 0 0.0033295059607108264 0.0013714078014042364 0 0.0033705360789485737 0.0013362730629744106 0 0.0034043219112668242 0.0013278447199813969 0 0.0035152063401141659 0.0011505087047350752 0 0.0035037485356421462 0.0012176670034824526 0 0.0035690044581471536 0.0011671543197737963 0 0.0034737584813246862 0.0012064728937992073 0 0.0034429456472615809 0.0012755567655046913 0 0.0035037485356421462 0.0012176670034824526 0 0.0034737584813246862 0.0012064728937992073 0 0.0035152063401141659 0.0011505087047350752 0 0.0035037485356421462 0.0012176670034824526 0 0.0034429456472615809 0.0012755567655046913 0 0.0035037485356421462 0.0012176670034824526 0 0.0034750005208842192 0.0012797931731067013 0 0.0035037485356421462 0.0012176670034824526 0 0.0035690044581471536 0.0011671543197737963 0 0.0035538774801287575 0.0012298739573534305 0 0.0035037485356421462 0.0012176670034824526 0 0.0034750005208842192 0.0012797931731067013 0 0.0035538774801287575 0.0012298739573534305 0 0.0036465670956729204 0.0011671952887941169 0 0.0035690044581471536 0.0011671543197737963 0 0.0035538774801287575 0.0012298739573534305 0 0.0036465670956729204 0.0011671952887941169 0 0.003626329124000151 0.0011083966043906571 0 0.0037143374832557794 0.0010977075094887908 0 0.0036465670956729204 0.0011671952887941169 0 0.0035690044581471536 0.0011671543197737963 0 0.003626329124000151 0.0011083966043906571 0 0.0035152063401141659 0.0011505087047350752 0 0.0035690044581471536 0.0011671543197737963 0 0.0035735045901803702 0.0011168693754143089 0 0.0035506448329693146 0.0010856997748924348 0 0.0035735045901803702 0.0011168693754143089 0 0.0036014357316819443 0.0010572894455389355 0 0.0035735045901803702 0.0011168693754143089 0 0.003626329124000151 0.0011083966043906571 0 0.0036014357316819443 0.0010572894455389355 0 0.0035690044581471536 0.0011671543197737963 0 0.0035735045901803702 0.0011168693754143089 0 0.003626329124000151 0.0011083966043906571 0 0.003626329124000151 0.0011083966043906571 0 0.0036635764920322084 0.0010423925705717143 0 0.0037143374832557794 0.0010977075094887908 0 0.003626329124000151 0.0011083966043906571 0 0.0036635764920322084 0.0010423925705717143 0 0.0036014357316819443 0.0010572894455389355 0 0.0036635764920322084 0.0010423925705717143 0 0.003612791685387346 0.0010010661133106661 0 0.0036014357316819443 0.0010572894455389355 0 0.0036635764920322084 0.0010423925705717143 0 0.0036714429877398049 0.00098369368416886837 0 0.003612791685387346 0.0010010661133106661 0 0.003612791685387346 0.0010010661133106661 0 0.0035683433561706219 0.0010079540858181529 0 0.0035865970707333297 0.0010240449225509748 0 0.0035771001524267376 0.00097700131272603638 0 0.003612791685387346 0.0010010661133106661 0 0.0035683433561706219 0.0010079540858181529 0 0.0035771001524267376 0.00097700131272603638 0 0.0035366093035722143 0.0010275816195070874 0 0.0035683433561706219 0.0010079540858181529 0 0.0035518943316573963 0.0010277625906354002 0 0.0035683433561706219 0.0010079540858181529 0 0.0035865970707333297 0.0010240449225509748 0 0.0035518943316573963 0.0010277625906354002 0 0.0035506448329693146 0.0010856997748924348 0 0.0036014357316819443 0.0010572894455389355 0 0.0035518943316573963 0.0010277625906354002 0 0.0035865970707333297 0.0010240449225509748 0 0.0036014357316819443 0.0010572894455389355 0 0.003612791685387346 0.0010010661133106661 0 0.0035865970707333297 0.0010240449225509748 0 0.0036014357316819443 0.0010572894455389355 0 0.0037397059662373118 0.00099451683493599727 0 0.0037143374832557794 0.0010977075094887908 0 0.003856544253739855 0.0010172173951520857 0 0.0036635764920322084 0.0010423925705717143 0 0.0036714429877398049 0.00098369368416886837 0 0.0037397059662373118 0.00099451683493599727 0 0.0036635764920322084 0.0010423925705717143 0 0.0037397059662373118 0.00099451683493599727 0 0.0037143374832557794 0.0010977075094887908 0 0.0037143374832557794 0.0010977075094887908 0 0.0037418967608261215 0.0011502362843046846 0 0.0038605678237431623 0.00108708112336696 0 0.0036465670956729204 0.0011671952887941169 0 0.0037143374832557794 0.0010977075094887908 0 0.0037418967608261215 0.0011502362843046846 0 0.0037418967608261215 0.0011502362843046846 0 0.0038174213983455663 0.0011623869916983288 0 0.0038605678237431623 0.00108708112336696 0 0.0037418967608261215 0.0011502362843046846 0 0.0037109573418756966 0.0012077487266302313 0 0.0038174213983455663 0.0011623869916983288 0 0.0037109573418756966 0.0012077487266302313 0 0.0038081121383267509 0.0012370434577085214 0 0.0038174213983455663 0.0011623869916983288 0 0.0036465670956729204 0.0011671952887941169 0 0.0037418967608261215 0.0011502362843046846 0 0.0037109573418756966 0.0012077487266302313 0 0.0036465670956729204 0.0011671952887941169 0 0.0037109573418756966 0.0012077487266302313 0 0.0036046461446334692 0.001250891807700236 0 0.0036046461446334692 0.001250891807700236 0 0.0035538774801287575 0.0012298739573534305 0 0.0035185509754989824 0.001291112854267555 0 0.0036465670956729204 0.0011671952887941169 0 0.0036046461446334692 0.001250891807700236 0 0.0035538774801287575 0.0012298739573534305 0 0.0036046461446334692 0.001250891807700236 0 0.0035632151444749166 0.0013146218267146683 0 0.0035185509754989824 0.001291112854267555 0 0.0037109573418756966 0.0012077487266302313 0 0.0036046461446334692 0.001250891807700236 0 0.0036572100889593765 0.001277008129906234 0 0.0036046461446334692 0.001250891807700236 0 0.0036572100889593765 0.001277008129906234 0 0.0035632151444749166 0.0013146218267146683 0 0.0035632151444749166 0.0013146218267146683 0 0.0036214147304876494 0.0013222414604514396 0 0.0035828872112288867 0.0013519512851082286 0 0.0036572100889593765 0.001277008129906234 0 0.0035632151444749166 0.0013146218267146683 0 0.0036214147304876494 0.0013222414604514396 0 0.0036572100889593765 0.001277008129906234 0 0.0036214147304876494 0.0013222414604514396 0 0.0037026457166780356 0.0013194050254621945 0 0.0036214147304876494 0.0013222414604514396 0 0.0037026457166780356 0.0013194050254621945 0 0.0036455034777172347 0.0013663428355987978 0 0.0036572100889593765 0.001277008129906234 0 0.0037026457166780356 0.0013194050254621945 0 0.0038081121383267509 0.0012370434577085214 0 0.0037109573418756966 0.0012077487266302313 0 0.0036572100889593765 0.001277008129906234 0 0.0038081121383267509 0.0012370434577085214 0 0.0033902747051263605 0.0013576512905259111 0 0.0034043219112668242 0.0013278447199813969 0 0.0034471358181976074 0.0013218473992316511 0 0.0034043219112668242 0.0013278447199813969 0 0.0034471358181976074 0.0013218473992316511 0 0.0034750005208842192 0.0012797931731067013 0 0.0034471358181976074 0.0013218473992316511 0 0.0034750005208842192 0.0012797931731067013 0 0.0035185509754989824 0.001291112854267555 0 0.0034750005208842192 0.0012797931731067013 0 0.0035538774801287575 0.0012298739573534305 0 0.0035185509754989824 0.001291112854267555 0 0.0035632151444749166 0.0013146218267146683 0 0.0035185509754989824 0.001291112854267555 0 0.0034910437484906454 0.0013258060261834537 0 0.0035632151444749166 0.0013146218267146683 0 0.0034910437484906454 0.0013258060261834537 0 0.0035080186277125017 0.0013638262407380591 0 0.0035632151444749166 0.0013146218267146683 0 0.0035080186277125017 0.0013638262407380591 0 0.0035828872112288867 0.0013519512851082286 0 0.0034910437484906454 0.0013258060261834537 0 0.0034363814298891309 0.0013436483022161631 0 0.0035080186277125017 0.0013638262407380591 0 0.0034471358181976074 0.0013218473992316511 0 0.0035185509754989824 0.001291112854267555 0 0.0034910437484906454 0.0013258060261834537 0 0.0034471358181976074 0.0013218473992316511 0 0.0034910437484906454 0.0013258060261834537 0 0.0034363814298891309 0.0013436483022161631 0 0.0033902747051263605 0.0013576512905259111 0 0.0034471358181976074 0.0013218473992316511 0 0.0034363814298891309 0.0013436483022161631 0 0.0033902747051263605 0.0013576512905259111 0 0.0034093593250066286 0.0013373121089523649 0 0.0034363814298891309 0.0013436483022161631 0 0.0034425741453868925 0.0012608397717620852 0 0.0033181033743145232 0.0012897260684295864 0 0.0034093593250066286 0.0013373121089523649 0 0.0034363814298891309 0.0013436483022161631 0 0.0034281671232941967 0.0013763944940749814 0 0.0034281671232941967 0.0013763944940749814 0 0.0035080186277125017 0.0013638262407380591 0 0.0035855508519698873 0.0014302023244253633 0 0.0034363814298891309 0.0013436483022161631 0 0.0034281671232941967 0.0013763944940749814 0 0.0035080186277125017 0.0013638262407380591 0 0.0031870606407405286 0.0012070210351084875 0 0.0030306678458969991 0.0012104681292977686 0 0.0030324631036691059 0.0012050143960516038 0 0.0033181033743145232 0.0012897260684295864 0 0.0033190054040085353 0.0013145969020054288 0 0.0030372983155426861 0.00095547413487592737 0 0.0031022023258460711 0.0011172155810287474 0 0.0030306678458969991 0.0012104681292977686 0 0.0031870606407405286 0.0012070210351084875 0 0.0031022023258460711 0.0011172155810287474 0 0.0030306678458969991 0.0012104681292977686 0 0.0034428012369833957 0.0012520766127044546 0 0.0031870606407405286 0.0012070210351084875 0 0.0033116180422297671 0.00099614326736448115 0 0.0031870606407405286 0.0012070210351084875 0 0.0031022023258460711 0.0011172155810287474 0 0.0033116180422297671 0.00099614326736448115 0 0.0031724269458840056 0.00086752556600856409 0 0.0031022023258460711 0.0011172155810287474 0 0.0033116180422297671 0.00099614326736448115 0 0.0035529938420215492 0.0012324525483507522 0 0.0030324631036691059 0.0012050143960516038 0 0.0032202638106294157 0.0013533350570973212 0 0.0036672237924764862 0.0013146373841939276 0 0.0033190054040085353 0.0013145969020054288 0 0.0037026457166780356 0.0013194050254621945 0 0.0038081121383267509 0.0012370434577085214 0 0.0037923373133902398 0.0013960101232305773 0 0.0037026457166780356 0.0013194050254621945 0 0.0037923373133902398 0.0013960101232305773 0 0.0036455034777172347 0.0013663428355987978 0 0.0037923373133902398 0.0013960101232305773 0 0.0036455034777172347 0.0013663428355987978 0 0.0035855508519698873 0.0014302023244253633 0 0.0036214147304876494 0.0013222414604514396 0 0.0036455034777172347 0.0013663428355987978 0 0.0035828872112288867 0.0013519512851082286 0 0.0035080186277125017 0.0013638262407380591 0 0.0035828872112288867 0.0013519512851082286 0 0.0035833466475149083 0.0013818643607606165 0 0.0035080186277125017 0.0013638262407380591 0 0.0035833466475149083 0.0013818643607606165 0 0.0035855508519698873 0.0014302023244253633 0 0.0036455034777172347 0.0013663428355987978 0 0.0035833466475149083 0.0013818643607606165 0 0.0035855508519698873 0.0014302023244253633 0 0.0036455034777172347 0.0013663428355987978 0 0.0035828872112288867 0.0013519512851082286 0 0.0035833466475149083 0.0013818643607606165 0 0.0030306678458969991 0.0012104681292977686 0 0.0030324631036691059 0.0012050143960516038 0 0.0032202638106294157 0.0013533350570973212 0 0.0030306678458969991 0.0012104681292977686 0 0.0032202638106294157 0.0013533350570973212 0 0.0031603921431889136 0.0015293039297260785 0 0.0028984286173206891 0.0016577734179077869 0 0.0030306678458969991 0.0012104681292977686 0 0.0031603921431889136 0.0015293039297260785 0 0.0028847466291979824 0.0014965983962075141 0 0.0030563320092787077 0.0011312787148793524 0 0.0032202638106294157 0.0013533350570973212 0 0.0031603921431889136 0.0015293039297260785 0 0.0033860994143876323 0.0015671072654358372 0 0.0035529938420215492 0.0012324525483507522 0 0.0032202638106294157 0.0013533350570973212 0 0.0033860994143876323 0.0015671072654358372 0 0.0036665388547510555 0.00165724393962657 0 0.0035529938420215492 0.0012324525483507522 0 0.0033860994143876323 0.0015671072654358372 0 0.0036665388547510555 0.00165724393962657 0 0.0035529938420215492 0.0012324525483507522 0 0.0038530456295561579 0.0015050230364546046 0 0.0035529938420215492 0.0012324525483507522 0 0.0038530456295561579 0.0015050230364546046 0 0.0039962281033430009 0.0013125256691056484 0 0.0036672237924764862 0.0013146373841939276 0 0.0039663629284259275 0.0013129367220318965 0 0.0037923373133902398 0.0013960101232305773 0 0.0039962281033430009 0.0013125256691056484 0 0.0039262364902090995 0.0012465220258789499 0 0.0038081121383267509 0.0012370434577085214 0 0.0037923373133902398 0.0013960101232305773 0 0.0039262364902090995 0.0012465220258789499 0 0.0039962281033430009 0.0013125256691056484 0 0.0042227779942874211 0.0011018790057920193 0 0.004055878201336194 0.0011469066038394509 0 0.0039962281033430009 0.0013125256691056484 0 0.0039262364902090995 0.0012465220258789499 0 0.004055878201336194 0.0011469066038394509 0 0.0038530456295561579 0.0015050230364546046 0 0.0039962281033430009 0.0013125256691056484 0 0.0041074382743196717 0.0015776578200125723 0 0.0039962281033430009 0.0013125256691056484 0 0.0041074382743196717 0.0015776578200125723 0 0.0042641971882156505 0.0013837588748124977 0 0.0039108745984008965 0.0017424048317557148 0 0.0038530456295561579 0.0015050230364546046 0 0.0041074382743196717 0.0015776578200125723 0 0.0041074382743196717 0.0015776578200125723 0 0.0043269452126521646 0.001572837174442695 0 0.0042641971882156505 0.0013837588748124977 0 0.0045076071320853542 0.0017131979703017433 0 0.0043269452126521646 0.001572837174442695 0 0.0045132854810220587 0.001477867305708553 0 0.0043269452126521646 0.001572837174442695 0 0.0042641971882156505 0.0013837588748124977 0 0.0045132854810220587 0.001477867305708553 0 0.0045076071320853542 0.0017131979703017433 0 0.0047139023386394332 0.0015972894357021189 0 0.0045132854810220587 0.001477867305708553 0 0.0045132854810220587 0.001477867305708553 0 0.0047380098697767476 0.0014047807349914397 0 0.004554979733743413 0.0012383704144367598 0 0.0042641971882156505 0.0013837588748124977 0 0.0045132854810220587 0.001477867305708553 0 0.004554979733743413 0.0012383704144367598 0 0.0047139023386394332 0.0015972894357021189 0 0.0045132854810220587 0.001477867305708553 0 0.0047380098697767476 0.0014047807349914397 0 0.004554979733743413 0.0012383704144367598 0 0.0042227779942874211 0.0011018790057920193 0 0.0047261853712676997 0.00067401827389641799 0 0.004554979733743413 0.0012383704144367598 0 0.0047261853712676997 0.00067401827389641799 0 0.0050055216007467507 0.001057467236529154 0 0.0047380098697767476 0.0014047807349914397 0 0.004554979733743413 0.0012383704144367598 0 0.0050055216007467507 0.001057467236529154 0 0.0042641971882156505 0.0013837588748124977 0 0.004554979733743413 0.0012383704144367598 0 0.0042227779942874211 0.0011018790057920193 0 0.0039962281033430009 0.0013125256691056484 0 0.0042641971882156505 0.0013837588748124977 0 0.0042227779942874211 0.0011018790057920193 0 0.004209865657632577 0.0010715171830309965 0 0.0042090145455199388 0.00067206823753149507 0 0.0042227779942874211 0.0011018790057920193 0 0.0041193313270615111 0.001113563067527706 0 0.004055878201336194 0.0011469066038394509 0 0.0047261853712676997 0.00067401827389641799 0 0.0050705033908062472 4.9857783255582484e-05 0 0.0050055216007467507 0.001057467236529154 0 0.0042227779942874211 0.0011018790057920193 0 0.0047261853712676997 0.00067401827389641799 0 0.0043118352470358284 0.0002432319825971294 0 0.0047261853712676997 0.00067401827389641799 0 0.0046914082178196601 0.00022641702908835713 0 0.0043118352470358284 0.0002432319825971294 0 0.0047347747391368773 -5.3314614020363774e-05 0 0.0052443443840804503 -3.0580589682727963e-05 0 0.0044697817427333105 -0.00054588283488053073 0 0.0047347747391368773 -5.3314614020363774e-05 0 0.0043118352470358284 0.0002432319825971294 0 0.0044697817427333105 -0.00054588283488053073 0 0.005418411496651258 -6.2970674603328442e-05 0 0.0047657751660822589 0.00041020865525464298 0 0.0047261853712676997 0.00067401827389641799 0 0.0050705033908062472 4.9857783255582484e-05 0 0.0046914082178196601 0.00022641702908835713 0 0.0050705033908062472 4.9857783255582484e-05 0 0.0046914082178196601 0.00022641702908835713 0 0.0047347747391368773 -5.3314614020363774e-05 0 0.0046914082178196601 0.00022641702908835713 0 0.0047347747391368773 -5.3314614020363774e-05 0 0.0043118352470358284 0.0002432319825971294 0 0.0050705033908062472 4.9857783255582484e-05 0 0.0047347747391368773 -5.3314614020363774e-05 0 0.0052443443840804503 -3.0580589682727963e-05 0 0.0041193313270615111 0.001113563067527706 0 0.0040831766628543287 0.001078649878823539 0 0.0041068050983742313 0.00105619555211036 0 0.0042090145455199388 0.00067206823753149507 0 0.0047657751660822589 0.00041020865525464298 0 0.0041193313270615111 0.001113563067527706 0 0.0040432792107113836 0.0011018124435339281 0 0.004055878201336194 0.0011469066038394509 0 0.0041193313270615111 0.001113563067527706 0 0.0040432792107113836 0.0011018124435339281 0 0.0040831766628543287 0.001078649878823539 0 0.0040432792107113836 0.0011018124435339281 0 0.0039389878797374397 0.0011392422773099195 0 0.004055878201336194 0.0011469066038394509 0 0.0040432792107113836 0.0011018124435339281 0 0.0039389878797374397 0.0011392422773099195 0 0.0039901417470869678 0.0010583365367267592 0 0.0038174213983455663 0.0011623869916983288 0 0.0039389878797374397 0.0011392422773099195 0 0.0038605678237431623 0.00108708112336696 0 0.0038081121383267509 0.0012370434577085214 0 0.0038174213983455663 0.0011623869916983288 0 0.0039389878797374397 0.0011392422773099195 0 0.0038081121383267509 0.0012370434577085214 0 0.0039389878797374397 0.0011392422773099195 0 0.0039262364902090995 0.0012465220258789499 0 0.0039389878797374397 0.0011392422773099195 0 0.0039262364902090995 0.0012465220258789499 0 0.004055878201336194 0.0011469066038394509 0 0.005065673920823013 -0.000298880284150955 0 0.0050151131214866808 -8.5909905754695334e-05 0 0.0048260980453816056 -0.00022861482417668787 0 0.0054458169794871919 -0.0005462157491977227 0 0.0053989778073945697 -0.00057119888491105185 0 0.0054723197684405462 -0.00055996512610645476 0 0.0051898570043435377 -0.00044417668702816549 0 0.0053658066742594745 -0.00028045261351622306 0 0.0054548882760186721 -0.00057156077565147982 0 0.0054458169794871919 -0.0005462157491977227 0 0.0054162573361521754 -0.00056471621006059494 0 0.0054458169794871919 -0.0005462157491977227 0 0.0054162573361521754 -0.00056471621006059494 0 0.0053989778073945697 -0.00057119888491105185 0 0.0054162573361521754 -0.00056471621006059494 0 0.0053842686941798249 -0.00054367744044138584 0 0.0053989778073945697 -0.00057119888491105185 0 0.0053971698849834375 -0.00058168377081270646 0 0.0054162573361521754 -0.00056471621006059494 0 0.0053842686941798249 -0.00054367744044138584 0 0.0053834165194608175 -0.00056676737153771306 0 0.0053971698849834375 -0.00058168377081270646 0 0.0053842686941798249 -0.00054367744044138584 0 0.005065673920823013 -0.000298880284150955 0 0.0052729214274052829 -0.00021654886583258282 0 0.0051586404792618983 -0.00017228565208675392 0 0.005065673920823013 -0.000298880284150955 0 0.0051586404792618983 -0.00017228565208675392 0 0.0050151131214866808 -8.5909905754695334e-05 0 0.005065673920823013 -0.000298880284150955 0 0.0052729214274052829 -0.00021654886583258282 0 0.0053710780345599882 -0.00043845008526624188 0 0.0052729214274052829 -0.00021654886583258282 0 0.0053610038615497521 -0.00027778248766323896 0 0.0052751773450787727 -0.00010653783524949621 0 0.0052729214274052829 -0.00021654886583258282 0 0.0053710780345599882 -0.00043845008526624188 0 0.0053610038615497521 -0.00027778248766323896 0 0.0053842686941798249 -0.00054367744044138584 0 0.0053834586008863579 -0.00051880884804903415 0 0.0053710780345599882 -0.00043845008526624188 0 0.0051898570043435377 -0.00044417668702816549 0 0.0053931225109309661 -0.00044317238695811782 0 0.0053842686941798249 -0.00054367744044138584 0 0.0053989778073945697 -0.00057119888491105185 0 0.0053710780345599882 -0.00043845008526624188 0 0.0053834165194608175 -0.00056676737153771306 0 0.0053842686941798249 -0.00054367744044138584 0 0.0053834586008863579 -0.00051880884804903415 0 0.0053710780345599882 -0.00043845008526624188 0 0.0054441961346496206 -0.00051189472091114322 0 0.0053610038615497521 -0.00027778248766323896 0 0.0054150923893674426 -0.00056500646453693101 0 0.0053834586008863579 -0.00051880884804903415 0 0.0054441961346496206 -0.00051189472091114322 0 0.0053834586008863579 -0.00051880884804903415 0 0.0053710780345599882 -0.00043845008526624188 0 0.0054441961346496206 -0.00051189472091114322 0 0.0047139023386394332 0.0015972894357021189 0 0.0047380098697767476 0.0014047807349914397 0 0.0049211107376145348 0.0015615831484650153 0 0.0047961037159900055 0.0016839857167839137 0 0.0047139023386394332 0.0015972894357021189 0 0.0049211107376145348 0.0015615831484650153 0 0.0054441961346496206 -0.00051189472091114322 0 0.0053610038615497521 -0.00027778248766323896 0 0.0054012382142592076 -0.0001569158355427891 0 0.0052052436215911267 0.00056597596237470003 0 0.0051820342740921833 0.00040082422596406846 0 0.0047380098697767476 0.0014047807349914397 0 0.0049211107376145348 0.0015615831484650153 0 0.0050055216007467507 0.001057467236529154 0 0.0053610038615497521 -0.00027778248766323896 0 0.0054012382142592076 -0.0001569158355427891 0 0.0052751773450787727 -0.00010653783524949621 0 0.0050705033908062472 4.9857783255582484e-05 0 0.0054012382142592076 -0.0001569158355427891 0 0.0052687382416317001 -4.5517284748465358e-05 0 0.0050813632804879837 4.7767391996570158e-05 0 0.0051820342740921833 0.00040082422596406846 0 0.0054012382142592076 -0.0001569158355427891 0 0.0052687382416317001 -4.5517284748465358e-05 0 0.0052751773450787727 -0.00010653783524949621 0 0.0055697130321360798 5.3634959537830182e-05 0 0.0052654714673842484 8.2001659160537435e-05 0 0.0056029625566526974 0.00019628113053199784 0 0.0050705033908062472 4.9857783255582484e-05 0 0.0052687382416317001 -4.5517284748465358e-05 0 0.0052443443840804503 -3.0580589682727963e-05 0 0.0052687382416317001 -4.5517284748465358e-05 0 0.0052443443840804503 -3.0580589682727963e-05 0 0.0052555431774060652 -7.297411274562746e-05 0 0.005418411496651258 -6.2970674603328442e-05 0 0.005274206481094966 -4.6755666307757723e-05 0 0.0055697130321360798 5.3634959537830182e-05 0 0.0052654714673842484 8.2001659160537435e-05 0 0.0052555431774060652 -7.297411274562746e-05 0 0.0052687382416317001 -4.5517284748465358e-05 0 0.0052555431774060652 -7.297411274562746e-05 0 0.0052751773450787727 -0.00010653783524949621 0 0.0052729214274052829 -0.00021654886583258282 0 0.0052751773450787727 -0.00010653783524949621 0 0.0051586404792618983 -0.00017228565208675392 0 0.0052555431774060652 -7.297411274562746e-05 0 0.0052751773450787727 -0.00010653783524949621 0 0.0051586404792618983 -0.00017228565208675392 0 0.0052555431774060652 -7.297411274562746e-05 0 0.0051586404792618983 -0.00017228565208675392 0 0.0050151131214866808 -8.5909905754695334e-05 0 0.0052654714673842484 8.2001659160537435e-05 0 0.0052555431774060652 -7.297411274562746e-05 0 0.0050151131214866808 -8.5909905754695334e-05 0 0.0056421576388694175 0.0001345883943392163 0 0.0056141619612853008 2.0307552548971984e-05 0 0.0056083596188601084 0.00012798245554110284 0 0.0054579173315065059 0.00010147162541724671 0 0.0052830888678663647 -2.2755369303700513e-05 0 0.0056141619612853008 2.0307552548971984e-05 0 0.0056083596188601084 0.00012798245554110284 0 0.0055544948933309952 5.2018377079136425e-05 0 0.0052830888678663647 -2.2755369303700513e-05 0 0.0053658066742594745 -0.00028045261351622306 0 0.005599650164618694 0.00020214721825501298 0 0.0055731717042800822 0.00014517246226676295 0 0.0055650819320802675 0.00022239948865674264 0 0.0055883236566525397 0.00024610735310311404 0 0.0056257114966485194 0.00024373325131188411 0 0.005599650164618694 0.00020214721825501298 0 0.0056501297469071224 0.00034413464306702623 0 0.0055650819320802675 0.00022239948865674264 0 0.0056083596188601084 0.00012798245554110284 0 0.0055544948933309952 5.2018377079136425e-05 0 0.0055731717042800822 0.00014517246226676295 0 0.005599650164618694 0.00020214721825501298 0 0.0056083596188601084 0.00012798245554110284 0 0.0056095024748861596 0.00019019830113728669 0 0.005599650164618694 0.00020214721825501298 0 0.0056083596188601084 0.00012798245554110284 0 0.0055731717042800822 0.00014517246226676295 0 0.0056083596188601084 0.00012798245554110284 0 0.0056230226967419385 0.00016368993447790891 0 0.0056095024748861596 0.00019019830113728669 0 0.0056421576388694175 0.0001345883943392163 0 0.0056083596188601084 0.00012798245554110284 0 0.0056230226967419385 0.00016368993447790891 0 0.0056230226967419385 0.00016368993447790891 0 0.0056095024748861596 0.00019019830113728669 0 0.0056143256920026703 0.00020112540386893566 0 0.005599650164618694 0.00020214721825501298 0 0.0056095024748861596 0.00019019830113728669 0 0.0055922145388830335 0.00023607247778357156 0 0.0056095024748861596 0.00019019830113728669 0 0.0056143256920026703 0.00020112540386893566 0 0.0055922145388830335 0.00023607247778357156 0 0.0056143256920026703 0.00020112540386893566 0 0.0056127138288614301 0.00023441742868483064 0 0.0055922145388830335 0.00023607247778357156 0 0.0056143256920026703 0.00020112540386893566 0 0.0056234148569584974 0.00018008864247704082 0 0.0056230233667132487 0.00021222473049423046 0 0.0056143256920026703 0.00020112540386893566 0 0.0056230233667132487 0.00021222473049423046 0 0.0056127138288614301 0.00023441742868483064 0 0.0056421576388694175 0.0001345883943392163 0 0.0056234148569584974 0.00018008864247704082 0 0.0056029625566526974 0.00019628113053199784 0 0.0054579173315065059 0.00010147162541724671 0 0.005584520526838963 0.00018857968021577783 0 0.0056230226967419385 0.00016368993447790891 0 0.0056143256920026703 0.00020112540386893566 0 0.0056234148569584974 0.00018008864247704082 0 0.0056421576388694175 0.0001345883943392163 0 0.0056230226967419385 0.00016368993447790891 0 0.0056234148569584974 0.00018008864247704082 0 0.0056234148569584974 0.00018008864247704082 0 0.0056029625566526974 0.00019628113053199784 0 0.0056230233667132487 0.00021222473049423046 0 0.0056029625566526974 0.00019628113053199784 0 0.0056230233667132487 0.00021222473049423046 0 0.0056426608160911147 0.00021760401260485386 0 0.0056230233667132487 0.00021222473049423046 0 0.0056426608160911147 0.00021760401260485386 0 0.0056508139418912319 0.00024226851949445697 0 0.0056230233667132487 0.00021222473049423046 0 0.0056421982421538475 0.00026136054816861763 0 0.0056127138288614301 0.00023441742868483064 0 0.0056230233667132487 0.00021222473049423046 0 0.0056421982421538475 0.00026136054816861763 0 0.0056508139418912319 0.00024226851949445697 0 0.0056421982421538475 0.00026136054816861763 0 0.0056463425161736641 0.00031984891460474759 0 0.0056784265793266807 0.00026762673431924905 0 0.0056421982421538475 0.00026136054816861763 0 0.0056463425161736641 0.00031984891460474759 0 0.0055999023291132249 0.0002742079146365824 0 0.0055669580891057769 0.00032455730781869762 0 0.0056317439122368085 0.00028233766292631325 0 0.0056463425161736641 0.00031984891460474759 0 0.0055999023291132249 0.0002742079146365824 0 0.0055540445692541266 0.0004257202396446046 0 0.0056421982421538475 0.00026136054816861763 0 0.0055999023291132249 0.0002742079146365824 0 0.0056127138288614301 0.00023441742868483064 0 0.0055999023291132249 0.0002742079146365824 0 0.0056127138288614301 0.00023441742868483064 0 0.0055922145388830335 0.00023607247778357156 0 0.0055922145388830335 0.00023607247778357156 0 0.0055847709396537508 0.0002926488408579538 0 0.0055606537763722022 0.0002568800762449804 0 0.005599650164618694 0.00020214721825501298 0 0.0055922145388830335 0.00023607247778357156 0 0.0055606537763722022 0.0002568800762449804 0 0.0055999023291132249 0.0002742079146365824 0 0.0055922145388830335 0.00023607247778357156 0 0.0055847709396537508 0.0002926488408579538 0 0.0055999023291132249 0.0002742079146365824 0 0.0055847709396537508 0.0002926488408579538 0 0.0056041961512326771 0.00034991866750064108 0 0.0055847709396537508 0.0002926488408579538 0 0.00556931493377488 0.00032892286873364621 0 0.0056041961512326771 0.00034991866750064108 0 0.0055847709396537508 0.0002926488408579538 0 0.00556931493377488 0.00032892286873364621 0 0.0055492483690794256 0.00030377729353790826 0 0.0055847709396537508 0.0002926488408579538 0 0.0055492483690794256 0.00030377729353790826 0 0.0055606537763722022 0.0002568800762449804 0 0.0055492483690794256 0.00030377729353790826 0 0.0055209975267081013 0.00028840517307886037 0 0.0055606537763722022 0.0002568800762449804 0 0.0055209975267081013 0.00028840517307886037 0 0.0055244945223921395 0.00024563317331815137 0 0.0054651574623241096 0.00030864223739242384 0 0.0055492483690794256 0.00030377729353790826 0 0.0055073276591599777 0.0003319076217874697 0 0.0055374982475385678 0.0003647447612965234 0 0.00556931493377488 0.00032892286873364621 0 0.0055492483690794256 0.00030377729353790826 0 0.0055374982475385678 0.0003647447612965234 0 0.0055492483690794256 0.00030377729353790826 0 0.0055073276591599777 0.0003319076217874697 0 0.0055209975267081013 0.00028840517307886037 0 0.0055073276591599777 0.0003319076217874697 0 0.0055209975267081013 0.00028840517307886037 0 0.0054651574623241096 0.00030864223739242384 0 0.0055209975267081013 0.00028840517307886037 0 0.0055606537763722022 0.0002568800762449804 0 0.0055244945223921395 0.00024563317331815137 0 0.005599650164618694 0.00020214721825501298 0 0.0055606537763722022 0.0002568800762449804 0 0.0055244945223921395 0.00024563317331815137 0 0.0039394021704432175 0.0011715363820969144 0 0.0039541707739752154 0.0011295351350887992 0 0.0038431867661181066 0.0011156253464807459 0 0.0039653026551770727 0.0011740133950586618 0 0.0039541707739752154 0.0011295351350887992 0 0.0040552888089816228 0.0011023743156013568 0 0.0039407489498746954 0.0010956266780374822 0 0.0042419929038477276 0.00091870844055462659 0 0.0039394021704432175 0.0011715363820969144 0 0.0039653026551770727 0.0011740133950586618 0 0.0040657789777640181 0.0012477546168022033 0 0.0039394021704432175 0.0011715363820969144 0 0.0039653026551770727 0.0011740133950586618 0 0.0039541707739752154 0.0011295351350887992 0 0.0039625295131756697 0.00099151032449082887 0 0.003856544253739855 0.0010172173951520857 0 0.0038354813725881886 0.0009457738790692266 0 0.0039407489498746954 0.0010956266780374822 0 0.0038416272694470014 0.0010130671913970435 0 0.0037397059662373118 0.00099451683493599727 0 0.003856544253739855 0.0010172173951520857 0 0.0038354813725881886 0.0009457738790692266 0 0.0039625295131756697 0.00099151032449082887 0 0.003856544253739855 0.0010172173951520857 0 0.0038605678237431623 0.00108708112336696 0 0.0039389878797374397 0.0011392422773099195 0 0.0038605678237431623 0.00108708112336696 0 0.0039901417470869678 0.0010583365367267592 0 0.0037143374832557794 0.0010977075094887908 0 0.003856544253739855 0.0010172173951520857 0 0.0038605678237431623 0.00108708112336696 0 0.0039625295131756697 0.00099151032449082887 0 0.0039901417470869678 0.0010583365367267592 0 0.0040766638046944225 0.0010347157288083005 0 0.0039625295131756697 0.00099151032449082887 0 0.0038605678237431623 0.00108708112336696 0 0.0039901417470869678 0.0010583365367267592 0 0.0040432792107113836 0.0011018124435339281 0 0.0039901417470869678 0.0010583365367267592 0 0.0040471995927695301 0.0010674064049975252 0 0.0046592653091337265 0.0006634907330881377 0 0.0046787272013304425 0.0006774186165910864 0 0.0046546156461956889 0.00071011586673677197 0 0.0040432792107113836 0.0011018124435339281 0 0.0040471995927695301 0.0010674064049975252 0 0.0040831766628543287 0.001078649878823539 0 0.0040471995927695301 0.0010674064049975252 0 0.0040802356585518795 0.0010609700328117698 0 0.0040756455917259392 0.0010423103322473102 0 0.0040471995927695301 0.0010674064049975252 0 0.0040831766628543287 0.001078649878823539 0 0.0040802356585518795 0.0010609700328117698 0 0.0041068050983742313 0.00105619555211036 0 0.0040802356585518795 0.0010609700328117698 0 0.0040756455917259392 0.0010423103322473102 0 0.0040831766628543287 0.001078649878823539 0 0.0041068050983742313 0.00105619555211036 0 0.0040802356585518795 0.0010609700328117698 0 0.0047657751660822589 0.00041020865525464298 0 0.0042419929038477276 0.00091870844055462659 0 0.0041068050983742313 0.00105619555211036 0 0.0040756455917259392 0.0010423103322473102 0 0.0040767660681734121 0.0010359588125305487 0 0.0039901417470869678 0.0010583365367267592 0 0.0040471995927695301 0.0010674064049975252 0 0.0040766638046944225 0.0010347157288083005 0 0.0040471995927695301 0.0010674064049975252 0 0.0040756455917259392 0.0010423103322473102 0 0.0040766638046944225 0.0010347157288083005 0 0.0042363639125065893 0.00093172880268986027 0 0.0042419929038477276 0.00091870844055462659 0 0.0056029625566526974 0.00019628113053199784 0 0.0057033355651863529 0.0001690663190147661 0 0.0056426608160911147 0.00021760401260485386 0 0.0055697130321360798 5.3634959537830182e-05 0 0.0056029625566526974 0.00019628113053199784 0 0.0057033355651863529 0.0001690663190147661 0 0.0047657751660822589 0.00041020865525464298 0 0.0051779757233127565 0.00041897524677634277 0 0.0057033355651863529 0.0001690663190147661 0 0.0056426608160911147 0.00021760401260485386 0 0.0056739560563486263 0.00023292565095019323 0 0.0056426608160911147 0.00021760401260485386 0 0.0056739560563486263 0.00023292565095019323 0 0.0056508139418912319 0.00024226851949445697 0 0.0039653026551770727 0.0011740133950586618 0 0.0040657789777640181 0.0012477546168022033 0 0.0040950540753840877 0.0010710308756850906 0 0.0039073461106207651 0.001212893152096697 0 0.0042536327091013135 0.00098729951809041223 0 0.0042419929038477276 0.00091870844055462659 0 0.0042536327091013135 0.00098729951809041223 0 0.0046787272013304425 0.0006774186165910864 0 0.0046546156461956889 0.00071011586673677197 0 0.004670701414461742 0.00074139331577678799 0 0.0040552888089816228 0.0011023743156013568 0 0.004060512025578885 0.0010693433406348243 0 0.0039808594613177642 0.0010963069915660257 0 0.0039541707739752154 0.0011295351350887992 0 0.0040552888089816228 0.0011023743156013568 0 0.0039808594613177642 0.0010963069915660257 0 0.0042536327091013135 0.00098729951809041223 0 0.00405518117440163 0.0012996683736631257 0 0.0042300670444513208 0.0011480532393409093 0 0.0042662036514802236 0.00091035951022915538 0 0.0045590844828040603 0.00092320346950340029 0 0.0056421982421538475 0.00026136054816861763 0 0.0056508139418912319 0.00024226851949445697 0 0.0056620912082437826 0.00026372405597278236 0 0.0056739560563486263 0.00023292565095019323 0 0.0056508139418912319 0.00024226851949445697 0 0.0056620912082437826 0.00026372405597278236 0 0.005902252519854787 0.00028375806071069114 0 0.0048545336808801234 0.00072804386677973051 0 0.0046546156461956889 0.00071011586673677197 0 0.004670701414461742 0.00074139331577678799 0 0.0046502530200217083 0.0007564225625372585 0 0.0051779757233127565 0.00041897524677634277 0 0.0048545336808801234 0.00072804386677973051 0 0.0042536327091013135 0.00098729951809041223 0 0.0048545336808801234 0.00072804386677973051 0 0.0041105598397832687 0.0011839541708274577 0 0.0040676252869433346 0.0012019809973997343 0 0.0040712864124101524 0.001180436364026017 0 0.00405518117440163 0.0012996683736631257 0 0.0048545336808801234 0.00072804386677973051 0 0.0047134910692480407 0.00097322413457708241 0 0.0048545336808801234 0.00072804386677973051 0 0.0048295745232696018 0.00078052064449351524 0 0.0048545336808801234 0.00072804386677973051 0 0.0041105598397832687 0.0011839541708274577 0 0.0040676252869433346 0.0012019809973997343 0 0.0040481667338668698 0.0012632306999932814 0 0.0041105598397832687 0.0011839541708274577 0 0.0040481667338668698 0.0012632306999932814 0 0.0040735681577977615 0.0013278804727029068 0 0.0039806667183678035 0.0012639098227129929 0 0.0040676252869433346 0.0012019809973997343 0 0.0040708569417075681 0.0011807055031061407 0 0.0039806667183678035 0.0012639098227129929 0 0.0040676252869433346 0.0012019809973997343 0 0.0040481667338668698 0.0012632306999932814 0 0.0039063944288325924 0.001918472224988349 0 0.0038606106637961331 0.001782261074610749 0 0.0039463785652428373 0.0016611261147732048 0 0.0039063944288325924 0.001918472224988349 0 0.0038606106637961331 0.001782261074610749 0 0.0036390024979653861 0.0019108833270755578 0 0.00405518117440163 0.0012996683736631257 0 0.0039984799693865303 0.0015524276638973825 0 0.0036390024979653861 0.0019108833270755578 0 0.0036004613327065079 0.0017118083965267179 0 0.0037484386730176206 0.0017130374219326316 0 0.0038606106637961331 0.001782261074610749 0 0.0036390024979653861 0.0019108833270755578 0 0.0037484386730176206 0.0017130374219326316 0 0.00405518117440163 0.0012996683736631257 0 0.0037425065698732302 0.0015490809295081553 0 0.004060512025578885 0.0010693433406348243 0 0.0039808594613177642 0.0010963069915660257 0 0.0039048145822599234 0.0010621730678572704 0 0.0039541707739752154 0.0011295351350887992 0 0.0039808594613177642 0.0010963069915660257 0 0.0039048145822599234 0.0010621730678572704 0 0.0036274119352767437 0.0012037746321942571 0 0.0037425065698732302 0.0015490809295081553 0 0.0039541707739752154 0.0011295351350887992 0 0.0038431867661181066 0.0011156253464807459 0 0.0039048145822599234 0.0010621730678572704 0 0.003743513536633439 0.0010567602618988881 0 0.0038431867661181066 0.0011156253464807459 0 0.0039048145822599234 0.0010621730678572704 0 0.0034867302691972851 0.0017848911126757 0 0.0036390024979653861 0.0019108833270755578 0 0.0036004613327065079 0.0017118083965267179 0 0.0034867302691972851 0.0017848911126757 0 0.0036004613327065079 0.0017118083965267179 0 0.003464877040503753 0.0016725408248578131 0 0.0036004613327065079 0.0017118083965267179 0 0.0035771360068196445 0.00159574165369539 0 0.0036945437901933025 0.0016053842885296583 0 0.0035771360068196445 0.00159574165369539 0 0.003464877040503753 0.0016725408248578131 0 0.0034932087313317589 0.0015792167707254447 0 0.0036004613327065079 0.0017118083965267179 0 0.0035771360068196445 0.00159574165369539 0 0.003464877040503753 0.0016725408248578131 0 0.0035771360068196445 0.00159574165369539 0 0.0036945437901933025 0.0016053842885296583 0 0.0035987226794436081 0.001445003009146964 0 0.0035771360068196445 0.00159574165369539 0 0.0035987226794436081 0.001445003009146964 0 0.0034932087313317589 0.0015792167707254447 0 0.0034594719555025742 0.0015880927359269389 0 0.0033991143848043797 0.0015355062859023741 0 0.0035987226794436081 0.001445003009146964 0 0.0034932087313317589 0.0015792167707254447 0 0.0034562409512967148 0.0015020678324807813 0 0.003810421769814192 0.0015278251419015595 0 0.0034594719555025742 0.0015880927359269389 0 0.0037698699175000151 0.0015102524475938046 0 0.0036945437901933025 0.0016053842885296583 0 0.0035987226794436081 0.001445003009146964 0 0.0037698699175000151 0.0015102524475938046 0 0.0036945437901933025 0.0016053842885296583 0 0.0038319140543564166 0.0016315149294174672 0 0.0036945437901933025 0.0016053842885296583 0 0.0037484386730176206 0.0017130374219326316 0 0.0038319140543564166 0.0016315149294174672 0 0.0036004613327065079 0.0017118083965267179 0 0.0036945437901933025 0.0016053842885296583 0 0.0037484386730176206 0.0017130374219326316 0 0.0038606106637961331 0.001782261074610749 0 0.0037484386730176206 0.0017130374219326316 0 0.0038472478656836331 0.0016968231446809784 0 0.0037484386730176206 0.0017130374219326316 0 0.0038472478656836331 0.0016968231446809784 0 0.0038319140543564166 0.0016315149294174672 0 0.0038606106637961331 0.001782261074610749 0 0.0038472478656836331 0.0016968231446809784 0 0.0039463785652428373 0.0016611261147732048 0 0.0038472478656836331 0.0016968231446809784 0 0.0038319140543564166 0.0016315149294174672 0 0.0039463785652428373 0.0016611261147732048 0 0.0038319140543564166 0.0016315149294174672 0 0.0039463785652428373 0.0016611261147732048 0 0.0039408755537243675 0.0015856151466830113 0 0.0039806667183678035 0.0012639098227129929 0 0.0040481667338668698 0.0012632306999932814 0 0.0040142623157180465 0.0013345348470398095 0 0.0040481667338668698 0.0012632306999932814 0 0.0040735681577977615 0.0013278804727029068 0 0.0040142623157180465 0.0013345348470398095 0 0.0040735681577977615 0.0013278804727029068 0 0.0040142623157180465 0.0013345348470398095 0 0.0040192180410879965 0.0013805066595551823 0 0.0040735681577977615 0.0013278804727029068 0 0.0040192180410879965 0.0013805066595551823 0 0.0039980894199347326 0.001435513631645935 0 0.0039463785652428373 0.0016611261147732048 0 0.0039408755537243675 0.0015856151466830113 0 0.0039980894199347326 0.001435513631645935 0 0.0039984799693865303 0.0015524276638973825 0 0.004006068780612001 0.0014083719144383333 0 0.0040142623157180465 0.0013345348470398095 0 0.0040192180410879965 0.0013805066595551823 0 0.0039912375884878365 0.0013836259105751258 0 0.0040192180410879965 0.0013805066595551823 0 0.0039998093842145647 0.0014102605376207311 0 0.0039912375884878365 0.0013836259105751258 0 0.0040192180410879965 0.0013805066595551823 0 0.0039998093842145647 0.0014102605376207311 0 0.0039980894199347326 0.001435513631645935 0 0.0037698699175000151 0.0015102524475938046 0 0.0038319140543564166 0.0016315149294174672 0 0.0039408755537243675 0.0015856151466830113 0 0.003810421769814192 0.0015278251419015595 0 0.0039176417558996991 0.0015765136716099542 0 0.0039408755537243675 0.0015856151466830113 0 0.0039054389468710683 0.0014957364210730268 0 0.0039980894199347326 0.001435513631645935 0 0.0038039353967462739 0.001538242201856834 0 0.0039408755537243675 0.0015856151466830113 0 0.0039054389468710683 0.0014957364210730268 0 0.0038039353967462739 0.001538242201856834 0 0.0039054389468710683 0.0014957364210730268 0 0.0038763026919194257 0.0014004385968359365 0 0.0039054389468710683 0.0014957364210730268 0 0.0038763026919194257 0.0014004385968359365 0 0.0039980894199347326 0.001435513631645935 0 0.0031125987457437964 0.002045736474286455 0 0.0035781565311050877 0.0018325813676729403 0 0.0030585097158865272 0.0022253616687949074 0 0.0030060829052212619 0.00223758844227209 0 0.0029894397090996965 0.0022602977986218888 0 0.0031125987457437964 0.002045736474286455 0 0.0021456935772507942 0.0029908096839274994 0 0.0039998093842145647 0.0014102605376207311 0 0.0039978836051386326 0.0014262031694686618 0 0.0039832542988008516 0.0014178411909270968 0 0.0039998093842145647 0.0014102605376207311 0 0.0039978836051386326 0.0014262031694686618 0 0.0039980894199347326 0.001435513631645935 0 0.0038763026919194257 0.0014004385968359365 0 0.0039980894199347326 0.001435513631645935 0 0.0039976534404001784 0.0014112837745055117 0 0.0039978836051386326 0.0014262031694686618 0 0.0039980894199347326 0.001435513631645935 0 0.0039976534404001784 0.0014112837745055117 0 0.0030060829052212619 0.00223758844227209 0 0.0029894397090996965 0.0022602977986218888 0 0.0029564770217085199 0.0022491844901092284 0 0.0035781565311050877 0.0018325813676729403 0 0.0033436344578239743 0.0021648096809928782 0 0.0039976534404001784 0.0014112837745055117 0 0.0039788772418292992 0.0014474381740677122 0 0.0039903828448888835 0.0014287143186580758 0 0.0039978836051386326 0.0014262031694686618 0 0.0039976534404001784 0.0014112837745055117 0 0.0039903828448888835 0.0014287143186580758 0 0.0021456935772507942 0.0029908096839274994 0 0.0017298939128702667 0.0035373040343067074 0 0.0013737118036054429 0.0042796469911481807 0 0.001293908827092433 0.0042577990700980988 0 0.0013564425149461723 0.0042223475952508508 0 0.002269763544814798 0.0026673693911533169 0 0.0021328681699058364 0.0027260609777355576 0 0.0022645671042840266 0.0027736009823407927 0 0.002269763544814798 0.0026673693911533169 0 0.0022645671042840266 0.0027736009823407927 0 0.0023478005868497777 0.002720740966118366 0 0.0017298939128702667 0.0035373040343067074 0 0.001813409174108755 0.0035488172303357901 0 0.0022645671042840266 0.0027736009823407927 0 0.0023478005868497777 0.002720740966118366 0 0.0023971913561603706 0.0028254016176014968 0 0.0023478005868497777 0.002720740966118366 0 0.0024804415526948767 0.002691874353021042 0 0.0023971913561603706 0.0028254016176014968 0 0.0024804415526948767 0.002691874353021042 0 0.0023971913561603706 0.0028254016176014968 0 0.0025469533654917061 0.0027535923337302184 0 0.0024804415526948767 0.002691874353021042 0 0.0024042867804850614 0.0026456928050694541 0 0.0025459057181216591 0.0026226420009828897 0 0.0030250814009501765 0.0020179713387008607 0 0.0030348213488275984 0.0020072846889553444 0 0.0030022981990756744 0.0020087862793979265 0 0.0026090329487089259 0.0023638457038411814 0 0.0028781836692918883 0.002051995221420549 0 0.0033501649840783358 0.0015585707527712043 0 0.0033285278019458981 0.0015662144431658734 0 0.0033295568331017148 0.0015497571069190144 0 0.0034594719555025742 0.0015880927359269389 0 0.0028781836692918883 0.002051995221420549 0 0.0031125987457437964 0.002045736474286455 0 0.0026090329487089259 0.0023638457038411814 0 0.0030671526340779252 0.002006235800872759 0 0.0030250814009501765 0.0020179713387008607 0 0.0030348213488275984 0.0020072846889553444 0 0.0023478005868497777 0.002720740966118366 0 0.0024804415526948767 0.002691874353021042 0 0.0024042867804850614 0.0026456928050694541 0 0.002269763544814798 0.0026673693911533169 0 0.0023478005868497777 0.002720740966118366 0 0.0024042867804850614 0.0026456928050694541 0 0.0031125987457437964 0.002045736474286455 0 0.0034594719555025742 0.0015880927359269389 0 0.0038039353967462739 0.001538242201856834 0 0.0038763026919194257 0.0014004385968359365 0 0.0036515404669715998 0.0014825866309298005 0 0.0054666571629777691 0.00040492600305909096 0 0.0055516422543869228 0.0004715675056980532 0 0.0054822573575406446 0.00052919614098121033 0 0.0045304842212869189 0.00083802741052278946 0 0.0043261874988809552 0.0015010500772137544 0 0.0048838599429544497 0.00083703255366721996 0 0.0043261874988809552 0.0015010500772137544 0 0.0054666571629777691 0.00040492600305909096 0 0.0055374982475385678 0.0003647447612965234 0 0.0055516422543869228 0.0004715675056980532 0 0.0055073276591599777 0.0003319076217874697 0 0.0054666571629777691 0.00040492600305909096 0 0.0055374982475385678 0.0003647447612965234 0 0.0055374982475385678 0.0003647447612965234 0 0.0056041961512326771 0.00034991866750064108 0 0.0055516422543869228 0.0004715675056980532 0 0.0054937641707995125 0.00039135963118788368 0 0.0053817273899495251 0.00057237783978865051 0 0.0055540445692541266 0.0004257202396446046 0 0.0056317439122368085 0.00028233766292631325 0 0.0048838599429544497 0.00083703255366721996 0 0.00556931493377488 0.00032892286873364621 0 0.0055374982475385678 0.0003647447612965234 0 0.0056041961512326771 0.00034991866750064108 0 0.0048838599429544497 0.00083703255366721996 0 0.0046726259861563906 0.0009131129483289336 0 0.0038166189736394767 0.001391545576376013 0 0.0039214450206270885 0.0014032426063962833 0 0.0039126796348018739 0.0013246070224495236 0 0.0038166189736394767 0.001391545576376013 0 0.0039214450206270885 0.0014032426063962833 0 0.0038387720699284635 0.0014732145579596616 0 0.0039214450206270885 0.0014032426063962833 0 0.0039126796348018739 0.0013246070224495236 0 0.0039649084479133588 0.0013518370030479302 0 0.0039214450206270885 0.0014032426063962833 0 0.003963638227786964 0.0013953772862866571 0 0.0039520973346168385 0.0014209403130782607 0 0.0039214450206270885 0.0014032426063962833 0 0.0039649084479133588 0.0013518370030479302 0 0.003963638227786964 0.0013953772862866571 0 0.0055999023291132249 0.0002742079146365824 0 0.0054937641707995125 0.00039135963118788368 0 0.0055540445692541266 0.0004257202396446046 0 0.0048295745232696018 0.00078052064449351524 0 0.0046726259861563906 0.0009131129483289336 0 0.0039806667183678035 0.0012639098227129929 0 0.0039126796348018739 0.0013246070224495236 0 0.0039649084479133588 0.0013518370030479302 0 0.0039806667183678035 0.0012639098227129929 0 0.0040142623157180465 0.0013345348470398095 0 0.0039649084479133588 0.0013518370030479302 0 0.0040142623157180465 0.0013345348470398095 0 0.0039649084479133588 0.0013518370030479302 0 0.0039912375884878365 0.0013836259105751258 0 0.0039649084479133588 0.0013518370030479302 0 0.0039912375884878365 0.0013836259105751258 0 0.003963638227786964 0.0013953772862866571 0 0.0039912375884878365 0.0013836259105751258 0 0.003963638227786964 0.0013953772862866571 0 0.0039832542988008516 0.0014178411909270968 0 0.0039998093842145647 0.0014102605376207311 0 0.0039912375884878365 0.0013836259105751258 0 0.0039832542988008516 0.0014178411909270968 0 0.0039978836051386326 0.0014262031694686618 0 0.0039832542988008516 0.0014178411909270968 0 0.0039903828448888835 0.0014287143186580758 0 0.0039832542988008516 0.0014178411909270968 0 0.0039638333467243245 0.0014345661564012767 0 0.0039775456018011947 0.0014345927013828341 0 0.0039832542988008516 0.0014178411909270968 0 0.0039775456018011947 0.0014345927013828341 0 0.0039903828448888835 0.0014287143186580758 0 0.0039832542988008516 0.0014178411909270968 0 0.0039520973346168385 0.0014209403130782607 0 0.0039638333467243245 0.0014345661564012767 0 0.003963638227786964 0.0013953772862866571 0 0.0039832542988008516 0.0014178411909270968 0 0.0039520973346168385 0.0014209403130782607 0 0.0039638333467243245 0.0014345661564012767 0 0.0039701879826691726 0.0014480772372248466 0 0.0039775456018011947 0.0014345927013828341 0 0.0039638333467243245 0.0014345661564012767 0 0.0039701879826691726 0.0014480772372248466 0 0.0039408273062814542 0.0014585124009618684 0 0.0039701879826691726 0.0014480772372248466 0 0.0039764860526208066 0.0014505016993518857 0 0.0039408273062814542 0.0014585124009618684 0 0.0039520973346168385 0.0014209403130782607 0 0.0039638333467243245 0.0014345661564012767 0 0.0039408273062814542 0.0014585124009618684 0 0.003430286156279219 0.0021400773565736363 0 0.0033436344578239743 0.0021648096809928782 0 0.0039701879826691726 0.0014480772372248466 0 0.0039788772418292992 0.0014474381740677122 0 0.0039775456018011947 0.0014345927013828341 0 0.0039788772418292992 0.0014474381740677122 0 0.0039775456018011947 0.0014345927013828341 0 0.0039903828448888835 0.0014287143186580758 0 0.0025804546355022487 0.002827568635804033 0 0.002807870650243217 0.0029096755748667519 0 0.0030011971149631485 0.0026653038980279636 0 0.0021456935772507942 0.0029908096839274994 0 0.0033436344578239743 0.0021648096809928782 0 0.0013737118036054429 0.0042796469911481807 0 0.0014500713149529101 0.0042491938099098884 0 0.0013564425149461723 0.0042223475952508508 0 0.0021456935772507942 0.0029908096839274994 0 0.0026038471413514994 0.0035759118170096888 0 0.0033436344578239743 0.0021648096809928782 0 0.0035139620686245429 0.0022084611752817519 0 0.002807870650243217 0.0029096755748667519 0 0.0030011971149631485 0.0026653038980279636 0 0.0030718671485329887 0.002875573600303662 0 0.0035139620686245429 0.0022084611752817519 0 0.0036479456592725073 0.0023880820131262095 0 0.0032219627918506979 0.0032607052625378795 0 0.003307291338606278 0.0031724470166942624 0 0.0033770031298069 0.0032418442871848382 0 0.0026038471413514994 0.0035759118170096888 0 0.0035139620686245429 0.0022084611752817519 0 0.0032219627918506979 0.0032607052625378795 0 0.0032457259183659693 0.003150972599506733 0 0.003307291338606278 0.0031724470166942624 0 0.0031905629173237661 0.0031722333993224991 0 0.0032219627918506979 0.0032607052625378795 0 0.0032457259183659693 0.003150972599506733 0 0.0026038471413514994 0.0035759118170096888 0 0.0031364917097278316 0.0033074842068403151 0 0.0032457259183659693 0.003150972599506733 0 0.003307291338606278 0.0031724470166942624 0 0.0033067720798492378 0.0030824653646270789 0 0.0039214450206270885 0.0014032426063962833 0 0.0039639807174085698 0.0015334593222841688 0 0.0039003728968945166 0.0014859697922296911 0 0.0039214450206270885 0.0014032426063962833 0 0.0039520973346168385 0.0014209403130782607 0 0.0039408273062814542 0.0014585124009618684 0 0.0039393206654165938 0.0011838780207445686 0 0.0035139620686245429 0.0022084611752817519 0 0.0039639807174085698 0.0015334593222841688 0 0.0039003728968945166 0.0014859697922296911 0 0.0038679526993536961 0.0015439025814086519 0 0.0038387720699284635 0.0014732145579596616 0 0.0038679526993536961 0.0015439025814086519 0 0.0037730805662942145 0.0015599038583977006 0 0.0039214450206270885 0.0014032426063962833 0 0.0039003728968945166 0.0014859697922296911 0 0.0038387720699284635 0.0014732145579596616 0 0.0039003728968945166 0.0014859697922296911 0 0.0038387720699284635 0.0014732145579596616 0 0.0038679526993536961 0.0015439025814086519 0 0.0036479456592725073 0.0023880820131262095 0 0.0035522842544146488 0.0024618461988194585 0 0.0033770031298069 0.0032418442871848382 0 0.0034457325872527854 0.0031639370765769838 0 0.0035296974921119047 0.0032185413854424806 0 0.0033770031298069 0.0032418442871848382 0 0.0034457325872527854 0.0031639370765769838 0 0.0033881322326000541 0.00312077865566277 0 0.003307291338606278 0.0031724470166942624 0 0.0033770031298069 0.0032418442871848382 0 0.0033881322326000541 0.00312077865566277 0 0.0034620280012635212 0.0024915850072054282 0 0.0033699491775536182 0.0026067082200084131 0 0.0034883812572933269 0.0026938514782626761 0 0.0034457325872527854 0.0031639370765769838 0 0.0035296974921119047 0.0032185413854424806 0 0.0034863056927163993 0.0030535184209851927 0 0.0038614818989111 0.0024061820074091959 0 0.0035856361141946604 0.0023909405593777236 0 0.0032877774682653184 0.0024674218232253772 0 0.0035522842544146488 0.0024618461988194585 0 0.0034954959304106196 0.0029383350137022874 0 0.0035522842544146488 0.0024618461988194585 0 0.003358232517294858 0.0024664955326676426 0 0.0034620280012635212 0.0024915850072054282 0 0.0033699491775536182 0.0026067082200084131 0 0.0032877774682653184 0.0024674218232253772 0 0.0038614818989111 0.0024061820074091959 0 0.0035856361141946604 0.0023909405593777236 0 0.0037703350434525906 0.002067815630352598 0 0.0035856361141946604 0.0023909405593777236 0 0.0037564626449707044 0.0021061887902681653 0 0.003466864965174571 0.0021149356735209596 0 0.0035906175356210132 0.0023889913140042996 0 0.0039054314178885358 0.0018520432256608204 0 0.0048838599429544497 0.00083703255366721996 0 0.0039054314178885358 0.0018520432256608204 0 0.0047317238152304528 0.00090375036921145951 0 0.0042141559255230374 0.0018086680524608148 0 0.0041019973195009244 0.0013952240408718719 0 0.0038166189736394767 0.001391545576376013 0 0.0038387720699284635 0.0014732145579596616 0 0.0037565628599289342 0.001488173780494696 0 0.0035522842544146488 0.0024618461988194585 0 0.0039054314178885358 0.0018520432256608204 0 0.0038387720699284635 0.0014732145579596616 0 0.0037730805662942145 0.0015599038583977006 0 0.0037565628599289342 0.001488173780494696 0 0.0043261874988809552 0.0015010500772137544 0 0.0034152902171013856 0.0021718935124937088 0 0.0037564626449707044 0.0021061887902681653 0 0.0037088872106255241 0.0019246245795775635 0 0.003466864965174571 0.0021149356735209596 0 0.0039054314178885358 0.0018520432256608204 0 0.0043261874988809552 0.0015010500772137544 0 0.0026008533712917367 0.0036220594193895833 0 0.0021866186264819691 0.0041085070464719868 0 0.0034150407189190027 0.0028187456585362035 0 0.0034612778861539896 0.0028547891785582376 0 0.0033120258436724723 0.0028780750158638319 0 0.0034150407189190027 0.0028187456585362035 0 0.0034883812572933269 0.0026938514782626761 0 0.0034474888138766083 0.0028705930476898246 0 0.0034150407189190027 0.0028187456585362035 0 0.0033306077683211621 0.0027417217545138229 0 0.0033120258436724723 0.0028780750158638319 0 0.0034150407189190027 0.0028187456585362035 0 0.0034883812572933269 0.0026938514782626761 0 0.0033306077683211621 0.0027417217545138229 0 0.0033699491775536182 0.0026067082200084131 0 0.0034883812572933269 0.0026938514782626761 0 0.0033306077683211621 0.0027417217545138229 0 0.0034863056927163993 0.0030535184209851927 0 0.003410191869892807 0.003021903823683887 0 0.0034474888138766083 0.0028705930476898246 0 0.0034457325872527854 0.0031639370765769838 0 0.0034863056927163993 0.0030535184209851927 0 0.0033881322326000541 0.00312077865566277 0 0.0034863056927163993 0.0030535184209851927 0 0.0033881322326000541 0.00312077865566277 0 0.003410191869892807 0.003021903823683887 0 0.0033881322326000541 0.00312077865566277 0 0.003410191869892807 0.003021903823683887 0 0.0033067720798492378 0.0030824653646270789 0 0.003410191869892807 0.003021903823683887 0 0.003386669728752653 0.00294127445655335 0 0.0033192732280856729 0.0029961238642738741 0 0.003410191869892807 0.003021903823683887 0 0.0033192732280856729 0.0029961238642738741 0 0.0033067720798492378 0.0030824653646270789 0 0.003386669728752653 0.00294127445655335 0 0.0033566852024341049 0.0028949172432876022 0 0.0033192732280856729 0.0029961238642738741 0 0.0033566852024341049 0.0028949172432876022 0 0.0032522916566205024 0.0027901661822782083 0 0.0034612778861539896 0.0028547891785582376 0 0.0034954959304106196 0.0029383350137022874 0 0.0034504443853444343 0.002837959105536917 0 0.003410191869892807 0.003021903823683887 0 0.003386669728752653 0.00294127445655335 0 0.0034474888138766083 0.0028705930476898246 0 0.0034474888138766083 0.0028705930476898246 0 0.0033566852024341049 0.0028949172432876022 0 0.0034612778861539896 0.0028547891785582376 0 0.0034150407189190027 0.0028187456585362035 0 0.0034474888138766083 0.0028705930476898246 0 0.0034612778861539896 0.0028547891785582376 0 0.003386669728752653 0.00294127445655335 0 0.0034474888138766083 0.0028705930476898246 0 0.0033566852024341049 0.0028949172432876022 0 0.0033566852024341049 0.0028949172432876022 0 0.0032518205217200191 0.002940502331384313 0 0.0032522916566205024 0.0027901661822782083 0 0.0032518205217200191 0.002940502331384313 0 0.0031071829545042456 0.0029685586175731693 0 0.0032522916566205024 0.0027901661822782083 0 0.0032518205217200191 0.002940502331384313 0 0.0032256237229322296 0.0030507949619269325 0 0.0031071829545042456 0.0029685586175731693 0 0.0033566852024341049 0.0028949172432876022 0 0.0032518205217200191 0.002940502331384313 0 0.0033192732280856729 0.0029961238642738741 0 0.0033192732280856729 0.0029961238642738741 0 0.0033067720798492378 0.0030824653646270789 0 0.0032256237229322296 0.0030507949619269325 0 0.0032518205217200191 0.002940502331384313 0 0.0033192732280856729 0.0029961238642738741 0 0.0032256237229322296 0.0030507949619269325 0 0.003307291338606278 0.0031724470166942624 0 0.0033881322326000541 0.00312077865566277 0 0.0033067720798492378 0.0030824653646270789 0 0.0032457259183659693 0.003150972599506733 0 0.0033067720798492378 0.0030824653646270789 0 0.0032256237229322296 0.0030507949619269325 0 0.0031843101700449825 0.0031765595071598187 0 0.0032457259183659693 0.003150972599506733 0 0.0032256237229322296 0.0030507949619269325 0 0.0026038471413514994 0.0035759118170096888 0 0.0022571366467896686 0.0035417602776068782 0 0.0031843101700449825 0.0031765595071598187 0 0.0032256237229322296 0.0030507949619269325 0 0.0031071829545042456 0.0029685586175731693 0 0.0014500713149529101 0.0042491938099098884 0 0.001414247892620242 0.0041771051152907296 0 0.0013564425149461723 0.0042223475952508508 0 0.001414247892620242 0.0041771051152907296 0 0.0013831210996845676 0.0041048018745622741 0 0.001355292239672134 0.0041375944341705013 0 0.0022571366467896686 0.0035417602776068782 0 0.001898375204533221 0.0037295145988849123 0 0.001898375204533221 0.0037295145988849123 0 0.002424508147352141 0.0036023360539461373 0 0.0014091856398099844 0.0043551645390842216 0 0.0014564713437889626 0.0043240720539110969 0 0.0015097049291600637 0.0044212215916834127 0 0.0014091856398099844 0.0043551645390842216 0 0.0013612491742990753 0.0043917776303451323 0 0.0015097049291600637 0.0044212215916834127 0 0.0031071829545042456 0.0029685586175731693 0 0.0030232695289356057 0.0027532753267774219 0 0.0032522916566205024 0.0027901661822782083 0 0.0014091856398099844 0.0043551645390842216 0 0.0013612491742990753 0.0043917776303451323 0 0.0013439857643443487 0.0043431925553255209 0 0.0014091856398099844 0.0043551645390842216 0 0.0013532529477540973 0.0043007540337683427 0 0.0013439857643443487 0.0043431925553255209 0 0.0014564713437889626 0.0043240720539110969 0 0.0014931314930487546 0.0042731372338145578 0 0.0013735349610143827 0.0042494204945698151 0 0.0013532529477540973 0.0043007540337683427 0 0.0014564713437889626 0.0043240720539110969 0 0.0013735349610143827 0.0042494204945698151 0 0.0014091856398099844 0.0043551645390842216 0 0.0013532529477540973 0.0043007540337683427 0 0.0014564713437889626 0.0043240720539110969 0 0.0014564713437889626 0.0043240720539110969 0 0.0015768921485790658 0.0043334558635796357 0 0.0014931314930487546 0.0042731372338145578 0 0.0015768921485790658 0.0043334558635796357 0 0.001579502132728139 0.0042790274779723591 0 0.0014931314930487546 0.0042731372338145578 0 0.0014564713437889626 0.0043240720539110969 0 0.0015097049291600637 0.0044212215916834127 0 0.0015768921485790658 0.0043334558635796357 0 0.0015097049291600637 0.0044212215916834127 0 0.0016526129749767345 0.0044422892077185258 0 0.0015768921485790658 0.0043334558635796357 0 0.0016526129749767345 0.0044422892077185258 0 0.0015768921485790658 0.0043334558635796357 0 0.0016782200448342964 0.0043367675993608397 0 0.002424508147352141 0.0036023360539461373 0 0.0026008533712917367 0.0036220594193895833 0 0.0015768921485790658 0.0043334558635796357 0 0.001579502132728139 0.0042790274779723591 0 0.0016618580934935144 0.0042797554028212031 0 0.0015768921485790658 0.0043334558635796357 0 0.0016782200448342964 0.0043367675993608397 0 0.0016618580934935144 0.0042797554028212031 0 0.0016618580934935144 0.0042797554028212031 0 0.0017675025567420017 0.0042821955068945228 0 0.0017254906662599551 0.0042298608796826984 0 0.0016782200448342964 0.0043367675993608397 0 0.0016618580934935144 0.0042797554028212031 0 0.0017675025567420017 0.0042821955068945228 0 0.0016526129749767345 0.0044422892077185258 0 0.0016782200448342964 0.0043367675993608397 0 0.0018111792380302591 0.0044693627580586108 0 0.0015950183636406598 0.0044154126825465797 0 0.0021866186264819691 0.0041085070464719868 0 0.0016782200448342964 0.0043367675993608397 0 0.0017882849019463961 0.0044086495819128119 0 0.0017675025567420017 0.0042821955068945228 0 0.0012482746292105779 0.0041754771250540638 0 0.0011998446835771884 0.0041649979867556591 0 0.001193814196426895 0.0041869349506562428 0 0.0012482746292105779 0.0041754771250540638 0 0.0011998446835771884 0.0041649979867556591 0 0.0012275852889428829 0.0041415885371030919 0 0.0011998446835771884 0.0041649979867556591 0 0.0011735898080512406 0.0041664369350856651 0 0.0011764237392080251 0.0041524777984695725 0 0.0011998446835771884 0.0041649979867556591 0 0.0011735898080512406 0.0041664369350856651 0 0.001193814196426895 0.0041869349506562428 0 0.0011735898080512406 0.0041664369350856651 0 0.001193814196426895 0.0041869349506562428 0 0.0011666105323880243 0.0041781645384669306 0 0.001193814196426895 0.0041869349506562428 0 0.0011666105323880243 0.0041781645384669306 0 0.0011666543589196835 0.0042048721062713764 0 0.0011741244606707515 0.0040600967564248186 0 0.0013212054678416252 0.0037949008159622261 0 0.001193814196426895 0.0041869349506562428 0 0.0012225570706093836 0.0042316915901894001 0 0.0011666543589196835 0.0042048721062713764 0 0.0023971913561603706 0.0028254016176014968 0 0.0025354097377188038 0.0028790246791005492 0 0.0025469533654917061 0.0027535923337302184 0 0.001813409174108755 0.0035488172303357901 0 0.0019543205566551021 0.0032311661968574329 0 0.001293908827092433 0.0042577990700980988 0 0.0012225570706093836 0.0042316915901894001 0 0.0012867233069261117 0.004209614310103714 0 0.0012482746292105779 0.0041754771250540638 0 0.001193814196426895 0.0041869349506562428 0 0.0012225570706093836 0.0042316915901894001 0 0.0012482746292105779 0.0041754771250540638 0 0.0012225570706093836 0.0042316915901894001 0 0.0012867233069261117 0.004209614310103714 0 0.0012867233069261117 0.004209614310103714 0 0.0013564425149461723 0.0042223475952508508 0 0.0013228085973393761 0.0041676716761357476 0 0.001293908827092433 0.0042577990700980988 0 0.0012867233069261117 0.004209614310103714 0 0.0013564425149461723 0.0042223475952508508 0 0.001414247892620242 0.0041771051152907296 0 0.0013564425149461723 0.0042223475952508508 0 0.0013228085973393761 0.0041676716761357476 0 0.001414247892620242 0.0041771051152907296 0 0.0013228085973393761 0.0041676716761357476 0 0.001355292239672134 0.0041375944341705013 0 0.0012482746292105779 0.0041754771250540638 0 0.0013228085973393761 0.0041676716761357476 0 0.0013015714447872967 0.0041021779302709655 0 0.0012482746292105779 0.0041754771250540638 0 0.0012867233069261117 0.004209614310103714 0 0.0013228085973393761 0.0041676716761357476 0 0.0012482746292105779 0.0041754771250540638 0 0.0013015714447872967 0.0041021779302709655 0 0.0012275852889428829 0.0041415885371030919 0 0.0011809494208434045 0.0042369304470774088 0 0.0011955494843771505 0.0041885970754175425 0 0.0013228085973393761 0.0041676716761357476 0 0.0013015714447872967 0.0041021779302709655 0 0.001355292239672134 0.0041375944341705013 0 0.0013831210996845676 0.0041048018745622741 0 0.0013015714447872967 0.0041021779302709655 0 0.001355292239672134 0.0041375944341705013 0 0.0013578624836094002 0.0043820323124102618 0 0.0012303060181260417 0.0043357284893413006 0 0.0012835617070422228 0.0043218429524030325 0 0.001898375204533221 0.0037295145988849123 0 0.0011809494208434045 0.0042369304470774088 0 0.0013578624836094002 0.0043820323124102618 0 0.0013439857643443487 0.0043431925553255209 0 0.0012835617070422228 0.0043218429524030325 0 0.001898375204533221 0.0037295145988849123 0 0.0017622317923510432 0.0041527264388973462 0 0.0013532529477540973 0.0043007540337683427 0 0.0013439857643443487 0.0043431925553255209 0 0.0012835617070422228 0.0043218429524030325 0 0.0012835617070422228 0.0043218429524030325 0 0.0012916653987741649 0.0042589666093775479 0 0.0012064510691923165 0.0042430289350189471 0 0.0013532529477540973 0.0043007540337683427 0 0.0012916653987741649 0.0042589666093775479 0 0.0013735349610143827 0.0042494204945698151 0 0.0013532529477540973 0.0043007540337683427 0 0.0012835617070422228 0.0043218429524030325 0 0.0012916653987741649 0.0042589666093775479 0 0.0012303060181260417 0.0043357284893413006 0 0.0012064510691923165 0.0042430289350189471 0 0.0011200194347117404 0.004263254578239806 0 0.0012303060181260417 0.0043357284893413006 0 0.0012835617070422228 0.0043218429524030325 0 0.0012064510691923165 0.0042430289350189471 0 0.0011200194347117404 0.004263254578239806 0 0.0011066443323313904 0.0042127842048258089 0 0.0011229540571418551 0.0041972191305854022 0 0.0012064510691923165 0.0042430289350189471 0 0.0011200194347117404 0.004263254578239806 0 0.0011229540571418551 0.0041972191305854022 0 0.0013015714447872967 0.0041021779302709655 0 0.0012190697773361327 0.0041088941973587206 0 0.0012275852889428829 0.0041415885371030919 0 0.0012190697773361327 0.0041088941973587206 0 0.0012275852889428829 0.0041415885371030919 0 0.0011764237392080251 0.0041524777984695725 0 0.0011998446835771884 0.0041649979867556591 0 0.0012275852889428829 0.0041415885371030919 0 0.0011764237392080251 0.0041524777984695725 0 0.0011735898080512406 0.0041664369350856651 0 0.0011400553688316155 0.0041539220886992268 0 0.0011783124574745562 0.0041683766900290345 0 0.0011735898080512406 0.0041664369350856651 0 0.0011764237392080251 0.0041524777984695725 0 0.0011400553688316155 0.0041539220886992268 0 0.0012190697773361327 0.0041088941973587206 0 0.0011764237392080251 0.0041524777984695725 0 0.0011607630155102038 0.0041474721772493091 0 0.0011764237392080251 0.0041524777984695725 0 0.0011400553688316155 0.0041539220886992268 0 0.0011607630155102038 0.0041474721772493091 0 0.0011200194347117404 0.004263254578239806 0 0.0011286471121579392 0.0041613487781748341 0 0.0011066443323313904 0.0042127842048258089 0 0.0011400553688316155 0.0041539220886992268 0 0.0011286471121579392 0.0041613487781748341 0 0.0011607630155102038 0.0041474721772493091 0 0.0010346622611651386 0.0039027777812766398 0 0.00091281786658934467 0.003838782540704311 0 0.0011955494843771505 0.0041885970754175425 0 0.0011353732869431421 0.0041672355795208818 0 0.0012190697773361327 0.0041088941973587206 0 0.0011286471121579392 0.0041613487781748341 0 0.0011607630155102038 0.0041474721772493091 0 0.0011066443323313904 0.0042127842048258089 0 0.0010999495168693817 0.0041952348835795523 0 0.0010944297757427279 0.0041954632003946002 0 0.0011286471121579392 0.0041613487781748341 0 0.0010999495168693817 0.0041952348835795523 0 0.0010825519447670532 0.0042006759345275665 0 0.0011286471121579392 0.0041613487781748341 0 0.0011066443323313904 0.0042127842048258089 0 0.0010999495168693817 0.0041952348835795523 0 0.0010346622611651386 0.0039027777812766398 0 0.0010199640996452247 0.0042827679001650153 0 0.0011400553688316155 0.0041539220886992268 0 0.0011286471121579392 0.0041613487781748341 0 0.0010825519447670532 0.0042006759345275665 0 0.00088476189661573171 0.0032016031654215076 0 0.00093948706991734462 0.0033782039730548118 0 0.00085232279288824787 0.0034881780335005233 0 0.00088476189661573171 0.0032016031654215076 0 0.0010228697227868903 0.0033316724749031523 0 0.00093948706991734462 0.0033782039730548118 0 0.00088476189661573171 0.0032016031654215076 0 0.0010228697227868903 0.0033316724749031523 0 0.0010503575234167477 0.0031410202386782139 0 0.0010228697227868903 0.0033316724749031523 0 0.001152591265515313 0.0032467895846794775 0 0.0010503575234167477 0.0031410202386782139 0 0.001152591265515313 0.0032467895846794775 0 0.001167965900467896 0.0031019119221649336 0 0.0010503575234167477 0.0031410202386782139 0 0.0011658889502345741 0.0032253673389294997 0 0.0012874425163678263 0.003110518716009873 0 0.001167965900467896 0.0031019119221649336 0 0.0012307124826438079 0.0030208586549675602 0 0.0013034126403670466 0.0030925041652133307 0 0.001152591265515313 0.0032467895846794775 0 0.001167965900467896 0.0031019119221649336 0 0.0013034126403670466 0.0030925041652133307 0 0.001167965900467896 0.0031019119221649336 0 0.0011157476256413992 0.0029996405582123535 0 0.0010503575234167477 0.0031410202386782139 0 0.001167965900467896 0.0031019119221649336 0 0.0011157476256413992 0.0029996405582123535 0 0.0012307124826438079 0.0030208586549675602 0 0.0010346622611651386 0.0039027777812766398 0 0.0010839357400844352 0.0032123479989683182 0 0.0010346622611651386 0.0039027777812766398 0 0.0013212054678416252 0.0037949008159622261 0 0.0011466396968561033 0.0039468595501752878 0 0.0012489429491234344 0.0035227272471836085 0 0.0011966395278315846 0.0032935835595106159 0 0.00088476189661573171 0.0032016031654215076 0 0.0010503575234167477 0.0031410202386782139 0 0.00094487020243960121 0.0029747844762021153 0 0.0011157476256413992 0.0029996405582123535 0 0.0010503575234167477 0.0031410202386782139 0 0.00094487020243960121 0.0029747844762021153 0 0.0010839357400844352 0.0032123479989683182 0 0.0015771219143974567 0.002874592494601451 0 0.0012489429491234344 0.0035227272471836085 0 0.0011966395278315846 0.0032935835595106159 0 0.001351836545171046 0.0030975698898325385 0 0.00094487020243960121 0.0029747844762021153 0 0.0010685245348291705 0.0028874849083151116 0 0.001000094778829351 0.0027550193151098224 0 0.0013212054678416252 0.0037949008159622261 0 0.0015771219143974567 0.002874592494601451 0 0.0011157476256413992 0.0029996405582123535 0 0.00094487020243960121 0.0029747844762021153 0 0.0010685245348291705 0.0028874849083151116 0 0.0012307124826438079 0.0030208586549675602 0 0.0012206108235850392 0.0028351413000721189 0 0.001299810277014648 0.0029481755090530479 0 0.0010685245348291705 0.0028874849083151116 0 0.0012206108235850392 0.0028351413000721189 0 0.001000094778829351 0.0027550193151098224 0 0.0011157476256413992 0.0029996405582123535 0 0.0010685245348291705 0.0028874849083151116 0 0.0012206108235850392 0.0028351413000721189 0 0.0011157476256413992 0.0029996405582123535 0 0.0012307124826438079 0.0030208586549675602 0 0.0012206108235850392 0.0028351413000721189 0 0.0017898185886767706 0.0022108823878102938 0 0.001766365176778847 0.0022202755029370946 0 0.0017788952447645753 0.0021998071892806799 0 0.0017904259187562586 0.0022277879287002198 0 0.0017898185886767706 0.0022108823878102938 0 0.001766365176778847 0.0022202755029370946 0 0.0014615570185232784 0.0024879582551575684 0 0.0015771219143974567 0.002874592494601451 0 0.0017898185886767706 0.0022108823878102938 0 0.0018037936258925003 0.0022062606097281519 0 0.0017945959312985168 0.0021948794070085795 0 0.0017904259187562586 0.0022277879287002198 0 0.0017656760107571468 0.0022229652128414362 0 0.001766365176778847 0.0022202755029370946 0 0.0018065694168383256 0.0026420047028009831 0 0.0020013170627608294 0.0022399213010570965 0 0.0019817471365452242 0.0026370575545827473 0 0.0020675523975620612 0.0022690749709916224 0 0.0021986213696356615 0.0023199673451198312 0 0.0018065694168383256 0.0026420047028009831 0 0.0022372201401294352 0.0024405792864145548 0 0.0019543205566551021 0.0032311661968574329 0 0.0023705916528903664 0.0025861268544640627 0 0.0021578821351587382 0.0029265097257025192 0 0.002341021892486523 0.0029360225604726569 0 0.0024402804110484648 0.0025155719764601149 0 0.0014895064274824854 0.0035619508665526603 0 0.0015216807208667917 0.0030610331334173543 0 0.0017989734516511433 0.003162864671320749 0 0.0013212054678416252 0.0037949008159622261 0 0.0019543205566551021 0.0032311661968574329 0 0.0019543205566551021 0.0032311661968574329 0 0.0015771219143974567 0.002874592494601451 0 0.0021578821351587382 0.0029265097257025192 0 0.0023284771826430736 0.0029890222344722793 0 0.002341021892486523 0.0029360225604726569 0 0.0015771219143974567 0.002874592494601451 0 0.0018065694168383256 0.0026420047028009831 0 0.0018122072002211931 0.0022144473470885619 0 0.0018108415369254025 0.00220144047885149 0 0.0018191570501726582 0.0021916926886353218 0 0.0018122072002211931 0.0022144473470885619 0 0.0018137206337732591 0.0022083808049825032 0 0.0018071635255119975 0.0021883375238841607 0 0.001811134742502891 0.0022198553868344462 0 0.0018122072002211931 0.0022144473470885619 0 0.0018137206337732591 0.0022083808049825032 0 0.0018122072002211931 0.0022144473470885619 0 0.0018037936258925003 0.0022062606097281519 0 0.0018108415369254025 0.00220144047885149 0 0.0017898185886767706 0.0022108823878102938 0 0.0018037936258925003 0.0022062606097281519 0 0.0018035617586293013 0.0022202030726427243 0 0.0017904259187562586 0.0022277879287002198 0 0.0017898185886767706 0.0022108823878102938 0 0.0018035617586293013 0.0022202030726427243 0 0.0018122072002211931 0.0022144473470885619 0 0.0018037936258925003 0.0022062606097281519 0 0.0018035617586293013 0.0022202030726427243 0 0.001811134742502891 0.0022198553868344462 0 0.0018122072002211931 0.0022144473470885619 0 0.0018035617586293013 0.0022202030726427243 0 0.0012206108235850392 0.0028351413000721189 0 0.001299810277014648 0.0029481755090530479 0 0.0014455658149166593 0.0029159375381110279 0 0.0017904259187562586 0.0022277879287002198 0 0.0018035617586293013 0.0022202030726427243 0 0.0018105533551753211 0.0022316043684694384 0 0.0014615570185232784 0.0024879582551575684 0 0.0015604848616520019 0.0026933509010975973 0 0.001811134742502891 0.0022198553868344462 0 0.0018035617586293013 0.0022202030726427243 0 0.0018105533551753211 0.0022316043684694384 0 0.001299810277014648 0.0029481755090530479 0 0.0014455658149166593 0.0029159375381110279 0 0.0013198544920232907 0.0029943865842880675 0 0.001811134742502891 0.0022198553868344462 0 0.0018105533551753211 0.0022316043684694384 0 0.0018137206337732591 0.0022083808049825032 0 0.0013237906790962814 0.0028527512979407521 0 0.0012995440783338959 0.0026909094828007243 0 0.0015604848616520019 0.0026933509010975973 0 0.0016028129679691082 0.0023681370728966906 0 0.0013581903705387926 0.0026345101212285277 0 0.0013570527590929518 0.0026338553475565496 0 0.0013594301217994902 0.0026245905329972249 0 0.0013237906790962814 0.0028527512979407521 0 0.0015604848616520019 0.0026933509010975973 0 0.0012974958755035757 0.0030365528901895103 0 0.0013000945335174346 0.0030806068494332465 0 0.0013388764155629123 0.0029704449444880768 0 0.0012974958755035757 0.0030365528901895103 0 0.0013000945335174346 0.0030806068494332465 0 0.0012385228404281946 0.0031006621309681184 0 0.0013000945335174346 0.0030806068494332465 0 0.0012385228404281946 0.0031006621309681184 0 0.0012758217215458883 0.0031515219594292748 0 0.0012307124826438079 0.0030208586549675602 0 0.0013198544920232907 0.0029943865842880675 0 0.0013034126403670466 0.0030925041652133307 0 0.0012307124826438079 0.0030208586549675602 0 0.001299810277014648 0.0029481755090530479 0 0.0013198544920232907 0.0029943865842880675 0 0.0014455658149166593 0.0029159375381110279 0 0.0013198544920232907 0.0029943865842880675 0 0.0013034126403670466 0.0030925041652133307 0 0.0013237906790962814 0.0028527512979407521 0 0.0012874425163678263 0.003110518716009873 0 0.0015182845788068058 0.0029274341828763109 0 0.0014508390126025806 0.0029027364988298068 0 0.0013335339102638875 0.0030950785914779012 0 0.0015604848616520019 0.0026933509010975973 0 0.0012644312041220807 0.003146475307133665 0 0.0014508390126025806 0.0029027364988298068 0 0.0013034126403670466 0.0030925041652133307 0 0.0013335339102638875 0.0030950785914779012 0 0.001152591265515313 0.0032467895846794775 0 0.0013034126403670466 0.0030925041652133307 0 0.0013335339102638875 0.0030950785914779012 0 0.001152591265515313 0.0032467895846794775 0 0.0012365725564163709 0.0031873970133607715 0 0.0012736944714579106 0.0032530818499492548 0 0.001152591265515313 0.0032467895846794775 0 0.0012385228404281946 0.0031006621309681184 0 0.0012365725564163709 0.0031873970133607715 0 0.0012385228404281946 0.0031006621309681184 0 0.0012365725564163709 0.0031873970133607715 0 0.0012758217215458883 0.0031515219594292748 0 0.0012365725564163709 0.0031873970133607715 0 0.0012758217215458883 0.0031515219594292748 0 0.0012736944714579106 0.0032530818499492548 0 0.0012758217215458883 0.0031515219594292748 0 0.0012736944714579106 0.0032530818499492548 0 0.0013219778869840747 0.0031288592512205794 0 0.0013000945335174346 0.0030806068494332465 0 0.0012758217215458883 0.0031515219594292748 0 0.0013219778869840747 0.0031288592512205794 0 0.0013219778869840747 0.0031288592512205794 0 0.0013388764155629123 0.0029704449444880768 0 0.0013671570675185592 0.003129231635450213 0 0.0013388764155629123 0.0029704449444880768 0 0.001408632145283317 0.0030351404006372829 0 0.0013671570675185592 0.003129231635450213 0 0.0013000945335174346 0.0030806068494332465 0 0.0013219778869840747 0.0031288592512205794 0 0.0013388764155629123 0.0029704449444880768 0 0.0013237906790962814 0.0028527512979407521 0 0.0012930548469460392 0.0029976648926679146 0 0.001437998549804942 0.0029212802253611066 0 0.0014868678581025326 0.0028847241935544689 0 0.0014770463569296118 0.0028061934458422735 0 0.001437998549804942 0.0029212802253611066 0 0.0014684605804746495 0.0030036273992062024 0 0.0014868678581025326 0.0028847241935544689 0 0.0013388764155629123 0.0029704449444880768 0 0.001437998549804942 0.0029212802253611066 0 0.001408632145283317 0.0030351404006372829 0 0.0013388764155629123 0.0029704449444880768 0 0.001437998549804942 0.0029212802253611066 0 0.0014267817068893435 0.0028247420672490378 0 0.001437998549804942 0.0029212802253611066 0 0.0014267817068893435 0.0028247420672490378 0 0.0014770463569296118 0.0028061934458422735 0 0.0014609234170704589 0.0027422590589554802 0 0.0014267817068893435 0.0028247420672490378 0 0.0014311621348035235 0.0026949752400626504 0 0.0014609234170704589 0.0027422590589554802 0 0.0014267817068893435 0.0028247420672490378 0 0.0014770463569296118 0.0028061934458422735 0 0.0014267817068893435 0.0028247420672490378 0 0.0014311621348035235 0.0026949752400626504 0 0.0013713223302914384 0.002799639964924756 0 0.0014311621348035235 0.0026949752400626504 0 0.0013713223302914384 0.002799639964924756 0 0.0013424550710897333 0.0026809473999628419 0 0.0014609234170704589 0.0027422590589554802 0 0.0014311621348035235 0.0026949752400626504 0 0.0014873705648173463 0.0026845070953669331 0 0.0013581903705387926 0.0026345101212285277 0 0.0013619241998978329 0.0026279626046927843 0 0.0013594301217994902 0.0026245905329972249 0 0.0011096705617008157 0.0028813284513104966 0 0.00124325823305831 0.0028611055042459432 0 0.0012568896829532634 0.0027683395385839924 0 0.0011096705617008157 0.0028813284513104966 0 0.0013388764155629123 0.0029704449444880768 0 0.00124325823305831 0.0028611055042459432 0 0.00124325823305831 0.0028611055042459432 0 0.0013088419307718891 0.0028457757408406571 0 0.0012568896829532634 0.0027683395385839924 0 0.0013388764155629123 0.0029704449444880768 0 0.00124325823305831 0.0028611055042459432 0 0.0013088419307718891 0.0028457757408406571 0 0.0013088419307718891 0.0028457757408406571 0 0.0013713223302914384 0.002799639964924756 0 0.0012568896829532634 0.0027683395385839924 0 0.0013388764155629123 0.0029704449444880768 0 0.0013088419307718891 0.0028457757408406571 0 0.0013713223302914384 0.002799639964924756 0 0.0013388764155629123 0.0029704449444880768 0 0.0014267817068893435 0.0028247420672490378 0 0.0013713223302914384 0.002799639964924756 0 0.0012995440783338959 0.0026909094828007243 0 0.0013586193898997082 0.0026512208007845746 0 0.0013713223302914384 0.002799639964924756 0 0.0012568896829532634 0.0027683395385839924 0 0.0013424550710897333 0.0026809473999628419 0 0.0013619241998978329 0.0026279626046927843 0 0.0013594301217994902 0.0026245905329972249 0 0.0013696168920366259 0.0026226530438025809 0 0.0013594301217994902 0.0026245905329972249 0 0.0013604983908420889 0.0026089699409177487 0 0.0013696168920366259 0.0026226530438025809 0 0.0018137206337732591 0.0022083808049825032 0 0.0018071635255119975 0.0021883375238841607 0 0.0018153701743657507 0.0021781583166404924 0 0.0016028129679691082 0.0023681370728966906 0 0.0015825642490255164 0.0024027013049979563 0 0.0013604983908420889 0.0026089699409177487 0 0.0013696168920366259 0.0026226530438025809 0 0.0014006050844270371 0.0026107234339268906 0 0.0018153701743657507 0.0021781583166404924 0 0.0018104076554561427 0.0021523271709799107 0 0.0018158931496050177 0.0021405396798624111 0 0.0015825642490255164 0.0024027013049979563 0 0.0015961734950773205 0.0023456766358624995 0 0.0018236479977198625 0.0021859794314024461 0 0.0018283450177605863 0.0021567936948649878 0 0.0018402180339147946 0.0021847738892911421 0 0.0018463084335356241 0.0021617756976400103 0 0.0018366295612155979 0.0021654910866795844 0 0.0018071635255119975 0.0021883375238841607 0 0.0018153701743657507 0.0021781583166404924 0 0.0018104076554561427 0.0021523271709799107 0 0.0014311621348035235 0.0026949752400626504 0 0.0014006050844270371 0.0026107234339268906 0 0.0014480420323859798 0.0026083681033094771 0 0.0014311621348035235 0.0026949752400626504 0 0.0014480420323859798 0.0026083681033094771 0 0.001476100017672311 0.0026422823597984724 0 0.0013586193898997082 0.0026512208007845746 0 0.00139840261975966 0.002612773434916193 0 0.0014311621348035235 0.0026949752400626504 0 0.0013424550710897333 0.0026809473999628419 0 0.0014006050844270371 0.0026107234339268906 0 0.0014006050844270371 0.0026107234339268906 0 0.0014348746304733415 0.0025553151809222714 0 0.0013763109611557253 0.0025569085695218482 0 0.0013604983908420889 0.0026089699409177487 0 0.0014006050844270371 0.0026107234339268906 0 0.0013763109611557253 0.0025569085695218482 0 0.0014480420323859798 0.0026083681033094771 0 0.0014348746304733415 0.0025553151809222714 0 0.0014840140960161708 0.0025658921580270374 0 0.0014006050844270371 0.0026107234339268906 0 0.0014480420323859798 0.0026083681033094771 0 0.0014348746304733415 0.0025553151809222714 0 0.0014348746304733415 0.0025553151809222714 0 0.0014141148725711364 0.0024563957242424708 0 0.0014842306105303958 0.0024984029687185674 0 0.0014348746304733415 0.0025553151809222714 0 0.0013763109611557253 0.0025569085695218482 0 0.0014141148725711364 0.0024563957242424708 0 0.0015961734950773205 0.0023456766358624995 0 0.0015944234627262479 0.0023021134905468373 0 0.0017638586777518916 0.0022079937383845637 0 0.0018102714518526668 0.0021360831735527577 0 0.0017707111516745725 0.0021389809424570859 0 0.0018222853005955845 0.0021862674120922661 0 0.0017638586777518916 0.0022079937383845637 0 0.0018244004714980863 0.0021548715596306847 0 0.0018158931496050177 0.0021405396798624111 0 0.0018102714518526668 0.0021360831735527577 0 0.0017707111516745725 0.0021389809424570859 0 0.0017669023421818754 0.0022043067181900539 0 0.001815518539328635 0.0021498175299485799 0 0.0014141148725711364 0.0024563957242424708 0 0.0014842306105303958 0.0024984029687185674 0 0.0015450717260447496 0.002411926845738994 0 0.0018442186205016218 0.0021612463924306669 0 0.0018451171128541161 0.0021605622432298993 0 0.0018366295612155979 0.0021654910866795844 0 0.0018463084335356241 0.0021617756976400103 0 0.0018442186205016218 0.0021612463924306669 0 0.0018366295612155979 0.0021654910866795844 0 0.0018104076554561427 0.0021523271709799107 0 0.0018158931496050177 0.0021405396798624111 0 0.0018102714518526668 0.0021360831735527577 0 0.0018463084335356241 0.0021617756976400103 0 0.0018405649334953182 0.0021599552106793566 0 0.0018442186205016218 0.0021612463924306669 0 0.0018283450177605863 0.0021567936948649878 0 0.001815518539328635 0.0021498175299485799 0 0.0018463084335356241 0.0021617756976400103 0 0.0018244004714980863 0.0021548715596306847 0 0.0018405649334953182 0.0021599552106793566 0 0.001849017978398532 0.0021687284327151983 0 0.0018405649334953182 0.0021599552106793566 0 0.0018442186205016218 0.0021612463924306669 0 0.001849017978398532 0.0021687284327151983 0 0.0018222853005955845 0.0021862674120922661 0 0.0018405649334953182 0.0021599552106793566 0 0.0018222853005955845 0.0021862674120922661 0 0.0018244004714980863 0.0021548715596306847 0 0.0018405649334953182 0.0021599552106793566 0 0.001849017978398532 0.0021687284327151983 0 0.0018442186205016218 0.0021612463924306669 0 0.0018451171128541161 0.0021605622432298993 0 0.0019239265981849326 0.0020670218257243158 0 0.0019790900669216594 0.0019557083450196717 0 0.0020045522271929842 0.0019600317168078293 0 0.0021377411842199157 0.001782545404588971 0 0.0021211376739123265 0.001949702013211389 0 0.0018451171128541161 0.0021605622432298993 0 0.0018242215465463466 0.0021609961532570669 0 0.0018366295612155979 0.0021654910866795844 0 0.0021377411842199157 0.001782545404588971 0 0.00221224402926896 0.001942293754610644 0 0.0022988974054428918 0.0018397547876587816 0 0.0021377411842199157 0.001782545404588971 0 0.0021211376739123265 0.001949702013211389 0 0.00221224402926896 0.001942293754610644 0 0.0021634359576103127 0.002013888640194961 0 0.0021211376739123265 0.001949702013211389 0 0.00221224402926896 0.001942293754610644 0 0.0029656244041108746 0.001692128123049433 0 0.0027972008064823038 0.001726924949999284 0 0.0032455188014072238 0.0018196295328483251 0 0.0033569766339617379 0.0016567526784888478 0 0.0033036314128071405 0.0015880125396082027 0 0.0022571975863945092 0.0020425865017422531 0 0.00221224402926896 0.001942293754610644 0 0.0022988974054428918 0.0018397547876587816 0 0.0033569766339617379 0.0016567526784888478 0 0.0033100951808007818 0.0015771108048878222 0 0.0033036314128071405 0.0015880125396082027 0 0.003383073772058813 0.0017614800968144136 0 0.003464877040503753 0.0016725408248578131 0 0.0033569766339617379 0.0016567526784888478 0 0.0033569766339617379 0.0016567526784888478 0 0.003415025788493199 0.0015982600813611292 0 0.0033100951808007818 0.0015771108048878222 0 0.003464877040503753 0.0016725408248578131 0 0.0033569766339617379 0.0016567526784888478 0 0.003415025788493199 0.0015982600813611292 0 0.003464877040503753 0.0016725408248578131 0 0.0034932087313317589 0.0015792167707254447 0 0.003415025788493199 0.0015982600813611292 0 0.0034932087313317589 0.0015792167707254447 0 0.003415025788493199 0.0015982600813611292 0 0.0034562409512967148 0.0015020678324807813 0 0.003415025788493199 0.0015982600813611292 0 0.0034562409512967148 0.0015020678324807813 0 0.0033100951808007818 0.0015771108048878222 0 0.0033991143848043797 0.0015355062859023741 0 0.003319380354624341 0.0015697636183310789 0 0.0033285278019458981 0.0015662144431658734 0 0.0033100951808007818 0.0015771108048878222 0 0.0033271500654889589 0.001551509947571799 0 0.0033100951808007818 0.0015771108048878222 0 0.0033036314128071405 0.0015880125396082027 0 0.0033082086257255317 0.0015371655970649318 0 0.0022988974054428918 0.0018397547876587816 0 0.0022598610507337537 0.0017302862829214651 0 0.0023402520893696425 0.0016479834210060432 0 0.0021377411842199157 0.001782545404588971 0 0.0022988974054428918 0.0018397547876587816 0 0.0022598610507337537 0.0017302862829214651 0 0.0027972008064823038 0.001726924949999284 0 0.0026266077436098165 0.0017824716647394515 0 0.0021522061602267484 0.0019047608193371733 0 0.0024104534536642675 0.0020061000058598285 0 0.0022059547482087714 0.0021085040886177618 0 0.0026266077436098165 0.0017824716647394515 0 0.0020627760836540664 0.0019944172907176857 0 0.0022598610507337537 0.0017302862829214651 0 0.0023402520893696425 0.0016479834210060432 0 0.0022577600220030471 0.0016169995426038508 0 0.0028105175234124881 0.0020697598203954864 0 0.0023705916528903664 0.0025861268544640627 0 0.0033100951808007818 0.0015771108048878222 0 0.0033082086257255317 0.0015371655970649318 0 0.0033271500654889589 0.001551509947571799 0 0.0024804415526948767 0.002691874353021042 0 0.0025580212599372663 0.002626738710478204 0 0.0025469533654917061 0.0027535923337302184 0 0.0033285278019458981 0.0015662144431658734 0 0.0033295568331017148 0.0015497571069190144 0 0.0033271500654889589 0.001551509947571799 0 0.0028781836692918883 0.002051995221420549 0 0.0028105175234124881 0.0020697598203954864 0 0.0033295568331017148 0.0015497571069190144 0 0.0033271500654889589 0.001551509947571799 0 0.0033270102442701922 0.0015494063451964662 0 0.0028347307949808452 0.0019899196666098764 0 0.0028105175234124881 0.0020697598203954864 0 0.0033082086257255317 0.0015371655970649318 0 0.0033271500654889589 0.001551509947571799 0 0.0033269603147229728 0.0015481583150026049 0 0.0025370821115727289 0.0020967569365535127 0 0.00222642011477467 0.0019760154878206092 0 0.0023717787939703098 0.0022798620205638992 0 0.0026266077436098165 0.0017824716647394515 0 0.0028105175234124881 0.0020697598203954864 0 0.0024804415526948767 0.002691874353021042 0 0.0025459057181216591 0.0026226420009828897 0 0.0025580212599372663 0.002626738710478204 0 0.0021578821351587382 0.0029265097257025192 0 0.0024402804110484648 0.0025155719764601149 0 0.0021924296785356908 0.0024498268056855153 0 0.00222642011477467 0.0019760154878206092 0 0.0023717787939703098 0.0022798620205638992 0 0.0021924296785356908 0.0024498268056855153 0 0.0023717787939703098 0.0022798620205638992 0 0.0024402804110484648 0.0025155719764601149 0 0.0021924296785356908 0.0024498268056855153 0 0.0021522061602267484 0.0019047608193371733 0 0.0020675523975620612 0.0022690749709916224 0 0.0022059547482087714 0.0021085040886177618 0 0.0025370821115727289 0.0020967569365535127 0 0.0023717787939703098 0.0022798620205638992 0 0.0024402804110484648 0.0025155719764601149 0 0.0026266077436098165 0.0017824716647394515 0 0.0022372201401294352 0.0024405792864145548 0 0.0017933095519374945 0.0021788692837966805 0 0.0017788952447645753 0.0021998071892806799 0 0.0017945959312985168 0.0021948794070085795 0 0.0017933095519374945 0.0021788692837966805 0 0.0017945959312985168 0.0021948794070085795 0 0.0018036138487416444 0.0021832570615098095 0 0.0020627760836540664 0.0019944172907176857 0 0.0018925435949891231 0.0020304127679078628 0 0.0024104534536642675 0.0020061000058598285 0 0.0022059547482087714 0.0021085040886177618 0 0.0021986213696356615 0.0023199673451198312 0 0.0020627760836540664 0.0019944172907176857 0 0.0020013170627608294 0.0022399213010570965 0 0.0020675523975620612 0.0022690749709916224 0 0.0022059547482087714 0.0021085040886177618 0 0.0021986213696356615 0.0023199673451198312 0 0.0017898185886767706 0.0022108823878102938 0 0.0017788952447645753 0.0021998071892806799 0 0.0017945959312985168 0.0021948794070085795 0 0.0018037936258925003 0.0022062606097281519 0 0.0017945959312985168 0.0021948794070085795 0 0.0018081046941453671 0.0021930084495267346 0 0.0018081046941453671 0.0021930084495267346 0 0.0018036138487416444 0.0021832570615098095 0 0.001815340776372108 0.0021842273675476416 0 0.0017945959312985168 0.0021948794070085795 0 0.0018081046941453671 0.0021930084495267346 0 0.0018036138487416444 0.0021832570615098095 0 0.0018081046941453671 0.0021930084495267346 0 0.001815340776372108 0.0021842273675476416 0 0.0018191570501726582 0.0021916926886353218 0 0.0018081046941453671 0.0021930084495267346 0 0.0018108415369254025 0.00220144047885149 0 0.0018191570501726582 0.0021916926886353218 0 0.0018037936258925003 0.0022062606097281519 0 0.0018081046941453671 0.0021930084495267346 0 0.0018108415369254025 0.00220144047885149 0 0.0018129099979423526 0.0022111220698297091 0 0.0018236479977198625 0.0021859794314024461 0 0.0018122072002211931 0.0022144473470885619 0 0.0018402180339147946 0.0021847738892911421 0 0.0018191570501726582 0.0021916926886353218 0 0.0018402180339147946 0.0021847738892911421 0 0.0018191570501726582 0.0021916926886353218 0 0.0018266801613436082 0.0021788511148663225 0 0.001815340776372108 0.0021842273675476416 0 0.0018191570501726582 0.0021916926886353218 0 0.0018266801613436082 0.0021788511148663225 0 0.0018366295612155979 0.0021654910866795844 0 0.0018266801613436082 0.0021788511148663225 0 0.0018183235059777423 0.002174678171170492 0 0.0018242215465463466 0.0021609961532570669 0 0.0018366295612155979 0.0021654910866795844 0 0.0018183235059777423 0.002174678171170492 0 0.0018402180339147946 0.0021847738892911421 0 0.0018366295612155979 0.0021654910866795844 0 0.0018266801613436082 0.0021788511148663225 0 0.0017979435413166221 0.0021793936377301031 0 0.0018036138487416444 0.0021832570615098095 0 0.0018183235059777423 0.002174678171170492 0 0.0021377411842199157 0.001782545404588971 0 0.0022598610507337537 0.0017302862829214651 0 0.0022577600220030471 0.0016169995426038508 0 0.0018242215465463466 0.0021609961532570669 0 0.0017979435413166221 0.0021793936377301031 0 0.0018183235059777423 0.002174678171170492 0 0.0019790900669216594 0.0019557083450196717 0 0.0020627760836540664 0.0019944172907176857 0 0.001815340776372108 0.0021842273675476416 0 0.0018266801613436082 0.0021788511148663225 0 0.0018183235059777423 0.002174678171170492 0 0.0018036138487416444 0.0021832570615098095 0 0.001815340776372108 0.0021842273675476416 0 0.0018183235059777423 0.002174678171170492 0 0.0052063003195425804 0.0010599284956021441 0 0.0050774345766087352 0.001098911630883365 0 0.005166922631006432 0.00087756733795603457 0 0.0052063003195425804 0.0010599284956021441 0 0.0053055383107068373 0.0009951746797265328 0 0.005166922631006432 0.00087756733795603457 0 0.0052063003195425804 0.0010599284956021441 0 0.0052611991810788865 0.0011234237573743877 0 0.0053055383107068373 0.0009951746797265328 0 0.0050883756701307539 0.0010958323023152066 0 0.0051879615369641724 0.00089989214900490055 0 0.0050000018779847348 0.0010582824817187315 0 0.0050973087665705935 0.0011043375836083033 0 0.0051936434954627918 0.00086068864188299638 0 0.0050883756701307539 0.0010958323023152066 0 0.005000013703708517 0.0013490616406650275 0 0.0050774345766087352 0.001098911630883365 0 0.0051508623535190829 0.0011642174678835975 0 0.0049999531890453216 0.0013490755147990325 0 0.0050000018779847348 0.0010582824817187315 0 0.0050973087665705935 0.0011043375836083033 0 0.004999998469899708 0.0013491058031305332 0 0.0051508623535190829 0.0011642174678835975 0 0.0052611991810788865 0.0011234237573743877 0 0.0051968570794483655 0.0012494981236588893 0 0.0052063003195425804 0.0010599284956021441 0 0.0050774345766087352 0.001098911630883365 0 0.0051508623535190829 0.0011642174678835975 0 0.0052063003195425804 0.0010599284956021441 0 0.0051508623535190829 0.0011642174678835975 0 0.0052611991810788865 0.0011234237573743877 0 0.0052611991810788865 0.0011234237573743877 0 0.0053032524149581421 0.0011922293726447854 0 0.0051968570794483655 0.0012494981236588893 0 0.0053032524149581421 0.0011922293726447854 0 0.0053927052132817085 0.0011831023321708808 0 0.0053444454993859473 0.0011030634932597627 0 0.0053927052132817085 0.0011831023321708808 0 0.0053444454993859473 0.0011030634932597627 0 0.005420355577776763 0.0010903274071301181 0 0.0052611991810788865 0.0011234237573743877 0 0.0053032524149581421 0.0011922293726447854 0 0.0053444454993859473 0.0011030634932597627 0 0.0054753681709801133 0.0011893026186361145 0 0.0055188601357948298 0.0010103238537947786 0 0.0055312553920465303 0.00128134784213421 0 0.0053927052132817085 0.0011831023321708808 0 0.0054753681709801133 0.0011893026186361145 0 0.0054671714215359934 0.0011141370918731454 0 0.0053927052132817085 0.0011831023321708808 0 0.005420355577776763 0.0010903274071301181 0 0.0054671714215359934 0.0011141370918731454 0 0.005420355577776763 0.0010903274071301181 0 0.0054671714215359934 0.0011141370918731454 0 0.0054847105373592771 0.0010510251873823251 0 0.0054753681709801133 0.0011893026186361145 0 0.0054671714215359934 0.0011141370918731454 0 0.0055188601357948298 0.0010103238537947786 0 0.0054671714215359934 0.0011141370918731454 0 0.0054847105373592771 0.0010510251873823251 0 0.0055188601357948298 0.0010103238537947786 0 0.0054236391415446129 0.0010140642594019839 0 0.0054068833283417578 0.0008324030038941129 0 0.0055444282971547848 0.0010161327142859623 0 0.0054847105373592771 0.0010510251873823251 0 0.0054236391415446129 0.0010140642594019839 0 0.0055444282971547848 0.0010161327142859623 0 0.005420355577776763 0.0010903274071301181 0 0.0054847105373592771 0.0010510251873823251 0 0.0054236391415446129 0.0010140642594019839 0 0.0054236391415446129 0.0010140642594019839 0 0.0053055383107068373 0.0009951746797265328 0 0.0054068833283417578 0.0008324030038941129 0 0.0052611991810788865 0.0011234237573743877 0 0.0053444454993859473 0.0011030634932597627 0 0.0053055383107068373 0.0009951746797265328 0 0.0053444454993859473 0.0011030634932597627 0 0.005420355577776763 0.0010903274071301181 0 0.0054236391415446129 0.0010140642594019839 0 0.0053444454993859473 0.0011030634932597627 0 0.0054236391415446129 0.0010140642594019839 0 0.0053055383107068373 0.0009951746797265328 0 0.0053055383107068373 0.0009951746797265328 0 0.0054068833283417578 0.0008324030038941129 0 0.005166922631006432 0.00087756733795603457 0 0.0049537698568084005 0.00020019861432712998 0 0.0049416838544161529 0.00024600195209028062 0 0.0049187424260087329 0.00028062304590580018 0 0.0051731587522817618 0.00051227536145614938 0 0.0052289783512955738 0.00065216749004974736 0 0.0049537698568084005 0.00020019861432712998 0 0.0049650015462296025 0.00018110534396495616 0 0.0049533024778653139 0.00019945811827386598 0 0.0049537698568084005 0.00020019861432712998 0 0.0049650015462296025 0.00018110534396495616 0 0.0049896880509393794 0.00018961018973082615 0 0.0049537698568084005 0.00020019861432712998 0 0.0050093345179093871 0.00019065015162226452 0 0.0049896880509393794 0.00018961018973082615 0 0.0051731587522817618 0.00051227536145614938 0 0.0051718689045846672 0.00046344507158480128 0 0.0054068833283417578 0.0008324030038941129 0 0.005166922631006432 0.00087756733795603457 0 0.0052508019981331172 0.00066028777635097457 0 0.0051936434954627918 0.00086068864188299638 0 0.0051189365208137655 0.00062664185485898389 0 0.00529950661329505 0.00060124275938375563 0 0.0051879615369641724 0.00089989214900490055 0 0.0051718689045846672 0.00046344507158480128 0 0.0050000018779847348 0.0010582824817187315 0 0.0051936434954627918 0.00086068864188299638 0 0.0049999900712475679 0.00076747063427601606 0 0.0051936434954627918 0.00086068864188299638 0 0.0049999900712475679 0.00076747063427601606 0 0.0051189365208137655 0.00062664185485898389 0 0.0049999900712475679 0.00076747063427601606 0 0.0051189365208137655 0.00062664185485898389 0 0.004999979757621416 0.00047654976097305117 0 0.0051189365208137655 0.00062664185485898389 0 0.004999979757621416 0.00047654976097305117 0 0.0051287726354791313 0.00041959690007778476 0 0.0051189365208137655 0.00062664185485898389 0 0.00529950661329505 0.00060124275938375563 0 0.0051287726354791313 0.00041959690007778476 0 0.0051590450369504472 0.00042821800235212204 0 0.0051287726354791313 0.00041959690007778476 0 0.0051729311338241856 0.00034765130788118646 0 0.0051718689045846672 0.00046344507158480128 0 0.0051575466203483307 0.00044602084261385737 0 0.0051408268211997343 0.00032708697843095884 0 0.0051287726354791313 0.00041959690007778476 0 0.0051729311338241856 0.00034765130788118646 0 0.0051408268211997343 0.00032708697843095884 0 0.0051287726354791313 0.00041959690007778476 0 0.0050920014507841883 0.00033255173713076414 0 0.0051408268211997343 0.00032708697843095884 0 0.0051422573473972394 0.00029159314426404368 0 0.0051729311338241856 0.00034765130788118646 0 0.004999979757621416 0.00047654976097305117 0 0.0050920014507841883 0.00033255173713076414 0 0.0049999829492637796 0.00018589151174656625 0 0.004999979757621416 0.00047654976097305117 0 0.0051287726354791313 0.00041959690007778476 0 0.0050920014507841883 0.00033255173713076414 0 0.0050920014507841883 0.00033255173713076414 0 0.0049999829492637796 0.00018589151174656625 0 0.0051485546161118339 0.00025434255150523445 0 0.0051422573473972394 0.00029159314426404368 0 0.0051485546161118339 0.00025434255150523445 0 0.0050970003609076241 0.00032197634751874877 0 0.0051408268211997343 0.00032708697843095884 0 0.0050920014507841883 0.00033255173713076414 0 0.0051485546161118339 0.00025434255150523445 0 0.0051408268211997343 0.00032708697843095884 0 0.0051422573473972394 0.00029159314426404368 0 0.0051485546161118339 0.00025434255150523445 0 0.0051485546161118339 0.00025434255150523445 0 0.0052024302030938517 8.3035608406809437e-05 0 0.0050977955061625047 7.6045514735218487e-05 0 0.0051485546161118339 0.00025434255150523445 0 0.0052024302030938517 8.3035608406809437e-05 0 0.0053323874161320117 4.8931006556944823e-05 0 0.0051519335557700489 -2.4165101613128644e-05 0 0.0052024302030938517 8.3035608406809437e-05 0 0.0053323874161320117 4.8931006556944823e-05 0 0.0051863170721826758 0.00028491219019687877 0 0.0051723171594690301 9.3210554238440119e-05 0 0.0051868639137775761 -1.8542033876367961e-05 0 0.005224467454569298 -0.00018984059997890956 0 0.0051519335557700489 -2.4165101613128644e-05 0 0.0052024302030938517 8.3035608406809437e-05 0 0.0050977955061625047 7.6045514735218487e-05 0 0.0049999829492637796 0.00018589151174656625 0 0.0051485546161118339 0.00025434255150523445 0 0.0050977955061625047 7.6045514735218487e-05 0 0.0049999849862062944 -0.00010499413133459227 0 0.0049999829492637796 0.00018589151174656625 0 0.0050977955061625047 7.6045514735218487e-05 0 0.0051340229879110952 -0.00041713711044573566 0 0.0051723171594690301 9.3210554238440119e-05 0 0.0049708521440840463 0.00030012313020994559 0 0.0049896076601303402 0.00026740628757366067 0 0.0050180191190184725 0.00027669031555515553 0 0.0050059420674505193 0.00027437818240074656 0 0.0051723171594690301 9.3210554238440119e-05 0 0.0050223753523202111 0.00030324779453986124 0 0.0050970003609076241 0.00032197634751874877 0 0.0050861390818047877 0.00027881036829968556 0 0.0051548758011129275 -0.00066123683845145534 0 0.005087717385547987 -0.00054456493483823719 0 0.0051883253649200687 -0.00050118838207444019 0 0.0051485546161118339 0.00025434255150523445 0 0.0053323874161320117 4.8931006556944823e-05 0 0.0054523757446965715 0.00010055810643228148 0 0.005224467454569298 -0.00018984059997890956 0 0.0051723171594690301 9.3210554238440119e-05 0 0.0051422573473972394 0.00029159314426404368 0 0.0050861390818047877 0.00027881036829968556 0 0.0051729311338241856 0.00034765130788118646 0 0.0051422573473972394 0.00029159314426404368 0 0.0050970003609076241 0.00032197634751874877 0 0.0050861390818047877 0.00027881036829968556 0 0.0050223753523202111 0.00030324779453986124 0 0.0050861390818047877 0.00027881036829968556 0 0.0050135104649769724 0.00023820647362504126 0 0.0050135104649769724 0.00023820647362504126 0 0.0049890465442852423 0.00019735115903153925 0 0.0050366025888292027 0.00020900733968785934 0 0.0050842568736156023 0.00029886434712372758 0 0.0050992081072479805 0.00026156973731348323 0 0.0050861390818047877 0.00027881036829968556 0 0.0050135104649769724 0.00023820647362504126 0 0.0050366025888292027 0.00020900733968785934 0 0.0051718689045846672 0.00046344507158480128 0 0.0050992081072479805 0.00026156973731348323 0 0.0050093345179093871 0.00019065015162226452 0 0.0050366025888292027 0.00020900733968785934 0 0.0049896880509393794 0.00018961018973082615 0 0.0049650015462296025 0.00018110534396495616 0 0.0049890465442852423 0.00019735115903153925 0 0.0049896880509393794 0.00018961018973082615 0 0.0049890465442852423 0.00019735115903153925 0 0.0050366025888292027 0.00020900733968785934 0 0.0049896880509393794 0.00018961018973082615 0 0.0049650015462296025 0.00018110534396495616 0 0.0049890465442852423 0.00019735115903153925 0 0.0049490526199007477 0.00014850159644875117 0 0.0049490526199007477 0.00014850159644875117 0 0.005005506218157936 8.4800474281612398e-05 0 0.0050053926576295107 0.00016458654560476272 0 0.0049490526199007477 0.00014850159644875117 0 0.0049220066992220757 0.00022431782358528368 0 0.0049657159193190002 0.00021543735054378171 0 0.0049534259566705484 0.00012458708799684452 0 0.004932183108961795 0.00015344797453057415 0 0.0049490526199007477 0.00014850159644875117 0 0.0049656352967204342 -3.8531204899029216e-06 0 0.005005506218157936 8.4800474281612398e-05 0 0.0049890465442852423 0.00019735115903153925 0 0.0049490526199007477 0.00014850159644875117 0 0.0049657159193190002 0.00021543735054378171 0 0.0050135104649769724 0.00023820647362504126 0 0.0049890465442852423 0.00019735115903153925 0 0.0049657159193190002 0.00021543735054378171 0 0.0050135104649769724 0.00023820647362504126 0 0.0049657159193190002 0.00021543735054378171 0 0.0049629702018316084 0.00026187415063586239 0 0.0049220066992220757 0.00022431782358528368 0 0.0049657159193190002 0.00021543735054378171 0 0.0049629702018316084 0.00026187415063586239 0 0.0050223753523202111 0.00030324779453986124 0 0.0050135104649769724 0.00023820647362504126 0 0.0049629702018316084 0.00026187415063586239 0 0.0050059420674505193 0.00027437818240074656 0 0.0049715728880135599 0.00026673004671912002 0 0.0049629702018316084 0.00026187415063586239 0 0.0049374732340107018 0.00026544866212129285 0 0.0049634571368162581 0.00027728829202511822 0 0.004932183108961795 0.00015344797453057415 0 0.0050034251507944747 -0.00011757135533592747 0 0.0049220066992220757 0.00022431782358528368 0 0.0049374732340107018 0.00026544866212129285 0 0.0049094509172298599 0.00027321177748013267 0 0.0049220066992220757 0.00022431782358528368 0 0.0049629702018316084 0.00026187415063586239 0 0.0049374732340107018 0.00026544866212129285 0 0.0049374732340107018 0.00026544866212129285 0 0.0049412093255061075 0.00028821050609415785 0 0.0049634571368162581 0.00027728829202511822 0 0.0049374732340107018 0.00026544866212129285 0 0.0049412093255061075 0.00028821050609415785 0 0.0049094509172298599 0.00027321177748013267 0 0.0050294336512345028 -3.1833259959327703e-05 0 0.0050034251507944747 -0.00011757135533592747 0 0.005152197842159598 -0.00039535563604497343 0 0.0050768819602595603 -0.00035694468134881639 0 0.0051722872395028032 -0.00030197033096480925 0 0.0049708521440840463 0.00030012313020994559 0 0.0049412093255061075 0.00028821050609415785 0 0.0049634571368162581 0.00027728829202511822 0 0.0049708521440840463 0.00030012313020994559 0 0.0049896076601303402 0.00026740628757366067 0 0.0049634571368162581 0.00027728829202511822 0 0.0049896076601303402 0.00026740628757366067 0 0.0049629702018316084 0.00026187415063586239 0 0.0049634571368162581 0.00027728829202511822 0 0.0050340331409460416 -0.00049171602494974995 0 0.004967184999594013 -0.00035758329652860855 0 0.0051033907594224825 -0.00041300495603356413 0 0.0050496703291403192 -0.00032069585453869883 0 0.004967184999594013 -0.00035758329652860855 0 0.0050009225626991248 -0.00021598351391438237 0 0.004967184999594013 -0.00035758329652860855 0 0.0048252293392656229 -0.00031850748717875799 0 0.0050009225626991248 -0.00021598351391438237 0 0.0050496703291403192 -0.00032069585453869883 0 0.004967184999594013 -0.00035758329652860855 0 0.0051033907594224825 -0.00041300495603356413 0 0.0048971102835924122 -0.00049641304917564535 0 0.004967184999594013 -0.00035758329652860855 0 0.0048252293392656229 -0.00031850748717875799 0 0.0050652167335413336 -0.00048546588708620118 0 0.0050034251507944747 -0.00011757135533592747 0 0.005152197842159598 -0.00039535563604497343 0 0.0052284125959288271 -0.00043421512348053878 0 0.0051722872395028032 -0.00030197033096480925 0 0.0050034251507944747 -0.00011757135533592747 0 0.0050258274532323328 -0.00015355068403846239 0 0.0050047700473934654 -0.00010170158456925372 0 0.00508863045770483 -5.880792831180823e-05 0 0.0050430044120524549 2.3160426664686671e-06 0 0.0049656352967204342 -3.8531204899029216e-06 0 0.0050047700473934654 -0.00010170158456925372 0 0.0050430044120524549 2.3160426664686671e-06 0 0.00508863045770483 -5.880792831180823e-05 0 0.005096841777123595 3.4738370913220664e-07 0 0.0050430044120524549 2.3160426664686671e-06 0 0.005096841777123595 3.4738370913220664e-07 0 0.0050430044120524549 2.3160426664686671e-06 0 0.0050563064894059541 8.795708043803057e-05 0 0.0049656352967204342 -3.8531204899029216e-06 0 0.0050430044120524549 2.3160426664686671e-06 0 0.005005506218157936 8.4800474281612398e-05 0 0.0050430044120524549 2.3160426664686671e-06 0 0.005005506218157936 8.4800474281612398e-05 0 0.0050563064894059541 8.795708043803057e-05 0 0.005005506218157936 8.4800474281612398e-05 0 0.0050563064894059541 8.795708043803057e-05 0 0.0050053926576295107 0.00016458654560476272 0 0.005096841777123595 3.4738370913220664e-07 0 0.0050563064894059541 8.795708043803057e-05 0 0.0051461553003499267 0.00010252639315903721 0 0.0050854650847489951 0.00015480760274078735 0 0.0051197719905640565 0.00023147666933883232 0 0.0051461553003499267 0.00010252639315903721 0 0.0050563064894059541 8.795708043803057e-05 0 0.0050854650847489951 0.00015480760274078735 0 0.0051461553003499267 0.00010252639315903721 0 0.0050854650847489951 0.00015480760274078735 0 0.0051197719905640565 0.00023147666933883232 0 0.0050491440531838724 0.00021734090355755037 0 0.0051197719905640565 0.00023147666933883232 0 0.0050491440531838724 0.00021734090355755037 0 0.0050764527049885324 0.00030022590391079175 0 0.0050491440531838724 0.00021734090355755037 0 0.004994150751181598 0.00025733188664370693 0 0.0050764527049885324 0.00030022590391079175 0 0.0050491440531838724 0.00021734090355755037 0 0.0050053926576295107 0.00016458654560476272 0 0.004994150751181598 0.00025733188664370693 0 0.0050854650847489951 0.00015480760274078735 0 0.0050491440531838724 0.00021734090355755037 0 0.0050053926576295107 0.00016458654560476272 0 0.0050563064894059541 8.795708043803057e-05 0 0.0050854650847489951 0.00015480760274078735 0 0.0050053926576295107 0.00016458654560476272 0 0.0049490526199007477 0.00014850159644875117 0 0.0050053926576295107 0.00016458654560476272 0 0.0049533024778653139 0.00019945811827386598 0 0.0050053926576295107 0.00016458654560476272 0 0.0049533024778653139 0.00019945811827386598 0 0.004994150751181598 0.00025733188664370693 0 0.0049650015462296025 0.00018110534396495616 0 0.0049490526199007477 0.00014850159644875117 0 0.0049533024778653139 0.00019945811827386598 0 0.0049537698568084005 0.00020019861432712998 0 0.0049533024778653139 0.00019945811827386598 0 0.0049416838544161529 0.00024600195209028062 0 0.0049416838544161529 0.00024600195209028062 0 0.004994150751181598 0.00025733188664370693 0 0.0049594231383336546 0.0003166750074079301 0 0.0049533024778653139 0.00019945811827386598 0 0.0049416838544161529 0.00024600195209028062 0 0.004994150751181598 0.00025733188664370693 0 0.0049594231383336546 0.0003166750074079301 0 0.0049392144843968776 0.00043780303450464714 0 0.0050240307656569064 0.00036112641109877652 0 0.004994150751181598 0.00025733188664370693 0 0.0049594231383336546 0.0003166750074079301 0 0.0050240307656569064 0.00036112641109877652 0 0.0049416838544161529 0.00024600195209028062 0 0.0049594231383336546 0.0003166750074079301 0 0.0049187424260087329 0.00028062304590580018 0 0.0049594231383336546 0.0003166750074079301 0 0.0049187424260087329 0.00028062304590580018 0 0.0049392144843968776 0.00043780303450464714 0 0.0052289783512955738 0.00065216749004974736 0 0.0051786713074607341 0.00071534047033499639 0 0.0054847105373592771 0.0010510251873823251 0 0.0055444282971547848 0.0010161327142859623 0 0.0055188601357948298 0.0010103238537947786 0 0.0055188601357948298 0.0010103238537947786 0 0.0054084328555850771 0.0010093977285073109 0 0.0054580896949817676 0.000937865753159805 0 0.0055247370673375817 0.0010268493116022117 0 0.0055166118159573063 0.0011416632265994042 0 0.0055188601357948298 0.0010103238537947786 0 0.0055207933670295044 0.00097043073150201509 0 0.0054580896949817676 0.000937865753159805 0 0.0055444282971547848 0.0010161327142859623 0 0.0055188601357948298 0.0010103238537947786 0 0.0054084328555850771 0.0010093977285073109 0 0.0055188601357948298 0.0010103238537947786 0 0.0055207933670295044 0.00097043073150201509 0 0.0055170929835207721 0.00099417948161012199 0 0.0049392144843968776 0.00043780303450464714 0 0.0050774457293230194 0.00047362692352212877 0 0.0050240307656569064 0.00036112641109877652 0 0.0050774457293230194 0.00047362692352212877 0 0.0050965560170275368 0.00041335911685189949 0 0.0051390428406176327 0.00050158391017501869 0 0.0050774457293230194 0.00047362692352212877 0 0.0050965560170275368 0.00041335911685189949 0 0.0050240307656569064 0.00036112641109877652 0 0.0050965560170275368 0.00041335911685189949 0 0.0051390428406176327 0.00050158391017501869 0 0.0051601574423894188 0.00035954136288465175 0 0.0051197719905640565 0.00023147666933883232 0 0.0050764527049885324 0.00030022590391079175 0 0.0051601574423894188 0.00035954136288465175 0 0.0050965560170275368 0.00041335911685189949 0 0.0050764527049885324 0.00030022590391079175 0 0.0051601574423894188 0.00035954136288465175 0 0.0050965560170275368 0.00041335911685189949 0 0.0050764527049885324 0.00030022590391079175 0 0.0050240307656569064 0.00036112641109877652 0 0.004994150751181598 0.00025733188664370693 0 0.0050764527049885324 0.00030022590391079175 0 0.0050240307656569064 0.00036112641109877652 0 0.0052513265287087423 0.00033620200534739166 0 0.0051601574423894188 0.00035954136288465175 0 0.0051943451297653161 0.00025508192752029683 0 0.0051390428406176327 0.00050158391017501869 0 0.0051601574423894188 0.00035954136288465175 0 0.0052101542151715471 0.00048151958336012466 0 0.0052513265287087423 0.00033620200534739166 0 0.0051601574423894188 0.00035954136288465175 0 0.0052101542151715471 0.00048151958336012466 0 0.0052513265287087423 0.00033620200534739166 0 0.0053402106810798286 0.00046074672592039828 0 0.0052101542151715471 0.00048151958336012466 0 0.0052513265287087423 0.00033620200534739166 0 0.0053574456870375906 0.00029730096292592873 0 0.0053402106810798286 0.00046074672592039828 0 0.0053574456870375906 0.00029730096292592873 0 0.0054658873545832543 0.00045585954486720076 0 0.0053402106810798286 0.00046074672592039828 0 0.0052513265287087423 0.00033620200534739166 0 0.0053574456870375906 0.00029730096292592873 0 0.005262385583092658 0.00016038906126239366 0 0.0053574456870375906 0.00029730096292592873 0 0.005262385583092658 0.00016038906126239366 0 0.0053716240522384256 0.00012350861451251743 0 0.005262385583092658 0.00016038906126239366 0 0.0053106035116640962 -2.3458630491802787e-05 0 0.0053716240522384256 0.00012350861451251743 0 0.005262385583092658 0.00016038906126239366 0 0.0051461553003499267 0.00010252639315903721 0 0.0052255072046318235 -2.5300631507485605e-05 0 0.005262385583092658 0.00016038906126239366 0 0.0051943451297653161 0.00025508192752029683 0 0.0051461553003499267 0.00010252639315903721 0 0.0052513265287087423 0.00033620200534739166 0 0.005262385583092658 0.00016038906126239366 0 0.0051943451297653161 0.00025508192752029683 0 0.0051197719905640565 0.00023147666933883232 0 0.0051943451297653161 0.00025508192752029683 0 0.0051461553003499267 0.00010252639315903721 0 0.0051197719905640565 0.00023147666933883232 0 0.0051601574423894188 0.00035954136288465175 0 0.0051943451297653161 0.00025508192752029683 0 0.005096841777123595 3.4738370913220664e-07 0 0.0051461553003499267 0.00010252639315903721 0 0.0051552007493629775 -8.4477939763393227e-05 0 0.0051461553003499267 0.00010252639315903721 0 0.0052255072046318235 -2.5300631507485605e-05 0 0.0051552007493629775 -8.4477939763393227e-05 0 0.0052255072046318235 -2.5300631507485605e-05 0 0.0051552007493629775 -8.4477939763393227e-05 0 0.0052190937764489782 -0.00016616487306589281 0 0.00508863045770483 -5.880792831180823e-05 0 0.005096841777123595 3.4738370913220664e-07 0 0.0051552007493629775 -8.4477939763393227e-05 0 0.0050009225626991248 -0.00021598351391438237 0 0.0051552007493629775 -8.4477939763393227e-05 0 0.0051256974151302386 -0.00030153210374214955 0 0.0050258274532323328 -0.00015355068403846239 0 0.0051625653531996371 -7.7557621047534054e-05 0 0.0050496703291403192 -0.00032069585453869883 0 0.0050009225626991248 -0.00021598351391438237 0 0.0051256974151302386 -0.00030153210374214955 0 0.0051552007493629775 -8.4477939763393227e-05 0 0.0052190937764489782 -0.00016616487306589281 0 0.005198618517092332 -0.0002772589128762632 0 0.0051552007493629775 -8.4477939763393227e-05 0 0.005198618517092332 -0.0002772589128762632 0 0.0051256974151302386 -0.00030153210374214955 0 0.0052190937764489782 -0.00016616487306589281 0 0.005198618517092332 -0.0002772589128762632 0 0.0052372830503964549 -0.00029408538317216416 0 0.005198618517092332 -0.0002772589128762632 0 0.0051992432705991101 -0.00035065146809120854 0 0.0052229411170279117 -0.00033819687490743169 0 0.005198618517092332 -0.0002772589128762632 0 0.0051992432705991101 -0.00035065146809120854 0 0.0051256974151302386 -0.00030153210374214955 0 0.0052229411170279117 -0.00033819687490743169 0 0.0052397895627081343 -0.00035671665826280795 0 0.0052372830503964549 -0.00029408538317216416 0 0.005198618517092332 -0.0002772589128762632 0 0.0052229411170279117 -0.00033819687490743169 0 0.0052372830503964549 -0.00029408538317216416 0 0.0052397895627081343 -0.00035671665826280795 0 0.0052371405889796128 -0.00037062115394199605 0 0.0052550681342502861 -0.00038335692672866707 0 0.0052229411170279117 -0.00033819687490743169 0 0.0052397895627081343 -0.00035671665826280795 0 0.0052371405889796128 -0.00037062115394199605 0 0.0051992432705991101 -0.00035065146809120854 0 0.0052229411170279117 -0.00033819687490743169 0 0.0052371405889796128 -0.00037062115394199605 0 0.0051992432705991101 -0.00035065146809120854 0 0.0052371405889796128 -0.00037062115394199605 0 0.0052299985485997017 -0.00040503342381922262 0 0.0052722490937923885 -0.00041312039796177589 0 0.0052299985485997017 -0.00040503342381922262 0 0.0052486956294571863 -0.00039149942500327472 0 0.0052371405889796128 -0.00037062115394199605 0 0.0052299985485997017 -0.00040503342381922262 0 0.0052486956294571863 -0.00039149942500327472 0 0.0052371405889796128 -0.00037062115394199605 0 0.0052486956294571863 -0.00039149942500327472 0 0.0052550681342502861 -0.00038335692672866707 0 0.0052722490937923885 -0.00041312039796177589 0 0.0052486956294571863 -0.00039149942500327472 0 0.0052550681342502861 -0.00038335692672866707 0 0.0053237365578809332 -0.00055447747057307784 0 0.005319121871314122 -0.00050729400206669625 0 0.0051992432705991101 -0.00035065146809120854 0 0.0052299985485997017 -0.00040503342381922262 0 0.005169951898449379 -0.00040556876227374345 0 0.005169951898449379 -0.00040556876227374345 0 0.0051033907594224825 -0.00041300495603356413 0 0.0051256974151302386 -0.00030153210374214955 0 0.0050496703291403192 -0.00032069585453869883 0 0.0051033907594224825 -0.00041300495603356413 0 0.0051256974151302386 -0.00030153210374214955 0 0.0051992432705991101 -0.00035065146809120854 0 0.005169951898449379 -0.00040556876227374345 0 0.0051256974151302386 -0.00030153210374214955 0 0.0052999664860174022 -0.00035825993967692355 0 0.0052732130718655054 -0.00030767743518314399 0 0.0053207728625380086 -0.00026360999917770584 0 0.0052999664860174022 -0.00035825993967692355 0 0.0053371151035020038 -0.00039087305129918541 0 0.0053207728625380086 -0.00026360999917770584 0 0.0053371151035020038 -0.00039087305129918541 0 0.0053207728625380086 -0.00026360999917770584 0 0.0053574000911111187 -0.00033870187352927599 0 0.0053535370609493812 -0.00045795693140073923 0 0.0053371151035020038 -0.00039087305129918541 0 0.0053149418860807063 -0.00043653662910078032 0 0.0052999664860174022 -0.00035825993967692355 0 0.0053149418860807063 -0.00043653662910078032 0 0.0052730610961583008 -0.00039425156030818242 0 0.0052999664860174022 -0.00035825993967692355 0 0.0053371151035020038 -0.00039087305129918541 0 0.0053149418860807063 -0.00043653662910078032 0 0.0052442478030404758 -0.00044939808081128702 0 0.0052730610961583008 -0.00039425156030818242 0 0.0052406012673716839 -0.0003656573873100121 0 0.0052442478030404758 -0.00044939808081128702 0 0.0052145904105563665 -0.00044651190309571114 0 0.0052406012673716839 -0.0003656573873100121 0 0.0052145904105563665 -0.00044651190309571114 0 0.0051774423647151357 -0.0004417554897641825 0 0.0052406012673716839 -0.0003656573873100121 0 0.0052593460406240343 -0.0003887240734930791 0 0.0052550681342502861 -0.00038335692672866707 0 0.0052406012673716839 -0.0003656573873100121 0 0.0053237365578809332 -0.00055447747057307784 0 0.0052954743632346044 -0.00042802341864917916 0 0.0052397895627081343 -0.00035671665826280795 0 0.0052550681342502861 -0.00038335692672866707 0 0.0052406012673716839 -0.0003656573873100121 0 0.0052397895627081343 -0.00035671665826280795 0 0.0052406012673716839 -0.0003656573873100121 0 0.0052372830503964549 -0.00029408538317216416 0 0.0052406012673716839 -0.0003656573873100121 0 0.0052372830503964549 -0.00029408538317216416 0 0.0052732130718655054 -0.00030767743518314399 0 0.0052730610961583008 -0.00039425156030818242 0 0.0052406012673716839 -0.0003656573873100121 0 0.0052732130718655054 -0.00030767743518314399 0 0.0052999664860174022 -0.00035825993967692355 0 0.0052730610961583008 -0.00039425156030818242 0 0.0052732130718655054 -0.00030767743518314399 0 0.0052732130718655054 -0.00030767743518314399 0 0.0052689388142753866 -0.00016633780619911115 0 0.0053207728625380086 -0.00026360999917770584 0 0.0052190937764489782 -0.00016616487306589281 0 0.0052372830503964549 -0.00029408538317216416 0 0.0052689388142753866 -0.00016633780619911115 0 0.0052372830503964549 -0.00029408538317216416 0 0.0052732130718655054 -0.00030767743518314399 0 0.0052689388142753866 -0.00016633780619911115 0 0.0052689388142753866 -0.00016633780619911115 0 0.0053207728625380086 -0.00026360999917770584 0 0.005313777895104373 -0.00014728143275080386 0 0.0053207728625380086 -0.00026360999917770584 0 0.005313777895104373 -0.00014728143275080386 0 0.0053561268465360645 -0.0001444509471182867 0 0.005313777895104373 -0.00014728143275080386 0 0.0053106035116640962 -2.3458630491802787e-05 0 0.0053561268465360645 -0.0001444509471182867 0 0.0052689388142753866 -0.00016633780619911115 0 0.005313777895104373 -0.00014728143275080386 0 0.0053106035116640962 -2.3458630491802787e-05 0 0.0052255072046318235 -2.5300631507485605e-05 0 0.0052190937764489782 -0.00016616487306589281 0 0.0052689388142753866 -0.00016633780619911115 0 0.0052255072046318235 -2.5300631507485605e-05 0 0.0052689388142753866 -0.00016633780619911115 0 0.0053106035116640962 -2.3458630491802787e-05 0 0.005262385583092658 0.00016038906126239366 0 0.0052255072046318235 -2.5300631507485605e-05 0 0.0053106035116640962 -2.3458630491802787e-05 0 0.0053106035116640962 -2.3458630491802787e-05 0 0.0053947308423598281 -1.4095252136393945e-05 0 0.0053716240522384256 0.00012350861451251743 0 0.0053947308423598281 -1.4095252136393945e-05 0 0.0054843197680692884 -2.2035287067513266e-05 0 0.0054103983817977829 8.5945428957746064e-05 0 0.0053947308423598281 -1.4095252136393945e-05 0 0.005447286062447685 -0.00015618816714098836 0 0.0054843197680692884 -2.2035287067513266e-05 0 0.0053106035116640962 -2.3458630491802787e-05 0 0.0053947308423598281 -1.4095252136393945e-05 0 0.0053561268465360645 -0.0001444509471182867 0 0.0053947308423598281 -1.4095252136393945e-05 0 0.005447286062447685 -0.00015618816714098836 0 0.0053561268465360645 -0.0001444509471182867 0 0.0053207728625380086 -0.00026360999917770584 0 0.0053561268465360645 -0.0001444509471182867 0 0.005373141133188224 -0.0002618599633502761 0 0.005447286062447685 -0.00015618816714098836 0 0.0053561268465360645 -0.0001444509471182867 0 0.005373141133188224 -0.0002618599633502761 0 0.0053207728625380086 -0.00026360999917770584 0 0.005373141133188224 -0.0002618599633502761 0 0.0053574000911111187 -0.00033870187352927599 0 0.005373141133188224 -0.0002618599633502761 0 0.0054178780367482469 -0.00035403183813640689 0 0.0053574000911111187 -0.00033870187352927599 0 0.005447286062447685 -0.00015618816714098836 0 0.0054789808284068332 -0.00032943168183936338 0 0.0054178780367482469 -0.00035403183813640689 0 0.005447286062447685 -0.00015618816714098836 0 0.005373141133188224 -0.0002618599633502761 0 0.0054178780367482469 -0.00035403183813640689 0 0.0054351330631002889 -0.00015328383500376068 0 0.0055600779562613827 -0.0001884195852852895 0 0.005447286062447685 -0.00015618816714098836 0 0.0054789808284068332 -0.00032943168183936338 0 0.0055577957924974998 -0.00024904066574926292 0 0.0054789808284068332 -0.00032943168183936338 0 0.0054178780367482469 -0.00035403183813640689 0 0.0054672427266202724 -0.00042609258280776015 0 0.0054178780367482469 -0.00035403183813640689 0 0.0054672427266202724 -0.00042609258280776015 0 0.0054350582635157756 -0.00046775205678781305 0 0.0054672427266202724 -0.00042609258280776015 0 0.0054350582635157756 -0.00046775205678781305 0 0.0054843087209154127 -0.00049880858712291181 0 0.0053911128279748284 -0.00049715511215603001 0 0.0054350582635157756 -0.00046775205678781305 0 0.005385671857184954 -0.00042136535224732532 0 0.0053535370609493812 -0.00045795693140073923 0 0.0053371151035020038 -0.00039087305129918541 0 0.005385671857184954 -0.00042136535224732532 0 0.0053911128279748284 -0.00049715511215603001 0 0.0053535370609493812 -0.00045795693140073923 0 0.005385671857184954 -0.00042136535224732532 0 0.0053371151035020038 -0.00039087305129918541 0 0.005385671857184954 -0.00042136535224732532 0 0.0053574000911111187 -0.00033870187352927599 0 0.0054178780367482469 -0.00035403183813640689 0 0.0054350582635157756 -0.00046775205678781305 0 0.005385671857184954 -0.00042136535224732532 0 0.0054178780367482469 -0.00035403183813640689 0 0.005385671857184954 -0.00042136535224732532 0 0.0053574000911111187 -0.00033870187352927599 0 0.0054458169794871919 -0.0005462157491977227 0 0.0054853736701882937 -0.00051299268053958257 0 0.0054723197684405462 -0.00055996512610645476 0 0.0054548882760186721 -0.00057156077565147982 0 0.0054458169794871919 -0.0005462157491977227 0 0.0054853736701882937 -0.00051299268053958257 0 0.0054718851786092308 -0.00055350771605180537 0 0.0054853736701882937 -0.00051299268053958257 0 0.0054843087209154127 -0.00049880858712291181 0 0.0054853736701882937 -0.00051299268053958257 0 0.0054843087209154127 -0.00049880858712291181 0 0.0055257728554692067 -0.00045424137911813557 0 0.0054672427266202724 -0.00042609258280776015 0 0.0054843087209154127 -0.00049880858712291181 0 0.0055257728554692067 -0.00045424137911813557 0 0.0055749587081924731 -0.00044570152573359891 0 0.0053658066742594745 -0.00028045261351622306 0 0.0055257728554692067 -0.00045424137911813557 0 0.0055577957924974998 -0.00024904066574926292 0 0.0057567105766278808 -0.0003030840789834313 0 0.0054789808284068332 -0.00032943168183936338 0 0.0054672427266202724 -0.00042609258280776015 0 0.0055257728554692067 -0.00045424137911813557 0 0.0054789808284068332 -0.00032943168183936338 0 0.0055257728554692067 -0.00045424137911813557 0 0.0055577957924974998 -0.00024904066574926292 0 0.0055600779562613827 -0.0001884195852852895 0 0.0053658066742594745 -0.00028045261351622306 0 0.0054853736701882937 -0.00051299268053958257 0 0.0055257728554692067 -0.00045424137911813557 0 0.0054723197684405462 -0.00055996512610645476 0 0.0056141619612853008 2.0307552548971984e-05 0 0.0055407571529796475 -2.8474083709458255e-05 0 0.0055544948933309952 5.2018377079136425e-05 0 0.0056141619612853008 2.0307552548971984e-05 0 0.0055477797982576432 -9.0061570922363724e-05 0 0.0055407571529796475 -2.8474083709458255e-05 0 0.0054964063807940175 -0.00010338250845746071 0 0.0055477797982576432 -9.0061570922363724e-05 0 0.0055407571529796475 -2.8474083709458255e-05 0 0.005447286062447685 -0.00015618816714098836 0 0.0054964063807940175 -0.00010338250845746071 0 0.0054843197680692884 -2.2035287067513266e-05 0 0.0054964063807940175 -0.00010338250845746071 0 0.0055407571529796475 -2.8474083709458255e-05 0 0.0054843197680692884 -2.2035287067513266e-05 0 0.0054843197680692884 -2.2035287067513266e-05 0 0.0055544948933309952 5.2018377079136425e-05 0 0.0055097726777039906 0.00011888097640804735 0 0.0054843197680692884 -2.2035287067513266e-05 0 0.0055097726777039906 0.00011888097640804735 0 0.0054103983817977829 8.5945428957746064e-05 0 0.0055407571529796475 -2.8474083709458255e-05 0 0.0054843197680692884 -2.2035287067513266e-05 0 0.0055544948933309952 5.2018377079136425e-05 0 0.0055731717042800822 0.00014517246226676295 0 0.0055650819320802675 0.00022239948865674264 0 0.0055097726777039906 0.00011888097640804735 0 0.0055544948933309952 5.2018377079136425e-05 0 0.0055731717042800822 0.00014517246226676295 0 0.0055097726777039906 0.00011888097640804735 0 0.0055650819320802675 0.00022239948865674264 0 0.0054455177361157781 0.00026641278607432683 0 0.0055527324907218975 0.00032958122883043292 0 0.0055650819320802675 0.00022239948865674264 0 0.0054455177361157781 0.00026641278607432683 0 0.0055097726777039906 0.00011888097640804735 0 0.0054455177361157781 0.00026641278607432683 0 0.0055097726777039906 0.00011888097640804735 0 0.0054103983817977829 8.5945428957746064e-05 0 0.0053947308423598281 -1.4095252136393945e-05 0 0.0054103983817977829 8.5945428957746064e-05 0 0.0053716240522384256 0.00012350861451251743 0 0.0053574456870375906 0.00029730096292592873 0 0.0053716240522384256 0.00012350861451251743 0 0.0054697553497828882 0.00026338646710570828 0 0.0054103983817977829 8.5945428957746064e-05 0 0.0053716240522384256 0.00012350861451251743 0 0.0054697553497828882 0.00026338646710570828 0 0.0054016773086170604 0.0001053266563998881 0 0.0053318791111648511 0.00029878272556949683 0 0.0054455177361157781 0.00026641278607432683 0 0.0054103983817977829 8.5945428957746064e-05 0 0.0051981407151051985 0.00032010332964694512 0 0.0054455177361157781 0.00026641278607432683 0 0.0051981407151051985 0.00032010332964694512 0 0.005307367607964652 0.00047081153456707731 0 0.0053574456870375906 0.00029730096292592873 0 0.0054697553497828882 0.00026338646710570828 0 0.0054658873545832543 0.00045585954486720076 0 0.0053318791111648511 0.00029878272556949683 0 0.0052277066081041421 0.00060045770637105365 0 0.0051981407151051985 0.00032010332964694512 0 0.005307367607964652 0.00047081153456707731 0 0.0049876828626189487 0.00072126692135156246 0 0.005307367607964652 0.00047081153456707731 0 0.0053832383586315639 0.0006690156836521604 0 0.0049876828626189487 0.00072126692135156246 0 0.005307367607964652 0.00047081153456707731 0 0.0053832383586315639 0.0006690156836521604 0 0.0054865420576790834 0.00045763155187543051 0 0.0053832383586315639 0.0006690156836521604 0 0.0055353003006493517 0.00060659904752329865 0 0.0054865420576790834 0.00045763155187543051 0 0.0056257114966485194 0.00024373325131188411 0 0.0048232767808567088 0.00054964077962177795 0 0.0055353003006493517 0.00060659904752329865 0 0.0056580181611608346 0.00057711036581650191 0 0.0055830303676967646 0.00052065567562524788 0 0.0056501297469071224 0.00034413464306702623 0 0.0056528862918558392 0.00056918261820672409 0 0.0056386018641724003 0.00053945592481055636 0 0.0048232767808567088 0.00054964077962177795 0 0.0048814154589875685 0.00058239455190835612 0 0.0056580181611608346 0.00057711036581650191 0 0.0056386018641724003 0.00053945592481055636 0 0.0055830303676967646 0.00052065567562524788 0 0.0056386018641724003 0.00053945592481055636 0 0.0055830303676967646 0.00052065567562524788 0 0.0055851766876412745 0.00043365519264013574 0 0.0055830303676967646 0.00052065567562524788 0 0.0055851766876412745 0.00043365519264013574 0 0.0054865420576790834 0.00045763155187543051 0 0.0055353003006493517 0.00060659904752329865 0 0.0055830303676967646 0.00052065567562524788 0 0.0054865420576790834 0.00045763155187543051 0 0.0055851766876412745 0.00043365519264013574 0 0.0055527324907218975 0.00032958122883043292 0 0.0054865420576790834 0.00045763155187543051 0 0.0056501297469071224 0.00034413464306702623 0 0.0055851766876412745 0.00043365519264013574 0 0.0055527324907218975 0.00032958122883043292 0 0.0056501297469071224 0.00034413464306702623 0 0.0056386018641724003 0.00053945592481055636 0 0.0055851766876412745 0.00043365519264013574 0 0.0056501297469071224 0.00034413464306702623 0 0.0055650819320802675 0.00022239948865674264 0 0.0055527324907218975 0.00032958122883043292 0 0.0054455177361157781 0.00026641278607432683 0 0.0055527324907218975 0.00032958122883043292 0 0.0054865420576790834 0.00045763155187543051 0 0.0054455177361157781 0.00026641278607432683 0 0.005307367607964652 0.00047081153456707731 0 0.0054865420576790834 0.00045763155187543051 0 0.0055844710919378737 0.00093233166900360761 0 0.0052372828855372722 0.00096848809592541983 0 0.0054533879765967181 0.001339723417294146 0 0.0043545466838687766 0.0012335686875995584 0 0.0042895707027870078 0.0015527903562398981 0 0.0034048780842340586 0.0017462636094290563 0 0.0032152380799527094 0.0014057942119643017 0 0.0029851194975710656 0.0019949579838810117 0 0.0036202762681069207 0.0013723863139818101 0 0.0037450184474875853 0.0019165401486229969 0 0.0034048780842340586 0.0017462636094290563 0 0.0036202762681069207 0.0013723863139818101 0 0.0034048780842340586 0.0017462636094290563 0 0.0032152380799527094 0.0014057942119643017 0 0.0048232767808567088 0.00054964077962177795 0 0.0043545466838687766 0.0012335686875995584 0 0.0036202762681069207 0.0013723863139818101 0 0.0034854477200944502 0.00080591169788473414 0 0.0032152380799527094 0.0014057942119643017 0 0.0045304842212869189 0.00083802741052278946 0 0.0048232767808567088 0.00054964077962177795 0 0.0055073276591599777 0.0003319076217874697 0 0.0054666571629777691 0.00040492600305909096 0 0.0054651574623241096 0.00030864223739242384 0 0.0055353003006493517 0.00060659904752329865 0 0.0056580181611608346 0.00057711036581650191 0 0.0055844710919378737 0.00093233166900360761 0 0.0053832383586315639 0.0006690156836521604 0 0.0055844710919378737 0.00093233166900360761 0 0.0052372828855372722 0.00096848809592541983 0 0.0053832383586315639 0.0006690156836521604 0 0.0055353003006493517 0.00060659904752329865 0 0.0055844710919378737 0.00093233166900360761 0 0.0053832383586315639 0.0006690156836521604 0 0.0049876828626189487 0.00072126692135156246 0 0.0052372828855372722 0.00096848809592541983 0 0.0054658873545832543 0.00045585954486720076 0 0.0054395184757016725 0.00062604629186602213 0 0.0053402106810798286 0.00046074672592039828 0 0.0049876828626189487 0.00072126692135156246 0 0.0052372828855372722 0.00096848809592541983 0 0.004817466088629839 0.001268849310168468 0 0.0052277066081041421 0.00060045770637105365 0 0.0051216809811499677 0.00092273879989956378 0 0.0052372828855372722 0.00096848809592541983 0 0.0051369617031794918 0.001389372870444446 0 0.004817466088629839 0.001268849310168468 0 0.0052372828855372722 0.00096848809592541983 0 0.0051369617031794918 0.001389372870444446 0 0.0054533879765967181 0.001339723417294146 0 0.0051369617031794918 0.001389372870444446 0 0.0051791032936295807 0.0016472010932578067 0 0.0054533879765967181 0.001339723417294146 0 0.0051369617031794918 0.001389372870444446 0 0.0049974726069952694 0.0016952048727753052 0 0.0051791032936295807 0.0016472010932578067 0 0.0051369617031794918 0.001389372870444446 0 0.004817466088629839 0.001268849310168468 0 0.0049974726069952694 0.0016952048727753052 0 0.0051216809811499677 0.00092273879989956378 0 0.0051253313514101105 0.001438833998514254 0 0.004817466088629839 0.001268849310168468 0 0.0049974726069952694 0.0016952048727753052 0 0.0047037795292712179 0.0018571228139901753 0 0.0049974726069952694 0.0016952048727753052 0 0.0049259981913826406 0.0019265740845153768 0 0.0047037795292712179 0.0018571228139901753 0 0.0049974726069952694 0.0016952048727753052 0 0.0050717802367234999 0.0018920253553917628 0 0.0049259981913826406 0.0019265740845153768 0 0.0051791032936295807 0.0016472010932578067 0 0.0052798656844669006 0.0017724048238135458 0 0.0054533879765967181 0.001339723417294146 0 0.0051791032936295807 0.0016472010932578067 0 0.005121736625233477 0.0017575385867842758 0 0.0052579349844782998 0.0017784199550203812 0 0.004477004979678019 0.0023008337833447736 0 0.0036374421647357622 0.0025717416371760005 0 0.0049974726069952694 0.0016952048727753052 0 0.0051791032936295807 0.0016472010932578067 0 0.005121736625233477 0.0017575385867842758 0 0.0049974726069952694 0.0016952048727753052 0 0.005121736625233477 0.0017575385867842758 0 0.0050717802367234999 0.0018920253553917628 0 0.005121736625233477 0.0017575385867842758 0 0.0052579349844782998 0.0017784199550203812 0 0.0050717802367234999 0.0018920253553917628 0 0.0028385728337278261 0.0024800654978837586 0 0.0030970161748915584 0.0024504188542681681 0 0.0029851194975710656 0.0019949579838810117 0 0.0028385728337278261 0.0024800654978837586 0 0.0030970161748915584 0.0024504188542681681 0 0.00313520392559208 0.0027392721051235306 0 0.0036374421647357622 0.0025717416371760005 0 0.0042895707027870078 0.0015527903562398981 0 0.0030970161748915584 0.0024504188542681681 0 0.0029851194975710656 0.0019949579838810117 0 0.0032098777650800643 0.0022056974647228127 0 0.0029851194975710656 0.0019949579838810117 0 0.0032655234727141363 0.0020158003948677994 0 0.0032098777650800643 0.0022056974647228127 0 0.0034048780842340586 0.0017462636094290563 0 0.0029851194975710656 0.0019949579838810117 0 0.0032655234727141363 0.0020158003948677994 0 0.0034048780842340586 0.0017462636094290563 0 0.0032655234727141363 0.0020158003948677994 0 0.003466864965174571 0.0021149356735209596 0 0.0037450184474875853 0.0019165401486229969 0 0.0034048780842340586 0.0017462636094290563 0 0.003466864965174571 0.0021149356735209596 0 0.0032655234727141363 0.0020158003948677994 0 0.0032098777650800643 0.0022056974647228127 0 0.003466864965174571 0.0021149356735209596 0 0.0032098777650800643 0.0022056974647228127 0 0.003466864965174571 0.0021149356735209596 0 0.0032877774682653184 0.0024674218232253772 0 0.0035856361141946604 0.0023909405593777236 0 0.003466864965174571 0.0021149356735209596 0 0.0032877774682653184 0.0024674218232253772 0 0.0030970161748915584 0.0024504188542681681 0 0.0032098777650800643 0.0022056974647228127 0 0.0032877774682653184 0.0024674218232253772 0 0.0030970161748915584 0.0024504188542681681 0 0.0032877774682653184 0.0024674218232253772 0 0.0032573915618242764 0.0026114499199645039 0 0.0033699491775536182 0.0026067082200084131 0 0.0032877774682653184 0.0024674218232253772 0 0.0032573915618242764 0.0026114499199645039 0 0.0033699491775536182 0.0026067082200084131 0 0.0032573915618242764 0.0026114499199645039 0 0.0033306077683211621 0.0027417217545138229 0 0.0032573915618242764 0.0026114499199645039 0 0.0033306077683211621 0.0027417217545138229 0 0.00313520392559208 0.0027392721051235306 0 0.0030970161748915584 0.0024504188542681681 0 0.0032573915618242764 0.0026114499199645039 0 0.00313520392559208 0.0027392721051235306 0 0.0036374421647357622 0.0025717416371760005 0 0.0024570862925896567 0.0036020684907108495 0 0.0020082519608716214 0.0044851493017688832 0 0.0019909334348867372 0.0044530947179268598 0 0.0019346673600761329 0.0044464792342371762 0 0.0019909334348867372 0.0044530947179268598 0 0.0019346673600761329 0.0044464792342371762 0 0.0019962901704725588 0.004421723566949351 0 0.0019346673600761329 0.0044464792342371762 0 0.0019288419454477732 0.0044172171531717047 0 0.0019962901704725588 0.004421723566949351 0 0.0019288419454477732 0.0044172171531717047 0 0.001986291348136418 0.004374094956934204 0 0.0019962901704725588 0.004421723566949351 0 0.0018217299518198428 0.0044077537754760769 0 0.0021866186264819691 0.0041085070464719868 0 0.0033306077683211621 0.0027417217545138229 0 0.00313520392559208 0.0027392721051235306 0 0.0033120258436724723 0.0028780750158638319 0 0.0024570862925896567 0.0036020684907108495 0 0.0021866186264819691 0.0041085070464719868 0 0.0019346673600761329 0.0044464792342371762 0 0.0019288419454477732 0.0044172171531717047 0 0.001898667792823982 0.0044062710749606026 0 0.0019288419454477732 0.0044172171531717047 0 0.0017882849019463961 0.0044086495819128119 0 0.0018701552921037683 0.0043041557691178489 0 0.0017882849019463961 0.0044086495819128119 0 0.0018701552921037683 0.0043041557691178489 0 0.0017675025567420017 0.0042821955068945228 0 0.0018701552921037683 0.0043041557691178489 0 0.002019151261811675 0.0043072958847131153 0 0.001986291348136418 0.004374094956934204 0 0.0019288419454477732 0.0044172171531717047 0 0.0018701552921037683 0.0043041557691178489 0 0.001986291348136418 0.004374094956934204 0 0.0018662188349121555 0.0043004478248829074 0 0.0018752865607288905 0.0041735129199945509 0 0.0018701552921037683 0.0043041557691178489 0 0.0020684111257788925 0.0042049764095392871 0 0.0019567217273542292 0.0041077297303043518 0 0.0018701552921037683 0.0043041557691178489 0 0.0017675025567420017 0.0042821955068945228 0 0.001799859362090266 0.0042220877949026301 0 0.0021889926067663571 0.004230568415829427 0 0.0020684111257788925 0.0042049764095392871 0 0.0020876369950103379 0.0042933907537629941 0 0.0021889926067663571 0.004230568415829427 0 0.0020684111257788925 0.0042049764095392871 0 0.0021112557057370689 0.0041051174337855883 0 0.0031411077188339548 0.0040042138579374281 0 0.0031828679003212505 0.0038814970014694641 0 0.0018701552921037683 0.0043041557691178489 0 0.0020684111257788925 0.0042049764095392871 0 0.002019151261811675 0.0043072958847131153 0 0.0020876369950103379 0.0042933907537629941 0 0.002019151261811675 0.0043072958847131153 0 0.0020521206701866858 0.0043466821330361673 0 0.0020684111257788925 0.0042049764095392871 0 0.0020876369950103379 0.0042933907537629941 0 0.002019151261811675 0.0043072958847131153 0 0.002019151261811675 0.0043072958847131153 0 0.001986291348136418 0.004374094956934204 0 0.0020521206701866858 0.0043466821330361673 0 0.0020876369950103379 0.0042933907537629941 0 0.0020521206701866858 0.0043466821330361673 0 0.0021061995229383376 0.004372831176551276 0 0.0049715860683348942 0.0021889588068677406 0 0.004884928405659468 0.0021740284238682696 0 0.0048541508945383815 0.0022436575379886354 0 0.0031411077188339548 0.0040042138579374281 0 0.0035742127511954641 0.0035010627474665206 0 0.0042083623836693101 0.0035819440866801827 0 0.0042108940028494982 0.0035438122171480959 0 0.0041904478725721481 0.0035645607226234459 0 0.0021889926067663571 0.004230568415829427 0 0.0020876369950103379 0.0042933907537629941 0 0.0021061995229383376 0.004372831176551276 0 0.0035742127511954641 0.0035010627474665206 0 0.0047564318229532275 0.0027421884269980975 0 0.0049243734834447835 0.0021382499669569881 0 0.0048786516274739672 0.002088511938427017 0 0.004884928405659468 0.0021740284238682696 0 0.0049243734834447835 0.0021382499669569881 0 0.0049715860683348942 0.0021889588068677406 0 0.004884928405659468 0.0021740284238682696 0 0.0049243734834447835 0.0021382499669569881 0 0.0049715860683348942 0.0021889588068677406 0 0.0049623016889096469 0.0020965680630803708 0 0.0049623016889096469 0.0020965680630803708 0 0.0049459604385401158 0.0020240565002210141 0 0.0048786516274739672 0.002088511938427017 0 0.0049243734834447835 0.0021382499669569881 0 0.0049623016889096469 0.0020965680630803708 0 0.0048786516274739672 0.002088511938427017 0 0.0020946561656872693 0.0043744220920007761 0 0.002058791881035893 0.0043914707121326998 0 0.0020304962781763133 0.004443026128445415 0 0.0035742127511954641 0.0035010627474665206 0 0.0035427527427519664 0.0032994079294152464 0 0.0049715860683348942 0.0021889588068677406 0 0.0049623016889096469 0.0020965680630803708 0 0.0050849456852421256 0.0020569871598339748 0 0.001986291348136418 0.004374094956934204 0 0.0020521206701866858 0.0043466821330361673 0 0.002058791881035893 0.0043914707121326998 0 0.001986291348136418 0.004374094956934204 0 0.002058791881035893 0.0043914707121326998 0 0.0019962901704725588 0.004421723566949351 0 0.0020521206701866858 0.0043466821330361673 0 0.0021061995229383376 0.004372831176551276 0 0.002058791881035893 0.0043914707121326998 0 0.0035742127511954641 0.0035010627474665206 0 0.0023502076534874061 0.0043026560657906344 0 0.002058791881035893 0.0043914707121326998 0 0.0019962901704725588 0.004421723566949351 0 0.0020304962781763133 0.004443026128445415 0 0.0052579349844782998 0.0017784199550203812 0 0.0050849456852421256 0.0020569871598339748 0 0.0050717802367234999 0.0018920253553917628 0 0.0020082519608716214 0.0044851493017688832 0 0.0019909334348867372 0.0044530947179268598 0 0.0020304962781763133 0.004443026128445415 0 0.0036374421647357622 0.0025717416371760005 0 0.0035427527427519664 0.0032994079294152464 0 0.0019909334348867372 0.0044530947179268598 0 0.0019962901704725588 0.004421723566949351 0 0.0020304962781763133 0.004443026128445415 0 0.0050849456852421256 0.0020569871598339748 0 0.0050717802367234999 0.0018920253553917628 0 0.0049459604385401158 0.0020240565002210141 0 0.0048840231871310575 0.0020103998290130071 0 0.0049459604385401158 0.0020240565002210141 0 0.0048786516274739672 0.002088511938427017 0 0.0049623016889096469 0.0020965680630803708 0 0.0050849456852421256 0.0020569871598339748 0 0.0049459604385401158 0.0020240565002210141 0 0.0050717802367234999 0.0018920253553917628 0 0.0049459604385401158 0.0020240565002210141 0 0.0049259981913826406 0.0019265740845153768 0 0.0048840231871310575 0.0020103998290130071 0 0.0049259981913826406 0.0019265740845153768 0 0.0048682259070151829 0.0019558679331985909 0 0.0049169856032782811 0.0017591057860017159 0 0.0051253313514101105 0.001438833998514254 0 0.0048840231871310575 0.0020103998290130071 0 0.0049459604385401158 0.0020240565002210141 0 0.0049259981913826406 0.0019265740845153768 0 0.0048121767355578781 0.0020325687750523997 0 0.0047570858503690168 0.0019452721946918404 0 0.0048682259070151829 0.0019558679331985909 0 0.0048840231871310575 0.0020103998290130071 0 0.0048121767355578781 0.0020325687750523997 0 0.0048682259070151829 0.0019558679331985909 0 0.0048840231871310575 0.0020103998290130071 0 0.0048121767355578781 0.0020325687750523997 0 0.0048786516274739672 0.002088511938427017 0 0.0048121767355578781 0.0020325687750523997 0 0.0047158772419769604 0.0020105305411580753 0 0.0047570858503690168 0.0019452721946918404 0 0.0048121767355578781 0.0020325687750523997 0 0.0047554583764427075 0.0021021303568830407 0 0.0047158772419769604 0.0020105305411580753 0 0.0047554583764427075 0.0021021303568830407 0 0.0047775805318755991 0.0022149050079530949 0 0.0047097268616653129 0.0021552014494336373 0 0.0048121767355578781 0.0020325687750523997 0 0.0047554583764427075 0.0021021303568830407 0 0.0048197616202386223 0.0021374271908163683 0 0.0047554583764427075 0.0021021303568830407 0 0.0048197616202386223 0.0021374271908163683 0 0.0047775805318755991 0.0022149050079530949 0 0.0048121767355578781 0.0020325687750523997 0 0.0048786516274739672 0.002088511938427017 0 0.0048197616202386223 0.0021374271908163683 0 0.0048786516274739672 0.002088511938427017 0 0.0048197616202386223 0.0021374271908163683 0 0.004884928405659468 0.0021740284238682696 0 0.0048197616202386223 0.0021374271908163683 0 0.004884928405659468 0.0021740284238682696 0 0.0048395590891597553 0.002192749478367497 0 0.0048541508945383815 0.0022436575379886354 0 0.0047775805318755991 0.0022149050079530949 0 0.0047675585727794496 0.0023055224513765147 0 0.004884928405659468 0.0021740284238682696 0 0.0048541508945383815 0.0022436575379886354 0 0.0048395590891597553 0.002192749478367497 0 0.0048541508945383815 0.0022436575379886354 0 0.0048395590891597553 0.002192749478367497 0 0.0047775805318755991 0.0022149050079530949 0 0.0048197616202386223 0.0021374271908163683 0 0.0048395590891597553 0.002192749478367497 0 0.0047775805318755991 0.0022149050079530949 0 0.0047775805318755991 0.0022149050079530949 0 0.0047543406075217873 0.0023018091875836363 0 0.0046524737594860416 0.0022144750512123291 0 0.0047775805318755991 0.0022149050079530949 0 0.0047543406075217873 0.0023018091875836363 0 0.0047675585727794496 0.0023055224513765147 0 0.0042184444364637532 0.0034919974104334851 0 0.0042534202199379402 0.0034656871297204395 0 0.0040479019869589013 0.0035623620049512359 0 0.0047543406075217873 0.0023018091875836363 0 0.0047675585727794496 0.0023055224513765147 0 0.0047209390052810199 0.0023197412868461013 0 0.0041284637786836746 0.0035946032089404774 0 0.0041418229458346327 0.0035894264945984305 0 0.00416105179045976 0.0036009222943164504 0 0.0041284637786836746 0.0035946032089404774 0 0.00416105179045976 0.0036009222943164504 0 0.0041367977553622296 0.0036222600092006957 0 0.0041769020929446525 0.0034133265157073613 0 0.0044185236793634784 0.0031105796531885506 0 0.0042083623836693101 0.0035819440866801827 0 0.0041826947344805734 0.0036035658961828978 0 0.0042019398543111106 0.0036569827480993165 0 0.0047564318229532275 0.0027421884269980975 0 0.0044185236793634784 0.0031105796531885506 0 0.0041904478725721481 0.0035645607226234459 0 0.0041418229458346327 0.0035894264945984305 0 0.00416105179045976 0.0036009222943164504 0 0.00416105179045976 0.0036009222943164504 0 0.0041826947344805734 0.0036035658961828978 0 0.0041634936598329182 0.0036348308296947885 0 0.0042083623836693101 0.0035819440866801827 0 0.0041904478725721481 0.0035645607226234459 0 0.0041826947344805734 0.0036035658961828978 0 0.0041904478725721481 0.0035645607226234459 0 0.00416105179045976 0.0036009222943164504 0 0.0041826947344805734 0.0036035658961828978 0 0.0046535421938708448 0.0023033593913664016 0 0.0046786461096205954 0.0023188986094752513 0 0.0046839312885057893 0.0022808779209263969 0 0.0046535421938708448 0.0023033593913664016 0 0.0046572876247600167 0.0023233544385434235 0 0.0046786461096205954 0.0023188986094752513 0 0.0046535421938708448 0.0023033593913664016 0 0.0046475667523491202 0.0023184569121216885 0 0.0046305618375521379 0.0023287478959680783 0 0.0046535421938708448 0.0023033593913664016 0 0.0046475667523491202 0.0023184569121216885 0 0.0046572876247600167 0.0023233544385434235 0 0.0046448184305470739 0.0023279924474135729 0 0.0046459663934505843 0.0023385438509138309 0 0.0046572876247600167 0.0023233544385434235 0 0.0046475667523491202 0.0023184569121216885 0 0.0046448184305470739 0.0023279924474135729 0 0.0046572876247600167 0.0023233544385434235 0 0.0046448184305470739 0.0023279924474135729 0 0.004639277166967078 0.0023321063951347639 0 0.0046305618375521379 0.0023287478959680783 0 0.0046475667523491202 0.0023184569121216885 0 0.0046448184305470739 0.0023279924474135729 0 0.0046305618375521379 0.0023287478959680783 0 0.004639277166967078 0.0023321063951347639 0 0.0046459663934505843 0.0023385438509138309 0 0.0046320251883832939 0.0023351216458466924 0 0.004639277166967078 0.0023321063951347639 0 0.0046320251883832939 0.0023351216458466924 0 0.0046305618375521379 0.0023287478959680783 0 0.0046448184305470739 0.0023279924474135729 0 0.004639277166967078 0.0023321063951347639 0 0.0046459663934505843 0.0023385438509138309 0 0.0046459663934505843 0.0023385438509138309 0 0.0046645540578632788 0.0023412576011426424 0 0.0046572876247600167 0.0023233544385434235 0 0.0046645540578632788 0.0023412576011426424 0 0.0046572876247600167 0.0023233544385434235 0 0.0046786461096205954 0.0023188986094752513 0 0.0046786461096205954 0.0023188986094752513 0 0.0047209390052810199 0.0023197412868461013 0 0.004694862611669565 0.0023500095494899333 0 0.0046645540578632788 0.0023412576011426424 0 0.0046786461096205954 0.0023188986094752513 0 0.004694862611669565 0.0023500095494899333 0 0.0047734586841477076 0.0023085505217888512 0 0.0046123158983378569 0.0022315420360576959 0 0.0044185236793634784 0.0031105796531885506 0 0.0043923981523590391 0.0029236889367005459 0 0.0047543406075217873 0.0023018091875836363 0 0.0047209390052810199 0.0023197412868461013 0 0.0046839312885057893 0.0022808779209263969 0 0.0047675585727794496 0.0023055224513765147 0 0.0047209390052810199 0.0023197412868461013 0 0.004694862611669565 0.0023500095494899333 0 0.0046786461096205954 0.0023188986094752513 0 0.0047209390052810199 0.0023197412868461013 0 0.0046839312885057893 0.0022808779209263969 0 0.0047775805318755991 0.0022149050079530949 0 0.0046524737594860416 0.0022144750512123291 0 0.0047097268616653129 0.0021552014494336373 0 0.0046524737594860416 0.0022144750512123291 0 0.0047097268616653129 0.0021552014494336373 0 0.0046439354540990033 0.0021306994765100157 0 0.0046535421938708448 0.0023033593913664016 0 0.0046268386766812452 0.0022474840392982301 0 0.0046305618375521379 0.0023287478959680783 0 0.0046524737594860416 0.0022144750512123291 0 0.0046439354540990033 0.0021306994765100157 0 0.0045638047479480857 0.0021443039112040247 0 0.0046535421938708448 0.0023033593913664016 0 0.0046839312885057893 0.0022808779209263969 0 0.0046268386766812452 0.0022474840392982301 0 0.0046123158983378569 0.0022315420360576959 0 0.0049010312824279744 0.0022037070044843851 0 0.0046439354540990033 0.0021306994765100157 0 0.0046165414799139784 0.0020673886232201798 0 0.0045638047479480857 0.0021443039112040247 0 0.0046439354540990033 0.0021306994765100157 0 0.0046165414799139784 0.0020673886232201798 0 0.0046794891479446342 0.002074884658753922 0 0.0047554583764427075 0.0021021303568830407 0 0.0047097268616653129 0.0021552014494336373 0 0.0046794891479446342 0.002074884658753922 0 0.0047097268616653129 0.0021552014494336373 0 0.0046439354540990033 0.0021306994765100157 0 0.0046794891479446342 0.002074884658753922 0 0.0046794891479446342 0.002074884658753922 0 0.0047158772419769604 0.0020105305411580753 0 0.0046441293514184303 0.0020025594782842188 0 0.0047554583764427075 0.0021021303568830407 0 0.0046794891479446342 0.002074884658753922 0 0.0047158772419769604 0.0020105305411580753 0 0.0046165414799139784 0.0020673886232201798 0 0.0046441293514184303 0.0020025594782842188 0 0.0045743853586530945 0.0019960319765993675 0 0.0046165414799139784 0.0020673886232201798 0 0.0046794891479446342 0.002074884658753922 0 0.0046441293514184303 0.0020025594782842188 0 0.0046597026073209339 0.0019239656991320256 0 0.0045776117105935724 0.0018993151325535295 0 0.0045996887319535319 0.0019620365240320373 0 0.0046441293514184303 0.0020025594782842188 0 0.0045996887319535319 0.0019620365240320373 0 0.0045743853586530945 0.0019960319765993675 0 0.0046441293514184303 0.0020025594782842188 0 0.0046597026073209339 0.0019239656991320256 0 0.0045996887319535319 0.0019620365240320373 0 0.0048485437946427781 0.0013142911204302612 0 0.00526218733912652 0.0011357290826644949 0 0.0051952248175396636 0.00069887337406992329 0 0.0052002462638449948 0.00061510111969010869 0 0.0051099717797414819 0.00066927395812505647 0 0.0051952248175396636 0.00069887337406992329 0 0.005263467898336387 0.00066178486041448532 0 0.0052002462638449948 0.00061510111969010869 0 0.0051952248175396636 0.00069887337406992329 0 0.005263467898336387 0.00066178486041448532 0 0.0052941172667026019 0.00074016858962174437 0 0.0048485437946427781 0.0013142911204302612 0 0.005043755808996876 0.0013374079163521659 0 0.0047158772419769604 0.0020105305411580753 0 0.0046597026073209339 0.0019239656991320256 0 0.0047570858503690168 0.0019452721946918404 0 0.0047158772419769604 0.0020105305411580753 0 0.0046441293514184303 0.0020025594782842188 0 0.0046597026073209339 0.0019239656991320256 0 0.005043755808996876 0.0013374079163521659 0 0.0051253313514101105 0.001438833998514254 0 0.0052941172667026019 0.00074016858962174437 0 0.0054082273058646208 0.0007845721896921862 0 0.0053551162850615048 0.00068566053640647104 0 0.0054395184757016725 0.00062604629186602213 0 0.0053551162850615048 0.00068566053640647104 0 0.0052995224800199163 0.00058651584253869345 0 0.0054395184757016725 0.00062604629186602213 0 0.0054082273058646208 0.0007845721896921862 0 0.0053551162850615048 0.00068566053640647104 0 0.005263467898336387 0.00066178486041448532 0 0.0052941172667026019 0.00074016858962174437 0 0.0053551162850615048 0.00068566053640647104 0 0.005263467898336387 0.00066178486041448532 0 0.0053551162850615048 0.00068566053640647104 0 0.0052995224800199163 0.00058651584253869345 0 0.0054395184757016725 0.00062604629186602213 0 0.0052995224800199163 0.00058651584253869345 0 0.0053402106810798286 0.00046074672592039828 0 0.0052995224800199163 0.00058651584253869345 0 0.0053402106810798286 0.00046074672592039828 0 0.0052101542151715471 0.00048151958336012466 0 0.0051390428406176327 0.00050158391017501869 0 0.0052101542151715471 0.00048151958336012466 0 0.0051480873680330294 0.0005753585177264832 0 0.0052101542151715471 0.00048151958336012466 0 0.0051480873680330294 0.0005753585177264832 0 0.0052002462638449948 0.00061510111969010869 0 0.0051480873680330294 0.0005753585177264832 0 0.0052002462638449948 0.00061510111969010869 0 0.0051099717797414819 0.00066927395812505647 0 0.005263467898336387 0.00066178486041448532 0 0.0052995224800199163 0.00058651584253869345 0 0.0052002462638449948 0.00061510111969010869 0 0.0052995224800199163 0.00058651584253869345 0 0.0052101542151715471 0.00048151958336012466 0 0.0052002462638449948 0.00061510111969010869 0 0.0051397360501536605 0.00060565205716293837 0 0.0051246024066261215 0.00067133521330754124 0 0.0052187500359216245 0.00056901267761579131 0 0.0051480873680330294 0.0005753585177264832 0 0.0051397360501536605 0.00060565205716293837 0 0.0051234586557235319 0.00058739185226242441 0 0.0051480873680330294 0.0005753585177264832 0 0.0051397360501536605 0.00060565205716293837 0 0.0051246024066261215 0.00067133521330754124 0 0.0051408603825034349 0.00038369586489072401 0 0.00526218733912652 0.0011357290826644949 0 0.0051390428406176327 0.00050158391017501869 0 0.0051480873680330294 0.0005753585177264832 0 0.0051246024066261215 0.00067133521330754124 0 0.0049392144843968776 0.00043780303450464714 0 0.0050774457293230194 0.00047362692352212877 0 0.0051246024066261215 0.00067133521330754124 0 0.0050774457293230194 0.00047362692352212877 0 0.0051390428406176327 0.00050158391017501869 0 0.0051246024066261215 0.00067133521330754124 0 0.0054084328555850771 0.0010093977285073109 0 0.0051246024066261215 0.00067133521330754124 0 0.0054006455358869511 0.00082823047503422008 0 0.0051786713074607341 0.00071534047033499639 0 0.0051285960105118171 0.00067858021340779255 0 0.0054084328555850771 0.0010093977285073109 0 0.0054006455358869511 0.00082823047503422008 0 0.0054580896949817676 0.000937865753159805 0 0.0051246024066261215 0.00067133521330754124 0 0.0054006455358869511 0.00082823047503422008 0 0.0053526660598174521 0.00071079652607473171 0 0.0055207933670295044 0.00097043073150201509 0 0.0054896172859114009 0.00086133866760397862 0 0.0054850032348701524 0.00076656415549898442 0 0.0055175102416747772 0.00096924315176691658 0 0.0055081853690117089 0.00096791674059723369 0 0.0054006455358869511 0.00082823047503422008 0 0.0054580896949817676 0.000937865753159805 0 0.0054896172859114009 0.00086133866760397862 0 0.0055207933670295044 0.00097043073150201509 0 0.0054580896949817676 0.000937865753159805 0 0.0054896172859114009 0.00086133866760397862 0 0.0054006455358869511 0.00082823047503422008 0 0.0054896172859114009 0.00086133866760397862 0 0.0054922538764737138 0.00078944908381046064 0 0.0054896172859114009 0.00086133866760397862 0 0.0054922538764737138 0.00078944908381046064 0 0.0054850032348701524 0.00076656415549898442 0 0.0054922538764737138 0.00078944908381046064 0 0.0055510435933759589 0.00077308851450960637 0 0.0054850032348701524 0.00076656415549898442 0 0.0054922538764737138 0.00078944908381046064 0 0.0055510435933759589 0.00077308851450960637 0 0.0053526660598174521 0.00071079652607473171 0 0.0055510435933759589 0.00077308851450960637 0 0.0055396289525051472 0.0010512637871390315 0 0.0054850032348701524 0.00076656415549898442 0 0.0051246024066261215 0.00067133521330754124 0 0.0053526660598174521 0.00071079652607473171 0 0.0052187500359216245 0.00056901267761579131 0 0.0055510435933759589 0.00077308851450960637 0 0.0053526660598174521 0.00071079652607473171 0 0.0052187500359216245 0.00056901267761579131 0 0.0055041877954151493 0.00076216565089468231 0 0.0057779566382998356 0.00077222116264802842 0 0.0054006455358869511 0.00082823047503422008 0 0.0054922538764737138 0.00078944908381046064 0 0.0053526660598174521 0.00071079652607473171 0 0.0055510435933759589 0.00077308851450960637 0 0.0061110404583734519 0.0009890993196524471 0 0.0057576709691865603 0.0010807428329673494 0 0.0061110404583734519 0.0009890993196524471 0 0.0057576709691865603 0.0010807428329673494 0 0.0059385915818154691 0.0012817295619982066 0 0.0061110404583734519 0.0009890993196524471 0 0.0059385915818154691 0.0012817295619982066 0 0.0062693571766902689 0.0012817876275087636 0 0.0055510435933759589 0.00077308851450960637 0 0.0055396289525051472 0.0010512637871390315 0 0.0057576709691865603 0.0010807428329673494 0 0.0055396289525051472 0.0010512637871390315 0 0.0057576709691865603 0.0010807428329673494 0 0.0056976447491238914 0.0012497350489210899 0 0.0057576709691865603 0.0010807428329673494 0 0.0056976447491238914 0.0012497350489210899 0 0.0059385915818154691 0.0012817295619982066 0 0.0055396289525051472 0.0010512637871390315 0 0.0056976447491238914 0.0012497350489210899 0 0.0055433154734292845 0.0012725418324150428 0 0.0056976447491238914 0.0012497350489210899 0 0.0055433154734292845 0.0012725418324150428 0 0.0055984013493080983 0.0014522017967328554 0 0.0056976447491238914 0.0012497350489210899 0 0.0058070954083586975 0.0014949979327603235 0 0.0055984013493080983 0.0014522017967328554 0 0.0058070954083586975 0.0014949979327603235 0 0.0055984013493080983 0.0014522017967328554 0 0.0056759522986694916 0.0016901227776636605 0 0.0055984013493080983 0.0014522017967328554 0 0.0056759522986694916 0.0016901227776636605 0 0.0055063182762636644 0.0016628857166431888 0 0.0059385915818154691 0.0012817295619982066 0 0.0060336224249625172 0.0015104380688367013 0 0.0062693571766902689 0.0012817876275087636 0 0.0056976447491238914 0.0012497350489210899 0 0.0058070954083586975 0.0014949979327603235 0 0.0059385915818154691 0.0012817295619982066 0 0.0058070954083586975 0.0014949979327603235 0 0.0059385915818154691 0.0012817295619982066 0 0.0060336224249625172 0.0015104380688367013 0 0.0058070954083586975 0.0014949979327603235 0 0.0060336224249625172 0.0015104380688367013 0 0.005918456788925856 0.0017332963233550693 0 0.0060336224249625172 0.0015104380688367013 0 0.0062224432237260804 0.0015116385072745308 0 0.0061792538538389379 0.0016821270567885802 0 0.0062224432237260804 0.0015116385072745308 0 0.0062693571766902689 0.0012817876275087636 0 0.0064109063381530646 0.0015709046126985496 0 0.0060336224249625172 0.0015104380688367013 0 0.0062224432237260804 0.0015116385072745308 0 0.0062693571766902689 0.0012817876275087636 0 0.0051397360501536605 0.00060565205716293837 0 0.0052187500359216245 0.00056901267761579131 0 0.0051234586557235319 0.00058739185226242441 0 0.0057779566382998356 0.00077222116264802842 0 0.00526218733912652 0.0011357290826644949 0 0.0061110404583734519 0.0009890993196524471 0 0.0062693571766902689 0.0012817876275087636 0 0.0065497049390807454 0.0011508932542560724 0 0.0045776117105935724 0.0018993151325535295 0 0.0045552329492312901 0.001987356553629813 0 0.0045996887319535319 0.0019620365240320373 0 0.0062693571766902689 0.0012817876275087636 0 0.0065497049390807454 0.0011508932542560724 0 0.0064109063381530646 0.0015709046126985496 0 0.00526218733912652 0.0011357290826644949 0 0.0054578519754335808 0.0018626259052514236 0 0.0045552329492312901 0.001987356553629813 0 0.0045996887319535319 0.0019620365240320373 0 0.0045743853586530945 0.0019960319765993675 0 0.0045743853586530945 0.0019960319765993675 0 0.0045665137071290848 0.0020181819473855077 0 0.0045958615908962917 0.0020615816287787563 0 0.0045552329492312901 0.001987356553629813 0 0.0045743853586530945 0.0019960319765993675 0 0.0045665137071290848 0.0020181819473855077 0 0.0054578519754335808 0.0018626259052514236 0 0.0058130580101933248 0.0019710025473987148 0 0.0061792538538389379 0.0016821270567885802 0 0.0060720472720373715 0.0018902859780053265 0 0.0062550420748852184 0.0019931933344132964 0 0.0064109063381530646 0.0015709046126985496 0 0.0061792538538389379 0.0016821270567885802 0 0.0062550420748852184 0.0019931933344132964 0 0.0045552329492312901 0.001987356553629813 0 0.0045665137071290848 0.0020181819473855077 0 0.0045557218747047084 0.0020382843234916796 0 0.0062224432237260804 0.0015116385072745308 0 0.0064109063381530646 0.0015709046126985496 0 0.0061792538538389379 0.0016821270567885802 0 0.0061792538538389379 0.0016821270567885802 0 0.0060720472720373715 0.0018902859780053265 0 0.0060508770841838332 0.0017264627326672919 0 0.0058130580101933248 0.0019710025473987148 0 0.0060969074601563006 0.0022041221621040066 0 0.0061786142379170036 0.0019666739587334446 0 0.0060592069702364946 0.002212823186979942 0 0.0060013883430583004 0.0020514413470173114 0 0.0060720472720373715 0.0018902859780053265 0 0.0061786142379170036 0.0019666739587334446 0 0.0060013883430583004 0.0020514413470173114 0 0.0061071052648586253 0.001995950357846383 0 0.0058130580101933248 0.0019710025473987148 0 0.0045665137071290848 0.0020181819473855077 0 0.0045557218747047084 0.0020382843234916796 0 0.0045958615908962917 0.0020615816287787563 0 0.0060799191536722516 0.0021679541680921675 0 0.0061298905223243867 0.0022044474568346083 0 0.0060952000610603047 0.0022159613466772653 0 0.0058130580101933248 0.0019710025473987148 0 0.0049010312824279744 0.0022037070044843851 0 0.0044812968142156047 0.0019535689070456557 0 0.0049010312824279744 0.0022037070044843851 0 0.0046165414799139784 0.0020673886232201798 0 0.0045743853586530945 0.0019960319765993675 0 0.0045638047479480857 0.0021443039112040247 0 0.0061298905223243867 0.0022044474568346083 0 0.0061187772703905005 0.0022493939262780292 0 0.0061357259762755906 0.0022785514081640435 0 0.0049010312824279744 0.0022037070044843851 0 0.0055307230052003978 0.0023679682827659736 0 0.0061298905223243867 0.0022044474568346083 0 0.0061187772703905005 0.0022493939262780292 0 0.0060952000610603047 0.0022159613466772653 0 0.0061187772703905005 0.0022493939262780292 0 0.0060952000610603047 0.0022159613466772653 0 0.006077007149691031 0.0022707404097127111 0 0.0060799191536722516 0.0021679541680921675 0 0.0060952000610603047 0.0022159613466772653 0 0.0060592069702364946 0.002212823186979942 0 0.0060952000610603047 0.0022159613466772653 0 0.0060592069702364946 0.002212823186979942 0 0.006077007149691031 0.0022707404097127111 0 0.0059171893643192794 0.0023484870852269603 0 0.0059144145351819012 0.0024169586763843577 0 0.0058200805747551767 0.0023879066991177259 0 0.0059171893643192794 0.0023484870852269603 0 0.0059144145351819012 0.0024169586763843577 0 0.0059668901326666206 0.0024272528828542536 0 0.0057974919639895419 0.0024515024143843683 0 0.0054450689922221534 0.002742111610533446 0 0.0059144145351819012 0.0024169586763843577 0 0.0059668901326666206 0.0024272528828542536 0 0.0059318491071361041 0.0024833148968554869 0 0.0061187772703905005 0.0022493939262780292 0 0.006077007149691031 0.0022707404097127111 0 0.0061357259762755906 0.0022785514081640435 0 0.006113396175192993 0.0023247786161252441 0 0.0055307230052003978 0.0023679682827659736 0 0.0059668901326666206 0.0024272528828542536 0 0.0060572169503420288 0.0024288502957361077 0 0.0059318491071361041 0.0024833148968554869 0 0.0059171893643192794 0.0023484870852269603 0 0.0059668901326666206 0.0024272528828542536 0 0.0060572169503420288 0.0024288502957361077 0 0.0054853179921140758 0.0023330054937340042 0 0.0055307230052003978 0.0023679682827659736 0 0.0055955538627246856 0.0024066317054215595 0 0.0057250389164048799 0.002442381439236134 0 0.0057021434702857841 0.0022093369396996845 0 0.0055955538627246856 0.0024066317054215595 0 0.0057250389164048799 0.002442381439236134 0 0.0056649608932931887 0.002532346027036681 0 0.0057250389164048799 0.002442381439236134 0 0.0058200805747551767 0.0023879066991177259 0 0.0057021434702857841 0.0022093369396996845 0 0.0057250389164048799 0.002442381439236134 0 0.0058200805747551767 0.0023879066991177259 0 0.0058011985110345077 0.0024964915061693981 0 0.0059144145351819012 0.0024169586763843577 0 0.0058200805747551767 0.0023879066991177259 0 0.0058011985110345077 0.0024964915061693981 0 0.0060592069702364946 0.002212823186979942 0 0.006077007149691031 0.0022707404097127111 0 0.0057750688885855415 0.0021789390645220439 0 0.006113396175192993 0.0023247786161252441 0 0.0057043192640501327 0.0021823614434949997 0 0.0059171893643192794 0.0023484870852269603 0 0.0058200805747551767 0.0023879066991177259 0 0.0057021434702857841 0.0022093369396996845 0 0.0060592069702364946 0.002212823186979942 0 0.0057750688885855415 0.0021789390645220439 0 0.0060013883430583004 0.0020514413470173114 0 0.0055955538627246856 0.0024066317054215595 0 0.0057021434702857841 0.0022093369396996845 0 0.0054869802574493759 0.0022769014717536136 0 0.0057750688885855415 0.0021789390645220439 0 0.0057477045879715822 0.0018994998227996717 0 0.0055598743616517851 0.0018944086204960931 0 0.0057750688885855415 0.0021789390645220439 0 0.0057477045879715822 0.0018994998227996717 0 0.0058783632547741074 0.0019626297112120624 0 0.0057750688885855415 0.0021789390645220439 0 0.0060013883430583004 0.0020514413470173114 0 0.0058783632547741074 0.0019626297112120624 0 0.0060720472720373715 0.0018902859780053265 0 0.0060013883430583004 0.0020514413470173114 0 0.0058783632547741074 0.0019626297112120624 0 0.0060720472720373715 0.0018902859780053265 0 0.0058783632547741074 0.0019626297112120624 0 0.005918456788925856 0.0017332963233550693 0 0.0060720472720373715 0.0018902859780053265 0 0.005918456788925856 0.0017332963233550693 0 0.0060508770841838332 0.0017264627326672919 0 0.0057477045879715822 0.0018994998227996717 0 0.0058783632547741074 0.0019626297112120624 0 0.005918456788925856 0.0017332963233550693 0 0.0060336224249625172 0.0015104380688367013 0 0.0061792538538389379 0.0016821270567885802 0 0.0060508770841838332 0.0017264627326672919 0 0.0060336224249625172 0.0015104380688367013 0 0.005918456788925856 0.0017332963233550693 0 0.0060508770841838332 0.0017264627326672919 0 0.0057477045879715822 0.0018994998227996717 0 0.0056759522986694916 0.0016901227776636605 0 0.0055598743616517851 0.0018944086204960931 0 0.0057477045879715822 0.0018994998227996717 0 0.005918456788925856 0.0017332963233550693 0 0.0056759522986694916 0.0016901227776636605 0 0.0058070954083586975 0.0014949979327603235 0 0.005918456788925856 0.0017332963233550693 0 0.0056759522986694916 0.0016901227776636605 0 0.0056759522986694916 0.0016901227776636605 0 0.0055063182762636644 0.0016628857166431888 0 0.0055598743616517851 0.0018944086204960931 0 0.0055063182762636644 0.0016628857166431888 0 0.0053711454068929524 0.0018942690789328764 0 0.0053283586906535093 0.0013348063738894628 0 0.0055063182762636644 0.0016628857166431888 0 0.0055598743616517851 0.0018944086204960931 0 0.0053711454068929524 0.0018942690789328764 0 0.0052348902767255165 0.0019329297497677907 0 0.0053214154167158965 0.0016835835496550554 0 0.0053711454068929524 0.0018942690789328764 0 0.0052302436093707647 0.0019573895502634606 0 0.005288649102879908 0.0015995747877893378 0 0.0053711454068929524 0.0018942690789328764 0 0.005294440576488953 0.002076568427315463 0 0.0052302436093707647 0.0019573895502634606 0 0.0053711454068929524 0.0018942690789328764 0 0.005294440576488953 0.002076568427315463 0 0.005424537924116817 0.0020460445719262046 0 0.005294440576488953 0.002076568427315463 0 0.005424537924116817 0.0020460445719262046 0 0.0053646083719509578 0.0021876139927913939 0 0.0057043192640501327 0.0021823614434949997 0 0.0054507678415265069 0.0020571925387183059 0 0.0057750688885855415 0.0021789390645220439 0 0.0055598743616517851 0.0018944086204960931 0 0.005424537924116817 0.0020460445719262046 0 0.0055598743616517851 0.0018944086204960931 0 0.0053711454068929524 0.0018942690789328764 0 0.005424537924116817 0.0020460445719262046 0 0.0057021434702857841 0.0022093369396996845 0 0.005424537924116817 0.0020460445719262046 0 0.0054869802574493759 0.0022769014717536136 0 0.005424537924116817 0.0020460445719262046 0 0.0054869802574493759 0.0022769014717536136 0 0.0053646083719509578 0.0021876139927913939 0 0.005294440576488953 0.002076568427315463 0 0.0053646083719509578 0.0021876139927913939 0 0.0052534270968049215 0.002207155122727727 0 0.0053646083719509578 0.0021876139927913939 0 0.0053577598511482076 0.0023315390524072618 0 0.0052534270968049215 0.002207155122727727 0 0.0054869802574493759 0.0022769014717536136 0 0.0053646083719509578 0.0021876139927913939 0 0.0053577598511482076 0.0023315390524072618 0 0.0053577598511482076 0.0023315390524072618 0 0.005178272347390136 0.0023629497397811322 0 0.0053166826510911347 0.0024994952225927047 0 0.0053577598511482076 0.0023315390524072618 0 0.0054618216849774978 0.0024464819871413703 0 0.0053166826510911347 0.0024994952225927047 0 0.0054869802574493759 0.0022769014717536136 0 0.0053577598511482076 0.0023315390524072618 0 0.0054618216849774978 0.0024464819871413703 0 0.0055955538627246856 0.0024066317054215595 0 0.0054869802574493759 0.0022769014717536136 0 0.0054618216849774978 0.0024464819871413703 0 0.0055955538627246856 0.0024066317054215595 0 0.0054618216849774978 0.0024464819871413703 0 0.0055469996764054372 0.002538510180690253 0 0.0049999745634831871 0.0023933325228137929 0 0.005178272347390136 0.0023629497397811322 0 0.0051550036731240409 0.0025564019019313718 0 0.005178272347390136 0.0023629497397811322 0 0.0051550036731240409 0.0025564019019313718 0 0.0053166826510911347 0.0024994952225927047 0 0.005178272347390136 0.0023629497397811322 0 0.0052534270968049215 0.002207155122727727 0 0.0051538484051005511 0.0021544036946265187 0 0.0053577598511482076 0.0023315390524072618 0 0.005178272347390136 0.0023629497397811322 0 0.0052534270968049215 0.002207155122727727 0 0.0049999745634831871 0.0023933325228137929 0 0.00499997255844586 0.0021322483798145641 0 0.0051538484051005511 0.0021544036946265187 0 0.0049999745634831871 0.0023933325228137929 0 0.005178272347390136 0.0023629497397811322 0 0.0051538484051005511 0.0021544036946265187 0 0.00499997255844586 0.0021322483798145641 0 0.0051538484051005511 0.0021544036946265187 0 0.0051185689619944385 0.0019774169921242587 0 0.0051538484051005511 0.0021544036946265187 0 0.0052302436093707647 0.0019573895502634606 0 0.0051185689619944385 0.0019774169921242587 0 0.005294440576488953 0.002076568427315463 0 0.0052534270968049215 0.002207155122727727 0 0.0051538484051005511 0.0021544036946265187 0 0.005294440576488953 0.002076568427315463 0 0.0051538484051005511 0.0021544036946265187 0 0.0052302436093707647 0.0019573895502634606 0 0.0052302436093707647 0.0019573895502634606 0 0.0051785143530127141 0.0018284391521108014 0 0.0053495316052663373 0.0017701339818662128 0 0.0052302436093707647 0.0019573895502634606 0 0.0051185689619944385 0.0019774169921242587 0 0.0051785143530127141 0.0018284391521108014 0 0.00499997255844586 0.0021322483798145641 0 0.0051185689619944385 0.0019774169921242587 0 0.0049999841919171678 0.0018712082763611112 0 0.0051185689619944385 0.0019774169921242587 0 0.0049999841919171678 0.0018712082763611112 0 0.0051785143530127141 0.0018284391521108014 0 0.0049999841919171678 0.0018712082763611112 0 0.0049999875174404551 0.0016101609847585937 0 0.0051234765286747794 0.0017057707599977001 0 0.0049999841919171678 0.0018712082763611112 0 0.0051234765286747794 0.0017057707599977001 0 0.0051785143530127141 0.0018284391521108014 0 0.0049999875174404551 0.0016101609847585937 0 0.0051234765286747794 0.0017057707599977001 0 0.0052175256528462855 0.0015721745010939833 0 0.0051234765286747794 0.0017057707599977001 0 0.0052175256528462855 0.0015721745010939833 0 0.0052381659581906053 0.0017032191796547353 0 0.0052175256528462855 0.0015721745010939833 0 0.0052381659581906053 0.0017032191796547353 0 0.0053162282294488784 0.0016150273262850448 0 0.0052381659581906053 0.0017032191796547353 0 0.0051785143530127141 0.0018284391521108014 0 0.0053495316052663373 0.0017701339818662128 0 0.0051234765286747794 0.0017057707599977001 0 0.0052381659581906053 0.0017032191796547353 0 0.0051785143530127141 0.0018284391521108014 0 0.0053711454068929524 0.0018942690789328764 0 0.005288649102879908 0.0015995747877893378 0 0.005484893941822353 0.0015282977630745359 0 0.0053644942513905725 0.0018549158282487406 0 0.0054140634578171438 0.0014309150821751025 0 0.0055984013493080983 0.0014522017967328554 0 0.0055063182762636644 0.0016628857166431888 0 0.0053283586906535093 0.0013348063738894628 0 0.0055433154734292845 0.0012725418324150428 0 0.0055984013493080983 0.0014522017967328554 0 0.0053283586906535093 0.0013348063738894628 0 0.0054140634578171438 0.0014309150821751025 0 0.0055081853690117089 0.00096791674059723369 0 0.005484893941822353 0.0015282977630745359 0 0.0055363075054545869 0.0011274545226624547 0 0.0054203139889783978 0.0012153687536595708 0 0.0055396289525051472 0.0010512637871390315 0 0.0053283586906535093 0.0013348063738894628 0 0.0054850032348701524 0.00076656415549898442 0 0.005288649102879908 0.0015995747877893378 0 0.005484893941822353 0.0015282977630745359 0 0.0054203139889783978 0.0012153687536595708 0 0.0055396289525051472 0.0010512637871390315 0 0.0055433154734292845 0.0012725418324150428 0 0.0053283586906535093 0.0013348063738894628 0 0.0053214154167158965 0.0016835835496550554 0 0.0054366311623057955 0.0013760704328848036 0 0.0053495316052663373 0.0017701339818662128 0 0.0053162282294488784 0.0016150273262850448 0 0.0054529973161635591 0.0015340952285308367 0 0.0052381659581906053 0.0017032191796547353 0 0.0053495316052663373 0.0017701339818662128 0 0.0053162282294488784 0.0016150273262850448 0 0.0052175256528462855 0.0015721745010939833 0 0.0053162282294488784 0.0016150273262850448 0 0.005311903423729742 0.0014698097222109385 0 0.005311903423729742 0.0014698097222109385 0 0.0054128407363771376 0.0013806166935081802 0 0.0054529973161635591 0.0015340952285308367 0 0.0053162282294488784 0.0016150273262850448 0 0.005311903423729742 0.0014698097222109385 0 0.0054529973161635591 0.0015340952285308367 0 0.005311903423729742 0.0014698097222109385 0 0.0054128407363771376 0.0013806166935081802 0 0.0053155144007342213 0.0013086396183540642 0 0.0054366311623057955 0.0013760704328848036 0 0.0055166118159573063 0.0011416632265994042 0 0.0054128407363771376 0.0013806166935081802 0 0.0054529973161635591 0.0015340952285308367 0 0.0055312553920465303 0.00128134784213421 0 0.0055363075054545869 0.0011274545226624547 0 0.0054203139889783978 0.0012153687536595708 0 0.0055170929835207721 0.00099417948161012199 0 0.0055207933670295044 0.00097043073150201509 0 0.0055363075054545869 0.0011274545226624547 0 0.0055170929835207721 0.00099417948161012199 0 0.0054128407363771376 0.0013806166935081802 0 0.0054236976405701307 0.0012711843240605463 0 0.0055312553920465303 0.00128134784213421 0 0.0054753681709801133 0.0011893026186361145 0 0.0054236976405701307 0.0012711843240605463 0 0.0055312553920465303 0.00128134784213421 0 0.0053927052132817085 0.0011831023321708808 0 0.0054753681709801133 0.0011893026186361145 0 0.0054236976405701307 0.0012711843240605463 0 0.0054128407363771376 0.0013806166935081802 0 0.0054236976405701307 0.0012711843240605463 0 0.0053155144007342213 0.0013086396183540642 0 0.0053927052132817085 0.0011831023321708808 0 0.0054236976405701307 0.0012711843240605463 0 0.0053155144007342213 0.0013086396183540642 0 0.0053032524149581421 0.0011922293726447854 0 0.0053927052132817085 0.0011831023321708808 0 0.0053155144007342213 0.0013086396183540642 0 0.0053032524149581421 0.0011922293726447854 0 0.0053155144007342213 0.0013086396183540642 0 0.0051968570794483655 0.0012494981236588893 0 0.0053155144007342213 0.0013086396183540642 0 0.0051968570794483655 0.0012494981236588893 0 0.0051611908211644363 0.0014033253059936739 0 0.0051508623535190829 0.0011642174678835975 0 0.0051968570794483655 0.0012494981236588893 0 0.0049999531890453216 0.0013490755147990325 0 0.0051968570794483655 0.0012494981236588893 0 0.0049999531890453216 0.0013490755147990325 0 0.0051611908211644363 0.0014033253059936739 0 0.0049999875174404551 0.0016101609847585937 0 0.0052175256528462855 0.0015721745010939833 0 0.0051611908211644363 0.0014033253059936739 0 0.0049999875174404551 0.0016101609847585937 0 0.0049999531890453216 0.0013490755147990325 0 0.0051611908211644363 0.0014033253059936739 0 0.0052175256528462855 0.0015721745010939833 0 0.005311903423729742 0.0014698097222109385 0 0.0051611908211644363 0.0014033253059936739 0 0.005311903423729742 0.0014698097222109385 0 0.0053155144007342213 0.0013086396183540642 0 0.0051611908211644363 0.0014033253059936739 0 0.0049999922126059458 0.0034810693531215271 0 0.0051577663128719578 0.0036513598769235349 0 0.0050000049428153351 0.0038301896859214315 0 0.0051295604955969923 0.0036292712607078025 0 0.0053523392539490617 0.0035515889319294473 0 0.0051783952327740905 0.0034218064921883338 0 0.0050000295988811101 0.0034810935108209331 0 0.0051436333810971728 0.0036411166629284849 0 0.0049999660079979719 0.0034810220328938732 0 0.0051295604955969923 0.0036292712607078025 0 0.0051783952327740905 0.0034218064921883338 0 0.0051295604955969923 0.0036292712607078025 0 0.0053523392539490617 0.0035515889319294473 0 0.0052630340262351848 0.0037897512901363252 0 0.0051436333810971728 0.0036411166629284849 0 0.0052860961880184148 0.003806560345113329 0 0.0053523392539490617 0.0035515889319294473 0 0.0055478366246040269 0.0036902039552271699 0 0.0052630340262351848 0.0037897512901363252 0 0.0049949132643314666 0.0032940338077007657 0 0.005043453421639468 0.0032038380695552683 0 0.004487518227790894 0.0031571888821299073 0 0.0046547330424079559 0.0030215651017740652 0 0.0044011928583827546 0.0028612093335506615 0 0.0046547330424079559 0.0030215651017740652 0 0.0046734736441477265 0.0032121363775506622 0 0.0048810571916109583 0.0031714192370122496 0 0.0049949132643314666 0.0032940338077007657 0 0.0050280813770563308 0.0032940915126249575 0 0.004487518227790894 0.0031571888821299073 0 0.0046547330424079559 0.0030215651017740652 0 0.0046734736441477265 0.0032121363775506622 0 0.0046734736441477265 0.0032121363775506622 0 0.0047592161381824353 0.0033356176134101078 0 0.0048810571916109583 0.0031714192370122496 0 0.0046734736441477265 0.0032121363775506622 0 0.0045595672086711078 0.003367751446790892 0 0.0047592161381824353 0.0033356176134101078 0 0.004487518227790894 0.0031571888821299073 0 0.0045595672086711078 0.003367751446790892 0 0.0043438590726893826 0.003355091933287699 0 0.004487518227790894 0.0031571888821299073 0 0.0046734736441477265 0.0032121363775506622 0 0.0045595672086711078 0.003367751446790892 0 0.0045595672086711078 0.003367751446790892 0 0.0046286325937255944 0.0035122987675210264 0 0.0044297915033716219 0.0035538782934956838 0 0.0045595672086711078 0.003367751446790892 0 0.0044297915033716219 0.0035538782934956838 0 0.0043438590726893826 0.003355091933287699 0 0.0047592161381824353 0.0033356176134101078 0 0.0048452901244979227 0.0035183485808461101 0 0.0046286325937255944 0.0035122987675210264 0 0.0045595672086711078 0.003367751446790892 0 0.0047592161381824353 0.0033356176134101078 0 0.0046286325937255944 0.0035122987675210264 0 0.0047592161381824353 0.0033356176134101078 0 0.0049204451717490029 0.0032926968129275932 0 0.0048452901244979227 0.0035183485808461101 0 0.0047592161381824353 0.0033356176134101078 0 0.0049204451717490029 0.0032926968129275932 0 0.0048810571916109583 0.0031714192370122496 0 0.0049999660079979719 0.0034810220328938732 0 0.0051783952327740905 0.0034218064921883338 0 0.0050000082796391879 0.0032697463935038307 0 0.0050280813770563308 0.0032940915126249575 0 0.0049999999372683235 0.0032697035044507768 0 0.0049204451717490029 0.0032926968129275932 0 0.0048810571916109583 0.0031714192370122496 0 0.0049999560189199444 0.0032692135761260206 0 0.0049204451717490029 0.0032926968129275932 0 0.005000027608683049 0.0031772072079600338 0 0.0048452901244979227 0.0035183485808461101 0 0.0049204451717490029 0.0032926968129275932 0 0.005000027608683049 0.0031772072079600338 0 0.0049999560189199444 0.0032692135761260206 0 0.0049999998474072821 0.0031764983559506893 0 0.0050960278304056673 0.0030019129754360386 0 0.0049999913834234558 0.0029154667460826364 0 0.0049999998474072821 0.0031764983559506893 0 0.0050960278304056673 0.0030019129754360386 0 0.0052364840886502464 0.0030173542000592399 0 0.0049999736886632918 0.0031765894401321179 0 0.0050238226948700754 0.0032691489531850664 0 0.0050960278304056673 0.0030019129754360386 0 0.0052364840886502464 0.0030173542000592399 0 0.0051416067104516402 0.0029086414191747539 0 0.0052364840886502464 0.0030173542000592399 0 0.0051416067104516402 0.0029086414191747539 0 0.0052615676092411853 0.0029039445378735069 0 0.0051416067104516402 0.0029086414191747539 0 0.0052615676092411853 0.0029039445378735069 0 0.0051508466346599207 0.0027546780983892802 0 0.0051416067104516402 0.0029086414191747539 0 0.0049999913834234558 0.0029154667460826364 0 0.0051508466346599207 0.0027546780983892802 0 0.0050960278304056673 0.0030019129754360386 0 0.0051416067104516402 0.0029086414191747539 0 0.0049999913834234558 0.0029154667460826364 0 0.0049999913834234558 0.0029154667460826364 0 0.0051508466346599207 0.0027546780983892802 0 0.0049999784634085992 0.0026544144130472881 0 0.0051508466346599207 0.0027546780983892802 0 0.0051550036731240409 0.0025564019019313718 0 0.0049999784634085992 0.0026544144130472881 0 0.0051508466346599207 0.0027546780983892802 0 0.0051550036731240409 0.0025564019019313718 0 0.0053073993043070405 0.0026800018032600609 0 0.0052615676092411853 0.0029039445378735069 0 0.0051508466346599207 0.0027546780983892802 0 0.0053073993043070405 0.0026800018032600609 0 0.0051550036731240409 0.0025564019019313718 0 0.0053166826510911347 0.0024994952225927047 0 0.0053073993043070405 0.0026800018032600609 0 0.0049999745634831871 0.0023933325228137929 0 0.0051550036731240409 0.0025564019019313718 0 0.0049999784634085992 0.0026544144130472881 0 0.0054618216849774978 0.0024464819871413703 0 0.0054501339398222992 0.0026184158220425263 0 0.0055469996764054372 0.002538510180690253 0 0.0054501339398222992 0.0026184158220425263 0 0.0055805310861697334 0.0026218965534079335 0 0.0055469996764054372 0.002538510180690253 0 0.0054618216849774978 0.0024464819871413703 0 0.0054501339398222992 0.0026184158220425263 0 0.0053166826510911347 0.0024994952225927047 0 0.0054501339398222992 0.0026184158220425263 0 0.0053166826510911347 0.0024994952225927047 0 0.0053073993043070405 0.0026800018032600609 0 0.0052615676092411853 0.0029039445378735069 0 0.0053073993043070405 0.0026800018032600609 0 0.0055055873015450729 0.0027708109391439326 0 0.0054501339398222992 0.0026184158220425263 0 0.0053073993043070405 0.0026800018032600609 0 0.0055055873015450729 0.0027708109391439326 0 0.0054501339398222992 0.0026184158220425263 0 0.0055805310861697334 0.0026218965534079335 0 0.0055055873015450729 0.0027708109391439326 0 0.0052971080521844816 0.0029390268998037658 0 0.0053026700144903158 0.002924196865434308 0 0.0052211124460747223 0.0029354489166751093 0 0.0052615676092411853 0.0029039445378735069 0 0.0052971080521844816 0.0029390268998037658 0 0.0053026700144903158 0.002924196865434308 0 0.0052364840886502464 0.0030173542000592399 0 0.0052615676092411853 0.0029039445378735069 0 0.0053026700144903158 0.002924196865434308 0 0.0052694495185771897 0.0029037770765591915 0 0.0053916155976513605 0.0028564245094568554 0 0.0050238226948700754 0.0032691489531850664 0 0.004911279774929769 0.0033387869305393412 0 0.0048452901244979227 0.0035183485808461101 0 0.0045284780881714951 0.0037578618267997172 0 0.0046286325937255944 0.0035122987675210264 0 0.0045284780881714951 0.0037578618267997172 0 0.0044297915033716219 0.0035538782934956838 0 0.0042907195833575837 0.0037158495592766131 0 0.0045284780881714951 0.0037578618267997172 0 0.0046286325937255944 0.0035122987675210264 0 0.0044297915033716219 0.0035538782934956838 0 0.0044297915033716219 0.0035538782934956838 0 0.0042907195833575837 0.0037158495592766131 0 0.0041768651175123133 0.0035665476890411499 0 0.0042907195833575837 0.0037158495592766131 0 0.0040778928798850056 0.0037676318954268815 0 0.0041768651175123133 0.0035665476890411499 0 0.0040778928798850056 0.0037676318954268815 0 0.0039899212811358928 0.0036633642716063512 0 0.0041768651175123133 0.0035665476890411499 0 0.0040778928798850056 0.0037676318954268815 0 0.0039427509181198606 0.0037962006913032529 0 0.0039899212811358928 0.0036633642716063512 0 0.0041822481998769947 0.0039385242526167917 0 0.0040778928798850056 0.0037676318954268815 0 0.0039777790998569377 0.0039092125238865717 0 0.0042907195833575837 0.0037158495592766131 0 0.0041822481998769947 0.0039385242526167917 0 0.0040778928798850056 0.0037676318954268815 0 0.004911279774929769 0.0033387869305393412 0 0.0047062985336801559 0.0034623867345614 0 0.0045284780881714951 0.0037578618267997172 0 0.0042907195833575837 0.0037158495592766131 0 0.0041822481998769947 0.0039385242526167917 0 0.0053916155976513605 0.0028564245094568554 0 0.0054957142295381008 0.0028206209597958962 0 0.0052971080521844816 0.0029390268998037658 0 0.0052211124460747223 0.0029354489166751093 0 0.0052258228716313901 0.0029879091066562658 0 0.0055805310861697334 0.0026218965534079335 0 0.0055055873015450729 0.0027708109391439326 0 0.005731662045264878 0.0026492298565014799 0 0.0047062985336801559 0.0034623867345614 0 0.0044364032798059469 0.0033487001611340783 0 0.0052211124460747223 0.0029354489166751093 0 0.0052258228716313901 0.0029879091066562658 0 0.005111888427931705 0.0029794058537557021 0 0.0054957142295381008 0.0028206209597958962 0 0.0054450689922221534 0.002742111610533446 0 0.005731662045264878 0.0026492298565014799 0 0.0058011985110345077 0.0024964915061693981 0 0.0059499273799128683 0.0025364576555799993 0 0.005731662045264878 0.0026492298565014799 0 0.0058011985110345077 0.0024964915061693981 0 0.0056649608932931887 0.002532346027036681 0 0.0055805310861697334 0.0026218965534079335 0 0.005731662045264878 0.0026492298565014799 0 0.0056649608932931887 0.002532346027036681 0 0.0057250389164048799 0.002442381439236134 0 0.0058011985110345077 0.0024964915061693981 0 0.0056649608932931887 0.002532346027036681 0 0.0055955538627246856 0.0024066317054215595 0 0.0055469996764054372 0.002538510180690253 0 0.0056649608932931887 0.002532346027036681 0 0.0055805310861697334 0.0026218965534079335 0 0.0055469996764054372 0.002538510180690253 0 0.0056649608932931887 0.002532346027036681 0 0.0055307230052003978 0.0023679682827659736 0 0.0054450689922221534 0.002742111610533446 0 0.0044364032798059469 0.0033487001611340783 0 0.0043064707608407912 0.0031019459325048663 0 0.0049357384998233488 0.0029174464920692657 0 0.0048392735037638716 0.0030438269059885688 0 0.0050943428607180949 0.0029275497107921163 0 0.0049357384998233488 0.0029174464920692657 0 0.0050199451027307255 0.0028389457095720481 0 0.0047893664045353668 0.0028593916250766343 0 0.0050769706765436823 0.002724513334962278 0 0.0050199451027307255 0.0028389457095720481 0 0.0047893664045353668 0.0028593916250766343 0 0.0049357384998233488 0.0029174464920692657 0 0.0050199451027307255 0.0028389457095720481 0 0.0050943428607180949 0.0029275497107921163 0 0.0055307230052003978 0.0023679682827659736 0 0.0043064707608407912 0.0031019459325048663 0 0.0046320251883832939 0.0023351216458466924 0 0.0046298975367600765 0.0023293396395468128 0 0.0046312563406874759 0.0023850856806116628 0 0.0050769706765436823 0.002724513334962278 0 0.0050199451027307255 0.0028389457095720481 0 0.0050943428607180949 0.0029275497107921163 0 0.0052258228716313901 0.0029879091066562658 0 0.0051303782355233991 0.0030335477862354601 0 0.005111888427931705 0.0029794058537557021 0 0.0059144145351819012 0.0024169586763843577 0 0.0058011985110345077 0.0024964915061693981 0 0.0059499273799128683 0.0025364576555799993 0 0.0049357384998233488 0.0029174464920692657 0 0.0047893664045353668 0.0028593916250766343 0 0.0048392735037638716 0.0030438269059885688 0 0.0054450689922221534 0.002742111610533446 0 0.0044364032798059469 0.0033487001611340783 0 0.0041822481998769947 0.0039385242526167917 0 0.003863970926014829 0.0040726241725691633 0 0.0039777790998569377 0.0039092125238865717 0 0.0044364032798059469 0.0033487001611340783 0 0.0037476756987037882 0.0037638226730168909 0 0.0037014531269928918 0.0033885092113428534 0 0.0038235785007721852 0.0034597904602741429 0 0.0039088921318866472 0.0032942817470438756 0 0.0038235785007721852 0.0034597904602741429 0 0.003930253919424879 0.0035605279650995857 0 0.0039088921318866472 0.0032942817470438756 0 0.0037014531269928918 0.0033885092113428534 0 0.0038235785007721852 0.0034597904602741429 0 0.0037537814871148717 0.0035966122827626357 0 0.0037537814871148717 0.0035966122827626357 0 0.003859647480955982 0.0036992467642075729 0 0.003930253919424879 0.0035605279650995857 0 0.0038235785007721852 0.0034597904602741429 0 0.0037537814871148717 0.0035966122827626357 0 0.003930253919424879 0.0035605279650995857 0 0.003863970926014829 0.0040726241725691633 0 0.0037933119347885935 0.0038446361672817542 0 0.0039777790998569377 0.0039092125238865717 0 0.0037933119347885935 0.0038446361672817542 0 0.0039777790998569377 0.0039092125238865717 0 0.0039427509181198606 0.0037962006913032529 0 0.0037933119347885935 0.0038446361672817542 0 0.0039427509181198606 0.0037962006913032529 0 0.0038765896540421431 0.0037178497063841392 0 0.0040778928798850056 0.0037676318954268815 0 0.0039777790998569377 0.0039092125238865717 0 0.0039427509181198606 0.0037962006913032529 0 0.0037933119347885935 0.0038446361672817542 0 0.0038765896540421431 0.0037178497063841392 0 0.003796000851468796 0.0036743178514772241 0 0.0039427509181198606 0.0037962006913032529 0 0.0038765896540421431 0.0037178497063841392 0 0.0039899212811358928 0.0036633642716063512 0 0.0038765896540421431 0.0037178497063841392 0 0.003796000851468796 0.0036743178514772241 0 0.0038785690294364612 0.0036035372209898956 0 0.003796000851468796 0.0036743178514772241 0 0.0037190156798047234 0.0036838987817706141 0 0.0038785690294364612 0.0036035372209898956 0 0.0038765896540421431 0.0037178497063841392 0 0.0039899212811358928 0.0036633642716063512 0 0.0038785690294364612 0.0036035372209898956 0 0.0037476756987037882 0.0037638226730168909 0 0.0037811598588017941 0.0037369081694860005 0 0.0037933119347885935 0.0038446361672817542 0 0.003796000851468796 0.0036743178514772241 0 0.0037581951822486821 0.0036330662835255124 0 0.0037537814871148717 0.0035966122827626357 0 0.003859647480955982 0.0036992467642075729 0 0.0038008820059929416 0.0038102790668266212 0 0.003796000851468796 0.0036743178514772241 0 0.0037581951822486821 0.0036330662835255124 0 0.0037190156798047234 0.0036838987817706141 0 0.003859647480955982 0.0036992467642075729 0 0.0038008820059929416 0.0038102790668266212 0 0.0039569060875466579 0.0038334300512809314 0 0.0037581951822486821 0.0036330662835255124 0 0.0037190156798047234 0.0036838987817706141 0 0.0038484378040634084 0.0040541402972260271 0 0.0037190156798047234 0.0036838987817706141 0 0.0038484378040634084 0.0040541402972260271 0 0.0035301644966539911 0.0042582214290638977 0 0.0037811598588017941 0.0037369081694860005 0 0.0038459479505961675 0.0040192742812748842 0 0.0038008820059929416 0.0038102790668266212 0 0.0038484378040634084 0.0040541402972260271 0 0.0039569060875466579 0.0038334300512809314 0 0.0038484378040634084 0.0040541402972260271 0 0.0038050579311324534 0.004252981904675766 0 0.0035301644966539911 0.0042582214290638977 0 0.0038836591354577013 0.0032231597968992143 0 0.0040103631103580164 0.0034919078284713486 0 0.0041328156356730756 0.0033198886156571811 0 0.0037190156798047234 0.0036838987817706141 0 0.0038836591354577013 0.0032231597968992143 0 0.0038785690294364612 0.0036035372209898956 0 0.0038836591354577013 0.0032231597968992143 0 0.0038785690294364612 0.0036035372209898956 0 0.0040103631103580164 0.0034919078284713486 0 0.003717873460509676 0.0036853939433598446 0 0.0037171890697125856 0.0037367877437241947 0 0.0039899212811358928 0.0036633642716063512 0 0.0038785690294364612 0.0036035372209898956 0 0.0040103631103580164 0.0034919078284713486 0 0.0039899212811358928 0.0036633642716063512 0 0.0041768651175123133 0.0035665476890411499 0 0.0040103631103580164 0.0034919078284713486 0 0.0041768651175123133 0.0035665476890411499 0 0.0040103631103580164 0.0034919078284713486 0 0.0041328156356730756 0.0033198886156571811 0 0.0044297915033716219 0.0035538782934956838 0 0.0041768651175123133 0.0035665476890411499 0 0.0043438590726893826 0.003355091933287699 0 0.0041768651175123133 0.0035665476890411499 0 0.0043438590726893826 0.003355091933287699 0 0.0041328156356730756 0.0033198886156571811 0 0.004487518227790894 0.0031571888821299073 0 0.0043438590726893826 0.003355091933287699 0 0.0042751919292814966 0.0031196063832894098 0 0.0043438590726893826 0.003355091933287699 0 0.0041328156356730756 0.0033198886156571811 0 0.0042751919292814966 0.0031196063832894098 0 0.0038836591354577013 0.0032231597968992143 0 0.0041328156356730756 0.0033198886156571811 0 0.0040973913588556775 0.0031107387919204112 0 0.0041328156356730756 0.0033198886156571811 0 0.0040973913588556775 0.0031107387919204112 0 0.0042751919292814966 0.0031196063832894098 0 0.0040973913588556775 0.0031107387919204112 0 0.0042751919292814966 0.0031196063832894098 0 0.0041977875528579336 0.002920247594471086 0 0.004487518227790894 0.0031571888821299073 0 0.0042751919292814966 0.0031196063832894098 0 0.0044011928583827546 0.0028612093335506615 0 0.0042751919292814966 0.0031196063832894098 0 0.0044011928583827546 0.0028612093335506615 0 0.0041977875528579336 0.002920247594471086 0 0.0044011928583827546 0.0028612093335506615 0 0.0041977875528579336 0.002920247594471086 0 0.0041416787222566158 0.0027026373634593251 0 0.0041977875528579336 0.002920247594471086 0 0.0040451172125294185 0.0029103265622626175 0 0.0041416787222566158 0.0027026373634593251 0 0.0040973913588556775 0.0031107387919204112 0 0.0041977875528579336 0.002920247594471086 0 0.0040451172125294185 0.0029103265622626175 0 0.0034975699610145126 0.0045937915911100115 0 0.0036354528094579321 0.0046697494893315882 0 0.0036075320833071209 0.004787088689755044 0 0.0034975699610145126 0.0045937915911100115 0 0.0036354528094579321 0.0046697494893315882 0 0.0036179877357279807 0.0044771717760637326 0 0.0036354528094579321 0.0046697494893315882 0 0.0037385293661028412 0.0045877792472512596 0 0.0037575754364396266 0.0047785980345213279 0 0.0036354528094579321 0.0046697494893315882 0 0.0037385293661028412 0.0045877792472512596 0 0.0036179877357279807 0.0044771717760637326 0 0.0037385293661028412 0.0045877792472512596 0 0.0038575150497254613 0.0046125808804525457 0 0.0037575754364396266 0.0047785980345213279 0 0.0038050579311324534 0.004252981904675766 0 0.0035301644966539911 0.0042582214290638977 0 0.0037492137904018242 0.0044035244524756149 0 0.0037385293661028412 0.0045877792472512596 0 0.0037492137904018242 0.0044035244524756149 0 0.0036179877357279807 0.0044771717760637326 0 0.0035301644966539911 0.0042582214290638977 0 0.0037492137904018242 0.0044035244524756149 0 0.0036179877357279807 0.0044771717760637326 0 0.0037385293661028412 0.0045877792472512596 0 0.0037492137904018242 0.0044035244524756149 0 0.0038407233700196962 0.004487778741952558 0 0.0038050579311324534 0.004252981904675766 0 0.0037492137904018242 0.0044035244524756149 0 0.0038936055657792187 0.00433182686008334 0 0.0037171890697125856 0.0037367877437241947 0 0.0037425230934622889 0.0037475677384253268 0 0.0035301644966539911 0.0042582214290638977 0 0.0034975699610145126 0.0045937915911100115 0 0.0036179877357279807 0.0044771717760637326 0 0.0038836591354577013 0.0032231597968992143 0 0.0040973913588556775 0.0031107387919204112 0 0.0040451172125294185 0.0029103265622626175 0 0.0040185085448125185 0.0044820514575348884 0 0.0040166909279100464 0.0043904073583569759 0 0.0039457028399304938 0.0044616320444939997 0 0.0040185085448125185 0.0044820514575348884 0 0.0040746136001596159 0.0044114594733219298 0 0.0040166909279100464 0.0043904073583569759 0 0.0040185085448125185 0.0044820514575348884 0 0.0040746136001596159 0.0044114594733219298 0 0.0040822077584804582 0.0045405441316066376 0 0.0040746136001596159 0.0044114594733219298 0 0.0040613330759145033 0.0043378517228880777 0 0.0040166909279100464 0.0043904073583569759 0 0.0040746136001596159 0.0044114594733219298 0 0.0040613330759145033 0.0043378517228880777 0 0.0041106548588121742 0.0043533648266115207 0 0.0040166909279100464 0.0043904073583569759 0 0.0039732769053528304 0.0043457380875004462 0 0.0039457028399304938 0.0044616320444939997 0 0.0040613330759145033 0.0043378517228880777 0 0.0040166909279100464 0.0043904073583569759 0 0.0040181335936979763 0.0043098521769998717 0 0.0040166909279100464 0.0043904073583569759 0 0.0039732769053528304 0.0043457380875004462 0 0.0040181335936979763 0.0043098521769998717 0 0.0039732769053528304 0.0043457380875004462 0 0.0038936055657792187 0.00433182686008334 0 0.0039815838998102197 0.0042591049152827078 0 0.0039732769053528304 0.0043457380875004462 0 0.0038936055657792187 0.00433182686008334 0 0.0039457028399304938 0.0044616320444939997 0 0.0038936055657792187 0.00433182686008334 0 0.0038407233700196962 0.004487778741952558 0 0.0039457028399304938 0.0044616320444939997 0 0.0037492137904018242 0.0044035244524756149 0 0.0038936055657792187 0.00433182686008334 0 0.0038407233700196962 0.004487778741952558 0 0.0039457028399304938 0.0044616320444939997 0 0.0038575150497254613 0.0046125808804525457 0 0.0039709962946522523 0.0045913534859786361 0 0.0037385293661028412 0.0045877792472512596 0 0.0038407233700196962 0.004487778741952558 0 0.0038575150497254613 0.0046125808804525457 0 0.0038407233700196962 0.004487778741952558 0 0.0039457028399304938 0.0044616320444939997 0 0.0038575150497254613 0.0046125808804525457 0 0.0038575150497254613 0.0046125808804525457 0 0.0039709962946522523 0.0045913534859786361 0 0.0038918537559166203 0.0047451213064043703 0 0.0040185085448125185 0.0044820514575348884 0 0.0039457028399304938 0.0044616320444939997 0 0.0039709962946522523 0.0045913534859786361 0 0.0040185085448125185 0.0044820514575348884 0 0.0039709962946522523 0.0045913534859786361 0 0.0040822077584804582 0.0045405441316066376 0 0.0039709962946522523 0.0045913534859786361 0 0.0040822077584804582 0.0045405441316066376 0 0.0040238442906431705 0.0047039325590432857 0 0.0040822077584804582 0.0045405441316066376 0 0.004120731358552206 0.0046622663012924935 0 0.0040238442906431705 0.0047039325590432857 0 0.0041761344456390185 0.0045287925634457998 0 0.0040822077584804582 0.0045405441316066376 0 0.004120731358552206 0.0046622663012924935 0 0.0041761344456390185 0.0045287925634457998 0 0.0042283673514648262 0.0046293282068379047 0 0.004120731358552206 0.0046622663012924935 0 0.0041761344456390185 0.0045287925634457998 0 0.0040822077584804582 0.0045405441316066376 0 0.0041609109625442729 0.0044194459222784352 0 0.0041761344456390185 0.0045287925634457998 0 0.0042283673514648262 0.0046293282068379047 0 0.0042731804966653127 0.0044647544945559149 0 0.0042283673514648262 0.0046293282068379047 0 0.0042731804966653127 0.0044647544945559149 0 0.0044048130907533541 0.0046582175246973273 0 0.0042731804966653127 0.0044647544945559149 0 0.0041609109625442729 0.0044194459222784352 0 0.0042378974121776766 0.0043262796311765066 0 0.0042731804966653127 0.0044647544945559149 0 0.0042378974121776766 0.0043262796311765066 0 0.0043434212876240132 0.004334639558631212 0 0.0040746136001596159 0.0044114594733219298 0 0.0040822077584804582 0.0045405441316066376 0 0.0041609109625442729 0.0044194459222784352 0 0.0041761344456390185 0.0045287925634457998 0 0.0042731804966653127 0.0044647544945559149 0 0.0041609109625442729 0.0044194459222784352 0 0.0041609109625442729 0.0044194459222784352 0 0.0041527961823784824 0.0043089363918017085 0 0.0042378974121776766 0.0043262796311765066 0 0.0041609109625442729 0.0044194459222784352 0 0.0041106548588121742 0.0043533648266115207 0 0.0041527961823784824 0.0043089363918017085 0 0.0040746136001596159 0.0044114594733219298 0 0.0041609109625442729 0.0044194459222784352 0 0.0041106548588121742 0.0043533648266115207 0 0.0041527961823784824 0.0043089363918017085 0 0.0041241207830078931 0.0042545098539585368 0 0.0040902213040965151 0.0042887653359539903 0 0.0041106548588121742 0.0043533648266115207 0 0.0041527961823784824 0.0043089363918017085 0 0.0040902213040965151 0.0042887653359539903 0 0.0040982173436171412 0.004246150551542139 0 0.0041241207830078931 0.0042545098539585368 0 0.0040902213040965151 0.0042887653359539903 0 0.0041527961823784824 0.0043089363918017085 0 0.0041884599732884518 0.0042492927914428644 0 0.0042378974121776766 0.0043262796311765066 0 0.0041527961823784824 0.0043089363918017085 0 0.0041884599732884518 0.0042492927914428644 0 0.0041241207830078931 0.0042545098539585368 0 0.0041884599732884518 0.0042492927914428644 0 0.0041283564939683806 0.0041916252865927643 0 0.0041980365813550462 0.0041796096822071284 0 0.0040982173436171412 0.004246150551542139 0 0.0041241207830078931 0.0042545098539585368 0 0.0041283564939683806 0.0041916252865927643 0 0.0041884599732884518 0.0042492927914428644 0 0.0041241207830078931 0.0042545098539585368 0 0.0041283564939683806 0.0041916252865927643 0 0.0040982173436171412 0.004246150551542139 0 0.0041283564939683806 0.0041916252865927643 0 0.0040501016418273911 0.0042527119190378625 0 0.0042378974121776766 0.0043262796311765066 0 0.0042804423446207943 0.0042177132963631776 0 0.0043434212876240132 0.004334639558631212 0 0.0041884599732884518 0.0042492927914428644 0 0.0042378974121776766 0.0043262796311765066 0 0.0042804423446207943 0.0042177132963631776 0 0.0041884599732884518 0.0042492927914428644 0 0.0042804423446207943 0.0042177132963631776 0 0.0041980365813550462 0.0041796096822071284 0 0.0042804423446207943 0.0042177132963631776 0 0.0042326264379757188 0.0041188944266189152 0 0.004340162992980923 0.0040351293130610017 0 0.0042804423446207943 0.0042177132963631776 0 0.0042326264379757188 0.0041188944266189152 0 0.0041980365813550462 0.0041796096822071284 0 0.0042326264379757188 0.0041188944266189152 0 0.0041776562854716039 0.004119744827116534 0 0.0042028804643308229 0.004047062895546176 0 0.0041283564939683806 0.0041916252865927643 0 0.0041776562854716039 0.004119744827116534 0 0.004129707983767157 0.0040601232573734746 0 0.0040282354864653929 0.0042541745719031259 0 0.004196329817119167 0.0040214250366780845 0 0.0041283564939683806 0.0041916252865927643 0 0.0040501016418273911 0.0042527119190378625 0 0.004129707983767157 0.0040601232573734746 0 0.0041283564939683806 0.0041916252865927643 0 0.0041980365813550462 0.0041796096822071284 0 0.0041776562854716039 0.004119744827116534 0 0.0042326264379757188 0.0041188944266189152 0 0.0041980365813550462 0.0041796096822071284 0 0.0041776562854716039 0.004119744827116534 0 0.0040873444756165415 0.0040331765006902153 0 0.003998431217300237 0.0041767834292647495 0 0.0039819266172082977 0.0041037476258896956 0 0.0040675618495524353 0.0040400631883467037 0 0.0040288786676837864 0.0042436063461054382 0 0.0040486928945379476 0.0040417178656523677 0 0.0040501016418273911 0.0042527119190378625 0 0.0041214917215181869 0.0040088507431591475 0 0.0040873444756165415 0.0040331765006902153 0 0.003998431217300237 0.0041767834292647495 0 0.0040273396177096651 0.0042593168221348289 0 0.0040873444756165415 0.0040331765006902153 0 0.0039819266172082977 0.0041037476258896956 0 0.0039990561299778305 0.0040274136241066809 0 0.0040486928945379476 0.0040417178656523677 0 0.0040273396177096651 0.0042593168221348289 0 0.0040501016418273911 0.0042527119190378625 0 0.003998431217300237 0.0041767834292647495 0 0.0040273396177096651 0.0042593168221348289 0 0.0039815838998102197 0.0042591049152827078 0 0.0040273396177096651 0.0042593168221348289 0 0.0040181335936979763 0.0043098521769998717 0 0.0039815838998102197 0.0042591049152827078 0 0.0039732769053528304 0.0043457380875004462 0 0.0040181335936979763 0.0043098521769998717 0 0.0039815838998102197 0.0042591049152827078 0 0.0040273396177096651 0.0042593168221348289 0 0.0040181335936979763 0.0043098521769998717 0 0.0040493082314728493 0.0042895848634481324 0 0.0040613330759145033 0.0043378517228880777 0 0.0040181335936979763 0.0043098521769998717 0 0.0040493082314728493 0.0042895848634481324 0 0.0040613330759145033 0.0043378517228880777 0 0.0041106548588121742 0.0043533648266115207 0 0.0040902213040965151 0.0042887653359539903 0 0.0040613330759145033 0.0043378517228880777 0 0.0040493082314728493 0.0042895848634481324 0 0.0040902213040965151 0.0042887653359539903 0 0.0040982173436171412 0.004246150551542139 0 0.0040902213040965151 0.0042887653359539903 0 0.0040501016418273911 0.0042527119190378625 0 0.0040493082314728493 0.0042895848634481324 0 0.0040902213040965151 0.0042887653359539903 0 0.0040501016418273911 0.0042527119190378625 0 0.0040273396177096651 0.0042593168221348289 0 0.0040493082314728493 0.0042895848634481324 0 0.0040501016418273911 0.0042527119190378625 0 0.003998431217300237 0.0041767834292647495 0 0.0039434764749897242 0.0042081546505093612 0 0.0039819266172082977 0.0041037476258896956 0 0.0038050579311324534 0.004252981904675766 0 0.0038936055657792187 0.00433182686008334 0 0.0039434764749897242 0.0042081546505093612 0 0.0038936055657792187 0.00433182686008334 0 0.0039434764749897242 0.0042081546505093612 0 0.0039815838998102197 0.0042591049152827078 0 0.003998431217300237 0.0041767834292647495 0 0.0039434764749897242 0.0042081546505093612 0 0.0039815838998102197 0.0042591049152827078 0 0.0038484378040634084 0.0040541402972260271 0 0.0038050579311324534 0.004252981904675766 0 0.0039434764749897242 0.0042081546505093612 0 0.0038484378040634084 0.0040541402972260271 0 0.0039434764749897242 0.0042081546505093612 0 0.0039569060875466579 0.0038334300512809314 0 0.0039450371574962263 0.0041933429610131441 0 0.0039367788874560862 0.0039184642863859462 0 0.0039434764749897242 0.0042081546505093612 0 0.0039819266172082977 0.0041037476258896956 0 0.0039124093952051953 0.0040292298020391387 0 0.0039819266172082977 0.0041037476258896956 0 0.0039124093952051953 0.0040292298020391387 0 0.0039990561299778305 0.0040274136241066809 0 0.0039367788874560862 0.0039184642863859462 0 0.0038737129791455629 0.0037686110519086196 0 0.003859647480955982 0.0036992467642075729 0 0.0039569060875466579 0.0038334300512809314 0 0.003930253919424879 0.0035605279650995857 0 0.0039124093952051953 0.0040292298020391387 0 0.0040009541273478997 0.0039167697425589653 0 0.0038991718851281373 0.003827249787055217 0 0.0039124093952051953 0.0040292298020391387 0 0.0039990561299778305 0.0040274136241066809 0 0.0040009541273478997 0.0039167697425589653 0 0.0040873444756165415 0.0040331765006902153 0 0.004053555062390822 0.0039520463674616304 0 0.0041228719857202348 0.0038338239685259778 0 0.0040675618495524353 0.0040400631883467037 0 0.004104102162126237 0.0038316721040982295 0 0.0040873444756165415 0.0040331765006902153 0 0.0039990561299778305 0.0040274136241066809 0 0.004053555062390822 0.0039520463674616304 0 0.0039990561299778305 0.0040274136241066809 0 0.0040009541273478997 0.0039167697425589653 0 0.004053555062390822 0.0039520463674616304 0 0.0040009541273478997 0.0039167697425589653 0 0.0040131469524364071 0.0037876714016016038 0 0.0041228719857202348 0.0038338239685259778 0 0.0040009541273478997 0.0039167697425589653 0 0.004053555062390822 0.0039520463674616304 0 0.0041228719857202348 0.0038338239685259778 0 0.0040009541273478997 0.0039167697425589653 0 0.0038991718851281373 0.003827249787055217 0 0.0040131469524364071 0.0037876714016016038 0 0.0038991718851281373 0.003827249787055217 0 0.0039563707768638864 0.0037293684724915978 0 0.0038818571419748974 0.0036426485535872573 0 0.0038737129791455629 0.0037686110519086196 0 0.0043064707608407912 0.0031019459325048663 0 0.0039563707768638864 0.0037293684724915978 0 0.0038818571419748974 0.0036426485535872573 0 0.003964856018816033 0.0036634881788166034 0 0.0039563707768638864 0.0037293684724915978 0 0.0040193682004235811 0.0037009583327993643 0 0.003964856018816033 0.0036634881788166034 0 0.0038991718851281373 0.003827249787055217 0 0.0039563707768638864 0.0037293684724915978 0 0.0040131469524364071 0.0037876714016016038 0 0.0039563707768638864 0.0037293684724915978 0 0.0040131469524364071 0.0037876714016016038 0 0.0040193682004235811 0.0037009583327993643 0 0.0040131469524364071 0.0037876714016016038 0 0.0040736803752429614 0.0037305540770704811 0 0.0040193682004235811 0.0037009583327993643 0 0.0040131469524364071 0.0037876714016016038 0 0.0040736803752429614 0.0037305540770704811 0 0.0041228719857202348 0.0038338239685259778 0 0.0040736803752429614 0.0037305540770704811 0 0.0040193682004235811 0.0037009583327993643 0 0.0040766084735565263 0.0036667497073302265 0 0.0040193682004235811 0.0037009583327993643 0 0.0040229037666382177 0.0036333601605840296 0 0.003964856018816033 0.0036634881788166034 0 0.0040229037666382177 0.0036333601605840296 0 0.0040479019869589013 0.0035623620049512359 0 0.003964856018816033 0.0036634881788166034 0 0.0041284637786836746 0.0035946032089404774 0 0.0040229037666382177 0.0036333601605840296 0 0.0041001267020247143 0.0036345805672553552 0 0.0042184444364637532 0.0034919974104334851 0 0.0040229037666382177 0.0036333601605840296 0 0.0040479019869589013 0.0035623620049512359 0 0.0040193682004235811 0.0037009583327993643 0 0.0040229037666382177 0.0036333601605840296 0 0.0040766084735565263 0.0036667497073302265 0 0.0041769020929446525 0.0034133265157073613 0 0.0040167963160863789 0.0036648911483253698 0 0.0040229037666382177 0.0036333601605840296 0 0.0040766084735565263 0.0036667497073302265 0 0.0041001267020247143 0.0036345805672553552 0 0.0043923981523590391 0.0029236889367005459 0 0.0043064707608407912 0.0031019459325048663 0 0.0046645540578632788 0.0023412576011426424 0 0.004694862611669565 0.0023500095494899333 0 0.0046312563406874759 0.0023850856806116628 0 0.0040479019869589013 0.0035623620049512359 0 0.0038818571419748974 0.0036426485535872573 0 0.003964856018816033 0.0036634881788166034 0 0.0046459663934505843 0.0023385438509138309 0 0.0046320251883832939 0.0023351216458466924 0 0.0046312563406874759 0.0023850856806116628 0 0.0046459663934505843 0.0023385438509138309 0 0.0046645540578632788 0.0023412576011426424 0 0.0046312563406874759 0.0023850856806116628 0 0.0042019398543111106 0.0036569827480993165 0 0.0041634936598329182 0.0036348308296947885 0 0.0041660435830545815 0.0036884685017388287 0 0.0041826947344805734 0.0036035658961828978 0 0.0042019398543111106 0.0036569827480993165 0 0.0041634936598329182 0.0036348308296947885 0 0.0041634936598329182 0.0036348308296947885 0 0.0041367977553622296 0.0036222600092006957 0 0.0041340213788511986 0.0036633167735281537 0 0.00416105179045976 0.0036009222943164504 0 0.0041634936598329182 0.0036348308296947885 0 0.0041367977553622296 0.0036222600092006957 0 0.0041284637786836746 0.0035946032089404774 0 0.0041367977553622296 0.0036222600092006957 0 0.0041001267020247143 0.0036345805672553552 0 0.0041367977553622296 0.0036222600092006957 0 0.0041001267020247143 0.0036345805672553552 0 0.0041340213788511986 0.0036633167735281537 0 0.0040766084735565263 0.0036667497073302265 0 0.0041001267020247143 0.0036345805672553552 0 0.0041340213788511986 0.0036633167735281537 0 0.0041634936598329182 0.0036348308296947885 0 0.0041340213788511986 0.0036633167735281537 0 0.0041660435830545815 0.0036884685017388287 0 0.0041329112993502646 0.0036755634964942001 0 0.004104102162126237 0.0038316721040982295 0 0.0040736803752429614 0.0037305540770704811 0 0.0041340213788511986 0.0036633167735281537 0 0.0041228719857202348 0.0038338239685259778 0 0.0041340213788511986 0.0036633167735281537 0 0.0041511518621702367 0.0037242228088330393 0 0.0040848476379558088 0.0038312884969579613 0 0.0041340213788511986 0.0036633167735281537 0 0.0041511518621702367 0.0037242228088330393 0 0.0041660435830545815 0.0036884685017388287 0 0.0040736803752429614 0.0037305540770704811 0 0.0040766084735565263 0.0036667497073302265 0 0.0041340213788511986 0.0036633167735281537 0 0.0041511518621702367 0.0037242228088330393 0 0.0041660435830545815 0.0036884685017388287 0 0.0041749529428602595 0.0037627174936452797 0 0.0040570677903926334 0.0038292900499096228 0 0.0037677995061996855 0.003818117151181414 0 0.0041511518621702367 0.0037242228088330393 0 0.0041966804634974179 0.0037861484882068279 0 0.0040848476379558088 0.0038312884969579613 0 0.002257849035863721 0.0040847636367657945 0 0.0023171633058437675 0.0039528968545843686 0 0.0021719404808739312 0.0039940333616447429 0 0.0042019398543111106 0.0036569827480993165 0 0.0041660435830545815 0.0036884685017388287 0 0.0041749529428602595 0.0037627174936452797 0 0.0031828679003212505 0.0038814970014694641 0 0.0037677995061996855 0.003818117151181414 0 0.0037677995061996855 0.003818117151181414 0 0.0032765052053268535 0.0038819447597370667 0 0.0042124031534215454 0.0038422727670370002 0 0.0042252535592878487 0.0039736496078121965 0 0.004340162992980923 0.0040351293130610017 0 0.0023171633058437675 0.0039528968545843686 0 0.0022134293486812747 0.0038168349853737881 0 0.0021630647745477555 0.0039041574845621535 0 0.0042124031534215454 0.0038422727670370002 0 0.004129707983767157 0.0040601232573734746 0 0.0042252535592878487 0.0039736496078121965 0 0.0041966804634974179 0.0037861484882068279 0 0.0040848476379558088 0.0038312884969579613 0 0.0041214917215181869 0.0040088507431591475 0 0.0037677995061996855 0.003818117151181414 0 0.004196329817119167 0.0040214250366780845 0 0.0040486928945379476 0.0040417178656523677 0 0.0040848476379558088 0.0038312884969579613 0 0.0041214917215181869 0.0040088507431591475 0 0.0041776562854716039 0.004119744827116534 0 0.004129707983767157 0.0040601232573734746 0 0.0042028804643308229 0.004047062895546176 0 0.004129707983767157 0.0040601232573734746 0 0.0042252535592878487 0.0039736496078121965 0 0.0042028804643308229 0.004047062895546176 0 0.0042252535592878487 0.0039736496078121965 0 0.0042028804643308229 0.004047062895546176 0 0.004340162992980923 0.0040351293130610017 0 0.0042326264379757188 0.0041188944266189152 0 0.0042028804643308229 0.004047062895546176 0 0.004340162992980923 0.0040351293130610017 0 0.0022134293486812747 0.0038168349853737881 0 0.0020913067089547463 0.0038181504947028379 0 0.0021630647745477555 0.0039041574845621535 0 0.0020293620597514909 0.0039510119648308601 0 0.0021630647745477555 0.0039041574845621535 0 0.0021719404808739312 0.0039940333616447429 0 0.001763017785868968 0.0040364171493530868 0 0.0018862946400533007 0.0040832146229571493 0 0.0020913067089547463 0.0038181504947028379 0 0.0020293620597514909 0.0039510119648308601 0 0.0021630647745477555 0.0039041574845621535 0 0.0023171633058437675 0.0039528968545843686 0 0.0021630647745477555 0.0039041574845621535 0 0.0021719404808739312 0.0039940333616447429 0 0.0020293620597514909 0.0039510119648308601 0 0.0021719404808739312 0.0039940333616447429 0 0.0021112557057370689 0.0041051174337855883 0 0.0020684111257788925 0.0042049764095392871 0 0.0021112557057370689 0.0041051174337855883 0 0.0019567217273542292 0.0041077297303043518 0 0.0020293620597514909 0.0039510119648308601 0 0.0021112557057370689 0.0041051174337855883 0 0.0019567217273542292 0.0041077297303043518 0 0.002257849035863721 0.0040847636367657945 0 0.0021719404808739312 0.0039940333616447429 0 0.0021112557057370689 0.0041051174337855883 0 0.0021889926067663571 0.004230568415829427 0 0.002257849035863721 0.0040847636367657945 0 0.0021112557057370689 0.0041051174337855883 0 0.0017675025567420017 0.0042821955068945228 0 0.001799859362090266 0.0042220877949026301 0 0.0017254906662599551 0.0042298608796826984 0 0.001799859362090266 0.0042220877949026301 0 0.0017540557412309248 0.0041979891288289554 0 0.0017254906662599551 0.0042298608796826984 0 0.0017207952847687659 0.0041995098769304637 0 0.001799859362090266 0.0042220877949026301 0 0.0017540557412309248 0.0041979891288289554 0 0.0018862946400533007 0.0040832146229571493 0 0.0018752865607288905 0.0041735129199945509 0 0.0017207952847687659 0.0041995098769304637 0 0.0017540557412309248 0.0041979891288289554 0 0.0017622913818716498 0.0042086908794497684 0 0.0017207952847687659 0.0041995098769304637 0 0.0017622913818716498 0.0042086908794497684 0 0.0017454173613936559 0.0042873440648702257 0 0.0016417531307841083 0.0042905580159374266 0 0.0017207952847687659 0.0041995098769304637 0 0.0017454173613936559 0.0042873440648702257 0 0.0017454173613936559 0.0042873440648702257 0 0.0017710209041693283 0.0044474683997714325 0 0.0018446205700773253 0.0043676739471493406 0 0.0017710209041693283 0.0044474683997714325 0 0.0018746908347153978 0.0044861396505905876 0 0.0018446205700773253 0.0043676739471493406 0 0.0017710209041693283 0.0044474683997714325 0 0.0018331635094084456 0.0045716925949984173 0 0.0017451037205357262 0.0045921238951987051 0 0.0017710209041693283 0.0044474683997714325 0 0.0018331635094084456 0.0045716925949984173 0 0.0018746908347153978 0.0044861396505905876 0 0.0017710209041693283 0.0044474683997714325 0 0.0016781060917250791 0.0044909730903469744 0 0.0017451037205357262 0.0045921238951987051 0 0.0017710209041693283 0.0044474683997714325 0 0.0016781060917250791 0.0044909730903469744 0 0.0016746864917110615 0.0043840158173067108 0 0.0017454173613936559 0.0042873440648702257 0 0.0017710209041693283 0.0044474683997714325 0 0.0016746864917110615 0.0043840158173067108 0 0.0016417531307841083 0.0042905580159374266 0 0.0017454173613936559 0.0042873440648702257 0 0.0016746864917110615 0.0043840158173067108 0 0.0016417531307841083 0.0042905580159374266 0 0.0016746864917110615 0.0043840158173067108 0 0.0015683283563227713 0.0044450316393073773 0 0.001763017785868968 0.0040364171493530868 0 0.0027593249399064084 0.0042875542058611951 0 0.0032765052053268535 0.0038819447597370667 0 0.0027593249399064084 0.0042875542058611951 0 0.0022134293486812747 0.0038168349853737881 0 0.0020913067089547463 0.0038181504947028379 0 0.0021354986657264726 0.0037035851200857492 0 0.0042804423446207943 0.0042177132963631776 0 0.004340162992980923 0.0040351293130610017 0 0.0044763338921707339 0.0042380025911635914 0 0.0042804423446207943 0.0042177132963631776 0 0.0043434212876240132 0.004334639558631212 0 0.0044763338921707339 0.0042380025911635914 0 0.0043434212876240132 0.004334639558631212 0 0.0044763338921707339 0.0042380025911635914 0 0.0044466576122690971 0.0044378587288778854 0 0.0027593249399064084 0.0042875542058611951 0 0.0037556840120492149 0.00461225321748819 0 0.0027593249399064084 0.0042875542058611951 0 0.0022530055548612158 0.0046343073107139249 0 0.0016781060917250791 0.0044909730903469744 0 0.0016746864917110615 0.0043840158173067108 0 0.0015683283563227713 0.0044450316393073773 0 0.0016781060917250791 0.0044909730903469744 0 0.0015683283563227713 0.0044450316393073773 0 0.0016343642947977569 0.0045965408668346384 0 0.0029744258110350921 0.0047544254119933106 0 0.0028993140299726702 0.0047686498213134554 0 0.0029466296779899108 0.0048255642797880157 0 0.0029205429586289908 0.0046602537448561234 0 0.0029744258110350921 0.0047544254119933106 0 0.0028993140299726702 0.0047686498213134554 0 0.0042731804966653127 0.0044647544945559149 0 0.0043434212876240132 0.004334639558631212 0 0.0044466576122690971 0.0044378587288778854 0 0.0042731804966653127 0.0044647544945559149 0 0.0044466576122690971 0.0044378587288778854 0 0.0044048130907533541 0.0046582175246973273 0 0.0028993140299726702 0.0047686498213134554 0 0.0029466296779899108 0.0048255642797880157 0 0.0028837894935408994 0.0048686074846769345 0 0.0037556840120492149 0.00461225321748819 0 0.0036320595576799074 0.0047473870210392108 0 0.0029466296779899108 0.0048255642797880157 0 0.0030199137345698003 0.0048419704662463377 0 0.0029490352322228395 0.0048956573088164276 0 0.0029744258110350921 0.0047544254119933106 0 0.0029466296779899108 0.0048255642797880157 0 0.0030199137345698003 0.0048419704662463377 0 0.0022530055548612158 0.0046343073107139249 0 0.0022568199821670037 0.005181132588220146 0 0.0017190930593331073 0.0047481711793932865 0 0.0018254170141965892 0.004675813960823505 0 0.0017451037205357262 0.0045921238951987051 0 0.0017634734551322884 0.0050799189795538392 0 0.0019459674954508677 0.0051218483118281709 0 0.0019206098203810112 0.0049058874594051132 0 0.0017634734551322884 0.0050799189795538392 0 0.0017991814833668959 0.0048314167945695992 0 0.0019206098203810112 0.0049058874594051132 0 0.0015166627708377105 0.005039827860855794 0 0.0017634734551322884 0.0050799189795538392 0 0.0017991814833668959 0.0048314167945695992 0 0.0022568199821670037 0.005181132588220146 0 0.0017520322905254274 0.0047763306886476559 0 0.0018254170141965892 0.004675813960823505 0 0.0018331635094084456 0.0045716925949984173 0 0.0017451037205357262 0.0045921238951987051 0 0.0016343642947977569 0.0045965408668346384 0 0.0017190930593331073 0.0047481711793932865 0 0.0017451037205357262 0.0045921238951987051 0 0.0016781060917250791 0.0044909730903469744 0 0.0016343642947977569 0.0045965408668346384 0 0.0017451037205357262 0.0045921238951987051 0 0.0026556157298218211 0.0059583065073320679 0 0.0024285473141866637 0.0060957992996865254 0 0.0026420299580382028 0.0061372954440127858 0 0.0026556157298218211 0.0059583065073320679 0 0.0026420299580382028 0.0061372954440127858 0 0.0028244725211648094 0.0060142438114121465 0 0.0024285473141866637 0.0060957992996865254 0 0.0024828901478613457 0.0058233114195453952 0 0.0022114647846630921 0.0057821043207529526 0 0.0026556157298218211 0.0059583065073320679 0 0.0024285473141866637 0.0060957992996865254 0 0.0024828901478613457 0.0058233114195453952 0 0.0021223265144653149 0.0058527783009505625 0 0.0021835909168058643 0.005748420040755443 0 0.0017634734551322884 0.0050799189795538392 0 0.0018120436487163822 0.0054545203160659382 0 0.0019459674954508677 0.0051218483118281709 0 0.0015166627708377105 0.005039827860855794 0 0.0017634734551322884 0.0050799189795538392 0 0.0018120436487163822 0.0054545203160659382 0 0.0022568199821670037 0.005181132588220146 0 0.0021223265144653149 0.0058527783009505625 0 0.0022568199821670037 0.005181132588220146 0 0.0029242939658468805 0.0055755819000609993 0 0.0025985273916121657 0.0063355307272286799 0 0.0026420299580382028 0.0061372954440127858 0 0.0028243259612666764 0.0061854533343497975 0 0.0025985273916121657 0.0063355307272286799 0 0.0024285473141866637 0.0060957992996865254 0 0.0026420299580382028 0.0061372954440127858 0 0.0029466296779899108 0.0048255642797880157 0 0.0029490352322228395 0.0048956573088164276 0 0.0028837894935408994 0.0048686074846769345 0 0.0026420299580382028 0.0061372954440127858 0 0.0028243259612666764 0.0061854533343497975 0 0.0028244725211648094 0.0060142438114121465 0 0.0028837894935408994 0.0048686074846769345 0 0.0028918956624143293 0.0049358993573236244 0 0.0028708089296766784 0.0049612747278448372 0 0.0029490352322228395 0.0048956573088164276 0 0.0028918956624143293 0.0049358993573236244 0 0.0028841233844825549 0.0049487448862020151 0 0.0029490352322228395 0.0048956573088164276 0 0.0028837894935408994 0.0048686074846769345 0 0.0028918956624143293 0.0049358993573236244 0 0.0044048130907533541 0.0046582175246973273 0 0.0043487463745608248 0.0048970777401531693 0 0.0042801656755551169 0.0047510561785397845 0 0.0029242939658468805 0.0055755819000609993 0 0.0031078091987684522 0.0054084523788442713 0 0.0036320595576799074 0.0047473870210392108 0 0.0036855460281815609 0.0050257431866471344 0 0.0030439324338309469 0.0060315116377871077 0 0.0028244725211648094 0.0060142438114121465 0 0.0029661397790822484 0.0059131744259131088 0 0.0031078091987684522 0.0054084523788442713 0 0.0036855460281815609 0.0050257431866471344 0 0.0031209734787651659 0.0052852703294980902 0 0.0031078091987684522 0.0054084523788442713 0 0.0028918956624143293 0.0049358993573236244 0 0.0028849702091070443 0.0049487759938588363 0 0.0028708089296766784 0.0049612747278448372 0 0.0030439324338309469 0.0060315116377871077 0 0.0030412296687244967 0.0059094950096495995 0 0.0031031578014820227 0.0059463229191778324 0 0.0030439324338309469 0.0060315116377871077 0 0.0030412296687244967 0.0059094950096495995 0 0.0029661397790822484 0.0059131744259131088 0 0.0036855460281815609 0.0050257431866471344 0 0.0034679691675028458 0.0055078125196055235 0 0.0033613744467864228 0.0053528186863881794 0 0.0034242875957912829 0.0053114325484584727 0 0.0034419476227018752 0.0052495359311619432 0 0.0031078091987684522 0.0054084523788442713 0 0.0034679691675028458 0.0055078125196055235 0 0.0028243259612666764 0.0061854533343497975 0 0.0030439324338309469 0.0060315116377871077 0 0.0028244725211648094 0.0060142438114121465 0 0.0028244725211648094 0.0060142438114121465 0 0.0028181260382172013 0.0058544006637858831 0 0.0029661397790822484 0.0059131744259131088 0 0.0026556157298218211 0.0059583065073320679 0 0.0028244725211648094 0.0060142438114121465 0 0.0028181260382172013 0.0058544006637858831 0 0.0028181260382172013 0.0058544006637858831 0 0.0029661397790822484 0.0059131744259131088 0 0.0029614606529558482 0.0057921502157210775 0 0.0028181260382172013 0.0058544006637858831 0 0.002858853423996575 0.0057556925879411686 0 0.0029614606529558482 0.0057921502157210775 0 0.0028181260382172013 0.0058544006637858831 0 0.0027535955669302026 0.0057168594443400477 0 0.002661798772672691 0.0058262222693275445 0 0.0028181260382172013 0.0058544006637858831 0 0.002858853423996575 0.0057556925879411686 0 0.0027535955669302026 0.0057168594443400477 0 0.0030412296687244967 0.0059094950096495995 0 0.0030520654120130036 0.0058321051137253882 0 0.0031031578014820227 0.0059463229191778324 0 0.0030412296687244967 0.0059094950096495995 0 0.0030520654120130036 0.0058321051137253882 0 0.0029661397790822484 0.0059131744259131088 0 0.0030520654120130036 0.0058321051137253882 0 0.0029661397790822484 0.0059131744259131088 0 0.0029614606529558482 0.0057921502157210775 0 0.002858853423996575 0.0057556925879411686 0 0.0029614606529558482 0.0057921502157210775 0 0.0029648779275348353 0.005704318119044662 0 0.0030520654120130036 0.0058321051137253882 0 0.0030599169596932734 0.0057198475801671332 0 0.0031688338413605561 0.0056998986849632009 0 0.0030520654120130036 0.0058321051137253882 0 0.0029614606529558482 0.0057921502157210775 0 0.0030599169596932734 0.0057198475801671332 0 0.0029614606529558482 0.0057921502157210775 0 0.0030599169596932734 0.0057198475801671332 0 0.0029648779275348353 0.005704318119044662 0 0.0030599169596932734 0.0057198475801671332 0 0.0029648779275348353 0.005704318119044662 0 0.0030165866306940984 0.005620165881898195 0 0.0029648779275348353 0.005704318119044662 0 0.0030165866306940984 0.005620165881898195 0 0.0028795577359790533 0.0056453289357926333 0 0.0030599169596932734 0.0057198475801671332 0 0.0030165866306940984 0.005620165881898195 0 0.0031188869674471653 0.0056011919161853795 0 0.002858853423996575 0.0057556925879411686 0 0.0027535955669302026 0.0057168594443400477 0 0.0028795577359790533 0.0056453289357926333 0 0.002858853423996575 0.0057556925879411686 0 0.0029648779275348353 0.005704318119044662 0 0.0028795577359790533 0.0056453289357926333 0 0.0030165866306940984 0.005620165881898195 0 0.0028795577359790533 0.0056453289357926333 0 0.0029020585648617185 0.0055012247878156494 0 0.0027535955669302026 0.0057168594443400477 0 0.0028795577359790533 0.0056453289357926333 0 0.00275132404760556 0.0055854542310998121 0 0.0027535955669302026 0.0057168594443400477 0 0.00275132404760556 0.0055854542310998121 0 0.0025400103348692739 0.0056304231237572552 0 0.0027535955669302026 0.0057168594443400477 0 0.002661798772672691 0.0058262222693275445 0 0.0025400103348692739 0.0056304231237572552 0 0.002661798772672691 0.0058262222693275445 0 0.0024828901478613457 0.0058233114195453952 0 0.0025400103348692739 0.0056304231237572552 0 0.0026556157298218211 0.0059583065073320679 0 0.002661798772672691 0.0058262222693275445 0 0.0024828901478613457 0.0058233114195453952 0 0.0026556157298218211 0.0059583065073320679 0 0.0028181260382172013 0.0058544006637858831 0 0.002661798772672691 0.0058262222693275445 0 0.0024828901478613457 0.0058233114195453952 0 0.0023381897105054115 0.005698077221226598 0 0.0022114647846630921 0.0057821043207529526 0 0.0025400103348692739 0.0056304231237572552 0 0.0023381897105054115 0.005698077221226598 0 0.0023140932421531059 0.0055286390371198126 0 0.0024828901478613457 0.0058233114195453952 0 0.0025400103348692739 0.0056304231237572552 0 0.0023381897105054115 0.005698077221226598 0 0.0026845857332200001 0.0051236365447137498 0 0.0033140989473901847 0.004999937764641282 0 0.0024590039246064838 0.0049998865794528393 0 0.002639788325478302 0.0054754388612781929 0 0.0025057167114653669 0.0053072683252306779 0 0.0023140932421531059 0.0055286390371198126 0 0.0025400103348692739 0.0056304231237572552 0 0.002639788325478302 0.0054754388612781929 0 0.0023140932421531059 0.0055286390371198126 0 0.00275132404760556 0.0055854542310998121 0 0.0025400103348692739 0.0056304231237572552 0 0.002639788325478302 0.0054754388612781929 0 0.002639788325478302 0.0054754388612781929 0 0.0025057167114653669 0.0053072683252306779 0 0.0028126260639715715 0.0053168664447935032 0 0.0025137310864398067 0.0053328227304829034 0 0.0023241395240167135 0.0055709606770810959 0 0.0025137310864398067 0.0053328227304829034 0 0.0026688152872299214 0.0051349879082552329 0 0.0025207508077134582 0.0053593900666306675 0 0.0026845857332200001 0.0051236365447137498 0 0.0024590039246064838 0.0049998865794528393 0 0.0025057167114653669 0.0053072683252306779 0 0.0026845857332200001 0.0051236365447137498 0 0.0028126260639715715 0.0053168664447935032 0 0.0026845857332200001 0.0051236365447137498 0 0.0030453786026284559 0.0051930544094346822 0 0.0028126260639715715 0.0053168664447935032 0 0.0026845857332200001 0.0051236365447137498 0 0.0030453786026284559 0.0051930544094346822 0 0.0033140989473901847 0.004999937764641282 0 0.0030453786026284559 0.0051930544094346822 0 0.0030728405266475306 0.005368903427278522 0 0.0028126260639715715 0.0053168664447935032 0 0.0030728405266475306 0.005368903427278522 0 0.0028126260639715715 0.0053168664447935032 0 0.0029020585648617185 0.0055012247878156494 0 0.002639788325478302 0.0054754388612781929 0 0.0028126260639715715 0.0053168664447935032 0 0.0029020585648617185 0.0055012247878156494 0 0.00275132404760556 0.0055854542310998121 0 0.002639788325478302 0.0054754388612781929 0 0.0029020585648617185 0.0055012247878156494 0 0.0028795577359790533 0.0056453289357926333 0 0.00275132404760556 0.0055854542310998121 0 0.0029020585648617185 0.0055012247878156494 0 0.0030165866306940984 0.005620165881898195 0 0.0029020585648617185 0.0055012247878156494 0 0.0030960275589025092 0.0054974428347442199 0 0.0030728405266475306 0.005368903427278522 0 0.0029020585648617185 0.0055012247878156494 0 0.0030960275589025092 0.0054974428347442199 0 0.0030165866306940984 0.005620165881898195 0 0.0030960275589025092 0.0054974428347442199 0 0.0031188869674471653 0.0056011919161853795 0 0.0033183315862060445 0.0054161918045380515 0 0.0032130719346110518 0.005751338340329132 0 0.0032560184161702843 0.0054679248579185737 0 0.0031188869674471653 0.0056011919161853795 0 0.0031688338413605561 0.0056998986849632009 0 0.0033643402993534595 0.0054167072172410721 0 0.0035143911460691663 0.0055367109638595861 0 0.0033322254627231478 0.0056376691595031898 0 0.0033140989473901847 0.004999937764641282 0 0.0037459541063638154 0.0052637117894512178 0 0.0040148721269170854 0.004999905074227551 0 0.0030960275589025092 0.0054974428347442199 0 0.0032560184161702843 0.0054679248579185737 0 0.0031188869674471653 0.0056011919161853795 0 0.0030728405266475306 0.005368903427278522 0 0.0030960275589025092 0.0054974428347442199 0 0.0032560184161702843 0.0054679248579185737 0 0.0033643402993534595 0.0054167072172410721 0 0.0035143911460691663 0.0055367109638595861 0 0.0036755650635210166 0.0053331245467423708 0 0.0033643402993534595 0.0054167072172410721 0 0.0033687309587603067 0.005214714646376537 0 0.0036755650635210166 0.0053331245467423708 0 0.0033183315862060445 0.0054161918045380515 0 0.0033637604044760528 0.0052326547235028061 0 0.0030728405266475306 0.005368903427278522 0 0.0032560184161702843 0.0054679248579185737 0 0.0033687309587603067 0.005214714646376537 0 0.0030453786026284559 0.0051930544094346822 0 0.0030728405266475306 0.005368903427278522 0 0.0033687309587603067 0.005214714646376537 0 0.0030453786026284559 0.0051930544094346822 0 0.0033687309587603067 0.005214714646376537 0 0.0033140989473901847 0.004999937764641282 0 0.0033687309587603067 0.005214714646376537 0 0.0033140989473901847 0.004999937764641282 0 0.0037459541063638154 0.0052637117894512178 0 0.0033687309587603067 0.005214714646376537 0 0.0037459541063638154 0.0052637117894512178 0 0.0036755650635210166 0.0053331245467423708 0 0.0037459541063638154 0.0052637117894512178 0 0.0036755650635210166 0.0053331245467423708 0 0.0037830066473388715 0.0052466032850921789 0 0.0036755650635210166 0.0053331245467423708 0 0.0037830066473388715 0.0052466032850921789 0 0.0038481328859055175 0.0052086181685195264 0 0.003729887216048671 0.0053902973884450613 0 0.0037026114669601643 0.0053339968803494614 0 0.0039623120624416829 0.0052527353717637072 0 0.0036755650635210166 0.0053331245467423708 0 0.0038481328859055175 0.0052086181685195264 0 0.0037830066473388715 0.0052466032850921789 0 0.0038890186486104017 0.0050607094810502977 0 0.0038481328859055175 0.0052086181685195264 0 0.0037914842718328682 0.0050725089011861429 0 0.0038890186486104017 0.0050607094810502977 0 0.0038288349912320848 0.0049245214696887474 0 0.0037830066473388715 0.0052466032850921789 0 0.0037914842718328682 0.0050725089011861429 0 0.0038890186486104017 0.0050607094810502977 0 0.0038890186486104017 0.0050607094810502977 0 0.0039602343789097985 0.0051177618119882832 0 0.0040232151756099833 0.0050193288818674081 0 0.0038890186486104017 0.0050607094810502977 0 0.0040232151756099833 0.0050193288818674081 0 0.0039871092773481982 0.0049315669415856992 0 0.0038890186486104017 0.0050607094810502977 0 0.0039602343789097985 0.0051177618119882832 0 0.0038481328859055175 0.0052086181685195264 0 0.0039623120624416829 0.0052527353717637072 0 0.0039602343789097985 0.0051177618119882832 0 0.0038481328859055175 0.0052086181685195264 0 0.0039623120624416829 0.0052527353717637072 0 0.0041549870952134003 0.0051034896293285148 0 0.0040540903849397162 0.0050987992933370398 0 0.003729887216048671 0.0053902973884450613 0 0.0038121520707911794 0.0053537415503747288 0 0.0039623120624416829 0.0052527353717637072 0 0.0039602343789097985 0.0051177618119882832 0 0.0040540903849397162 0.0050987992933370398 0 0.0035143911460691663 0.0055367109638595861 0 0.0033322254627231478 0.0056376691595031898 0 0.0033894969933557033 0.0056834243649031956 0 0.0030599169596932734 0.0057198475801671332 0 0.0031188869674471653 0.0056011919161853795 0 0.0031688338413605561 0.0056998986849632009 0 0.0041549870952134003 0.0051034896293285148 0 0.0041487518189327116 0.0050173604694154182 0 0.0042400523075695716 0.004975641234672713 0 0.0032130719346110518 0.005751338340329132 0 0.0034679691675028458 0.0055078125196055235 0 0.0038121520707911794 0.0053537415503747288 0 0.0034679691675028458 0.0055078125196055235 0 0.0033322254627231478 0.0056376691595031898 0 0.0033894969933557033 0.0056834243649031956 0 0.0032991603667001184 0.0058053554243765442 0 0.0030520654120130036 0.0058321051137253882 0 0.0031688338413605561 0.0056998986849632009 0 0.0031031578014820227 0.0059463229191778324 0 0.0039602343789097985 0.0051177618119882832 0 0.0040540903849397162 0.0050987992933370398 0 0.0040232151756099833 0.0050193288818674081 0 0.0041549870952134003 0.0051034896293285148 0 0.0041487518189327116 0.0050173604694154182 0 0.0040540903849397162 0.0050987992933370398 0 0.0041487518189327116 0.0050173604694154182 0 0.0040232151756099833 0.0050193288818674081 0 0.0040977101782489157 0.0049151492573769485 0 0.0041487518189327116 0.0050173604694154182 0 0.0040540903849397162 0.0050987992933370398 0 0.0040232151756099833 0.0050193288818674081 0 0.0040232151756099833 0.0050193288818674081 0 0.0040977101782489157 0.0049151492573769485 0 0.0039871092773481982 0.0049315669415856992 0 0.0041487518189327116 0.0050173604694154182 0 0.0040977101782489157 0.0049151492573769485 0 0.0042073160397355681 0.0048707883445356552 0 0.0040977101782489157 0.0049151492573769485 0 0.0042073160397355681 0.0048707883445356552 0 0.0041575764934616011 0.004772053177672507 0 0.0040977101782489157 0.0049151492573769485 0 0.0040526735498949348 0.0048072716378196965 0 0.0041575764934616011 0.004772053177672507 0 0.0040977101782489157 0.0049151492573769485 0 0.0040526735498949348 0.0048072716378196965 0 0.0039871092773481982 0.0049315669415856992 0 0.0042461279009800897 0.0049481632177535003 0 0.0041487518189327116 0.0050173604694154182 0 0.0042400523075695716 0.004975641234672713 0 0.0043487463745608248 0.0048970777401531693 0 0.0041487518189327116 0.0050173604694154182 0 0.0042073160397355681 0.0048707883445356552 0 0.0036855460281815609 0.0050257431866471344 0 0.0043447262996698802 0.0049088221531037634 0 0.0043487463745608248 0.0048970777401531693 0 0.0042073160397355681 0.0048707883445356552 0 0.0042801656755551169 0.0047510561785397845 0 0.0042283673514648262 0.0046293282068379047 0 0.0044048130907533541 0.0046582175246973273 0 0.0042801656755551169 0.0047510561785397845 0 0.0042073160397355681 0.0048707883445356552 0 0.0042801656755551169 0.0047510561785397845 0 0.0041575764934616011 0.004772053177672507 0 0.0042283673514648262 0.0046293282068379047 0 0.0042801656755551169 0.0047510561785397845 0 0.0041575764934616011 0.004772053177672507 0 0.0040526735498949348 0.0048072716378196965 0 0.0041575764934616011 0.004772053177672507 0 0.004120731358552206 0.0046622663012924935 0 0.0042283673514648262 0.0046293282068379047 0 0.0041575764934616011 0.004772053177672507 0 0.004120731358552206 0.0046622663012924935 0 0.0040526735498949348 0.0048072716378196965 0 0.004120731358552206 0.0046622663012924935 0 0.0040238442906431705 0.0047039325590432857 0 0.0039709962946522523 0.0045913534859786361 0 0.0040238442906431705 0.0047039325590432857 0 0.0038918537559166203 0.0047451213064043703 0 0.0040238442906431705 0.0047039325590432857 0 0.0038918537559166203 0.0047451213064043703 0 0.0039558205671729289 0.0048317935086079795 0 0.0040526735498949348 0.0048072716378196965 0 0.0040238442906431705 0.0047039325590432857 0 0.0039558205671729289 0.0048317935086079795 0 0.0038918537559166203 0.0047451213064043703 0 0.0038288349912320848 0.0049245214696887474 0 0.0037575754364396266 0.0047785980345213279 0 0.0038575150497254613 0.0046125808804525457 0 0.0038918537559166203 0.0047451213064043703 0 0.0037575754364396266 0.0047785980345213279 0 0.0038918537559166203 0.0047451213064043703 0 0.0038288349912320848 0.0049245214696887474 0 0.0039558205671729289 0.0048317935086079795 0 0.0038288349912320848 0.0049245214696887474 0 0.0039110807866629804 0.0049396807229294924 0 0.0039558205671729289 0.0048317935086079795 0 0.0038890186486104017 0.0050607094810502977 0 0.0038288349912320848 0.0049245214696887474 0 0.0039110807866629804 0.0049396807229294924 0 0.0038890186486104017 0.0050607094810502977 0 0.0039110807866629804 0.0049396807229294924 0 0.0039871092773481982 0.0049315669415856992 0 0.0040526735498949348 0.0048072716378196965 0 0.0039871092773481982 0.0049315669415856992 0 0.0039558205671729289 0.0048317935086079795 0 0.0039110807866629804 0.0049396807229294924 0 0.0039871092773481982 0.0049315669415856992 0 0.0039558205671729289 0.0048317935086079795 0 0.0036022819132220164 0.0049090543300329944 0 0.0037176456390065724 0.0049578706543642465 0 0.0036784616813663532 0.004840215631575967 0 0.0036022819132220164 0.0049090543300329944 0 0.0037176456390065724 0.0049578706543642465 0 0.0036645524331851064 0.0050372240835227632 0 0.0036022819132220164 0.0049090543300329944 0 0.0036784616813663532 0.004840215631575967 0 0.0036075320833071209 0.004787088689755044 0 0.0037176456390065724 0.0049578706543642465 0 0.0037575754364396266 0.0047785980345213279 0 0.0036784616813663532 0.004840215631575967 0 0.0038288349912320848 0.0049245214696887474 0 0.0037176456390065724 0.0049578706543642465 0 0.0037575754364396266 0.0047785980345213279 0 0.0037914842718328682 0.0050725089011861429 0 0.0038288349912320848 0.0049245214696887474 0 0.0037176456390065724 0.0049578706543642465 0 0.0036354528094579321 0.0046697494893315882 0 0.0037575754364396266 0.0047785980345213279 0 0.0036784616813663532 0.004840215631575967 0 0.0036354528094579321 0.0046697494893315882 0 0.0036784616813663532 0.004840215631575967 0 0.0036075320833071209 0.004787088689755044 0 0.0034975699610145126 0.0045937915911100115 0 0.0036075320833071209 0.004787088689755044 0 0.0035491770758044822 0.0047921928678690334 0 0.0036022819132220164 0.0049090543300329944 0 0.0036075320833071209 0.004787088689755044 0 0.0035491770758044822 0.0047921928678690334 0 0.0034975699610145126 0.0045937915911100115 0 0.0034894707621890252 0.0047894288731693416 0 0.0035491770758044822 0.0047921928678690334 0 0.0037425230934622889 0.0037475677384253268 0 0.0044184822093040806 0.0039257618120894901 0 0.0057596091369749467 0.0038404425350402603 0 0.0056224078621847076 0.0038567192555100656 0 0.0057330202571913812 0.0039170925057742615 0 0.0044184822093040806 0.0039257618120894901 0 0.0045371312867903829 0.0043526613573816545 0 0.0034894707621890252 0.0047894288731693416 0 0.0035491770758044822 0.0047921928678690334 0 0.0034889439012982478 0.0048639584929524157 0 0.0055478366246040269 0.0036902039552271699 0 0.0056224078621847076 0.0038567192555100656 0 0.0054926978492541821 0.0038565608271663395 0 0.0055478366246040269 0.0036902039552271699 0 0.0057596091369749467 0.0038404425350402603 0 0.0056224078621847076 0.0038567192555100656 0 0.005043453421639468 0.0032038380695552683 0 0.0044184822093040806 0.0039257618120894901 0 0.0055822168418647351 0.003985554772007481 0 0.0057330202571913812 0.0039170925057742615 0 0.0056426520637132688 0.0041943981683313578 0 0.0045371312867903829 0.0043526613573816545 0 0.0045707194951734413 0.0046432826011467594 0 0.0056224078621847076 0.0038567192555100656 0 0.0055822168418647351 0.003985554772007481 0 0.0057330202571913812 0.0039170925057742615 0 0.0056224078621847076 0.0038567192555100656 0 0.0055822168418647351 0.003985554772007481 0 0.0054926978492541821 0.0038565608271663395 0 0.0034889439012982478 0.0048639584929524157 0 0.0035534889778269362 0.0049605206062809304 0 0.0035309138939363443 0.0050399666704801366 0 0.0036022819132220164 0.0049090543300329944 0 0.0035491770758044822 0.0047921928678690334 0 0.0034889439012982478 0.0048639584929524157 0 0.0036022819132220164 0.0049090543300329944 0 0.0034889439012982478 0.0048639584929524157 0 0.0035534889778269362 0.0049605206062809304 0 0.0036022819132220164 0.0049090543300329944 0 0.0035534889778269362 0.0049605206062809304 0 0.003593038248925299 0.0050286724382983608 0 0.0034889439012982478 0.0048639584929524157 0 0.0035309138939363443 0.0050399666704801366 0 0.0034802071400138698 0.0050856472785503343 0 0.0035534889778269362 0.0049605206062809304 0 0.003593038248925299 0.0050286724382983608 0 0.0035309138939363443 0.0050399666704801366 0 0.0035309138939363443 0.0050399666704801366 0 0.0035266129745063195 0.00509420780566496 0 0.0035765707240426789 0.0051264148633750808 0 0.003593038248925299 0.0050286724382983608 0 0.0035309138939363443 0.0050399666704801366 0 0.0035765707240426789 0.0051264148633750808 0 0.003593038248925299 0.0050286724382983608 0 0.0035765707240426789 0.0051264148633750808 0 0.0036726946508613147 0.0051353683180889636 0 0.0055822168418647351 0.003985554772007481 0 0.0056426520637132688 0.0041943981683313578 0 0.0055857573424969225 0.0041501515446245958 0 0.0035309138939363443 0.0050399666704801366 0 0.0035266129745063195 0.00509420780566496 0 0.0034802071400138698 0.0050856472785503343 0 0.0056426520637132688 0.0041943981683313578 0 0.0055857573424969225 0.0041501515446245958 0 0.0055446065264002121 0.0042507148932619792 0 0.0035191347358323483 0.0051672122862768972 0 0.0035727531654103552 0.0052406949030466866 0 0.0034416093470726709 0.0052883253594447734 0 0.0034802071400138698 0.0050856472785503343 0 0.0035191347358323483 0.0051672122862768972 0 0.0034416093470726709 0.0052883253594447734 0 0.0045707194951734413 0.0046432826011467594 0 0.0044952075877449493 0.0048652767234879908 0 0.0056426520637132688 0.0041943981683313578 0 0.0055543422236869529 0.0044521873934577245 0 0.0055446065264002121 0.0042507148932619792 0 0.0035266129745063195 0.00509420780566496 0 0.0034802071400138698 0.0050856472785503343 0 0.0035191347358323483 0.0051672122862768972 0 0.0035765707240426789 0.0051264148633750808 0 0.0036531097007590366 0.0051979893423226339 0 0.0036726946508613147 0.0051353683180889636 0 0.0035266129745063195 0.00509420780566496 0 0.0035191347358323483 0.0051672122862768972 0 0.0035765707240426789 0.0051264148633750808 0 0.0035191347358323483 0.0051672122862768972 0 0.0035765707240426789 0.0051264148633750808 0 0.0035727531654103552 0.0052406949030466866 0 0.0035765707240426789 0.0051264148633750808 0 0.0036531097007590366 0.0051979893423226339 0 0.0035727531654103552 0.0052406949030466866 0 0.0036726946508613147 0.0051353683180889636 0 0.0037408608441371603 0.0051442522898133463 0 0.0037986945450335821 0.0053056861385955877 0 0.0036531097007590366 0.0051979893423226339 0 0.0036726946508613147 0.0051353683180889636 0 0.0037986945450335821 0.0053056861385955877 0 0.0037176456390065724 0.0049578706543642465 0 0.0036645524331851064 0.0050372240835227632 0 0.0037408608441371603 0.0051442522898133463 0 0.003593038248925299 0.0050286724382983608 0 0.0036726946508613147 0.0051353683180889636 0 0.0036645524331851064 0.0050372240835227632 0 0.0036726946508613147 0.0051353683180889636 0 0.0036645524331851064 0.0050372240835227632 0 0.0037408608441371603 0.0051442522898133463 0 0.0036022819132220164 0.0049090543300329944 0 0.003593038248925299 0.0050286724382983608 0 0.0036645524331851064 0.0050372240835227632 0 0.0037914842718328682 0.0050725089011861429 0 0.0037176456390065724 0.0049578706543642465 0 0.0037408608441371603 0.0051442522898133463 0 0.0037830066473388715 0.0052466032850921789 0 0.0037408608441371603 0.0051442522898133463 0 0.0037986945450335821 0.0053056861385955877 0 0.0037830066473388715 0.0052466032850921789 0 0.0037914842718328682 0.0050725089011861429 0 0.0037408608441371603 0.0051442522898133463 0 0.0037459541063638154 0.0052637117894512178 0 0.0037830066473388715 0.0052466032850921789 0 0.0037986945450335821 0.0053056861385955877 0 0.0037459541063638154 0.0052637117894512178 0 0.0037986945450335821 0.0053056861385955877 0 0.0039087238294804264 0.0052359168844893353 0 0.0037459541063638154 0.0052637117894512178 0 0.0039087238294804264 0.0052359168844893353 0 0.0040148721269170854 0.004999905074227551 0 0.0040148721269170854 0.004999905074227551 0 0.0041574807061537569 0.0053318364852635103 0 0.0044635020093017506 0.0052371736959732117 0 0.0040148721269170854 0.004999905074227551 0 0.0044635020093017506 0.0052371736959732117 0 0.004566456885503882 0.0050908297927010574 0 0.0039087238294804264 0.0052359168844893353 0 0.0040148721269170854 0.004999905074227551 0 0.0041574807061537569 0.0053318364852635103 0 0.0037283662672011543 0.0054063045850030788 0 0.0044451965867579228 0.0050871239844340723 0 0.0037986945450335821 0.0053056861385955877 0 0.0039087238294804264 0.0052359168844893353 0 0.0041574807061537569 0.0053318364852635103 0 0.0038680236944214933 0.0052825383084999728 0 0.0037283662672011543 0.0054063045850030788 0 0.0037986945450335821 0.0053056861385955877 0 0.0035336745327304592 0.0053750027308447062 0 0.0035727531654103552 0.0052406949030466866 0 0.0036531097007590366 0.0051979893423226339 0 0.0037986945450335821 0.0053056861385955877 0 0.0035727531654103552 0.0052406949030466866 0 0.0035336745327304592 0.0053750027308447062 0 0.0035727531654103552 0.0052406949030466866 0 0.0034416093470726709 0.0052883253594447734 0 0.0055543422236869529 0.0044521873934577245 0 0.0053907916944461705 0.0045347923793208752 0 0.0053367404329308218 0.0042925264286125748 0 0.0050000128022220612 0.0049999475995095863 0 0.0049867482659127832 0.0049753289785861828 0 0.0049999213193868981 0.0043181679120651286 0 0.0040148721269170854 0.004999905074227551 0 0.004566456885503882 0.0050908297927010574 0 0.0050000128022220612 0.0049999475995095863 0 0.0053907916944461705 0.0045347923793208752 0 0.005231417339568922 0.0045045537652276275 0 0.0053367404329308218 0.0042925264286125748 0 0.0053907916944461705 0.0045347923793208752 0 0.0052872394272239663 0.0046586565190694295 0 0.0054572410671244456 0.0047181568880690604 0 0.0053907916944461705 0.0045347923793208752 0 0.0052872394272239663 0.0046586565190694295 0 0.005231417339568922 0.0045045537652276275 0 0.0044952075877449493 0.0048652767234879908 0 0.0044451965867579228 0.0050871239844340723 0 0.0035336745327304592 0.0053750027308447062 0 0.0034416093470726709 0.0052883253594447734 0 0.0034087835775640841 0.0054268164664192263 0 0.0055543422236869529 0.0044521873934577245 0 0.0053907916944461705 0.0045347923793208752 0 0.0054572410671244456 0.0047181568880690604 0 0.0044451965867579228 0.0050871239844340723 0 0.0050992278400314398 0.0049509397271091599 0 0.0052872394272239663 0.0046586565190694295 0 0.0054572410671244456 0.0047181568880690604 0 0.0052379800541131408 0.0048445321418362835 0 0.0044939660099639284 0.0052679263844386251 0 0.004566456885503882 0.0050908297927010574 0 0.0047388216810179797 0.0051359967025390377 0 0.0044451965867579228 0.0050871239844340723 0 0.0045398147308886461 0.0051488778934761737 0 0.004566456885503882 0.0050908297927010574 0 0.0049867482659127832 0.0049753289785861828 0 0.0047388216810179797 0.0051359967025390377 0 0.004566456885503882 0.0050908297927010574 0 0.0050000128022220612 0.0049999475995095863 0 0.0049867482659127832 0.0049753289785861828 0 0.0049409975564091669 0.0049980176645353005 0 0.0050992278400314398 0.0049509397271091599 0 0.0049867482659127832 0.0049753289785861828 0 0.0052379800541131408 0.0048445321418362835 0 0.0051482096973655377 0.0046582753818183173 0 0.0052872394272239663 0.0046586565190694295 0 0.0052379800541131408 0.0048445321418362835 0 0.0051482096973655377 0.0046582753818183173 0 0.0049867482659127832 0.0049753289785861828 0 0.0051482096973655377 0.0046582753818183173 0 0.0049999213193868981 0.0043181679120651286 0 0.0051482096973655377 0.0046582753818183173 0 0.005231417339568922 0.0045045537652276275 0 0.0049999213193868981 0.0043181679120651286 0 0.0052872394272239663 0.0046586565190694295 0 0.0051482096973655377 0.0046582753818183173 0 0.005231417339568922 0.0045045537652276275 0 0.0049999213193868981 0.0043181679120651286 0 0.0050000049428153351 0.0038301896859214315 0 0.0051647315936864694 0.0040580237231824055 0 0.005231417339568922 0.0045045537652276275 0 0.0049999213193868981 0.0043181679120651286 0 0.0053367404329308218 0.0042925264286125748 0 0.0049999213193868981 0.0043181679120651286 0 0.0053367404329308218 0.0042925264286125748 0 0.0051647315936864694 0.0040580237231824055 0 0.0053367404329308218 0.0042925264286125748 0 0.0053348431910357859 0.0040779609954939055 0 0.0051647315936864694 0.0040580237231824055 0 0.0053367404329308218 0.0042925264286125748 0 0.0054820559654880051 0.0042859480438515764 0 0.0054614972059441255 0.0041721341548099262 0 0.0055543422236869529 0.0044521873934577245 0 0.0054820559654880051 0.0042859480438515764 0 0.0055446065264002121 0.0042507148932619792 0 0.0055543422236869529 0.0044521873934577245 0 0.0053367404329308218 0.0042925264286125748 0 0.0054820559654880051 0.0042859480438515764 0 0.0054820559654880051 0.0042859480438515764 0 0.0055446065264002121 0.0042507148932619792 0 0.0054614972059441255 0.0041721341548099262 0 0.0055857573424969225 0.0041501515446245958 0 0.0054614972059441255 0.0041721341548099262 0 0.0054545571238447032 0.0039937651896669903 0 0.0055857573424969225 0.0041501515446245958 0 0.0055446065264002121 0.0042507148932619792 0 0.0054614972059441255 0.0041721341548099262 0 0.0054614972059441255 0.0041721341548099262 0 0.0053348431910357859 0.0040779609954939055 0 0.0054545571238447032 0.0039937651896669903 0 0.0053367404329308218 0.0042925264286125748 0 0.0054614972059441255 0.0041721341548099262 0 0.0053348431910357859 0.0040779609954939055 0 0.0053348431910357859 0.0040779609954939055 0 0.0054545571238447032 0.0039937651896669903 0 0.0053098940018418087 0.0038234744312080379 0 0.0055822168418647351 0.003985554772007481 0 0.0054106938598581884 0.0039649261459742706 0 0.0054926978492541821 0.0038565608271663395 0 0.0055755181895474626 0.0041364226312385196 0 0.0054352504590328664 0.003981291856074402 0 0.0055822168418647351 0.003985554772007481 0 0.0055857573424969225 0.0041501515446245958 0 0.0054106938598581884 0.0039649261459742706 0 0.0055478366246040269 0.0036902039552271699 0 0.0054926978492541821 0.0038565608271663395 0 0.0052630340262351848 0.0037897512901363252 0 0.0054106938598581884 0.0039649261459742706 0 0.0054926978492541821 0.0038565608271663395 0 0.0052630340262351848 0.0037897512901363252 0 0.0054352504590328664 0.003981291856074402 0 0.0052860961880184148 0.003806560345113329 0 0.0053098940018418087 0.0038234744312080379 0 0.0050000049428153351 0.0038301896859214315 0 0.0051647315936864694 0.0040580237231824055 0 0.0051577663128719578 0.0036513598769235349 0 0.0053098940018418087 0.0038234744312080379 0 0.0050000049428153351 0.0038301896859214315 0 0.0053348431910357859 0.0040779609954939055 0 0.0053098940018418087 0.0038234744312080379 0 0.0051647315936864694 0.0040580237231824055 0 0.0011617660525776196 0.0041661033687978239 0 0.0011352341977616772 0.0042452217048392386 0 0.0011738564458616567 0.0042374104986717901 0 0.0011617660525776196 0.0041661033687978239 0 0.0011179336004112611 0.0041940914854953467 0 0.0011352341977616772 0.0042452217048392386 0 0.0011617660525776196 0.0041661033687978239 0 0.0011403950244657109 0.004136726532629329 0 0.0011179336004112611 0.0041940914854953467 0 0.0011972508649207366 0.0041741680737004327 0 0.0011738564458616567 0.0042374104986717901 0 0.0012161008440790177 0.0042147823258323639 0 0.0011617660525776196 0.0041661033687978239 0 0.0011972508649207366 0.0041741680737004327 0 0.0011738564458616567 0.0042374104986717901 0 0.0011617660525776196 0.0041661033687978239 0 0.0012058994659983045 0.0041093018994473691 0 0.0011730021600139297 0.0041057823907650467 0 0.0011617660525776196 0.0041661033687978239 0 0.0011972508649207366 0.0041741680737004327 0 0.0012058994659983045 0.0041093018994473691 0 0.0011617660525776196 0.0041661033687978239 0 0.0011730021600139297 0.0041057823907650467 0 0.0011403950244657109 0.004136726532629329 0 0.0011730021600139297 0.0041057823907650467 0 0.0011403950244657109 0.004136726532629329 0 0.0011488252581586763 0.0040786238499298435 0 0.0011403950244657109 0.004136726532629329 0 0.0011105136186122381 0.0041204716596969834 0 0.0011179336004112611 0.0041940914854953467 0 0.0011403950244657109 0.004136726532629329 0 0.0011105136186122381 0.0041204716596969834 0 0.0011488252581586763 0.0040786238499298435 0 0.0011105136186122381 0.0041204716596969834 0 0.0010808313605854358 0.004099307287944211 0 0.001091040111044715 0.0041621999620207774 0 0.0010808313605854358 0.004099307287944211 0 0.001091040111044715 0.0041621999620207774 0 0.0010829396829753583 0.0041449763144156939 0 0.0011105136186122381 0.0041204716596969834 0 0.0010808313605854358 0.004099307287944211 0 0.0010992305686330132 0.0040436600800236944 0 0.0011105136186122381 0.0041204716596969834 0 0.001091040111044715 0.0041621999620207774 0 0.0011179336004112611 0.0041940914854953467 0 0.001091040111044715 0.0041621999620207774 0 0.0011179336004112611 0.0041940914854953467 0 0.0010913701733650978 0.0042521554447981225 0 0.0010913701733650978 0.0042521554447981225 0 0.0011123767250741171 0.0043207092702288626 0 0.0011352341977616772 0.0042452217048392386 0 0.0011179336004112611 0.0041940914854953467 0 0.0010913701733650978 0.0042521554447981225 0 0.0011352341977616772 0.0042452217048392386 0 0.0010913701733650978 0.0042521554447981225 0 0.0010781664601583053 0.0042222176140717903 0 0.0010610970569267391 0.0042864400847005815 0 0.001091040111044715 0.0041621999620207774 0 0.0010913701733650978 0.0042521554447981225 0 0.0010781664601583053 0.0042222176140717903 0 0.0010913701733650978 0.0042521554447981225 0 0.0010699690191366988 0.0043377237473469187 0 0.0010610970569267391 0.0042864400847005815 0 0.0010913701733650978 0.0042521554447981225 0 0.0010699690191366988 0.0043377237473469187 0 0.0011123767250741171 0.0043207092702288626 0 0.0011123767250741171 0.0043207092702288626 0 0.0011591737049793588 0.0043259503544633687 0 0.0011302815757104057 0.0044113968821138114 0 0.0011123767250741171 0.0043207092702288626 0 0.0011352341977616772 0.0042452217048392386 0 0.0011591737049793588 0.0043259503544633687 0 0.0011352341977616772 0.0042452217048392386 0 0.0011738564458616567 0.0042374104986717901 0 0.0011591737049793588 0.0043259503544633687 0 0.0011738564458616567 0.0042374104986717901 0 0.0011591737049793588 0.0043259503544633687 0 0.0012043640313058337 0.0042901241120245617 0 0.0012069586531990419 0.0043806161805868644 0 0.0012388416832065212 0.0043336154143741017 0 0.0012043640313058337 0.0042901241120245617 0 0.0011591737049793588 0.0043259503544633687 0 0.0012069586531990419 0.0043806161805868644 0 0.0012043640313058337 0.0042901241120245617 0 0.0012069586531990419 0.0043806161805868644 0 0.0012388416832065212 0.0043336154143741017 0 0.0012569817223350641 0.0044112786768704861 0 0.0012388416832065212 0.0043336154143741017 0 0.0012812166405065987 0.0043272036261468756 0 0.0012569817223350641 0.0044112786768704861 0 0.0012388416832065212 0.0043336154143741017 0 0.0012456741159490871 0.0042611121910429341 0 0.0012812166405065987 0.0043272036261468756 0 0.0012388416832065212 0.0043336154143741017 0 0.0012456741159490871 0.0042611121910429341 0 0.0012043640313058337 0.0042901241120245617 0 0.0012456741159490871 0.0042611121910429341 0 0.0012812166405065987 0.0043272036261468756 0 0.0012878137299120291 0.004232909886850854 0 0.0012456741159490871 0.0042611121910429341 0 0.0012878137299120291 0.004232909886850854 0 0.0012507904941364016 0.0041817627119849557 0 0.0012456741159490871 0.0042611121910429341 0 0.0012161008440790177 0.0042147823258323639 0 0.0012507904941364016 0.0041817627119849557 0 0.0011738564458616567 0.0042374104986717901 0 0.0012043640313058337 0.0042901241120245617 0 0.0012161008440790177 0.0042147823258323639 0 0.0012456741159490871 0.0042611121910429341 0 0.0012043640313058337 0.0042901241120245617 0 0.0012161008440790177 0.0042147823258323639 0 0.0013457085287876852 0.004317329501547432 0 0.0013701082896786603 0.0044179344895622814 0 0.0014051141052277879 0.0043687310827048124 0 0.0013457085287876852 0.004317329501547432 0 0.0013701082896786603 0.0044179344895622814 0 0.001315517862959221 0.0044151226104704117 0 0.0013457085287876852 0.004317329501547432 0 0.0014051141052277879 0.0043687310827048124 0 0.0014201312891163232 0.0042849710226390333 0 0.0013457085287876852 0.004317329501547432 0 0.0012812166405065987 0.0043272036261468756 0 0.001315517862959221 0.0044151226104704117 0 0.0012812166405065987 0.0043272036261468756 0 0.001315517862959221 0.0044151226104704117 0 0.0012569817223350641 0.0044112786768704861 0 0.0013457085287876852 0.004317329501547432 0 0.0012878137299120291 0.004232909886850854 0 0.0013320852647899005 0.0041708506650842509 0 0.0013457085287876852 0.004317329501547432 0 0.0012812166405065987 0.0043272036261468756 0 0.0012878137299120291 0.004232909886850854 0 0.0013457085287876852 0.004317329501547432 0 0.0013320852647899005 0.0041708506650842509 0 0.0014201312891163232 0.0042849710226390333 0 0.0013320852647899005 0.0041708506650842509 0 0.0014201312891163232 0.0042849710226390333 0 0.0014396094643055225 0.0041736388692889953 0 0.0013320852647899005 0.0041708506650842509 0 0.001313671014640169 0.0040904720748207194 0 0.0014396094643055225 0.0041736388692889953 0 0.0012878137299120291 0.004232909886850854 0 0.0013320852647899005 0.0041708506650842509 0 0.001278191457635114 0.0041399342624058692 0 0.0012878137299120291 0.004232909886850854 0 0.001278191457635114 0.0041399342624058692 0 0.0012507904941364016 0.0041817627119849557 0 0.0013320852647899005 0.0041708506650842509 0 0.001278191457635114 0.0041399342624058692 0 0.0012881481235548543 0.0040851698001457548 0 0.001278191457635114 0.0041399342624058692 0 0.0012728012883050466 0.0040884537134737928 0 0.0012881481235548543 0.0040851698001457548 0 0.001278191457635114 0.0041399342624058692 0 0.0012728012883050466 0.0040884537134737928 0 0.0012567522914149281 0.0041078289506037381 0 0.0012728012883050466 0.0040884537134737928 0 0.0012804805401011793 0.0040520978822729198 0 0.001271150946885829 0.0040586185983533789 0 0.0012728012883050466 0.0040884537134737928 0 0.0012804805401011793 0.0040520978822729198 0 0.0012881481235548543 0.0040851698001457548 0 0.0012804805401011793 0.0040520978822729198 0 0.0012881481235548543 0.0040851698001457548 0 0.0012851359157346545 0.004039227352978814 0 0.001313671014640169 0.0040904720748207194 0 0.0012765126237435503 0.0040046932365174082 0 0.0014396094643055225 0.0041736388692889953 0 0.0012787562901737069 0.004011832555425348 0 0.0012906757287253193 0.004057764209429925 0 0.0013320852647899005 0.0041708506650842509 0 0.0012881481235548543 0.0040851698001457548 0 0.001313671014640169 0.0040904720748207194 0 0.0012881481235548543 0.0040851698001457548 0 0.001313671014640169 0.0040904720748207194 0 0.0012851359157346545 0.004039227352978814 0 0.001313671014640169 0.0040904720748207194 0 0.0012851359157346545 0.004039227352978814 0 0.0012765126237435503 0.0040046932365174082 0 0.0011972508649207366 0.0041741680737004327 0 0.0012286003043683255 0.004148347905414458 0 0.0012161008440790177 0.0042147823258323639 0 0.0012286003043683255 0.004148347905414458 0 0.0012161008440790177 0.0042147823258323639 0 0.0012507904941364016 0.0041817627119849557 0 0.001278191457635114 0.0041399342624058692 0 0.0012507904941364016 0.0041817627119849557 0 0.0012567522914149281 0.0041078289506037381 0 0.0012286003043683255 0.004148347905414458 0 0.0012507904941364016 0.0041817627119849557 0 0.0012567522914149281 0.0041078289506037381 0 0.0012286003043683255 0.004148347905414458 0 0.0012567522914149281 0.0041078289506037381 0 0.0012339141998264247 0.0040992644164383665 0 0.0012728012883050466 0.0040884537134737928 0 0.0012567522914149281 0.0041078289506037381 0 0.001271150946885829 0.0040586185983533789 0 0.0012567522914149281 0.0041078289506037381 0 0.0012572545774834751 0.0040657292887763315 0 0.001271150946885829 0.0040586185983533789 0 0.0012567522914149281 0.0041078289506037381 0 0.0012339141998264247 0.0040992644164383665 0 0.0012572545774834751 0.0040657292887763315 0 0.0011972508649207366 0.0041741680737004327 0 0.0012058994659983045 0.0041093018994473691 0 0.0012286003043683255 0.004148347905414458 0 0.0012058994659983045 0.0041093018994473691 0 0.0012286003043683255 0.004148347905414458 0 0.0012339141998264247 0.0040992644164383665 0 0.0012339141998264247 0.0040992644164383665 0 0.0012572545774834751 0.0040657292887763315 0 0.0012338421787970249 0.0040420120758618309 0 0.0012572545774834751 0.0040657292887763315 0 0.0012635019565154339 0.0040356631763978816 0 0.0012338421787970249 0.0040420120758618309 0 0.0012058994659983045 0.0041093018994473691 0 0.0012339141998264247 0.0040992644164383665 0 0.0012338421787970249 0.0040420120758618309 0 0.0012572545774834751 0.0040657292887763315 0 0.0012635019565154339 0.0040356631763978816 0 0.0012743570435089445 0.004038136564889906 0 0.0012572545774834751 0.0040657292887763315 0 0.001271150946885829 0.0040586185983533789 0 0.0012743570435089445 0.004038136564889906 0 0.0012635019565154339 0.0040356631763978816 0 0.0012743570435089445 0.004038136564889906 0 0.0012804850111451948 0.0040530227875247727 0 0.0012635019565154339 0.0040356631763978816 0 0.0012338421787970249 0.0040420120758618309 0 0.0012446752280249676 0.0040025997380986767 0 0.0012889691749196665 0.0040265224458001557 0 0.0012446100619328191 0.0040229871951187011 0 0.0011711523680912712 0.0039770721387179138 0 0.0012765126237435503 0.0040046932365174082 0 0.0012889691749196665 0.0040265224458001557 0 0.0011716382367435256 0.0040779527912283165 0 0.0012776178344948736 0.0040210329715676838 0 0.0011618759648081743 0.004033489898543764 0 0.0012851359157346545 0.004039227352978814 0 0.0012765126237435503 0.0040046932365174082 0 0.0012889691749196665 0.0040265224458001557 0 0.0012889691749196665 0.0040265224458001557 0 0.001271322672501674 0.0040317737976914821 0 0.0012446100619328191 0.0040229871951187011 0 0.0012889691749196665 0.0040265224458001557 0 0.001271322672501674 0.0040317737976914821 0 0.0012777295848920554 0.0040385630496934518 0 0.001271322672501674 0.0040317737976914821 0 0.0012777295848920554 0.0040385630496934518 0 0.0012743570435089445 0.004038136564889906 0 0.0012804805401011793 0.0040520978822729198 0 0.0012889691749196665 0.0040265224458001557 0 0.0012777295848920554 0.0040385630496934518 0 0.0012804805401011793 0.0040520978822729198 0 0.0012851359157346545 0.004039227352978814 0 0.0012889691749196665 0.0040265224458001557 0 0.0012804805401011793 0.0040520978822729198 0 0.0012777295848920554 0.0040385630496934518 0 0.001271150946885829 0.0040586185983533789 0 0.0012777295848920554 0.0040385630496934518 0 0.001271150946885829 0.0040586185983533789 0 0.0012743570435089445 0.004038136564889906 0 0.0012743570435089445 0.004038136564889906 0 0.0012608139897319884 0.0040472870853100491 0 0.0012804850111451948 0.0040530227875247727 0 0.001271322672501674 0.0040317737976914821 0 0.0012743570435089445 0.004038136564889906 0 0.0012608139897319884 0.0040472870853100491 0 0.001271322672501674 0.0040317737976914821 0 0.0012608139897319884 0.0040472870853100491 0 0.0012446100619328191 0.0040229871951187011 0 0.0012608139897319884 0.0040472870853100491 0 0.0012446100619328191 0.0040229871951187011 0 0.0012060912088018277 0.0040370906022045893 0 0.0013334758971446938 0.0035745577170554345 0 0.0013372673201317721 0.0035887502320210364 0 0.0012608139897319884 0.0040472870853100491 0 0.0012219020244081016 0.0041385300243099834 0 0.0012804850111451948 0.0040530227875247727 0 0.0012608139897319884 0.0040472870853100491 0 0.0012219020244081016 0.0041385300243099834 0 0.0012060912088018277 0.0040370906022045893 0 0.0014684605804746495 0.0030036273992062024 0 0.0014110326632674345 0.0031186678364710468 0 0.001408632145283317 0.0030351404006372829 0 0.001437998549804942 0.0029212802253611066 0 0.0014684605804746495 0.0030036273992062024 0 0.001408632145283317 0.0030351404006372829 0 0.0013372673201317721 0.0035887502320210364 0 0.0012941580136916248 0.003639491900815714 0 0.0012635019565154339 0.0040356631763978816 0 0.0012804850111451948 0.0040530227875247727 0 0.0012446752280249676 0.0040025997380986767 0 0.0014110326632674345 0.0031186678364710468 0 0.0013609770716042388 0.0032680686472712104 0 0.0013671570675185592 0.003129231635450213 0 0.0014110326632674345 0.0031186678364710468 0 0.001408632145283317 0.0030351404006372829 0 0.0013671570675185592 0.003129231635450213 0 0.0013609770716042388 0.0032680686472712104 0 0.0013671570675185592 0.003129231635450213 0 0.0013220962222614907 0.0032785066228513478 0 0.0013219778869840747 0.0031288592512205794 0 0.0013671570675185592 0.003129231635450213 0 0.0013220962222614907 0.0032785066228513478 0 0.0012736944714579106 0.0032530818499492548 0 0.0013219778869840747 0.0031288592512205794 0 0.0013220962222614907 0.0032785066228513478 0 0.001152591265515313 0.0032467895846794775 0 0.0012736944714579106 0.0032530818499492548 0 0.0012381218315427353 0.0034198845578381791 0 0.0012736944714579106 0.0032530818499492548 0 0.0013220962222614907 0.0032785066228513478 0 0.0012381218315427353 0.0034198845578381791 0 0.0013220962222614907 0.0032785066228513478 0 0.0012381218315427353 0.0034198845578381791 0 0.0012914466144106017 0.003498595601111223 0 0.0012941580136916248 0.003639491900815714 0 0.0012217519328731857 0.0037378954753179007 0 0.0013609770716042388 0.0032680686472712104 0 0.0013220962222614907 0.0032785066228513478 0 0.0012914466144106017 0.003498595601111223 0 0.0012338421787970249 0.0040420120758618309 0 0.0012446752280249676 0.0040025997380986767 0 0.0011915606037955731 0.0039647976988720609 0 0.0012338421787970249 0.0040420120758618309 0 0.0011915606037955731 0.0039647976988720609 0 0.0011903695720646267 0.0040503170675177556 0 0.0011915606037955731 0.0039647976988720609 0 0.0011903695720646267 0.0040503170675177556 0 0.0011575582291760886 0.00400262303515683 0 0.0011903695720646267 0.0040503170675177556 0 0.0011488252581586763 0.0040786238499298435 0 0.0011575582291760886 0.00400262303515683 0 0.0011730021600139297 0.0041057823907650467 0 0.0011903695720646267 0.0040503170675177556 0 0.0011488252581586763 0.0040786238499298435 0 0.0012058994659983045 0.0041093018994473691 0 0.0012338421787970249 0.0040420120758618309 0 0.0011903695720646267 0.0040503170675177556 0 0.0012058994659983045 0.0041093018994473691 0 0.0011730021600139297 0.0041057823907650467 0 0.0011903695720646267 0.0040503170675177556 0 0.0010992305686330132 0.0040436600800236944 0 0.0010603390119999251 0.0040466427605065965 0 0.0010347149676158578 0.003988477309286885 0 0.0010808313605854358 0.004099307287944211 0 0.0010992305686330132 0.0040436600800236944 0 0.0010603390119999251 0.0040466427605065965 0 0.0011488252581586763 0.0040786238499298435 0 0.0010992305686330132 0.0040436600800236944 0 0.0011575582291760886 0.00400262303515683 0 0.0011105136186122381 0.0041204716596969834 0 0.0011488252581586763 0.0040786238499298435 0 0.0010992305686330132 0.0040436600800236944 0 0.0011915606037955731 0.0039647976988720609 0 0.0011575582291760886 0.00400262303515683 0 0.0010947651758421095 0.0038585058257687311 0 0.0010992305686330132 0.0040436600800236944 0 0.0011575582291760886 0.00400262303515683 0 0.0010947651758421095 0.0038585058257687311 0 0.0010347149676158578 0.003988477309286885 0 0.0010947651758421095 0.0038585058257687311 0 0.00096685657537055761 0.0039447295003449722 0 0.0010992305686330132 0.0040436600800236944 0 0.0010347149676158578 0.003988477309286885 0 0.0010947651758421095 0.0038585058257687311 0 0.0010947651758421095 0.0038585058257687311 0 0.0010138679536468875 0.0036996130369565351 0 0.00096685657537055761 0.0039447295003449722 0 0.0010947651758421095 0.0038585058257687311 0 0.0010138679536468875 0.0036996130369565351 0 0.0011054290231863793 0.0034961177726201861 0 0.0010138679536468875 0.0036996130369565351 0 0.00085232279288824787 0.0034881780335005233 0 0.00096685657537055761 0.0039447295003449722 0 0.0012381218315427353 0.0034198845578381791 0 0.0012914466144106017 0.003498595601111223 0 0.0010947651758421095 0.0038585058257687311 0 0.0012217519328731857 0.0037378954753179007 0 0.001079803734833499 0.0038421573630445919 0 0.0012381218315427353 0.0034198845578381791 0 0.0010947651758421095 0.0038585058257687311 0 0.0011054290231863793 0.0034961177726201861 0 0.0010228697227868903 0.0033316724749031523 0 0.001152591265515313 0.0032467895846794775 0 0.0011054290231863793 0.0034961177726201861 0 0.001152591265515313 0.0032467895846794775 0 0.0012381218315427353 0.0034198845578381791 0 0.0011054290231863793 0.0034961177726201861 0 0.0010138679536468875 0.0036996130369565351 0 0.0010066621067998274 0.0035030851166546963 0 0.00085232279288824787 0.0034881780335005233 0 0.0010138679536468875 0.0036996130369565351 0 0.0011054290231863793 0.0034961177726201861 0 0.0010066621067998274 0.0035030851166546963 0 0.0010228697227868903 0.0033316724749031523 0 0.0011054290231863793 0.0034961177726201861 0 0.0010066621067998274 0.0035030851166546963 0 0.0010066621067998274 0.0035030851166546963 0 0.00093948706991734462 0.0033782039730548118 0 0.00085232279288824787 0.0034881780335005233 0 0.0010228697227868903 0.0033316724749031523 0 0.0010066621067998274 0.0035030851166546963 0 0.00093948706991734462 0.0033782039730548118 0 0.00095902974480779142 0.0044235679421439867 0 0.00098564390225230219 0.0042803081854217526 0 0.00096265447912953993 0.0042246416451808769 0 0.0010999495168693817 0.0041952348835795523 0 0.0010825519447670532 0.0042006759345275665 0 0.0010944297757427279 0.0041954632003946002 0 0.0010944297757427279 0.0041954632003946002 0 0.001086039208487378 0.004166886198871819 0 0.0011229540571418551 0.0041972191305854022 0 0.0010825519447670532 0.0042006759345275665 0 0.0010944297757427279 0.0041954632003946002 0 0.001086039208487378 0.004166886198871819 0 0.0011066443323313904 0.0042127842048258089 0 0.0010944297757427279 0.0041954632003946002 0 0.0011229540571418551 0.0041972191305854022 0 0.001086039208487378 0.004166886198871819 0 0.0010314544138622153 0.0041050987209188634 0 0.0011032024336625733 0.0041197971549287822 0 0.0010825519447670532 0.0042006759345275665 0 0.001086039208487378 0.004166886198871819 0 0.0010314544138622153 0.0041050987209188634 0 0.00098564390225230219 0.0042803081854217526 0 0.00096265447912953993 0.0042246416451808769 0 0.0010314544138622153 0.0041050987209188634 0 0.0010199640996452247 0.0042827679001650153 0 0.0010440112084507272 0.00410416464634263 0 0.00096265447912953993 0.0042246416451808769 0 0.0010314544138622153 0.0041050987209188634 0 0.00096685657537055761 0.0039447295003449722 0 0.00091281786658934467 0.003838782540704311 0 0.00095047004064260823 0.0039308099368219086 0 0.0010314544138622153 0.0041050987209188634 0 0.0010572576277324227 0.0040401410956019271 0 0.0011032024336625733 0.0041197971549287822 0 0.0010572576277324227 0.0040401410956019271 0 0.00096685657537055761 0.0039447295003449722 0 0.0010441730707572254 0.0040126181979978819 0 0.0010314544138622153 0.0041050987209188634 0 0.0010572576277324227 0.0040401410956019271 0 0.00096685657537055761 0.0039447295003449722 0 0.0011109097695956422 0.0040648286191148205 0 0.0011032024336625733 0.0041197971549287822 0 0.001168591010859436 0.0041579083739980783 0 0.0010572576277324227 0.0040401410956019271 0 0.0011109097695956422 0.0040648286191148205 0 0.0011032024336625733 0.0041197971549287822 0 0.0011032024336625733 0.0041197971549287822 0 0.0011229540571418551 0.0041972191305854022 0 0.001168591010859436 0.0041579083739980783 0 0.0012064510691923165 0.0042430289350189471 0 0.0011229540571418551 0.0041972191305854022 0 0.001168591010859436 0.0041579083739980783 0 0.001086039208487378 0.004166886198871819 0 0.0011032024336625733 0.0041197971549287822 0 0.0011229540571418551 0.0041972191305854022 0 0.0012064510691923165 0.0042430289350189471 0 0.001168591010859436 0.0041579083739980783 0 0.0012609952913657805 0.0041929983078059941 0 0.0012916653987741649 0.0042589666093775479 0 0.0012609952913657805 0.0041929983078059941 0 0.0013735349610143827 0.0042494204945698151 0 0.0012609952913657805 0.0041929983078059941 0 0.0013735349610143827 0.0042494204945698151 0 0.0013479605938322983 0.0041725452148588761 0 0.0012916653987741649 0.0042589666093775479 0 0.0012064510691923165 0.0042430289350189471 0 0.0012609952913657805 0.0041929983078059941 0 0.0012609952913657805 0.0041929983078059941 0 0.0012730648793825041 0.0041482186586941838 0 0.0013479605938322983 0.0041725452148588761 0 0.0012609952913657805 0.0041929983078059941 0 0.0012730648793825041 0.0041482186586941838 0 0.0012036622018119652 0.0041223375929670255 0 0.0012730648793825041 0.0041482186586941838 0 0.0012036622018119652 0.0041223375929670255 0 0.0012772906003704839 0.0041124896956293297 0 0.0012730648793825041 0.0041482186586941838 0 0.0012772906003704839 0.0041124896956293297 0 0.0013479605938322983 0.0041725452148588761 0 0.001168591010859436 0.0041579083739980783 0 0.0012609952913657805 0.0041929983078059941 0 0.0012036622018119652 0.0041223375929670255 0 0.0011109097695956422 0.0040648286191148205 0 0.001168591010859436 0.0041579083739980783 0 0.0012036622018119652 0.0041223375929670255 0 0.0011479129550100902 0.0040760623524894778 0 0.0011890866834554862 0.0040760210111810179 0 0.0010989845862191155 0.0040518587519675223 0 0.0012036622018119652 0.0041223375929670255 0 0.0011890866834554862 0.0040760210111810179 0 0.0012772906003704839 0.0041124896956293297 0 0.0012036622018119652 0.0041223375929670255 0 0.0011479129550100902 0.0040760623524894778 0 0.0011890866834554862 0.0040760210111810179 0 0.0011109097695956422 0.0040648286191148205 0 0.0012036622018119652 0.0041223375929670255 0 0.0011479129550100902 0.0040760623524894778 0 0.0011890866834554862 0.0040760210111810179 0 0.0012772906003704839 0.0041124896956293297 0 0.0012598773753947007 0.0040792385631814553 0 0.0012772906003704839 0.0041124896956293297 0 0.0012598773753947007 0.0040792385631814553 0 0.0013440993908917763 0.0040833234713607705 0 0.0011890866834554862 0.0040760210111810179 0 0.0012598773753947007 0.0040792385631814553 0 0.0012114150309323435 0.0040637665585237029 0 0.0012598773753947007 0.0040792385631814553 0 0.0012948749679581907 0.0040561290864632822 0 0.0013440993908917763 0.0040833234713607705 0 0.0012598773753947007 0.0040792385631814553 0 0.0012114150309323435 0.0040637665585237029 0 0.0012948749679581907 0.0040561290864632822 0 0.0011890866834554862 0.0040760210111810179 0 0.0012114150309323435 0.0040637665585237029 0 0.001129718188460265 0.0040689997621618729 0 0.0011890866834554862 0.0040760210111810179 0 0.0010989845862191155 0.0040518587519675223 0 0.001129718188460265 0.0040689997621618729 0 0.0010989845862191155 0.0040518587519675223 0 0.0010919633774486436 0.0040885286982647292 0 0.001129718188460265 0.0040689997621618729 0 0.0010989845862191155 0.0040518587519675223 0 0.0010705227625366171 0.0040702091305305456 0 0.0010919633774486436 0.0040885286982647292 0 0.0010989845862191155 0.0040518587519675223 0 0.0010705227625366171 0.0040702091305305456 0 0.001054666269610517 0.004033440881517021 0 0.0010808313605854358 0.004099307287944211 0 0.0010603390119999251 0.0040466427605065965 0 0.0010705227625366171 0.0040702091305305456 0 0.0010603390119999251 0.0040466427605065965 0 0.0010705227625366171 0.0040702091305305456 0 0.001054666269610517 0.004033440881517021 0 0.0010603390119999251 0.0040466427605065965 0 0.0010347149676158578 0.003988477309286885 0 0.001054666269610517 0.004033440881517021 0 0.0010347149676158578 0.003988477309286885 0 0.00096685657537055761 0.0039447295003449722 0 0.0010441730707572254 0.0040126181979978819 0 0.0010989845862191155 0.0040518587519675223 0 0.001054666269610517 0.004033440881517021 0 0.0010441730707572254 0.0040126181979978819 0 0.0010347149676158578 0.003988477309286885 0 0.001054666269610517 0.004033440881517021 0 0.0010441730707572254 0.0040126181979978819 0 0.0011109097695956422 0.0040648286191148205 0 0.0011479129550100902 0.0040760623524894778 0 0.0010989845862191155 0.0040518587519675223 0 0.0010572576277324227 0.0040401410956019271 0 0.0011109097695956422 0.0040648286191148205 0 0.0010441730707572254 0.0040126181979978819 0 0.0011109097695956422 0.0040648286191148205 0 0.0010989845862191155 0.0040518587519675223 0 0.0010441730707572254 0.0040126181979978819 0 0.0016940881282135503 0.0041735423541180766 0 0.0017254906662599551 0.0042298608796826984 0 0.0015833576148852045 0.0042214996592039146 0 0.0017540557412309248 0.0041979891288289554 0 0.0016940881282135503 0.0041735423541180766 0 0.0017254906662599551 0.0042298608796826984 0 0.001579502132728139 0.0042790274779723591 0 0.0016618580934935144 0.0042797554028212031 0 0.0015833576148852045 0.0042214996592039146 0 0.0016618580934935144 0.0042797554028212031 0 0.0017254906662599551 0.0042298608796826984 0 0.0015833576148852045 0.0042214996592039146 0 0.0016940881282135503 0.0041735423541180766 0 0.0015833576148852045 0.0042214996592039146 0 0.00154759875905607 0.0041092173369012015 0 0.0015833576148852045 0.0042214996592039146 0 0.0014505189311226668 0.004159974191840065 0 0.0014509060332997181 0.0042166931871765395 0 0.0015833576148852045 0.0042214996592039146 0 0.0014505189311226668 0.004159974191840065 0 0.00154759875905607 0.0041092173369012015 0 0.0015833576148852045 0.0042214996592039146 0 0.0014509060332997181 0.0042166931871765395 0 0.0014931314930487546 0.0042731372338145578 0 0.001579502132728139 0.0042790274779723591 0 0.0015833576148852045 0.0042214996592039146 0 0.0014931314930487546 0.0042731372338145578 0 0.0014509060332997181 0.0042166931871765395 0 0.0014931314930487546 0.0042731372338145578 0 0.0013735349610143827 0.0042494204945698151 0 0.0014509060332997181 0.0042166931871765395 0 0.0013735349610143827 0.0042494204945698151 0 0.0013479605938322983 0.0041725452148588761 0 0.0014505189311226668 0.004159974191840065 0 0.0014509060332997181 0.0042166931871765395 0 0.0013479605938322983 0.0041725452148588761 0 0.0014505189311226668 0.004159974191840065 0 0.0013479605938322983 0.0041725452148588761 0 0.001368658057039957 0.0041267422661028959 0 0.0012772906003704839 0.0041124896956293297 0 0.0013479605938322983 0.0041725452148588761 0 0.001368658057039957 0.0041267422661028959 0 0.0014505189311226668 0.004159974191840065 0 0.001368658057039957 0.0041267422661028959 0 0.0014328439378207571 0.0041065806283363199 0 0.001368658057039957 0.0041267422661028959 0 0.0013440993908917763 0.0040833234713607705 0 0.0014328439378207571 0.0041065806283363199 0 0.0012772906003704839 0.0041124896956293297 0 0.001368658057039957 0.0041267422661028959 0 0.0013440993908917763 0.0040833234713607705 0 0.0013440993908917763 0.0040833234713607705 0 0.0014644063333011266 0.0040572683532491167 0 0.0013735815131416509 0.0040314159870402386 0 0.0012948749679581907 0.0040561290864632822 0 0.0013440993908917763 0.0040833234713607705 0 0.0013735815131416509 0.0040314159870402386 0 0.0013440993908917763 0.0040833234713607705 0 0.0014644063333011266 0.0040572683532491167 0 0.0014328439378207571 0.0041065806283363199 0 0.0014644063333011266 0.0040572683532491167 0 0.0014328439378207571 0.0041065806283363199 0 0.00154759875905607 0.0041092173369012015 0 0.0014505189311226668 0.004159974191840065 0 0.0014328439378207571 0.0041065806283363199 0 0.00154759875905607 0.0041092173369012015 0 0.0016940881282135503 0.0041735423541180766 0 0.00154759875905607 0.0041092173369012015 0 0.0015879521272487251 0.0040400739411205096 0 0.0014644063333011266 0.0040572683532491167 0 0.0015879521272487251 0.0040400739411205096 0 0.0014846472029960609 0.0039922324046212888 0 0.0014644063333011266 0.0040572683532491167 0 0.00154759875905607 0.0041092173369012015 0 0.0015879521272487251 0.0040400739411205096 0 0.0017454173613936559 0.0042873440648702257 0 0.0018671514374546938 0.0042624833738886857 0 0.0018446205700773253 0.0043676739471493406 0 0.0017622913818716498 0.0042086908794497684 0 0.0017454173613936559 0.0042873440648702257 0 0.0018671514374546938 0.0042624833738886857 0 0.0017540557412309248 0.0041979891288289554 0 0.0017622913818716498 0.0042086908794497684 0 0.0016940881282135503 0.0041735423541180766 0 0.0017005029249011817 0.0041813405770621684 0 0.0017297871857548698 0.0041719768233507305 0 0.0017622913818716498 0.0042086908794497684 0 0.0016940881282135503 0.0041735423541180766 0 0.0018671514374546938 0.0042624833738886857 0 0.0018746908347153978 0.0044861396505905876 0 0.0019911800629660104 0.0044452030456283301 0 0.0019670142796496572 0.0046302518944480999 0 0.0018331635094084456 0.0045716925949984173 0 0.0018746908347153978 0.0044861396505905876 0 0.0019670142796496572 0.0046302518944480999 0 0.0018746908347153978 0.0044861396505905876 0 0.0018446205700773253 0.0043676739471493406 0 0.0019911800629660104 0.0044452030456283301 0 0.0018671514374546938 0.0042624833738886857 0 0.0018446205700773253 0.0043676739471493406 0 0.0019911800629660104 0.0044452030456283301 0 0.0017297871857548698 0.0041719768233507305 0 0.0017582180163268942 0.0041632702010015923 0 0.0015879521272487251 0.0040400739411205096 0 0.0015499281498170311 0.0039450833226666714 0 0.0014846472029960609 0.0039922324046212888 0 0.0015040399945066198 0.0039267869125968998 0 0.0015499281498170311 0.0039450833226666714 0 0.0014846472029960609 0.0039922324046212888 0 0.0015040399945066198 0.0039267869125968998 0 0.0015499281498170311 0.0039450833226666714 0 0.0015404924869875055 0.0038701510632479512 0 0.0014466103782360658 0.0038962580502110529 0 0.0014062281954342994 0.0039623561836419335 0 0.00137538027555163 0.0038675474948794641 0 0.0015040399945066198 0.0039267869125968998 0 0.0014062281954342994 0.0039623561836419335 0 0.0014846472029960609 0.0039922324046212888 0 0.0015040399945066198 0.0039267869125968998 0 0.0014466103782360658 0.0038962580502110529 0 0.0014062281954342994 0.0039623561836419335 0 0.0014644063333011266 0.0040572683532491167 0 0.0014846472029960609 0.0039922324046212888 0 0.0013735815131416509 0.0040314159870402386 0 0.0014062281954342994 0.0039623561836419335 0 0.0014846472029960609 0.0039922324046212888 0 0.0013735815131416509 0.0040314159870402386 0 0.0014062281954342994 0.0039623561836419335 0 0.0013735815131416509 0.0040314159870402386 0 0.0012822519670913481 0.0040170563708354081 0 0.0012948749679581907 0.0040561290864632822 0 0.0013735815131416509 0.0040314159870402386 0 0.0012822519670913481 0.0040170563708354081 0 0.0013232573542333837 0.0039485538965986873 0 0.00137538027555163 0.0038675474948794641 0 0.001232256461739095 0.0039423793116222941 0 0.0014062281954342994 0.0039623561836419335 0 0.0013232573542333837 0.0039485538965986873 0 0.00137538027555163 0.0038675474948794641 0 0.0014062281954342994 0.0039623561836419335 0 0.0013232573542333837 0.0039485538965986873 0 0.0012822519670913481 0.0040170563708354081 0 0.0013349776855226864 0.004104251789384894 0 0.0012191627233483966 0.0041320605296358446 0 0.0013985024300912712 0.0043658250766913653 0 0.00115405296736524 0.0043377656654135137 0 0.0012361019065098627 0.0043034041380493448 0 0.0013985024300912712 0.0043658250766913653 0 0.0014237930512325354 0.0043040368505933785 0 0.0012361019065098627 0.0043034041380493448 0 0.0013985024300912712 0.0043658250766913653 0 0.0014237930512325354 0.0043040368505933785 0 0.0014187289692248561 0.0043374530938315604 0 0.0014237930512325354 0.0043040368505933785 0 0.0016991207614303102 0.0044538396473848985 0 0.0015553343923892238 0.0044924661663552972 0 0.0014260236661785791 0.0043678630754301496 0 0.001401203692389187 0.0043186789667509209 0 0.0013673597891182129 0.0044635012723780515 0 0.0014237930512325354 0.0043040368505933785 0 0.0014260236661785791 0.0043678630754301496 0 0.0014187289692248561 0.0043374530938315604 0 0.0014237930512325354 0.0043040368505933785 0 0.0014260236661785791 0.0043678630754301496 0 0.0014984171235323961 0.0044723530472650019 0 0.0014260236661785791 0.0043678630754301496 0 0.0014187289692248561 0.0043374530938315604 0 0.001401203692389187 0.0043186789667509209 0 0.0013349776855226864 0.004104251789384894 0 0.001739182199941223 0.0042925364193555013 0 0.0014466103782360658 0.0038962580502110529 0 0.00137538027555163 0.0038675474948794641 0 0.0015022300122089626 0.0038256074155482464 0 0.0015040399945066198 0.0039267869125968998 0 0.0014466103782360658 0.0038962580502110529 0 0.0015022300122089626 0.0038256074155482464 0 0.0013985024300912712 0.0043658250766913653 0 0.0014187289692248561 0.0043374530938315604 0 0.001401203692389187 0.0043186789667509209 0 0.0019911800629660104 0.0044452030456283301 0 0.0020881051138601772 0.0047588479558746555 0 0.0020184254359268709 0.0046713837394603743 0 0.0017582180163268942 0.0041632702010015923 0 0.0019108306599581308 0.0044882347024686482 0 0.0015009447850680977 0.0037704579716350017 0 0.001739182199941223 0.0042925364193555013 0 0.0015040399945066198 0.0039267869125968998 0 0.0015404924869875055 0.0038701510632479512 0 0.0015087234423806367 0.0038806552409714717 0 0.0022406569521808608 0.0048141717249184403 0 0.0024519102815895488 0.0047391665646370805 0 0.0022464313510462629 0.0048960106385086194 0 0.0019108306599581308 0.0044882347024686482 0 0.001739182199941223 0.0042925364193555013 0 0.0024519102815895488 0.0047391665646370805 0 0.0023370647752246421 0.0049963048719217241 0 0.0024463080058075653 0.0052495445224444636 0 0.001739182199941223 0.0042925364193555013 0 0.0019282560139866449 0.0049095666959370291 0 0.0024519102815895488 0.0047391665646370805 0 0.0023370647752246421 0.0049963048719217241 0 0.0022464313510462629 0.0048960106385086194 0 0.0023370647752246421 0.0049963048719217241 0 0.0022807611546966011 0.0051748226787766043 0 0.0024463080058075653 0.0052495445224444636 0 0.0023370647752246421 0.0049963048719217241 0 0.0022200621182843785 0.0050594694801805442 0 0.0022807611546966011 0.0051748226787766043 0 0.0022200621182843785 0.0050594694801805442 0 0.0022464313510462629 0.0048960106385086194 0 0.0021154541975326566 0.0049995914498056271 0 0.0023370647752246421 0.0049963048719217241 0 0.0022200621182843785 0.0050594694801805442 0 0.0022464313510462629 0.0048960106385086194 0 0.0022441820159849945 0.0048151728624712458 0 0.0022464313510462629 0.0048960106385086194 0 0.0021154541975326566 0.0049995914498056271 0 0.0019108306599581308 0.0044882347024686482 0 0.0019670481398825694 0.004666263510896905 0 0.0022441820159849945 0.0048151728624712458 0 0.0021154541975326566 0.0049995914498056271 0 0.0019206098203810112 0.0049058874594051132 0 0.0020881051138601772 0.0047588479558746555 0 0.0019206098203810112 0.0049058874594051132 0 0.0019736956432541502 0.0047740073056784524 0 0.0019108306599581308 0.0044882347024686482 0 0.0019782984582641713 0.0048653633982244978 0 0.0021154541975326566 0.0049995914498056271 0 0.0019459674954508677 0.0051218483118281709 0 0.0021246697039617383 0.0052353313252609191 0 0.0022200621182843785 0.0050594694801805442 0 0.0021154541975326566 0.0049995914498056271 0 0.0021246697039617383 0.0052353313252609191 0 0.0021154541975326566 0.0049995914498056271 0 0.0019459674954508677 0.0051218483118281709 0 0.0019206098203810112 0.0049058874594051132 0 0.0017991814833668959 0.0048314167945695992 0 0.0019206098203810112 0.0049058874594051132 0 0.0019736956432541502 0.0047740073056784524 0 0.0017991814833668959 0.0048314167945695992 0 0.0019736956432541502 0.0047740073056784524 0 0.0019670142796496572 0.0046302518944480999 0 0.0019911800629660104 0.0044452030456283301 0 0.0019670142796496572 0.0046302518944480999 0 0.0020184254359268709 0.0046713837394603743 0 0.0017520322905254274 0.0047763306886476559 0 0.0019803556562780909 0.0046264850983628106 0 0.0019736956432541502 0.0047740073056784524 0 0.0019670142796496572 0.0046302518944480999 0 0.0020184254359268709 0.0046713837394603743 0 0.0020881051138601772 0.0047588479558746555 0 0.0019736956432541502 0.0047740073056784524 0 0.0020184254359268709 0.0046713837394603743 0 0.0018254170141965892 0.004675813960823505 0 0.0018331635094084456 0.0045716925949984173 0 0.0019670142796496572 0.0046302518944480999 0 0.0010829396829753583 0.0041449763144156939 0 0.0010993742690353833 0.0041259184396353057 0 0.0010799711960136967 0.0042276259119795939 0 0.001091040111044715 0.0041621999620207774 0 0.0010829396829753583 0.0041449763144156939 0 0.0010781664601583053 0.0042222176140717903 0 0.0010829396829753583 0.0041449763144156939 0 0.0010799711960136967 0.0042276259119795939 0 0.0010781664601583053 0.0042222176140717903 0 0.0010705227625366171 0.0040702091305305456 0 0.0010829396829753583 0.0041449763144156939 0 0.0010919633774486436 0.0040885286982647292 0 0.0010808313605854358 0.004099307287944211 0 0.0010705227625366171 0.0040702091305305456 0 0.0010829396829753583 0.0041449763144156939 0 0.0010829396829753583 0.0041449763144156939 0 0.0010919633774486436 0.0040885286982647292 0 0.0010993742690353833 0.0041259184396353057 0 0.0010919633774486436 0.0040885286982647292 0 0.001129718188460265 0.0040689997621618729 0 0.0010993742690353833 0.0041259184396353057 0 0.001129718188460265 0.0040689997621618729 0 0.0011750403766128742 0.004058905073269177 0 0.0010993742690353833 0.0041259184396353057 0 0.0012114150309323435 0.0040637665585237029 0 0.001129718188460265 0.0040689997621618729 0 0.0011750403766128742 0.004058905073269177 0 0.0012114150309323435 0.0040637665585237029 0 0.0012948749679581907 0.0040561290864632822 0 0.0012822519670913481 0.0040170563708354081 0 0.0012114150309323435 0.0040637665585237029 0 0.0011750403766128742 0.004058905073269177 0 0.0012822519670913481 0.0040170563708354081 0 0.0013232573542333837 0.0039485538965986873 0 0.0012822519670913481 0.0040170563708354081 0 0.001232256461739095 0.0039423793116222941 0 0.0011750403766128742 0.004058905073269177 0 0.0012822519670913481 0.0040170563708354081 0 0.001232256461739095 0.0039423793116222941 0 0.00115405296736524 0.0043377656654135137 0 0.0010993742690353833 0.0041259184396353057 0 0.0010928414280402491 0.0042462760758330718 0 0.0011750403766128742 0.004058905073269177 0 0.001232256461739095 0.0039423793116222941 0 0.0010993742690353833 0.0041259184396353057 0 0.0012191627233483966 0.0041320605296358446 0 0.0011247226560068299 0.0041281595371399117 0 0.0010993742690353833 0.0041259184396353057 0 0.0010928414280402491 0.0042462760758330718 0 0.0010799711960136967 0.0042276259119795939 0 0.0010928414280402491 0.0042462760758330718 0 0.0010789252834950554 0.0042644730882879329 0 0.0010799711960136967 0.0042276259119795939 0 0.0010789252834950554 0.0042644730882879329 0 0.0011236321187609716 0.0042844507000150672 0 0.0011131032605423731 0.0042599676730725265 0 0.0010928414280402491 0.0042462760758330718 0 0.0010789252834950554 0.0042644730882879329 0 0.0011236321187609716 0.0042844507000150672 0 0.00115405296736524 0.0043377656654135137 0 0.0011236321187609716 0.0042844507000150672 0 0.0012361019065098627 0.0043034041380493448 0 0.00115405296736524 0.0043377656654135137 0 0.0010928414280402491 0.0042462760758330718 0 0.0011236321187609716 0.0042844507000150672 0 0.0011236321187609716 0.0042844507000150672 0 0.0012361019065098627 0.0043034041380493448 0 0.0011131032605423731 0.0042599676730725265 0 0.0014237930512325354 0.0043040368505933785 0 0.001163699902841004 0.0042219827170614805 0 0.0011212236140996808 0.004094588680779907 0 0.0014663728407807743 0.0042865861259017172 0 0.0012466457895691141 0.004408024699021581 0 0.0014237930512325354 0.0043040368505933785 0 0.0012361019065098627 0.0043034041380493448 0 0.001163699902841004 0.0042219827170614805 0 0.0012361019065098627 0.0043034041380493448 0 0.0011131032605423731 0.0042599676730725265 0 0.001163699902841004 0.0042219827170614805 0 0.0011036438843576594 0.0042482653554265157 0 0.001163699902841004 0.0042219827170614805 0 0.0011047294992924366 0.0042464933939892211 0 0.0011131032605423731 0.0042599676730725265 0 0.0011036438843576594 0.0042482653554265157 0 0.001163699902841004 0.0042219827170614805 0 0.0011668910624888192 0.0042009265914501603 0 0.0012466457895691141 0.004408024699021581 0 0.0010789252834950554 0.0042644730882879329 0 0.0010748926383459629 0.0042682832678141262 0 0.0010567917853166757 0.0042828735928068587 0 0.0010789252834950554 0.0042644730882879329 0 0.0011131032605423731 0.0042599676730725265 0 0.0010748926383459629 0.0042682832678141262 0 0.0011131032605423731 0.0042599676730725265 0 0.0011036438843576594 0.0042482653554265157 0 0.0010748926383459629 0.0042682832678141262 0 0.0011036438843576594 0.0042482653554265157 0 0.0010748926383459629 0.0042682832678141262 0 0.0010707301435056234 0.0042778466899844499 0 0.0010748926383459629 0.0042682832678141262 0 0.0010567917853166757 0.0042828735928068587 0 0.0010471817619763396 0.0043037973340646352 0 0.0010567917853166757 0.0042828735928068587 0 0.0010799711960136967 0.0042276259119795939 0 0.0010610970569267391 0.0042864400847005815 0 0.0010789252834950554 0.0042644730882879329 0 0.0010567917853166757 0.0042828735928068587 0 0.0010799711960136967 0.0042276259119795939 0 0.0010799711960136967 0.0042276259119795939 0 0.0010781664601583053 0.0042222176140717903 0 0.0010610970569267391 0.0042864400847005815 0 0.0010567917853166757 0.0042828735928068587 0 0.0010610970569267391 0.0042864400847005815 0 0.0010383889161826342 0.0043561718417673449 0 0.0010699690191366988 0.0043377237473469187 0 0.0010610970569267391 0.0042864400847005815 0 0.0010383889161826342 0.0043561718417673449 0 0.0010383889161826342 0.0043561718417673449 0 0.0010001805205981098 0.0044513539630785161 0 0.0010362878558783683 0.0044739433338202043 0 0.0010297425365792573 0.0043497653629867286 0 0.0010268030894499105 0.0043332608942296741 0 0.0010001805205981098 0.0044513539630785161 0 0.0010383889161826342 0.0043561718417673449 0 0.0010297425365792573 0.0043497653629867286 0 0.0010001805205981098 0.0044513539630785161 0 0.0010179909345012291 0.0044721141698356778 0 0.0010261652433771666 0.0045335356052525373 0 0.0010469536186299396 0.0046137150204724224 0 0.0010441004248537672 0.0046053234047568059 0 0.0010330602260559185 0.0046041655251161332 0 0.0010383889161826342 0.0043561718417673449 0 0.0010297425365792573 0.0043497653629867286 0 0.0010471817619763396 0.0043037973340646352 0 0.0010297425365792573 0.0043497653629867286 0 0.0010471817619763396 0.0043037973340646352 0 0.0010268030894499105 0.0043332608942296741 0 0.0010567917853166757 0.0042828735928068587 0 0.0010383889161826342 0.0043561718417673449 0 0.0010471817619763396 0.0043037973340646352 0 0.0012466457895691141 0.004408024699021581 0 0.0010179909345012291 0.0044721141698356778 0 0.0010748926383459629 0.0042682832678141262 0 0.0010471817619763396 0.0043037973340646352 0 0.0010707301435056234 0.0042778466899844499 0 0.0010707301435056234 0.0042778466899844499 0 0.0011047294992924366 0.0042464933939892211 0 0.0010268030894499105 0.0043332608942296741 0 0.0010471817619763396 0.0043037973340646352 0 0.0010707301435056234 0.0042778466899844499 0 0.0010268030894499105 0.0043332608942296741 0 0.0016991207614303102 0.0044538396473848985 0 0.0016598041479155491 0.0045725573979136609 0 0.0017741874953816346 0.0047065749098597212 0 0.0011036438843576594 0.0042482653554265157 0 0.0010707301435056234 0.0042778466899844499 0 0.0011047294992924366 0.0042464933939892211 0 0.0016598041479155491 0.0045725573979136609 0 0.0016127972938586254 0.0046391070291553873 0 0.0015553343923892238 0.0044924661663552972 0 0.0016991207614303102 0.0044538396473848985 0 0.0016598041479155491 0.0045725573979136609 0 0.0015553343923892238 0.0044924661663552972 0 0.0012466457895691141 0.004408024699021581 0 0.0014322021007260901 0.0046952398641636629 0 0.0016598041479155491 0.0045725573979136609 0 0.0016127972938586254 0.0046391070291553873 0 0.0017741874953816346 0.0047065749098597212 0 0.0016127972938586254 0.0046391070291553873 0 0.0017741874953816346 0.0047065749098597212 0 0.0016082747342988583 0.0047867032591125142 0 0.0010542654093972715 0.0046098530598178778 0 0.0010469536186299396 0.0046137150204724224 0 0.0010441004248537672 0.0046053234047568059 0 0.0010606067881472443 0.0046194463533960547 0 0.0010542654093972715 0.0046098530598178778 0 0.0010469536186299396 0.0046137150204724224 0 0.0014322021007260901 0.0046952398641636629 0 0.0014378628114116818 0.0047498525957850903 0 0.0010542654093972715 0.0046098530598178778 0 0.0010441004248537672 0.0046053234047568059 0 0.001047549397809621 0.0045986803561871015 0 0.0017741874953816346 0.0047065749098597212 0 0.0016878340862278472 0.0049021400548306861 0 0.0018350896387486213 0.0049761863471842818 0 0.0017741874953816346 0.0047065749098597212 0 0.0016878340862278472 0.0049021400548306861 0 0.0016082747342988583 0.0047867032591125142 0 0.0016878340862278472 0.0049021400548306861 0 0.0016885498149024139 0.0050724916058752642 0 0.0015281452266781544 0.0049675378201905311 0 0.0016878340862278472 0.0049021400548306861 0 0.0016885498149024139 0.0050724916058752642 0 0.0018350896387486213 0.0049761863471842818 0 0.0010441004248537672 0.0046053234047568059 0 0.001047549397809621 0.0045986803561871015 0 0.0010342847681382361 0.0045953996671386811 0 0.0014378628114116818 0.0047498525957850903 0 0.001415776629517363 0.0050510290738160603 0 0.001047549397809621 0.0045986803561871015 0 0.0010342847681382361 0.0045953996671386811 0 0.001042897189341237 0.0045912014807532779 0 0.0016885498149024139 0.0050724916058752642 0 0.0018350896387486213 0.0049761863471842818 0 0.0018738664586181212 0.0052117715030275229 0 0.0010342847681382361 0.0045953996671386811 0 0.0010227867076356343 0.0045841332036681811 0 0.0010241121328013287 0.0045969999554359422 0 0.0010342847681382361 0.0045953996671386811 0 0.0010227867076356343 0.0045841332036681811 0 0.0010330602260559185 0.0046041655251161332 0 0.001027559087638844 0.0045783525199686601 0 0.0010261652433771666 0.0045335356052525373 0 0.0010227867076356343 0.0045841332036681811 0 0.0010001805205981098 0.0044513539630785161 0 0.0010362878558783683 0.0044739433338202043 0 0.0010441004248537672 0.0046053234047568059 0 0.0010342847681382361 0.0045953996671386811 0 0.0010330602260559185 0.0046041655251161332 0 0.0018120436487163822 0.0054545203160659382 0 0.0021917228839621996 0.0055591666791078012 0 0.0022114647846630921 0.0057821043207529526 0 0.0021917228839621996 0.0055591666791078012 0 0.0022421453019536952 0.005699653627981179 0 0.0022114647846630921 0.0057821043207529526 0 0.0021917228839621996 0.0055591666791078012 0 0.0021246697039617383 0.0052353313252609191 0 0.0022790255211848358 0.0053796839904869023 0 0.0018120436487163822 0.0054545203160659382 0 0.0019459674954508677 0.0051218483118281709 0 0.0021246697039617383 0.0052353313252609191 0 0.0018120436487163822 0.0054545203160659382 0 0.0021917228839621996 0.0055591666791078012 0 0.0021246697039617383 0.0052353313252609191 0 0.0022790255211848358 0.0053796839904869023 0 0.0024463080058075653 0.0052495445224444636 0 0.0023436191025125578 0.0056752482613388715 0 0.0022200621182843785 0.0050594694801805442 0 0.0021246697039617383 0.0052353313252609191 0 0.0022807611546966011 0.0051748226787766043 0 0.0021246697039617383 0.0052353313252609191 0 0.0022790255211848358 0.0053796839904869023 0 0.0022807611546966011 0.0051748226787766043 0 0.0022790255211848358 0.0053796839904869023 0 0.0022807611546966011 0.0051748226787766043 0 0.0024463080058075653 0.0052495445224444636 0 0.0019282560139866449 0.0049095666959370291 0 0.0019036975765418973 0.0052610868417521843 0 0.0021917228839621996 0.0055591666791078012 0 0.0023436191025125578 0.0056752482613388715 0 0.0022421453019536952 0.005699653627981179 0 0.0021917228839621996 0.0055591666791078012 0 0.0022790255211848358 0.0053796839904869023 0 0.0023436191025125578 0.0056752482613388715 0 0.0015381370626543996 0.0046846105771507947 0 0.0014984171235323961 0.0044723530472650019 0 0.0018122684493531867 0.0048806329788044231 0 0.0014641745652242031 0.0049133008170274689 0 0.0015381370626543996 0.0046846105771507947 0 0.0018122684493531867 0.0048806329788044231 0 0.0013673597891182129 0.0044635012723780515 0 0.0014641745652242031 0.0049133008170274689 0 0.0015381370626543996 0.0046846105771507947 0 0.0013673597891182129 0.0044635012723780515 0 0.0015381370626543996 0.0046846105771507947 0 0.0014984171235323961 0.0044723530472650019 0 0.0014260236661785791 0.0043678630754301496 0 0.0013673597891182129 0.0044635012723780515 0 0.0014984171235323961 0.0044723530472650019 0 0.0014984171235323961 0.0044723530472650019 0 0.0015553343923892238 0.0044924661663552972 0 0.0014781854077510366 0.0046935981622551618 0 0.0014237930512325354 0.0043040368505933785 0 0.0014984171235323961 0.0044723530472650019 0 0.0015553343923892238 0.0044924661663552972 0 0.0015247536320441098 0.0045092664249082358 0 0.0016387664653284366 0.0047942632906313645 0 0.0016127972938586254 0.0046391070291553873 0 0.0015553343923892238 0.0044924661663552972 0 0.0014781854077510366 0.0046935981622551618 0 0.0016127972938586254 0.0046391070291553873 0 0.0014781854077510366 0.0046935981622551618 0 0.0016082747342988583 0.0047867032591125142 0 0.0014781854077510366 0.0046935981622551618 0 0.0016082747342988583 0.0047867032591125142 0 0.0015281452266781544 0.0049675378201905311 0 0.0016387664653284366 0.0047942632906313645 0 0.0017291085049594176 0.005115187544491852 0 0.0018122684493531867 0.0048806329788044231 0 0.001939341231447121 0.0052719527895045666 0 0.0017273310077190814 0.0051318278076393021 0 0.0016878340862278472 0.0049021400548306861 0 0.0016082747342988583 0.0047867032591125142 0 0.0015281452266781544 0.0049675378201905311 0 0.0016885498149024139 0.0050724916058752642 0 0.0015281452266781544 0.0049675378201905311 0 0.0016271294238341808 0.0052083908324658595 0 0.0017291085049594176 0.005115187544491852 0 0.0017524745864320864 0.0052799324041439841 0 0.001939341231447121 0.0052719527895045666 0 0.0018671911500856156 0.0053710787502841357 0 0.0017273310077190814 0.0051318278076393021 0 0.001939341231447121 0.0052719527895045666 0 0.001891920494814011 0.0053698889292386484 0 0.0018779394867056856 0.005393418250419859 0 0.001939341231447121 0.0052719527895045666 0 0.0018671911500856156 0.0053710787502841357 0 0.001891920494814011 0.0053698889292386484 0 0.0018671911500856156 0.0053710787502841357 0 0.0017273310077190814 0.0051318278076393021 0 0.0017015194060252693 0.0053157521271351227 0 0.0014641745652242031 0.0049133008170274689 0 0.0017273310077190814 0.0051318278076393021 0 0.0017015194060252693 0.0053157521271351227 0 0.0014641745652242031 0.0049133008170274689 0 0.0018122684493531867 0.0048806329788044231 0 0.0017273310077190814 0.0051318278076393021 0 0.0023436191025125578 0.0056752482613388715 0 0.0022421453019536952 0.005699653627981179 0 0.0022065677012964272 0.0057393248588912919 0 0.0019036975765418973 0.0052610868417521843 0 0.0019345026975475218 0.0054904132554538044 0 0.0023436191025125578 0.0056752482613388715 0 0.0022065677012964272 0.0057393248588912919 0 0.0021572112316587651 0.0057213581637973734 0 0.0022065677012964272 0.0057393248588912919 0 0.0021572112316587651 0.0057213581637973734 0 0.0021787013212787726 0.0056123382224666533 0 0.0022065677012964272 0.0057393248588912919 0 0.0023284632692454686 0.0056119029139710267 0 0.0021787013212787726 0.0056123382224666533 0 0.0022156209569508651 0.005727607023173994 0 0.0023241395240167135 0.0055709606770810959 0 0.0022065677012964272 0.0057393248588912919 0 0.0023381897105054115 0.005698077221226598 0 0.0023140932421531059 0.0055286390371198126 0 0.0022065677012964272 0.0057393248588912919 0 0.0023381897105054115 0.005698077221226598 0 0.0022114647846630921 0.0057821043207529526 0 0.0022421453019536952 0.005699653627981179 0 0.0022065677012964272 0.0057393248588912919 0 0.0022114647846630921 0.0057821043207529526 0 0.0025207508077134582 0.0053593900666306675 0 0.0022195670156471138 0.0054579283452170857 0 0.0022479265633674524 0.0052030683078072839 0 0.0025207508077134582 0.0053593900666306675 0 0.0023284632692454686 0.0056119029139710267 0 0.0022195670156471138 0.0054579283452170857 0 0.0023284632692454686 0.0056119029139710267 0 0.0021787013212787726 0.0056123382224666533 0 0.0022195670156471138 0.0054579283452170857 0 0.0021572112316587651 0.0057213581637973734 0 0.0021787013212787726 0.0056123382224666533 0 0.0019935552731063315 0.0054671966088621921 0 0.0019345026975475218 0.0054904132554538044 0 0.0019792859276858703 0.0054502187671149078 0 0.0021787013212787726 0.0056123382224666533 0 0.0022195670156471138 0.0054579283452170857 0 0.0019935552731063315 0.0054671966088621921 0 0.0020962916465077936 0.0052587223916901607 0 0.0020803049283285744 0.0053445339521716925 0 0.0022811601575436495 0.0051850301547687978 0 0.0020338574704386629 0.0053912833663997675 0 0.0022629457078810885 0.0051959505209504047 0 0.0022195670156471138 0.0054579283452170857 0 0.0019991956324301955 0.0054627560725291589 0 0.0022479265633674524 0.0052030683078072839 0 0.0022195670156471138 0.0054579283452170857 0 0.0019991956324301955 0.0054627560725291589 0 0.0019935552731063315 0.0054671966088621921 0 0.0020962916465077936 0.0052587223916901607 0 0.0020149735483943917 0.0052575141276728935 0 0.0020031617143035007 0.0053182043615974152 0 0.0020149735483943917 0.0052575141276728935 0 0.0020031617143035007 0.0053182043615974152 0 0.0018844254859666813 0.0053025958932689217 0 0.0020031617143035007 0.0053182043615974152 0 0.0019459836915873714 0.0053583537399567805 0 0.0018844254859666813 0.0053025958932689217 0 0.0020031617143035007 0.0053182043615974152 0 0.0020803049283285744 0.0053445339521716925 0 0.0019459836915873714 0.0053583537399567805 0 0.0020962916465077936 0.0052587223916901607 0 0.0020031617143035007 0.0053182043615974152 0 0.0020803049283285744 0.0053445339521716925 0 0.0018671911500856156 0.0053710787502841357 0 0.0019991956324301955 0.0054627560725291589 0 0.0019935552731063315 0.0054671966088621921 0 0.0018953472716575774 0.0053880706631218465 0 0.0020338574704386629 0.0053912833663997675 0 0.0018671911500856156 0.0053710787502841357 0 0.0020803049283285744 0.0053445339521716925 0 0.0019459836915873714 0.0053583537399567805 0 0.0018671911500856156 0.0053710787502841357 0 0.0017015194060252693 0.0053157521271351227 0 0.0019935552731063315 0.0054671966088621921 0 0.0019459836915873714 0.0053583537399567805 0 0.001891920494814011 0.0053698889292386484 0 0.0018779394867056856 0.005393418250419859 0 0.0019459836915873714 0.0053583537399567805 0 0.0018779394867056856 0.005393418250419859 0 0.0018844254859666813 0.0053025958932689217 0 0.0018671911500856156 0.0053710787502841357 0 0.0019459836915873714 0.0053583537399567805 0 0.001891920494814011 0.0053698889292386484 0 0.0020149735483943917 0.0052575141276728935 0 0.0018844254859666813 0.0053025958932689217 0 0.0017453192581567527 0.0052059214581555435 0 0.0018779394867056856 0.005393418250419859 0 0.0018844254859666813 0.0053025958932689217 0 0.0017453192581567527 0.0052059214581555435 0 0.0017524745864320864 0.0052799324041439841 0 0.0017412928619745221 0.0052057724356183105 0 0.0020149735483943917 0.0052575141276728935 0 0.0017453192581567527 0.0052059214581555435 0 0.0017371799617013268 0.00507732628893264 0 0.0020149735483943917 0.0052575141276728935 0 0.0020153453917478156 0.005125004905648098 0 0.0018558533065375809 0.0051508172241748369 0 0.0020035514345733193 0.0052518576441144358 0 0.0017997519866828425 0.0051160793730369433 0 0.0018986551106023098 0.0049999942456418851 0 0.0020153453917478156 0.005125004905648098 0 0.0018558533065375809 0.0051508172241748369 0 0.0018986551106023098 0.0049999942456418851 0 0.0021789028596786008 0.0049999731274691459 0 0.0020153453917478156 0.005125004905648098 0 0.0021789028596786008 0.0049999731274691459 0 0.0020153453917478156 0.005125004905648098 0 0.002116162996965308 0.0051733588348678262 0 0.0020149735483943917 0.0052575141276728935 0 0.0020153453917478156 0.005125004905648098 0 0.002116162996965308 0.0051733588348678262 0 0.0020962916465077936 0.0052587223916901607 0 0.0020149735483943917 0.0052575141276728935 0 0.002116162996965308 0.0051733588348678262 0 0.0025207508077134582 0.0053593900666306675 0 0.0022479265633674524 0.0052030683078072839 0 0.0024590039246064838 0.0049998865794528393 0 0.0020962916465077936 0.0052587223916901607 0 0.002116162996965308 0.0051733588348678262 0 0.0022811601575436495 0.0051850301547687978 0 0.0021789028596786008 0.0049999731274691459 0 0.002116162996965308 0.0051733588348678262 0 0.0022811601575436495 0.0051850301547687978 0 0.0021789028596786008 0.0049999731274691459 0 0.0022811601575436495 0.0051850301547687978 0 0.0024592784721001893 0.0049999979277061462 0 0.0022629457078810885 0.0051959505209504047 0 0.0024592571068080722 0.0050000322718050747 0 0.0014886450187029147 0.0051700879486061913 0 0.0013258403358529574 0.0052110058391080022 0 0.001246609716431828 0.0051334229851466955 0 0.0014886450187029147 0.0051700879486061913 0 0.0013258403358529574 0.0052110058391080022 0 0.0014984508200825723 0.0052917114622871809 0 0.0013258403358529574 0.0052110058391080022 0 0.001246609716431828 0.0051334229851466955 0 0.0011551608883275267 0.005178182300311693 0 0.0013258403358529574 0.0052110058391080022 0 0.0012460542180531078 0.0052795576168331859 0 0.0011551608883275267 0.005178182300311693 0 0.0011098345448080249 0.0049202545384089266 0 0.001415776629517363 0.0050510290738160603 0 0.0013258403358529574 0.0052110058391080022 0 0.0012460542180531078 0.0052795576168331859 0 0.0014984508200825723 0.0052917114622871809 0 0.0010342847681382361 0.0045953996671386811 0 0.0010241121328013287 0.0045969999554359422 0 0.001042897189341237 0.0045912014807532779 0 0.001415776629517363 0.0050510290738160603 0 0.0017819997892644871 0.0052309887475463701 0 0.0016885498149024139 0.0050724916058752642 0 0.0016271294238341808 0.0052083908324658595 0 0.0016982063006496413 0.005243103165401863 0 0.0016885498149024139 0.0050724916058752642 0 0.0018738664586181212 0.0052117715030275229 0 0.0016982063006496413 0.005243103165401863 0 0.0016271294238341808 0.0052083908324658595 0 0.0016982063006496413 0.005243103165401863 0 0.0017453192581567527 0.0052059214581555435 0 0.0016982063006496413 0.005243103165401863 0 0.0016349533327546977 0.0052063545125264378 0 0.0017453192581567527 0.0052059214581555435 0 0.001521755347768481 0.0052695878423273234 0 0.001415776629517363 0.0050510290738160603 0 0.0014886450187029147 0.0051700879486061913 0 0.0015661954402994319 0.0053043453961779067 0 0.0016349533327546977 0.0052063545125264378 0 0.0015661954402994319 0.0053043453961779067 0 0.0016982063006496413 0.005243103165401863 0 0.0016349533327546977 0.0052063545125264378 0 0.0014886450187029147 0.0051700879486061913 0 0.0016349533327546977 0.0052063545125264378 0 0.0016159388498740515 0.0051151590546287436 0 0.0016349533327546977 0.0052063545125264378 0 0.0016159388498740515 0.0051151590546287436 0 0.0017453192581567527 0.0052059214581555435 0 0.0016159388498740515 0.0051151590546287436 0 0.0017453192581567527 0.0052059214581555435 0 0.0017371799617013268 0.00507732628893264 0 0.0017997519866828425 0.0051160793730369433 0 0.0016183410529176637 0.0050000125759723877 0 0.0018986551106023098 0.0049999942456418851 0 0.0018558533065375809 0.0051508172241748369 0 0.0016183283731072543 0.004999998492367437 0 0.0016159388498740515 0.0051151590546287436 0 0.0017371799617013268 0.00507732628893264 0 0.001618092252913656 0.0049999009140918454 0 0.0016159388498740515 0.0051151590546287436 0 0.001618092252913656 0.0049999009140918454 0 0.001419078591300061 0.0050854819898425094 0 0.001618092252913656 0.0049999009140918454 0 0.001419078591300061 0.0050854819898425094 0 0.0013278545276886751 0.0049999344934772358 0 0.0014886450187029147 0.0051700879486061913 0 0.001419078591300061 0.0050854819898425094 0 0.001246609716431828 0.0051334229851466955 0 0.0014886450187029147 0.0051700879486061913 0 0.0016159388498740515 0.0051151590546287436 0 0.001419078591300061 0.0050854819898425094 0 0.001419078591300061 0.0050854819898425094 0 0.001246609716431828 0.0051334229851466955 0 0.0013278545276886751 0.0049999344934772358 0 0.0013278545276886751 0.0049999344934772358 0 0.0010374033684546471 0.0049999759082738392 0 0.0011017807470018314 0.0050953848100500345 0 0.001246609716431828 0.0051334229851466955 0 0.0013278545276886751 0.0049999344934772358 0 0.0011017807470018314 0.0050953848100500345 0 0.0010374033684546471 0.0049999759082738392 0 0.0011017807470018314 0.0050953848100500345 0 0.00094624689695909628 0.0051628271441396117 0 0.0011017807470018314 0.0050953848100500345 0 0.00094624689695909628 0.0051628271441396117 0 0.0010431214832813368 0.0051366981632922437 0 0.001246609716431828 0.0051334229851466955 0 0.0011017807470018314 0.0050953848100500345 0 0.0010431214832813368 0.0051366981632922437 0 0.00074711203511912785 0.0049998934582632538 0 0.00094624689695909628 0.0051628271441396117 0 0.00058371481563597395 0.0052837868281222127 0 0.0010374033684546471 0.0049999759082738392 0 0.00074711203511912785 0.0049998934582632538 0 0.00094624689695909628 0.0051628271441396117 0 0.00093370075580744222 0.0051620435714205418 0 0.00088740132246845299 0.0051358510457545446 0 0.0010259648366156941 0.0050034462751648023 0 0.0011796185562379107 0.0048494744090822267 0 0.0011961811111540215 0.0049988946536795821 0 0.00094624689695909628 0.0051628271441396117 0 0.0010259648366156941 0.0050034462751648023 0 0.0011961811111540215 0.0049988946536795821 0 0.00094624689695909628 0.0051628271441396117 0 0.0010259648366156941 0.0050034462751648023 0 0.0010431214832813368 0.0051366981632922437 0 0.0010259648366156941 0.0050034462751648023 0 0.0010237327131608859 0.0051066321039753898 0 0.0010786511046899376 0.004788942419039482 0 0.0010259648366156941 0.0050034462751648023 0 0.0010786511046899376 0.004788942419039482 0 0.0011796185562379107 0.0048494744090822267 0 0.001246609716431828 0.0051334229851466955 0 0.0011551608883275267 0.005178182300311693 0 0.0010431214832813368 0.0051366981632922437 0 0.0010259648366156941 0.0050034462751648023 0 0.0010431214832813368 0.0051366981632922437 0 0.0010237327131608859 0.0051066321039753898 0 0.0012460542180531078 0.0052795576168331859 0 0.0011551608883275267 0.005178182300311693 0 0.0010237327131608859 0.0051066321039753898 0 0.0011551608883275267 0.005178182300311693 0 0.0010431214832813368 0.0051366981632922437 0 0.0010237327131608859 0.0051066321039753898 0 0.0011098345448080249 0.0049202545384089266 0 0.0010616976191042272 0.0048686213765994895 0 0.0010227867076356343 0.0045841332036681811 0 0.0010241121328013287 0.0045969999554359422 0 0.001044809755062026 0.0046357797589225789 0 0.0010227867076356343 0.0045841332036681811 0 0.001044809755062026 0.0046357797589225789 0 0.0010475070274886921 0.0045744781763610602 0 0.0010475070274886921 0.0045744781763610602 0 0.0010362878558783683 0.0044739433338202043 0 0.0010623376234600286 0.0045065459548850198 0 0.0010227867076356343 0.0045841332036681811 0 0.0010475070274886921 0.0045744781763610602 0 0.0010362878558783683 0.0044739433338202043 0 0.0010475070274886921 0.0045744781763610602 0 0.0010569457876464005 0.0046266723770876589 0 0.0010623376234600286 0.0045065459548850198 0 0.001044809755062026 0.0046357797589225789 0 0.0010475070274886921 0.0045744781763610602 0 0.0010569457876464005 0.0046266723770876589 0 0.0010616976191042272 0.0048686213765994895 0 0.0010951868237950653 0.0047972476772354927 0 0.001044809755062026 0.0046357797589225789 0 0.0010569457876464005 0.0046266723770876589 0 0.0010786511046899376 0.004788942419039482 0 0.0010786511046899376 0.004788942419039482 0 0.0011667167358980907 0.0046748480905645338 0 0.0011796185562379107 0.0048494744090822267 0 0.0011100106414380991 0.0045371002066027883 0 0.0011777459275250728 0.0045531635314302599 0 0.0011667167358980907 0.0046748480905645338 0 0.0010786511046899376 0.004788942419039482 0 0.0011100106414380991 0.0045371002066027883 0 0.0011667167358980907 0.0046748480905645338 0 0.0010569457876464005 0.0046266723770876589 0 0.0010786511046899376 0.004788942419039482 0 0.0011100106414380991 0.0045371002066027883 0 0.0010569457876464005 0.0046266723770876589 0 0.0011100106414380991 0.0045371002066027883 0 0.0010623376234600286 0.0045065459548850198 0 0.0011100106414380991 0.0045371002066027883 0 0.0010884579728912733 0.0044149017033855544 0 0.0010623376234600286 0.0045065459548850198 0 0.0011100106414380991 0.0045371002066027883 0 0.0011302815757104057 0.0044113968821138114 0 0.0010884579728912733 0.0044149017033855544 0 0.0011100106414380991 0.0045371002066027883 0 0.0011718351539569767 0.0044484753631325027 0 0.0011777459275250728 0.0045531635314302599 0 0.0011100106414380991 0.0045371002066027883 0 0.0011718351539569767 0.0044484753631325027 0 0.0011302815757104057 0.0044113968821138114 0 0.0011591737049793588 0.0043259503544633687 0 0.0012069586531990419 0.0043806161805868644 0 0.0011718351539569767 0.0044484753631325027 0 0.0011591737049793588 0.0043259503544633687 0 0.0011718351539569767 0.0044484753631325027 0 0.0011302815757104057 0.0044113968821138114 0 0.0011123767250741171 0.0043207092702288626 0 0.0011302815757104057 0.0044113968821138114 0 0.0010884579728912733 0.0044149017033855544 0 0.0010699690191366988 0.0043377237473469187 0 0.0011123767250741171 0.0043207092702288626 0 0.0010884579728912733 0.0044149017033855544 0 0.0010699690191366988 0.0043377237473469187 0 0.0010884579728912733 0.0044149017033855544 0 0.0010573301060959564 0.0044163846434790138 0 0.0010699690191366988 0.0043377237473469187 0 0.0010383889161826342 0.0043561718417673449 0 0.0010573301060959564 0.0044163846434790138 0 0.0010383889161826342 0.0043561718417673449 0 0.0010362878558783683 0.0044739433338202043 0 0.0010573301060959564 0.0044163846434790138 0 0.0010362878558783683 0.0044739433338202043 0 0.0010573301060959564 0.0044163846434790138 0 0.0010623376234600286 0.0045065459548850198 0 0.0010884579728912733 0.0044149017033855544 0 0.0010573301060959564 0.0044163846434790138 0 0.0010623376234600286 0.0045065459548850198 0 0.0012829404439387748 0.004530177749493821 0 0.0013527236752405075 0.0044995258993013321 0 0.0013523105613919397 0.0046015247135925428 0 0.0013527236752405075 0.0044995258993013321 0 0.0013523105613919397 0.0046015247135925428 0 0.0014300135877049383 0.004557987091752598 0 0.0013527236752405075 0.0044995258993013321 0 0.0014300135877049383 0.004557987091752598 0 0.0014173718341197444 0.0044621320465556081 0 0.0013701082896786603 0.0044179344895622814 0 0.0014173718341197444 0.0044621320465556081 0 0.0014051141052277879 0.0043687310827048124 0 0.0013527236752405075 0.0044995258993013321 0 0.0013701082896786603 0.0044179344895622814 0 0.0014173718341197444 0.0044621320465556081 0 0.0013527236752405075 0.0044995258993013321 0 0.0013701082896786603 0.0044179344895622814 0 0.001315517862959221 0.0044151226104704117 0 0.0012829404439387748 0.004530177749493821 0 0.0013527236752405075 0.0044995258993013321 0 0.001315517862959221 0.0044151226104704117 0 0.0012829404439387748 0.004530177749493821 0 0.001315517862959221 0.0044151226104704117 0 0.0012569817223350641 0.0044112786768704861 0 0.0012829404439387748 0.004530177749493821 0 0.0012569817223350641 0.0044112786768704861 0 0.0012202506911737176 0.0044873975288237051 0 0.0012069586531990419 0.0043806161805868644 0 0.0012569817223350641 0.0044112786768704861 0 0.0012202506911737176 0.0044873975288237051 0 0.0012069586531990419 0.0043806161805868644 0 0.0011718351539569767 0.0044484753631325027 0 0.0012202506911737176 0.0044873975288237051 0 0.0011718351539569767 0.0044484753631325027 0 0.0011777459275250728 0.0045531635314302599 0 0.0012202506911737176 0.0044873975288237051 0 0.0011777459275250728 0.0045531635314302599 0 0.0012202506911737176 0.0044873975288237051 0 0.0012271295887087746 0.0046153828721166535 0 0.0012829404439387748 0.004530177749493821 0 0.0012202506911737176 0.0044873975288237051 0 0.0012271295887087746 0.0046153828721166535 0 0.0012829404439387748 0.004530177749493821 0 0.0012271295887087746 0.0046153828721166535 0 0.0012598987986372223 0.0047183922259747789 0 0.0012271295887087746 0.0046153828721166535 0 0.0012231187652142058 0.0047350635424188662 0 0.0012598987986372223 0.0047183922259747789 0 0.0012271295887087746 0.0046153828721166535 0 0.0011667167358980907 0.0046748480905645338 0 0.0012231187652142058 0.0047350635424188662 0 0.0011777459275250728 0.0045531635314302599 0 0.0012271295887087746 0.0046153828721166535 0 0.0011667167358980907 0.0046748480905645338 0 0.0011667167358980907 0.0046748480905645338 0 0.0012231187652142058 0.0047350635424188662 0 0.0011796185562379107 0.0048494744090822267 0 0.0012231187652142058 0.0047350635424188662 0 0.0012598987986372223 0.0047183922259747789 0 0.0012531877135356936 0.0048466569393476756 0 0.0012598987986372223 0.0047183922259747789 0 0.0013523105613919397 0.0046015247135925428 0 0.0014371370619207281 0.0047123568490728667 0 0.0012598987986372223 0.0047183922259747789 0 0.0012360786454826231 0.0049020038128526067 0 0.0014371370619207281 0.0047123568490728667 0 0.0012598987986372223 0.0047183922259747789 0 0.0012360786454826231 0.0049020038128526067 0 0.0012531877135356936 0.0048466569393476756 0 0.0012829404439387748 0.004530177749493821 0 0.0012598987986372223 0.0047183922259747789 0 0.0013523105613919397 0.0046015247135925428 0 0.001225012958365238 0.0049248296721326199 0 0.0010451561076060313 0.0050148030931953845 0 0.00096440706677656141 0.00490035308611387 0 0.0012360786454826231 0.0049020038128526067 0 0.00067985944991949304 0.0053822388561174687 0 0.00096440706677656141 0.00490035308611387 0 0.0012360786454826231 0.0049020038128526067 0 0.0012771926265638964 0.0048076567682413486 0 0.0012360786454826231 0.0049020038128526067 0 0.0012771926265638964 0.0048076567682413486 0 0.0012531877135356936 0.0048466569393476756 0 0.00027519380300454921 0.0053574258638344075 0 7.5541915247468756e-05 0.0053218823546749274 0 0.00015942085921143035 0.0052450580942563054 0 0.00096440706677656141 0.00490035308611387 0 0.0012771926265638964 0.0048076567682413486 0 0.00081894112351265389 0.0047011608037396558 0 0.00074309257431775426 0.0051087597977473283 0 0.00046975736431809957 0.0048908228717131422 0 0.00027519380300454921 0.0053574258638344075 0 7.5541915247468756e-05 0.0053218823546749274 0 -1.463364463378777e-05 0.0054034982154762823 0 7.5541915247468756e-05 0.0053218823546749274 0 2.5201585160032051e-05 0.0052812402294497981 0 -6.6477170864866412e-05 0.005306767909683964 0 0.0011796185562379107 0.0048494744090822267 0 0.0012531877135356936 0.0048466569393476756 0 0.0011961811111540215 0.0049988946536795821 0 0.0012231187652142058 0.0047350635424188662 0 0.0011796185562379107 0.0048494744090822267 0 0.0012531877135356936 0.0048466569393476756 0 0.0012771926265638964 0.0048076567682413486 0 0.0012531877135356936 0.0048466569393476756 0 0.0011961811111540215 0.0049988946536795821 0 0.00074309257431775426 0.0051087597977473283 0 0.00088740132246845299 0.0051358510457545446 0 0.00058371481563597395 0.0052837868281222127 0 0.00033986686182283643 0.0051680065272320976 0 0.00045648897601967687 0.005000006980357209 0 0.00074711203511912785 0.0049998934582632538 0 0.00058371481563597395 0.0052837868281222127 0 0.00045648897601967687 0.005000006980357209 0 0.00027519380300454921 0.0053574258638344075 0 0.00058371481563597395 0.0052837868281222127 0 0.00033986686182283643 0.0051680065272320976 0 0.00033986686182283643 0.0051680065272320976 0 0.00045648897601967687 0.005000006980357209 0 0.0001660581198900488 0.004999979593641987 0 7.5541915247468756e-05 0.0053218823546749274 0 2.5201585160032051e-05 0.0052812402294497981 0 0.00015942085921143035 0.0052450580942563054 0 3.9227470698053697e-05 0.0051844340361611261 0 2.5201585160032051e-05 0.0052812402294497981 0 0.00015942085921143035 0.0052450580942563054 0 0.00027519380300454921 0.0053574258638344075 0 0.00033986686182283643 0.0051680065272320976 0 0.00015942085921143035 0.0052450580942563054 0 0.00033986686182283643 0.0051680065272320976 0 0.00015942085921143035 0.0052450580942563054 0 0.0001660581198900488 0.004999979593641987 0 3.9227470698053697e-05 0.0051844340361611261 0 0.00015942085921143035 0.0052450580942563054 0 0.0001660581198900488 0.004999979593641987 0 3.9227470698053697e-05 0.0051844340361611261 0 0.0001660581198900488 0.004999979593641987 0 -0.00012438305777594382 0.0050000016962600093 0 3.9227470698053697e-05 0.0051844340361611261 0 -0.00012438305777594382 0.0050000016962600093 0 -8.5667766315211406e-05 0.0051689208359696143 0 -0.00012438305777594382 0.0050000016962600093 0 -8.5667766315211406e-05 0.0051689208359696143 0 -0.00018615554478746543 0.0051443193195353457 0 3.9227470698053697e-05 0.0051844340361611261 0 -8.5667766315211406e-05 0.0051689208359696143 0 -3.9782503924981997e-05 0.0052478237945595644 0 -8.5667766315211406e-05 0.0051689208359696143 0 -0.00012056909976641871 0.0052392484177013659 0 -0.00018615554478746543 0.0051443193195353457 0 -8.5667766315211406e-05 0.0051689208359696143 0 -0.00012056909976641871 0.0052392484177013659 0 -3.9782503924981997e-05 0.0052478237945595644 0 -0.00012056909976641871 0.0052392484177013659 0 -3.9782503924981997e-05 0.0052478237945595644 0 -6.6477170864866412e-05 0.005306767909683964 0 3.9227470698053697e-05 0.0051844340361611261 0 2.5201585160032051e-05 0.0052812402294497981 0 -3.9782503924981997e-05 0.0052478237945595644 0 2.5201585160032051e-05 0.0052812402294497981 0 -3.9782503924981997e-05 0.0052478237945595644 0 -6.6477170864866412e-05 0.005306767909683964 0 -0.00012056909976641871 0.0052392484177013659 0 -0.00025747215856273165 0.0052876925459740638 0 -6.6477170864866412e-05 0.005306767909683964 0 -0.00012056909976641871 0.0052392484177013659 0 -0.00025747215856273165 0.0052876925459740638 0 -0.00018615554478746543 0.0051443193195353457 0 -0.00027824907509074807 0.0053030052456477144 0 -0.00020222086281303228 0.005152498921894272 0 -0.00034850032571190451 0.0051712892720494558 0 -0.00010856642273892075 0.0049964922431460822 0 -0.00021975627740506099 0.0051978494663588856 0 -0.00012441534701532073 0.0049999991367590717 0 -0.00020222086281303228 0.005152498921894272 0 -0.00039563165485606344 0.004999998713505145 0 -0.00012440831802969129 0.0049999984330383355 0 -0.00021975627740506099 0.0051978494663588856 0 -0.00020222086281303228 0.005152498921894272 0 -0.00039563165485606344 0.004999998713505145 0 -0.00034850032571190451 0.0051712892720494558 0 -0.00039563165485606344 0.004999998713505145 0 -0.00049737197722439508 0.0052034044377871503 0 -0.00034850032571190451 0.0051712892720494558 0 -0.00039563165485606344 0.004999998713505145 0 -0.00049737197722439508 0.0052034044377871503 0 -0.00066685376553891646 0.0049999991164564198 0 -0.0004313244762108395 0.0050993463249297015 0 -0.0006097041352119692 0.0050493152460953077 0 -0.00032816828914186187 0.0049669380812918515 0 -0.00037969358987259826 0.0050265102391440081 0 -0.00047129384742895943 0.005041105111372359 0 -0.00010856642273892075 0.0049964922431460822 0 -0.0004313244762108395 0.0050993463249297015 0 -0.00027824907509074807 0.0053030052456477144 0 -0.00049737197722439508 0.0052034044377871503 0 -0.00034850032571190451 0.0051712892720494558 0 -0.00021088356683439367 0.0049769839110484788 0 -0.00032816828914186187 0.0049669380812918515 0 -0.00026023915835024307 0.0049960315103141214 0 -0.00021088356683439367 0.0049769839110484788 0 -0.00026023915835024307 0.0049960315103141214 0 -0.0001490138422554572 0.0050366161323917719 0 -0.00010856642273892075 0.0049964922431460822 0 -0.0001045533104527894 0.0048902613121193199 0 -0.00026023915835024307 0.0049960315103141214 0 -0.00037969358987259826 0.0050265102391440081 0 -0.0001490138422554572 0.0050366161323917719 0 -0.00032816828914186187 0.0049669380812918515 0 -0.00026023915835024307 0.0049960315103141214 0 -0.00037969358987259826 0.0050265102391440081 0 -0.00037969358987259826 0.0050265102391440081 0 -0.0001490138422554572 0.0050366161323917719 0 -0.00033689736597040292 0.0051908694126970986 0 0.00061137222616859405 0.0050263027281923387 0 0.00036469146251134752 0.0047637204818217144 0 0.00021610172999317272 0.0052228650781709005 0 -0.0001490138422554572 0.0050366161323917719 0 0.00036469146251134752 0.0047637204818217144 0 0.00021610172999317272 0.0052228650781709005 0 0.00096440706677656141 0.00490035308611387 0 0.00061137222616859405 0.0050263027281923387 0 0.00067985944991949304 0.0053822388561174687 0 0.00096440706677656141 0.00490035308611387 0 0.0007235971880088731 0.0048205038750867499 0 0.00081894112351265389 0.0047011608037396558 0 0.00096440706677656141 0.00490035308611387 0 0.00061137222616859405 0.0050263027281923387 0 0.0007235971880088731 0.0048205038750867499 0 0.00061137222616859405 0.0050263027281923387 0 0.0007235971880088731 0.0048205038750867499 0 0.00036469146251134752 0.0047637204818217144 0 -0.00025747215856273165 0.0052876925459740638 0 -1.463364463378777e-05 0.0054034982154762823 0 -6.6477170864866412e-05 0.005306767909683964 0 0.0007235971880088731 0.0048205038750867499 0 0.00081894112351265389 0.0047011608037396558 0 0.00036469146251134752 0.0047637204818217144 0 0.00046975736431809957 0.0048908228717131422 0 0.00053595200649859704 0.0047363277567455441 0 -0.00010856642273892075 0.0049964922431460822 0 0.00046975736431809957 0.0048908228717131422 0 7.5541915247468756e-05 0.0053218823546749274 0 -1.463364463378777e-05 0.0054034982154762823 0 -6.6477170864866412e-05 0.005306767909683964 0 0.00015373112340739923 0.0043789725446928083 0 -0.0001490138422554572 0.0050366161323917719 0 0.00036469146251134752 0.0047637204818217144 0 0.00015373112340739923 0.0043789725446928083 0 0.00080809459382593122 0.0046902332408061244 0 0.00036469146251134752 0.0047637204818217144 0 -0.0011041372802128597 0.0051672267317651229 0 -0.0012143064261125546 0.0050000725887539175 0 -0.0013847139135489555 0.005207188442527471 0 -0.0011041372802128597 0.0051672267317651229 0 -0.0012143064261125546 0.0050000725887539175 0 -0.00093771047178296623 0.0049996446028196806 0 -0.0011041372802128597 0.0051672267317651229 0 -0.00093771047178296623 0.0049996446028196806 0 -0.00086036068791426701 0.005113940118013297 0 -0.0011041372802128597 0.0051672267317651229 0 -0.00086036068791426701 0.005113940118013297 0 -0.00098258262179993713 0.0053310947383262957 0 -0.00086036068791426701 0.005113940118013297 0 -0.00058018666925424957 0.0051335198661448551 0 -0.00098258262179993713 0.0053310947383262957 0 -0.00086036068791426701 0.005113940118013297 0 -0.00058018666925424957 0.0051335198661448551 0 -0.00051607873172300923 0.0049831305031410884 0 -0.00055871159751100621 0.0051466506715752321 0 -0.00053972882220990591 0.0051836782722280194 0 -0.0009379704042397196 0.0050000041502913624 0 -0.0006097041352119692 0.0050493152460953077 0 -0.00093771047178296623 0.0049996446028196806 0 -0.00086036068791426701 0.005113940118013297 0 -0.00051607873172300923 0.0049831305031410884 0 -0.00049737197722439508 0.0052034044377871503 0 -0.00066685376553891646 0.0049999991164564198 0 -0.00071787747257864984 0.00510216861574995 0 -0.00093807704567580195 0.0049999997451710037 0 -0.00066685376553891646 0.0049999991164564198 0 -0.00071787747257864984 0.00510216861574995 0 -0.00032816828914186187 0.0049669380812918515 0 -0.00051607873172300923 0.0049831305031410884 0 -0.00047129384742895943 0.005041105111372359 0 -0.00058018666925424957 0.0051335198661448551 0 -0.00047129384742895943 0.005041105111372359 0 -0.00050940070363158965 0.0049690085342724141 0 -0.00058018666925424957 0.0051335198661448551 0 -0.00051607873172300923 0.0049831305031410884 0 -0.00047129384742895943 0.005041105111372359 0 -0.00037969358987259826 0.0050265102391440081 0 -0.00047129384742895943 0.005041105111372359 0 -0.00050940070363158965 0.0049690085342724141 0 -0.00037969358987259826 0.0050265102391440081 0 -0.00050179823650798434 0.0051621463588421576 0 -0.00050940070363158965 0.0049690085342724141 0 -0.00037969358987259826 0.0050265102391440081 0 -0.00050179823650798434 0.0051621463588421576 0 -0.00033689736597040292 0.0051908694126970986 0 -0.00069313052314869063 0.0043682759405037101 0 -0.00019385693103887299 0.0047656504760182706 0 -7.5117595038994416e-05 0.0043807699421843094 0 -0.00058929253895960172 0.0047650228624718741 0 -0.00051261536729315326 0.0049653931579478226 0 -0.00069313052314869063 0.0043682759405037101 0 -0.00050940070363158965 0.0049690085342724141 0 -0.00019385693103887299 0.0047656504760182706 0 -0.00058018666925424957 0.0051335198661448551 0 -0.00050940070363158965 0.0049690085342724141 0 -6.9902265459189023e-05 0.0050689202155344264 0 -0.00050940070363158965 0.0049690085342724141 0 -0.00019385693103887299 0.0047656504760182706 0 -6.9902265459189023e-05 0.0050689202155344264 0 -0.00019385693103887299 0.0047656504760182706 0 -6.9902265459189023e-05 0.0050689202155344264 0 0.00048920242035015973 0.0048047829132075292 0 -0.00019385693103887299 0.0047656504760182706 0 -7.5117595038994416e-05 0.0043807699421843094 0 0.00048920242035015973 0.0048047829132075292 0 -7.5117595038994416e-05 0.0043807699421843094 0 0.00048920242035015973 0.0048047829132075292 0 0.00023171219415114432 0.0041485659842905257 0 0.00048920242035015973 0.0048047829132075292 0 0.00023171219415114432 0.0041485659842905257 0 0.00064241919781273926 0.0040903440564850008 0 -0.0011041372802128597 0.0051672267317651229 0 -0.00098258262179993713 0.0053310947383262957 0 -0.0012246697013070741 0.0054126594267639144 0 -0.00053972882220990591 0.0051836782722280194 0 -0.00027221759478910317 0.0051590357436942661 0 -0.00011350287488474726 0.003167066147900157 0 0.00013184047791768436 0.0032461591323253813 0 0.00029755639666226996 0.00361597561636597 0 0.00023171219415114432 0.0041485659842905257 0 0.00064241919781273926 0.0040903440564850008 0 -7.5117595038994416e-05 0.0043807699421843094 0 0.00023171219415114432 0.0041485659842905257 0 -0.00019159970722715155 0.0038503338889648094 0 0.00029755639666226996 0.00361597561636597 0 0.00023171219415114432 0.0041485659842905257 0 -0.00019159970722715155 0.0038503338889648094 0 -0.00019159970722715155 0.0038503338889648094 0 -0.00086512470247679624 0.0038242107223649415 0 -0.00046193678867704379 0.0034210380749842124 0 -0.00069313052314869063 0.0043682759405037101 0 -7.5117595038994416e-05 0.0043807699421843094 0 -0.00019159970722715155 0.0038503338889648094 0 -0.00058929253895960172 0.0047650228624718741 0 -0.00071151215521383308 0.0047320847372265221 0 -0.00069313052314869063 0.0043682759405037101 0 -0.00019159970722715155 0.0038503338889648094 0 -0.00086512470247679624 0.0038242107223649415 0 -0.00050179823650798434 0.0051621463588421576 0 -0.00044338782354177894 0.0054789277058499928 0 -0.00033689736597040292 0.0051908694126970986 0 -0.00038202072173864227 0.0028785962011909356 0 -0.00046193678867704379 0.0034210380749842124 0 -0.0010687566147909576 0.0032778290019587018 0 -0.00086512470247679624 0.0038242107223649415 0 -0.00046193678867704379 0.0034210380749842124 0 -0.0010687566147909576 0.0032778290019587018 0 -0.00038202072173864227 0.0028785962011909356 0 -3.4695482270036012e-05 0.0025482067018891552 0 -0.00012797370675761711 0.0028048268954860632 0 -0.00054331999441484713 0.0025588745632435794 0 4.409086022287599e-05 0.0040067681292530397 0 -0.00029762299906799261 0.0030944375683378917 0 -0.00038202072173864227 0.0028785962011909356 0 -0.00046193678867704379 0.0034210380749842124 0 -0.00023488308742223652 0.0029613745017960488 0 -0.00033254005402610812 0.0028403949680672544 0 -0.00029762299906799261 0.0030944375683378917 0 -0.00038202072173864227 0.0028785962011909356 0 -0.00034179082822959056 0.002829153565007592 0 -0.00029762299906799261 0.0030944375683378917 0 -4.7616499931546687e-05 0.003129852478068611 0 -0.00034179082822959056 0.002829153565007592 0 -0.00042195093827234945 0.0027910774548734569 0 -0.00034179082822959056 0.002829153565007592 0 -0.00041247907962633812 0.0028623274477391058 0 -0.00019159970722715155 0.0038503338889648094 0 -0.00046193678867704379 0.0034210380749842124 0 -4.7616499931546687e-05 0.003129852478068611 0 -0.00029762299906799261 0.0030944375683378917 0 -0.00046193678867704379 0.0034210380749842124 0 -4.7616499931546687e-05 0.003129852478068611 0 -0.00011350287488474726 0.003167066147900157 0 -0.00023488308742223652 0.0029613745017960488 0 0.00029755639666226996 0.00361597561636597 0 -0.00019159970722715155 0.0038503338889648094 0 -4.7616499931546687e-05 0.003129852478068611 0 -0.00042195093827234945 0.0027910774548734569 0 -0.00048471725645190085 0.0028630590595130224 0 -0.00041247907962633812 0.0028623274477391058 0 -0.00042195093827234945 0.0027910774548734569 0 -0.00051716788149563822 0.0027957066304159098 0 -0.00048471725645190085 0.0028630590595130224 0 -0.00051716788149563822 0.0027957066304159098 0 -0.00048471725645190085 0.0028630590595130224 0 -0.00058917872589944514 0.0028668244003302022 0 -0.0004998782299413066 0.0027029295806709295 0 -0.00051716788149563822 0.0027957066304159098 0 -0.0006025019893717401 0.002751215413869362 0 -0.0004998782299413066 0.0027029295806709295 0 -0.00042195093827234945 0.0027910774548734569 0 -0.00051716788149563822 0.0027957066304159098 0 0.00089444764107824012 0.0052835117350453703 0 0.0010451561076060313 0.0050148030931953845 0 0.0015213282709716858 0.0045884185839783383 0 0.0014371370619207281 0.0047123568490728667 0 0.0014300135877049383 0.004557987091752598 0 0.0013523105613919397 0.0046015247135925428 0 0.0014371370619207281 0.0047123568490728667 0 0.0014300135877049383 0.004557987091752598 0 0.00061137222616859405 0.0050263027281923387 0 0.00067985944991949304 0.0053822388561174687 0 0.00021610172999317272 0.0052228650781709005 0 0.0001072278613197648 0.0056420250065216801 0 0.00067985944991949304 0.0053822388561174687 0 0.00021610172999317272 0.0052228650781709005 0 -0.0001490138422554572 0.0050366161323917719 0 0.00021610172999317272 0.0052228650781709005 0 -0.00017025494160365721 0.0053751911328679559 0 0.0001072278613197648 0.0056420250065216801 0 0.00021610172999317272 0.0052228650781709005 0 -0.00017025494160365721 0.0053751911328679559 0 -0.0001490138422554572 0.0050366161323917719 0 -0.00017025494160365721 0.0053751911328679559 0 -0.00033689736597040292 0.0051908694126970986 0 -0.00044338782354177894 0.0054789277058499928 0 -0.00017025494160365721 0.0053751911328679559 0 -0.00033689736597040292 0.0051908694126970986 0 -0.00044338782354177894 0.0054789277058499928 0 -0.00017025494160365721 0.0053751911328679559 0 -0.00029743187145862832 0.0058400493033213107 0 0.0001072278613197648 0.0056420250065216801 0 -0.00017025494160365721 0.0053751911328679559 0 -0.00029743187145862832 0.0058400493033213107 0 0.00089444764107824012 0.0052835117350453703 0 4.409086022287599e-05 0.0040067681292530397 0 0.0015213282709716858 0.0045884185839783383 0 0.0016087844519825385 0.0045035004946718717 0 0.0014885958325380642 0.004494734775397591 0 -0.00071151215521383308 0.0047320847372265221 0 4.409086022287599e-05 0.0040067681292530397 0 -3.4695482270036012e-05 0.0025482067018891552 0 -0.00012797370675761711 0.0028048268954860632 0 0.00010832764747799721 0.0028026784728246842 0 4.409086022287599e-05 0.0040067681292530397 0 0.00091251330988395454 0.0035139351713006257 0 0.0016087844519825385 0.0045035004946718717 0 0.0015114839306485119 0.0044213881094980921 0 0.0015753845113037578 0.0043533007704694314 0 0.0016087844519825385 0.0045035004946718717 0 0.0015114839306485119 0.0044213881094980921 0 0.0014885958325380642 0.004494734775397591 0 0.0015114839306485119 0.0044213881094980921 0 0.001469041365566977 0.0044098383552032931 0 0.0014885958325380642 0.004494734775397591 0 0.0015213282709716858 0.0045884185839783383 0 0.0014885958325380642 0.004494734775397591 0 0.0014300135877049383 0.004557987091752598 0 0.0014885958325380642 0.004494734775397591 0 0.0014300135877049383 0.004557987091752598 0 0.0014173718341197444 0.0044621320465556081 0 0.001469041365566977 0.0044098383552032931 0 0.0014173718341197444 0.0044621320465556081 0 0.0014051141052277879 0.0043687310827048124 0 0.001469041365566977 0.0044098383552032931 0 0.0014885958325380642 0.004494734775397591 0 0.0014173718341197444 0.0044621320465556081 0 0.001469041365566977 0.0044098383552032931 0 0.0014051141052277879 0.0043687310827048124 0 0.0014513592336761535 0.0043517320987820724 0 0.0014051141052277879 0.0043687310827048124 0 0.0014513592336761535 0.0043517320987820724 0 0.0014201312891163232 0.0042849710226390333 0 0.0015114839306485119 0.0044213881094980921 0 0.001469041365566977 0.0044098383552032931 0 0.0014981834395134967 0.0043214409858197385 0 0.0015114839306485119 0.0044213881094980921 0 0.0012337135161740044 0.0041479088762809199 0 0.0014284309012619974 0.0042453492017445896 0 0.001469041365566977 0.0044098383552032931 0 0.0014513592336761535 0.0043517320987820724 0 0.0014981834395134967 0.0043214409858197385 0 0.0014966680647455443 0.0044069080725346139 0 0.0013707642099456577 0.0042317042028012977 0 0.0012337135161740044 0.0041479088762809199 0 0.0011388012578761192 0.0039286073750172514 0 0.0012406726765214191 0.0040024936089385179 0 0.0012337135161740044 0.0041479088762809199 0 0.0014015485728746462 0.0040600748232128515 0 0.0014284309012619974 0.0042453492017445896 0 0.0012337135161740044 0.0041479088762809199 0 0.0012406726765214191 0.0040024936089385179 0 0.0014015485728746462 0.0040600748232128515 0 0.0013707642099456577 0.0042317042028012977 0 0.0012906757287253193 0.004057764209429925 0 0.0014513592336761535 0.0043517320987820724 0 0.0014981834395134967 0.0043214409858197385 0 0.0014201312891163232 0.0042849710226390333 0 0.0014981834395134967 0.0043214409858197385 0 0.0014201312891163232 0.0042849710226390333 0 0.0014396094643055225 0.0041736388692889953 0 0.00095512894194250671 0.0036775967265460013 0 0.000880529011914258 0.0035624601439191118 0 0.0011388012578761192 0.0039286073750172514 0 0.0012406726765214191 0.0040024936089385179 0 0.0012093083164818256 0.0039165756861855557 0 0.0012406726765214191 0.0040024936089385179 0 0.0012093083164818256 0.0039165756861855557 0 0.0014015485728746462 0.0040600748232128515 0 0.00069500573927020056 0.0033950136619130696 0 0.0010332118111187028 0.0039550744727425164 0 0.00056451230503866791 0.0038745281537161925 0 0.0012093083164818256 0.0039165756861855557 0 0.0011162747580187793 0.0039381019303937979 0 0.0011395774328316283 0.0039303879518929261 0 0.0012093083164818256 0.0039165756861855557 0 0.0011162747580187793 0.0039381019303937979 0 0.0010332118111187028 0.0039550744727425164 0 0.00095512894194250671 0.0036775967265460013 0 0.0010393634731093761 0.0039440942445778202 0 0.0011162747580187793 0.0039381019303937979 0 0.0011395774328316283 0.0039303879518929261 0 0.001177458480735305 0.0039825136173083182 0 0.0012765126237435503 0.0040046932365174082 0 0.0011395774328316283 0.0039303879518929261 0 0.001177458480735305 0.0039825136173083182 0 0.0012765126237435503 0.0040046932365174082 0 0.0011388012578761192 0.0039286073750172514 0 0.0011395774328316283 0.0039303879518929261 0 0.0011388012578761192 0.0039286073750172514 0 0.0012093083164818256 0.0039165756861855557 0 0.0011395774328316283 0.0039303879518929261 0 0.0001878198363550725 0.0036912979884230167 0 0.00027268850502854718 0.0032903861426190066 0 -7.9262361970205682e-05 0.0033379531335026328 0 0.0001878198363550725 0.0036912979884230167 0 -7.9262361970205682e-05 0.0033379531335026328 0 -8.8287431398833326e-05 0.0036666659727077546 0 0.00069500573927020056 0.0033950136619130696 0 0.00042500087402951725 0.0035614507320978301 0 0.00056451230503866791 0.0038745281537161925 0 0.0001878198363550725 0.0036912979884230167 0 0.00042500087402951725 0.0035614507320978301 0 0.00027268850502854718 0.0032903861426190066 0 0.0001878198363550725 0.0036912979884230167 0 0.00042500087402951725 0.0035614507320978301 0 0.00056451230503866791 0.0038745281537161925 0 0.00069500573927020056 0.0033950136619130696 0 0.00042500087402951725 0.0035614507320978301 0 0.00027268850502854718 0.0032903861426190066 0 0.00027268850502854718 0.0032903861426190066 0 0.00036300794523551723 0.0030118515461761185 0 0.00016986985617293147 0.0030499495183512258 0 0.00069500573927020056 0.0033950136619130696 0 0.00027268850502854718 0.0032903861426190066 0 0.00036300794523551723 0.0030118515461761185 0 0.00027268850502854718 0.0032903861426190066 0 6.925173171276372e-06 0.0030821662445870549 0 0.00016986985617293147 0.0030499495183512258 0 0.00027268850502854718 0.0032903861426190066 0 6.925173171276372e-06 0.0030821662445870549 0 -7.9262361970205682e-05 0.0033379531335026328 0 6.925173171276372e-06 0.0030821662445870549 0 -0.00020019033147212722 0.0030515866195902313 0 -7.9262361970205682e-05 0.0033379531335026328 0 6.925173171276372e-06 0.0030821662445870549 0 5.865365203445364e-05 0.002930698646789744 0 0.00016986985617293147 0.0030499495183512258 0 6.925173171276372e-06 0.0030821662445870549 0 5.865365203445364e-05 0.002930698646789744 0 -0.00015710151564474396 0.0029573063343651547 0 5.865365203445364e-05 0.002930698646789744 0 0.00036300794523551723 0.0030118515461761185 0 0.00016986985617293147 0.0030499495183512258 0 5.865365203445364e-05 0.002930698646789744 0 0.00036300794523551723 0.0030118515461761185 0 0.00010832764747799721 0.0028026784728246842 0 0.0014015485728746462 0.0040600748232128515 0 0.0014284309012619974 0.0042453492017445896 0 0.0015753845113037578 0.0043533007704694314 0 0.000880529011914258 0.0035624601439191118 0 0.00091251330988395454 0.0035139351713006257 0 0.0015114839306485119 0.0044213881094980921 0 0.0014284309012619974 0.0042453492017445896 0 0.0015753845113037578 0.0043533007704694314 0 -0.00012797370675761711 0.0028048268954860632 0 0.00010832764747799721 0.0028026784728246842 0 -1.1888378631606117e-05 0.0028489190188021709 0 5.865365203445364e-05 0.002930698646789744 0 -0.00013829003815868265 0.0028718119136229522 0 -0.00015710151564474396 0.0029573063343651547 0 5.865365203445364e-05 0.002930698646789744 0 -1.1888378631606117e-05 0.0028489190188021709 0 -0.00013829003815868265 0.0028718119136229522 0 5.865365203445364e-05 0.002930698646789744 0 0.00010832764747799721 0.0028026784728246842 0 -1.1888378631606117e-05 0.0028489190188021709 0 -0.00012797370675761711 0.0028048268954860632 0 -1.1888378631606117e-05 0.0028489190188021709 0 -0.00013829003815868265 0.0028718119136229522 0 -0.00012797370675761711 0.0028048268954860632 0 -0.00013829003815868265 0.0028718119136229522 0 -0.00027891395536261128 0.0028575696137890108 0 -0.00038202072173864227 0.0028785962011909356 0 -0.00012797370675761711 0.0028048268954860632 0 -0.00027891395536261128 0.0028575696137890108 0 -0.00013829003815868265 0.0028718119136229522 0 -0.00028294335186172315 0.0028986496235123261 0 -0.00015710151564474396 0.0029573063343651547 0 -0.00013829003815868265 0.0028718119136229522 0 -0.00028294335186172315 0.0028986496235123261 0 -0.00027891395536261128 0.0028575696137890108 0 -0.00028294335186172315 0.0028986496235123261 0 -0.00027891395536261128 0.0028575696137890108 0 -0.00034179082822959056 0.002829153565007592 0 -0.00038202072173864227 0.0028785962011909356 0 -0.00027891395536261128 0.0028575696137890108 0 -0.00034179082822959056 0.002829153565007592 0 -0.00034179082822959056 0.002829153565007592 0 -0.00037194956005268261 0.0029397483755088695 0 -0.00041247907962633812 0.0028623274477391058 0 -0.00028294335186172315 0.0028986496235123261 0 -0.00034179082822959056 0.002829153565007592 0 -0.00037194956005268261 0.0029397483755088695 0 -0.00037194956005268261 0.0029397483755088695 0 -0.00029226725858376727 0.0029695475197085586 0 -0.00039001944033761871 0.003067945708643648 0 -0.00037194956005268261 0.0029397483755088695 0 -0.00036599650207140214 0.0029671477242320297 0 -0.00039001944033761871 0.003067945708643648 0 -0.00028294335186172315 0.0028986496235123261 0 -0.00037194956005268261 0.0029397483755088695 0 -0.00029226725858376727 0.0029695475197085586 0 -0.00020019033147212722 0.0030515866195902313 0 -0.00029226725858376727 0.0029695475197085586 0 -0.00039001944033761871 0.003067945708643648 0 6.925173171276372e-06 0.0030821662445870549 0 -0.00020019033147212722 0.0030515866195902313 0 -0.00015710151564474396 0.0029573063343651547 0 -0.00020019033147212722 0.0030515866195902313 0 -0.00015710151564474396 0.0029573063343651547 0 -0.00029226725858376727 0.0029695475197085586 0 -0.00028294335186172315 0.0028986496235123261 0 -0.00015710151564474396 0.0029573063343651547 0 -0.00029226725858376727 0.0029695475197085586 0 -0.00048471725645190085 0.0028630590595130224 0 -0.00043156962342525123 0.0029236226606072294 0 -0.00053368073595848212 0.0029897403161684441 0 -0.00048471725645190085 0.0028630590595130224 0 -0.00053368073595848212 0.0029897403161684441 0 -0.00058917872589944514 0.0028668244003302022 0 -0.00037194956005268261 0.0029397483755088695 0 -0.00041247907962633812 0.0028623274477391058 0 -0.00043156962342525123 0.0029236226606072294 0 -0.00048471725645190085 0.0028630590595130224 0 -0.00041247907962633812 0.0028623274477391058 0 -0.00043156962342525123 0.0029236226606072294 0 -0.00037194956005268261 0.0029397483755088695 0 -0.00043156962342525123 0.0029236226606072294 0 -0.00036599650207140214 0.0029671477242320297 0 -0.00043156962342525123 0.0029236226606072294 0 -0.00053368073595848212 0.0029897403161684441 0 -0.00036599650207140214 0.0029671477242320297 0 -0.00043957758509972195 0.0028747420464015142 0 -0.00038130714716785359 0.00294799908989398 0 -0.00033044478508071896 0.0027514049376384324 0 -0.00036599650207140214 0.0029671477242320297 0 -0.00027664474853863661 0.0028578970350153447 0 -0.00033044478508071896 0.0027514049376384324 0 -0.00027664474853863661 0.0028578970350153447 0 -0.00040642279799645562 0.0027435551284344015 0 -0.00036599650207140214 0.0029671477242320297 0 -0.00027664474853863661 0.0028578970350153447 0 -0.00037818183745844591 0.0028910133814496418 0 -0.00027664474853863661 0.0028578970350153447 0 -0.00037818183745844591 0.0028910133814496418 0 -0.00034607436927915183 0.0027297438510024692 0 -0.00027664474853863661 0.0028578970350153447 0 -0.00016362255156542781 0.0027105013682532861 0 -0.00034607436927915183 0.0027297438510024692 0 -0.00027664474853863661 0.0028578970350153447 0 -0.00016362255156542781 0.0027105013682532861 0 6.7432844926228471e-05 0.0027211490331436705 0 -0.00020019033147212722 0.0030515866195902313 0 -7.9262361970205682e-05 0.0033379531335026328 0 -0.00039001944033761871 0.003067945708643648 0 -0.00036599650207140214 0.0029671477242320297 0 -0.00039001944033761871 0.003067945708643648 0 -0.00037818183745844591 0.0028910133814496418 0 -0.00039001944033761871 0.003067945708643648 0 -0.00051549281556934805 0.0027973890576680743 0 -0.00037818183745844591 0.0028910133814496418 0 -0.0004084114463549895 0.0030703063338317089 0 -0.00045217249088335087 0.0032130960629290668 0 -0.00051549281556934805 0.0027973890576680743 0 -0.00037818183745844591 0.0028910133814496418 0 -0.00034607436927915183 0.0027297438510024692 0 -7.9262361970205682e-05 0.0033379531335026328 0 -0.00039001944033761871 0.003067945708643648 0 -0.00041695295565211137 0.0036369435963681924 0 -7.9262361970205682e-05 0.0033379531335026328 0 -0.00041695295565211137 0.0036369435963681924 0 -8.8287431398833326e-05 0.0036666659727077546 0 -0.00041695295565211137 0.0036369435963681924 0 -8.8287431398833326e-05 0.0036666659727077546 0 -5.0160794025950812e-05 0.0039945121597525675 0 -0.00041695295565211137 0.0036369435963681924 0 -5.0160794025950812e-05 0.0039945121597525675 0 -0.00040396060227643996 0.0041309670902471346 0 -0.00045217249088335087 0.0032130960629290668 0 -0.00053101635339143996 0.0033193677422986411 0 -0.00051549281556934805 0.0027973890576680743 0 -0.00054378949083201688 0.0025473595491539145 0 -0.00034607436927915183 0.0027297438510024692 0 -0.00054378949083201688 0.0025473595491539145 0 -0.00034607436927915183 0.0027297438510024692 0 -0.000343793179058172 0.002538301586205233 0 -0.00054378949083201688 0.0025473595491539145 0 -0.000343793179058172 0.002538301586205233 0 -0.00046242477133010565 0.0024174398180336074 0 -0.00040396060227643996 0.0041309670902471346 0 -0.00013538049505638444 0.0042588520831005816 0 -0.00041130549601441481 0.0046238880780024565 0 -5.0160794025950812e-05 0.0039945121597525675 0 -0.00040396060227643996 0.0041309670902471346 0 -0.00013538049505638444 0.0042588520831005816 0 -5.0160794025950812e-05 0.0039945121597525675 0 -0.00013538049505638444 0.0042588520831005816 0 6.5750977208781097e-05 0.0041610873171232833 0 -0.00016362255156542781 0.0027105013682532861 0 -0.00018098950185829317 0.0026055266969348943 0 -0.00034607436927915183 0.0027297438510024692 0 -0.00016362255156542781 0.0027105013682532861 0 -0.00018098950185829317 0.0026055266969348943 0 -3.432850270492661e-05 0.0026459234185245936 0 -0.00018098950185829317 0.0026055266969348943 0 -0.00034607436927915183 0.0027297438510024692 0 -0.000343793179058172 0.002538301586205233 0 -0.000343793179058172 0.002538301586205233 0 -0.0003531708461399593 0.0024030403305406369 0 -0.00046242477133010565 0.0024174398180336074 0 -0.000343793179058172 0.002538301586205233 0 -0.00019722449174875179 0.0024478124185573899 0 -0.0003531708461399593 0.0024030403305406369 0 -0.00019722449174875179 0.0024478124185573899 0 -4.4941937552890089e-05 0.0023862121030819184 0 -3.3951276416835656e-05 0.0025304944433022841 0 -0.00018098950185829317 0.0026055266969348943 0 -0.00019722449174875179 0.0024478124185573899 0 -3.3951276416835656e-05 0.0025304944433022841 0 -0.00018098950185829317 0.0026055266969348943 0 -0.000343793179058172 0.002538301586205233 0 -0.00019722449174875179 0.0024478124185573899 0 -0.00015640252428354346 0.0023209432012839715 0 -0.0001484864942644753 0.0022119011953975645 0 -5.5453468380954267e-05 0.0022551125998436518 0 -0.00015640252428354346 0.0023209432012839715 0 -4.4941937552890089e-05 0.0023862121030819184 0 -5.5453468380954267e-05 0.0022551125998436518 0 -0.00019722449174875179 0.0024478124185573899 0 -0.00015640252428354346 0.0023209432012839715 0 -4.4941937552890089e-05 0.0023862121030819184 0 -0.00019722449174875179 0.0024478124185573899 0 -0.00015640252428354346 0.0023209432012839715 0 -0.00026855863563102043 0.0022909293300031595 0 -0.00015640252428354346 0.0023209432012839715 0 -0.00026855863563102043 0.0022909293300031595 0 -0.0001484864942644753 0.0022119011953975645 0 -0.00019722449174875179 0.0024478124185573899 0 -0.00026855863563102043 0.0022909293300031595 0 -0.0003531708461399593 0.0024030403305406369 0 -0.00026855863563102043 0.0022909293300031595 0 -0.0003531708461399593 0.0024030403305406369 0 -0.0004094439647688018 0.0023087222923467944 0 -0.00026855863563102043 0.0022909293300031595 0 -0.00035765095805735377 0.002159369540965315 0 -0.0004094439647688018 0.0023087222923467944 0 0.00098762816907660878 0.0028236754062777457 0 0.0013014907338618484 0.002771021370014119 0 0.0011551186072238317 0.002887386453860853 0 0.0010787904980172646 0.002718976165991171 0 0.0010511104118313453 0.0031476042117660947 0 0.001050150183759691 0.0027849667956717015 0 0.00098762816907660878 0.0028236754062777457 0 0.00092699593384015246 0.0028315277939119261 0 0.00038850413027060254 0.0023934583607631535 0 0.00054976237535611823 0.0022872874283825901 0 -0.00035765095805735377 0.002159369540965315 0 -0.00022287171958743787 0.0021524803299009252 0 -0.00015357999419953624 0.0020090136590656671 0 0.001050150183759691 0.0027849667956717015 0 0.00098762816907660878 0.0028236754062777457 0 0.0011360108514639872 0.0028098248961147521 0 -0.00026855863563102043 0.0022909293300031595 0 -0.00035765095805735377 0.002159369540965315 0 -0.00022287171958743787 0.0021524803299009252 0 -0.00026855863563102043 0.0022909293300031595 0 -0.00022287171958743787 0.0021524803299009252 0 -0.0001484864942644753 0.0022119011953975645 0 -0.00022287171958743787 0.0021524803299009252 0 -0.00013689228418851024 0.0021126727377520664 0 -0.0001484864942644753 0.0022119011953975645 0 -0.00022287171958743787 0.0021524803299009252 0 -0.00013689228418851024 0.0021126727377520664 0 -0.00015357999419953624 0.0020090136590656671 0 -5.9574256762363591e-05 0.0020724079824270001 0 6.1866727293207179e-05 0.0020175154917694018 0 -0.00015357999419953624 0.0020090136590656671 0 -0.00013689228418851024 0.0021126727377520664 0 -5.9574256762363591e-05 0.0020724079824270001 0 -0.00015357999419953624 0.0020090136590656671 0 0.00023250544575672066 0.0019538704578326519 0 0.00054976237535611823 0.0022872874283825901 0 -0.00013689228418851024 0.0021126727377520664 0 -5.9574256762363591e-05 0.0020724079824270001 0 -7.0149154851912497e-05 0.0021413763206666338 0 -7.0149154851912497e-05 0.0021413763206666338 0 -0.0001484864942644753 0.0022119011953975645 0 -5.5453468380954267e-05 0.0022551125998436518 0 -0.00013689228418851024 0.0021126727377520664 0 -7.0149154851912497e-05 0.0021413763206666338 0 -0.0001484864942644753 0.0022119011953975645 0 0.0003377016122336179 0.0042378542618528572 0 0.00044140633633629343 0.0042202686723190703 0 -0.00013538049505638444 0.0042588520831005816 0 -0.00041130549601441481 0.0046238880780024565 0 0.00016443089364515795 0.0043314911186811801 0 0.00033296013900283847 0.0042362104700930494 0 0.00051994158912395839 0.0042379058663772123 0 0.00067491803477045262 0.0040815896351689461 0 0.00017222334618268131 0.0035532430442044884 0 1.6809563445363176e-05 0.0046242729478840911 0 0.00033296013900283847 0.0042362104700930494 0 0.00034769323181620891 0.0042381343689741431 0 0.00016443089364515795 0.0043314911186811801 0 -0.00053101635339143996 0.0033193677422986411 0 0.00017222334618268131 0.0035532430442044884 0 -0.00035765095805735377 0.002159369540965315 0 -0.0004094439647688018 0.0023087222923467944 0 -0.0005508009174283625 0.0022898171060211311 0 -0.00054378949083201688 0.0025473595491539145 0 -0.00046242477133010565 0.0024174398180336074 0 -0.0005508009174283625 0.0022898171060211311 0 -0.0003531708461399593 0.0024030403305406369 0 -0.00046242477133010565 0.0024174398180336074 0 -0.0004094439647688018 0.0023087222923467944 0 -0.00046242477133010565 0.0024174398180336074 0 -0.0004094439647688018 0.0023087222923467944 0 -0.0005508009174283625 0.0022898171060211311 0 0.001050150183759691 0.0027849667956717015 0 0.0011299062209257915 0.002753310762282819 0 0.0011360108514639872 0.0028098248961147521 0 0.00033296013900283847 0.0042362104700930494 0 0.00034769323181620891 0.0042381343689741431 0 0.0002770980824475388 0.0043558310737095212 0 0.00017222334618268131 0.0035532430442044884 0 0.0010511104118313453 0.0031476042117660947 0 0.00038850413027060254 0.0023934583607631535 0 0.00017222334618268131 0.0035532430442044884 0 0.0010511104118313453 0.0031476042117660947 0 0.0011837790981995772 0.0028372904210287883 0 0.00051994158912395839 0.0042379058663772123 0 0.0002770980824475388 0.0043558310737095212 0 0.0006613973328231784 0.0043293736231925367 0 0.00033296013900283847 0.0042362104700930494 0 0.00051994158912395839 0.0042379058663772123 0 0.0002770980824475388 0.0043558310737095212 0 0.0013244362306976971 0.0027936319097547823 0 0.0015315729792688582 0.002819283028137237 0 0.001421615278061232 0.0028442099232340056 0 0.0010511104118313453 0.0031476042117660947 0 0.0010284908475485474 0.0036336422562150165 0 0.0013244362306976971 0.0027936319097547823 0 0.001421615278061232 0.0028442099232340056 0 0.0013048642781955707 0.0028657163990367914 0 0.0015315729792688582 0.002819283028137237 0 0.0015059470615018306 0.0028542178305058139 0 0.001421615278061232 0.0028442099232340056 0 0.0015315729792688582 0.002819283028137237 0 0.0015059470615018306 0.0028542178305058139 0 0.0015536628141776332 0.0028521944231333848 0 0.00051994158912395839 0.0042379058663772123 0 0.0006613973328231784 0.0043293736231925367 0 0.00068331387739406014 0.0041989060748824324 0 0.00051994158912395839 0.0042379058663772123 0 0.00068331387739406014 0.0041989060748824324 0 0.00067491803477045262 0.0040815896351689461 0 0.00033296013900283847 0.0042362104700930494 0 0.0001819351743658844 0.004356808837842222 0 0.00016443089364515795 0.0043314911186811801 0 0.00068331387739406014 0.0041989060748824324 0 0.00067491803477045262 0.0040815896351689461 0 0.00086355247843821468 0.0041475232342691138 0 0.0006613973328231784 0.0043293736231925367 0 0.00068331387739406014 0.0041989060748824324 0 0.00086355247843821468 0.0041475232342691138 0 0.00067491803477045262 0.0040815896351689461 0 0.00086355247843821468 0.0041475232342691138 0 0.00096133149872581179 0.0039996471086333222 0 0.0010284908475485474 0.0036336422562150165 0 0.0012795425536640164 0.0035687059539674724 0 0.0006613973328231784 0.0043293736231925367 0 0.00086355247843821468 0.0041475232342691138 0 0.0010063889051533455 0.0042404116266254377 0 0.0015315729792688582 0.002819283028137237 0 0.0015409453680802717 0.0029159550299240593 0 0.0015536628141776332 0.0028521944231333848 0 0.0014684605804746495 0.0030036273992062024 0 0.0015409453680802717 0.0029159550299240593 0 0.0014868678581025326 0.0028847241935544689 0 0.0013334758971446938 0.0035745577170554345 0 0.0012795425536640164 0.0035687059539674724 0 0.0012219020244081016 0.0041385300243099834 0 0.0011171468654219503 0.0040804716438117596 0 0.0012060912088018277 0.0040370906022045893 0 0.0012219020244081016 0.0041385300243099834 0 0.0010063889051533455 0.0042404116266254377 0 0.0011171468654219503 0.0040804716438117596 0 0.00086355247843821468 0.0041475232342691138 0 0.0010063889051533455 0.0042404116266254377 0 0.0011171468654219503 0.0040804716438117596 0 0.00086355247843821468 0.0041475232342691138 0 0.0011171468654219503 0.0040804716438117596 0 0.00096133149872581179 0.0039996471086333222 0 0.00080372280033823643 0.0041384632282960698 0 0.0011618759648081743 0.004033489898543764 0 0.0011171468654219503 0.0040804716438117596 0 0.00096133149872581179 0.0039996471086333222 0 0.0011711523680912712 0.0039770721387179138 0 0.00064642502307444703 0.0042875274042544174 0 0.0011716382367435256 0.0040779527912283165 0 0.00084047571028993562 0.004061165533278093 0 0.0011171468654219503 0.0040804716438117596 0 0.0012060912088018277 0.0040370906022045893 0 0.0011711523680912712 0.0039770721387179138 0 0.0012446100619328191 0.0040229871951187011 0 0.0012060912088018277 0.0040370906022045893 0 0.0011711523680912712 0.0039770721387179138 0 0.0012765126237435503 0.0040046932365174082 0 0.0011716382367435256 0.0040779527912283165 0 0.001177458480735305 0.0039825136173083182 0 0.0011716382367435256 0.0040779527912283165 0 0.00084047571028993562 0.004061165533278093 0 0.0010332118111187028 0.0039550744727425164 0 0.0011716382367435256 0.0040779527912283165 0 0.001177458480735305 0.0039825136173083182 0 0.0010332118111187028 0.0039550744727425164 0 0.0011162747580187793 0.0039381019303937979 0 0.001177458480735305 0.0039825136173083182 0 0.0010332118111187028 0.0039550744727425164 0 0.00064642502307444703 0.0042875274042544174 0 0.00084047571028993562 0.004061165533278093 0 0.00056451230503866791 0.0038745281537161925 0 0.00084047571028993562 0.004061165533278093 0 0.0010332118111187028 0.0039550744727425164 0 0.00056451230503866791 0.0038745281537161925 0 0.0001878198363550725 0.0036912979884230167 0 0.00056451230503866791 0.0038745281537161925 0 0.00027312582397493558 0.0040643415205802291 0 0.0001878198363550725 0.0036912979884230167 0 -5.0160794025950812e-05 0.0039945121597525675 0 0.00027312582397493558 0.0040643415205802291 0 0.0001878198363550725 0.0036912979884230167 0 -8.8287431398833326e-05 0.0036666659727077546 0 -5.0160794025950812e-05 0.0039945121597525675 0 0.00027312582397493558 0.0040643415205802291 0 6.5750977208781097e-05 0.0041610873171232833 0 0.00016443089364515795 0.0043314911186811801 0 -5.0160794025950812e-05 0.0039945121597525675 0 0.00027312582397493558 0.0040643415205802291 0 6.5750977208781097e-05 0.0041610873171232833 0 -0.00013538049505638444 0.0042588520831005816 0 6.5750977208781097e-05 0.0041610873171232833 0 0.00016443089364515795 0.0043314911186811801 0 0.00064642502307444703 0.0042875274042544174 0 0.00056451230503866791 0.0038745281537161925 0 0.00027312582397493558 0.0040643415205802291 0 0.00044140633633629343 0.0042202686723190703 0 0.00080372280033823643 0.0041384632282960698 0 0.00064642502307444703 0.0042875274042544174 0 0.00027312582397493558 0.0040643415205802291 0 0.00016443089364515795 0.0043314911186811801 0 0.0001819351743658844 0.004356808837842222 0 0.00064642502307444703 0.0042875274042544174 0 0.00016443089364515795 0.0043314911186811801 0 -0.00081246962564897177 0.0013074883652117928 0 -0.00090515276284191615 0.0013208837246892365 0 -0.00070999057424394447 0.0016416041701839464 0 -0.00098018350981092495 0.0022744278730209874 0 -0.00065077289259448301 0.0022260147411183179 0 -0.00099366207959661313 0.0020505614323401609 0 -0.00098018350981092495 0.0022744278730209874 0 -0.00099366207959661313 0.0020505614323401609 0 -0.0010248079220414503 0.002120865846322777 0 -0.00091962556571909991 0.0016969654081735327 0 -0.0011555480137276663 0.0020846189248706808 0 -0.001670280255707181 0.0023203194484699959 0 -0.0016295534261010812 0.0022169598960523817 0 -0.0017742890980684573 0.0021885575806934706 0 -0.0011356886100831974 0.0018078392594159914 0 -0.001040975017834725 0.001793581854460675 0 -0.00110123193810483 0.0019302993790201032 0 -0.0011934185795805829 0.001841405232424859 0 -0.0011555480137276663 0.0020846189248706808 0 -0.00091962556571909991 0.0016969654081735327 0 -0.0011934185795805829 0.001841405232424859 0 -0.00075050667277455792 0.0013600181890902915 0 -0.00059290176976344012 0.0014695045436327707 0 -0.00051491871933339553 0.0013231814855554174 0 -0.00059290176976344012 0.0014695045436327707 0 -0.00051491871933339553 0.0013231814855554174 0 -0.00046446368756478519 0.0015427923717893025 0 -0.00091962556571909991 0.0016969654081735327 0 -0.00038653685238183258 0.0022805924919829497 0 -0.00078314565584740716 0.0030017890403422807 0 -0.0010880085920822573 0.0026761519653535309 0 -0.0014734324412760164 0.0026753354397034516 0 -0.00078314565584740716 0.0030017890403422807 0 -0.0010880085920822573 0.0026761519653535309 0 -0.00081498837992539268 0.0027824886364792387 0 -0.0010880085920822573 0.0026761519653535309 0 -0.00081498837992539268 0.0027824886364792387 0 -0.00089943036285778473 0.0026280926339648978 0 -0.00089943036285778473 0.0026280926339648978 0 -0.0006741636396945523 0.0026458629419627167 0 -0.0010274999891751731 0.0024121047942520617 0 -0.00081498837992539268 0.0027824886364792387 0 -0.00089943036285778473 0.0026280926339648978 0 -0.0006741636396945523 0.0026458629419627167 0 -0.0010880085920822573 0.0026761519653535309 0 -0.0013100612240693505 0.0023740906392629595 0 -0.0010274999891751731 0.0024121047942520617 0 -0.0010880085920822573 0.0026761519653535309 0 -0.00089943036285778473 0.0026280926339648978 0 -0.0010274999891751731 0.0024121047942520617 0 -0.00065077289259448301 0.0022260147411183179 0 -0.00099366207959661313 0.0020505614323401609 0 -0.0010720266502717861 0.0019607906369808275 0 -0.0016595393837699434 0.0021325558074461819 0 -0.0017742890980684573 0.0021885575806934706 0 -0.001658671679966956 0.0019540127394529908 0 -0.00038653685238183258 0.0022805924919829497 0 -0.0013194478814084242 0.0022650594678464172 0 -0.0010880085920822573 0.0026761519653535309 0 -0.0014734324412760164 0.0026753354397034516 0 -0.0013100612240693505 0.0023740906392629595 0 -0.0011285667627027466 0.0020653519010069613 0 -0.0011555480137276663 0.0020846189248706808 0 -0.0016295534261010812 0.0022169598960523817 0 -0.0016595393837699434 0.0021325558074461819 0 -0.0017742890980684573 0.0021885575806934706 0 -0.0011555480137276663 0.0020846189248706808 0 -0.0013194478814084242 0.0022650594678464172 0 -0.00099366207959661313 0.0020505614323401609 0 -0.0010256348682329951 0.0021218342174548653 0 -0.0010720266502717861 0.0019607906369808275 0 -0.0018893937385309697 0.0021202643516223772 0 -0.0017742890980684573 0.0021885575806934706 0 -0.001658671679966956 0.0019540127394529908 0 -0.0018893937385309697 0.0021202643516223772 0 -0.002141457468152792 0.0020336926939252147 0 -0.001936262166035793 0.0019362077263243484 0 -0.0018893937385309697 0.0021202643516223772 0 -0.002141457468152792 0.0020336926939252147 0 -0.0020312029827202001 0.0023597176725247931 0 -0.0011934185795805829 0.001841405232424859 0 -0.0017425184954714243 0.0021432530103900746 0 -0.0018893937385309697 0.0021202643516223772 0 -0.0017742890980684573 0.0021885575806934706 0 -0.0020312029827202001 0.0023597176725247931 0 -0.001670280255707181 0.0023203194484699959 0 -0.0017742890980684573 0.0021885575806934706 0 -0.0020312029827202001 0.0023597176725247931 0 -0.0011934185795805829 0.001841405232424859 0 -0.0010966639532962172 0.0018197868949085712 0 -0.0010832036848578261 0.0018314688536595371 0 -0.0013677194135605362 0.0018715774006685655 0 -0.0011931221357231738 0.0020819913102010416 0 -0.0013677194135605362 0.0018715774006685655 0 -0.0011931221357231738 0.0020819913102010416 0 -0.0014746407635022924 0.0021502442269954467 0 -0.0011931221357231738 0.0020819913102010416 0 -0.0014746407635022924 0.0021502442269954467 0 -0.0013158538305514098 0.0023329193432304598 0 -0.0010966639532962172 0.0018197868949085712 0 -0.0012863665903837659 0.0022122252774909494 0 -0.0010694956014488486 0.0016798336763026364 0 -0.00091646843308679986 0.0021006109142371423 0 -0.0012423889108894488 0.0020578826732238708 0 -0.0010694956014488486 0.0016798336763026364 0 -0.00070999057424394447 0.0016416041701839464 0 -0.00091646843308679986 0.0021006109142371423 0 -0.00070999057424394447 0.0016416041701839464 0 -0.0005982557217557821 0.0019866201571864736 0 -0.00091646843308679986 0.0021006109142371423 0 -0.00090515276284191615 0.0013208837246892365 0 -0.0010694956014488486 0.0016798336763026364 0 -0.00070999057424394447 0.0016416041701839464 0 -0.00075050667277455792 0.0013600181890902915 0 -0.00059290176976344012 0.0014695045436327707 0 -0.00066462821591497872 0.0016737023375408035 0 -0.00091962556571909991 0.0016969654081735327 0 -0.00068822818926427898 0.0015962937510481496 0 -0.00046446368756478519 0.0015427923717893025 0 -0.00066462821591497872 0.0016737023375408035 0 -0.00037477203725114693 0.0017284199495455471 0 -0.00059290176976344012 0.0014695045436327707 0 -0.00046446368756478519 0.0015427923717893025 0 -0.00066462821591497872 0.0016737023375408035 0 -0.00066462821591497872 0.0016737023375408035 0 -0.00037477203725114693 0.0017284199495455471 0 -0.0005982557217557821 0.0019866201571864736 0 -0.00068822818926427898 0.0015962937510481496 0 -0.00059911317441204944 0.0019881554256573715 0 -0.00037477203725114693 0.0017284199495455471 0 -0.00019788351687790638 0.0019345889005620727 0 -0.0005982557217557821 0.0019866201571864736 0 -0.00037477203725114693 0.0017284199495455471 0 -0.00019788351687790638 0.0019345889005620727 0 -0.00012831830744790114 0.0017642173623656564 0 -0.00019788351687790638 0.0019345889005620727 0 9.22726772089799e-06 0.0018842583031627213 0 -0.00012831830744790114 0.0017642173623656564 0 9.22726772089799e-06 0.0018842583031627213 0 -0.00012831830744790114 0.0017642173623656564 0 0.00012114090826175486 0.001755712126401153 0 0.00039979131466404486 0.0024147369028634826 0 0.00022796422622378882 0.0022646475225808617 0 0.00024903818562443513 0.0024603863599646295 0 0.00015185612369912534 0.001942832345499099 0 0.00014579517743978216 0.0020073950536331157 0 -0.00012831830744790114 0.0017642173623656564 0 -0.00020477999106721043 0.0015115068780706393 0 0.00012114090826175486 0.001755712126401153 0 -0.00037477203725114693 0.0017284199495455471 0 -0.00012831830744790114 0.0017642173623656564 0 -0.00020477999106721043 0.0015115068780706393 0 -0.00046446368756478519 0.0015427923717893025 0 -0.00037477203725114693 0.0017284199495455471 0 -0.00020477999106721043 0.0015115068780706393 0 -7.0149154851912497e-05 0.0021413763206666338 0 3.0880549984366236e-06 0.0020780628273209074 0 4.6669894016024524e-05 0.002172761725997667 0 -7.0149154851912497e-05 0.0021413763206666338 0 4.6669894016024524e-05 0.002172761725997667 0 -5.5453468380954267e-05 0.0022551125998436518 0 3.0880549984366236e-06 0.0020780628273209074 0 7.8174412846283744e-05 0.0020295254710243639 0 4.6669894016024524e-05 0.002172761725997667 0 -5.9574256762363591e-05 0.0020724079824270001 0 -7.0149154851912497e-05 0.0021413763206666338 0 3.0880549984366236e-06 0.0020780628273209074 0 -5.9574256762363591e-05 0.0020724079824270001 0 6.1866727293207179e-05 0.0020175154917694018 0 3.0880549984366236e-06 0.0020780628273209074 0 6.1866727293207179e-05 0.0020175154917694018 0 3.0880549984366236e-06 0.0020780628273209074 0 7.8174412846283744e-05 0.0020295254710243639 0 0.00023250544575672066 0.0019538704578326519 0 0.00020178544648131842 0.0019178395480338457 0 6.1866727293207179e-05 0.0020175154917694018 0 7.8174412846283744e-05 0.0020295254710243639 0 0.0001540520313783779 0.0018929746187929283 0 7.8174412846283744e-05 0.0020295254710243639 0 4.6669894016024524e-05 0.002172761725997667 0 0.00022796422622378882 0.0022646475225808617 0 7.8174412846283744e-05 0.0020295254710243639 0 0.0001540520313783779 0.0018929746187929283 0 0.00012114090826175486 0.001755712126401153 0 7.6691951270006168e-05 0.0020082513999237638 0 0.00014579517743978216 0.0020073950536331157 0 9.22726772089799e-06 0.0018842583031627213 0 0.0001540520313783779 0.0018929746187929283 0 0.00012114090826175486 0.001755712126401153 0 0.00022796422622378882 0.0022646475225808617 0 0.00010492454440625551 0.0024278446223159125 0 0.00024903818562443513 0.0024603863599646295 0 4.6669894016024524e-05 0.002172761725997667 0 0.00022796422622378882 0.0022646475225808617 0 6.0650081063493704e-05 0.0022974574951741488 0 0.00022796422622378882 0.0022646475225808617 0 6.0650081063493704e-05 0.0022974574951741488 0 0.00010492454440625551 0.0024278446223159125 0 6.0650081063493704e-05 0.0022974574951741488 0 -4.4941937552890089e-05 0.0023862121030819184 0 0.00010492454440625551 0.0024278446223159125 0 4.6669894016024524e-05 0.002172761725997667 0 6.0650081063493704e-05 0.0022974574951741488 0 -5.5453468380954267e-05 0.0022551125998436518 0 6.0650081063493704e-05 0.0022974574951741488 0 -4.4941937552890089e-05 0.0023862121030819184 0 -5.5453468380954267e-05 0.0022551125998436518 0 -4.4941937552890089e-05 0.0023862121030819184 0 -3.3951276416835656e-05 0.0025304944433022841 0 0.00010492454440625551 0.0024278446223159125 0 -3.3951276416835656e-05 0.0025304944433022841 0 0.00010492454440625551 0.0024278446223159125 0 0.00011657354208028419 0.002645719559036475 0 0.00010492454440625551 0.0024278446223159125 0 0.00011657354208028419 0.002645719559036475 0 0.00024903818562443513 0.0024603863599646295 0 0.00011657354208028419 0.002645719559036475 0 -2.1782754098554809e-05 0.0025979038644896031 0 6.7432844926228471e-05 0.0027211490331436705 0 -0.00028308568147341012 0.0026719172632539891 0 -0.00017799291937703281 0.0027567164444095059 0 -0.00016362255156542781 0.0027105013682532861 0 -3.432850270492661e-05 0.0026459234185245936 0 6.7432844926228471e-05 0.0027211490331436705 0 -3.3951276416835656e-05 0.0025304944433022841 0 0.00011657354208028419 0.002645719559036475 0 -3.432850270492661e-05 0.0026459234185245936 0 0.00011657354208028419 0.002645719559036475 0 -3.432850270492661e-05 0.0026459234185245936 0 6.7432844926228471e-05 0.0027211490331436705 0 -0.00018098950185829317 0.0026055266969348943 0 -3.3951276416835656e-05 0.0025304944433022841 0 -3.432850270492661e-05 0.0026459234185245936 0 -0.00038653685238183258 0.0022805924919829497 0 0.00014948202927398286 0.0027441755521039396 0 -0.00051491871933339553 0.0013231814855554174 0 -0.00046446368756478519 0.0015427923717893025 0 -0.00020477999106721043 0.0015115068780706393 0 -0.00038653685238183258 0.0022805924919829497 0 0.00015185612369912534 0.001942832345499099 0 0.000565879322377753 0.002535567094830628 0 0.00039979131466404486 0.0024147369028634826 0 0.00038135366946266778 0.0025752397297628469 0 -0.00078314565584740716 0.0030017890403422807 0 -0.00081498837992539268 0.0027824886364792387 0 -0.00014498525666794084 0.0028585354692038894 0 0.00011657354208028419 0.002645719559036475 0 0.00024903818562443513 0.0024603863599646295 0 0.00038135366946266778 0.0025752397297628469 0 0.00039979131466404486 0.0024147369028634826 0 0.00024903818562443513 0.0024603863599646295 0 0.00038135366946266778 0.0025752397297628469 0 0.00011657354208028419 0.002645719559036475 0 -0.00014498525666794084 0.0028585354692038894 0 -2.1782754098554809e-05 0.0025979038644896031 0 9.152807142422837e-05 0.0026615138355820466 0 0.00014948202927398286 0.0027441755521039396 0 -0.0007837970124167648 0.0027777742021482571 0 -0.00028308568147341012 0.0026719172632539891 0 -0.00081498837992539268 0.0027824886364792387 0 -0.00051091615292399837 0.0027231490272774709 0 -0.0006741636396945523 0.0026458629419627167 0 -0.00081498837992539268 0.0027824886364792387 0 -0.00014498525666794084 0.0028585354692038894 0 -2.1782754098554809e-05 0.0025979038644896031 0 -0.00051091615292399837 0.0027231490272774709 0 -0.0006741636396945523 0.0026458629419627167 0 -0.00056952735378289253 0.0026784218887132361 0 -0.0006741636396945523 0.0026458629419627167 0 -0.00056952735378289253 0.0026784218887132361 0 -0.00061739964225726726 0.0026632796354269716 0 -0.00056952735378289253 0.0026784218887132361 0 -0.00049544166044655465 0.0027277994643335754 0 -0.00049371336364097736 0.0027035693038734835 0 -0.00051091615292399837 0.0027231490272774709 0 -0.00056952735378289253 0.0026784218887132361 0 -0.00049544166044655465 0.0027277994643335754 0 -0.00056952735378289253 0.0026784218887132361 0 -0.00049371336364097736 0.0027035693038734835 0 -0.00056575310849851692 0.0026435006443485658 0 -0.00056952735378289253 0.0026784218887132361 0 -0.00056575310849851692 0.0026435006443485658 0 -0.00061739964225726726 0.0026632796354269716 0 -0.00027664474853863661 0.0028578970350153447 0 -0.0004187354510664426 0.0027991019729087579 0 -0.00040642279799645562 0.0027435551284344015 0 -0.00026968042750914636 0.0028466479518388372 0 -0.00017799291937703281 0.0027567164444095059 0 -0.00051091615292399837 0.0027231490272774709 0 -0.00049544166044655465 0.0027277994643335754 0 -0.0004187354510664426 0.0027991019729087579 0 -0.00049544166044655465 0.0027277994643335754 0 -0.00049371336364097736 0.0027035693038734835 0 -0.0004187354510664426 0.0027991019729087579 0 -0.00049371336364097736 0.0027035693038734835 0 -0.0004187354510664426 0.0027991019729087579 0 -0.00040642279799645562 0.0027435551284344015 0 -0.00049371336364097736 0.0027035693038734835 0 -0.00040642279799645562 0.0027435551284344015 0 -0.00046095707273268382 0.0026237346926993089 0 -0.00033044478508071896 0.0027514049376384324 0 -0.00040642279799645562 0.0027435551284344015 0 -0.00046095707273268382 0.0026237346926993089 0 -0.00043957758509972195 0.0028747420464015142 0 -0.00059843560562924285 0.0027861473044490832 0 -0.00069887460589921572 0.0029732208180422532 0 -0.00071011273256232845 0.0028297311599056294 0 -0.00079644319362477765 0.0028806883009691534 0 -0.00069887460589921572 0.0029732208180422532 0 -0.00058917872589944514 0.0028668244003302022 0 -0.00071011273256232845 0.0028297311599056294 0 -0.00053368073595848212 0.0029897403161684441 0 -0.00069887460589921572 0.0029732208180422532 0 -0.00058917872589944514 0.0028668244003302022 0 -0.00056575310849851692 0.0026435006443485658 0 -0.00064254355580331253 0.0026048104606608202 0 -0.00061739964225726726 0.0026632796354269716 0 -0.00056575310849851692 0.0026435006443485658 0 -0.00056778502539070854 0.0025635268661648078 0 -0.00064254355580331253 0.0026048104606608202 0 -0.00046095707273268382 0.0026237346926993089 0 -0.00056575310849851692 0.0026435006443485658 0 -0.00056778502539070854 0.0025635268661648078 0 -0.00049371336364097736 0.0027035693038734835 0 -0.00046095707273268382 0.0026237346926993089 0 -0.00056575310849851692 0.0026435006443485658 0 -0.00069887460589921572 0.0029732208180422532 0 -0.00085722488323705984 0.0029368289966854757 0 -0.00079644319362477765 0.0028806883009691534 0 -0.00059843560562924285 0.0027861473044490832 0 -0.00064815955632183228 0.0028228183783819759 0 -0.00085722488323705984 0.0029368289966854757 0 -0.00098104893343167743 0.0028888895201053121 0 -0.00086455422053902196 0.0028728499627974917 0 -0.00064815955632183228 0.0028228183783819759 0 -0.0010577100031552748 0.0022338824357978609 0 -0.0013476472065035029 0.0010965326944259043 0 -0.0010594522194510756 0.0013176247803669105 0 -0.0011986362100260884 0.00087508843419373521 0 -0.00056778502539070854 0.0025635268661648078 0 -0.00064254355580331253 0.0026048104606608202 0 -0.0006675210141537458 0.0025195726741086802 0 -0.00085021750654000851 0.0018580425570682718 0 -0.0010577100031552748 0.0022338824357978609 0 -0.0013476472065035029 0.0010965326944259043 0 -0.001615474220981752 0.0011592743848793496 0 -0.0013634709188081035 0.00081735677563868684 0 -0.0013476472065035029 0.0010965326944259043 0 -0.0013634709188081035 0.00081735677563868684 0 -0.0011986362100260884 0.00087508843419373521 0 -0.0013476472065035029 0.0010965326944259043 0 -0.0014318630758157142 0.0013067845127873209 0 -0.001615474220981752 0.0011592743848793496 0 -0.0013476472065035029 0.0010965326944259043 0 -0.0014318630758157142 0.0013067845127873209 0 -0.0010594522194510756 0.0013176247803669105 0 -0.0014318630758157142 0.0013067845127873209 0 -0.001434959707069905 0.0016637416234510753 0 -0.001713193103030272 0.0014378718311312193 0 -0.0014318630758157142 0.0013067845127873209 0 -0.0010594522194510756 0.0013176247803669105 0 -0.001434959707069905 0.0016637416234510753 0 -0.0010594522194510756 0.0013176247803669105 0 -0.00085156353621790055 0.001848298984198029 0 -0.001434959707069905 0.0016637416234510753 0 -0.00085156353621790055 0.001848298984198029 0 -0.001434959707069905 0.0016637416234510753 0 -0.0012595181143783879 0.0020367823931314645 0 -0.00085021750654000851 0.0018580425570682718 0 -0.00073761662999681391 0.0022921588122724974 0 -0.001434959707069905 0.0016637416234510753 0 -0.0012595181143783879 0.0020367823931314645 0 -0.001658671679966956 0.0019540127394529908 0 -0.0014734324412760164 0.0026753354397034516 0 -0.0013100612240693505 0.0023740906392629595 0 -0.001658671679966956 0.0019540127394529908 0 -0.0013194478814084242 0.0022650594678464172 0 -0.0016779082417999259 0.0020220705728343433 0 -0.0012595181143783879 0.0020367823931314645 0 -0.0013100612240693505 0.0023740906392629595 0 -0.001658671679966956 0.0019540127394529908 0 -0.0012595181143783879 0.0020367823931314645 0 -0.0013100612240693505 0.0023740906392629595 0 -0.0010274999891751731 0.0024121047942520617 0 -0.00085156353621790055 0.001848298984198029 0 -0.0012595181143783879 0.0020367823931314645 0 -0.0010274999891751731 0.0024121047942520617 0 -0.0006741636396945523 0.0026458629419627167 0 -0.00085156353621790055 0.001848298984198029 0 -0.0010274999891751731 0.0024121047942520617 0 -0.00067453219293987625 0.0026083213559669732 0 -0.00073761662999681391 0.0022921588122724974 0 -0.002141457468152792 0.0020336926939252147 0 -0.001936262166035793 0.0019362077263243484 0 -0.0021378883065028796 0.0017780171491239862 0 -0.001936262166035793 0.0019362077263243484 0 -0.0018448228539544196 0.0017531888833420403 0 -0.0021378883065028796 0.0017780171491239862 0 -0.001936262166035793 0.0019362077263243484 0 -0.001658671679966956 0.0019540127394529908 0 -0.0018448228539544196 0.0017531888833420403 0 -0.0018893937385309697 0.0021202643516223772 0 -0.001936262166035793 0.0019362077263243484 0 -0.001658671679966956 0.0019540127394529908 0 -0.001434959707069905 0.0016637416234510753 0 -0.0018448228539544196 0.0017531888833420403 0 -0.001713193103030272 0.0014378718311312193 0 -0.001434959707069905 0.0016637416234510753 0 -0.001658671679966956 0.0019540127394529908 0 -0.0018448228539544196 0.0017531888833420403 0 -0.0018448228539544196 0.0017531888833420403 0 -0.0019992848975479358 0.0015595733852305047 0 -0.001713193103030272 0.0014378718311312193 0 -0.0018448228539544196 0.0017531888833420403 0 -0.0019992848975479358 0.0015595733852305047 0 -0.0021378883065028796 0.0017780171491239862 0 -0.0019992848975479358 0.0015595733852305047 0 -0.0021378883065028796 0.0017780171491239862 0 -0.002208749438496855 0.0015787566613801988 0 -0.0019476853943509414 0.0012913640589940038 0 -0.0021817484802752383 0.0013763504197324189 0 -0.0023577204781327476 0.0012007669792325254 0 -0.0019992848975479358 0.0015595733852305047 0 -0.0021817484802752383 0.0013763504197324189 0 -0.002208749438496855 0.0015787566613801988 0 -0.0019992848975479358 0.0015595733852305047 0 -0.0019476853943509414 0.0012913640589940038 0 -0.0021817484802752383 0.0013763504197324189 0 -0.0019476853943509414 0.0012913640589940038 0 -0.001713193103030272 0.0014378718311312193 0 -0.001615474220981752 0.0011592743848793496 0 -0.0019992848975479358 0.0015595733852305047 0 -0.0019476853943509414 0.0012913640589940038 0 -0.001713193103030272 0.0014378718311312193 0 -0.0014318630758157142 0.0013067845127873209 0 -0.001713193103030272 0.0014378718311312193 0 -0.001615474220981752 0.0011592743848793496 0 -0.0019476853943509414 0.0012913640589940038 0 -0.0018774848281863184 0.0010075536841958881 0 -0.001615474220981752 0.0011592743848793496 0 -0.0018774848281863184 0.0010075536841958881 0 -0.001615474220981752 0.0011592743848793496 0 -0.0013634709188081035 0.00081735677563868684 0 -0.0017915180662232233 0.0021361071301653507 0 -0.0021860899297762447 0.0018050554072720809 0 -0.0019476853943509414 0.0012913640589940038 0 -0.0018774848281863184 0.0010075536841958881 0 -0.0023577204781327476 0.0012007669792325254 0 -0.0016798055978402809 0.0032661381009554545 0 -0.0019355886797049365 0.0032024756427484319 0 -0.0020565835872453663 0.0033856292052147855 0 -0.0016798055978402809 0.0032661381009554545 0 -0.0019355886797049365 0.0032024756427484319 0 -0.0018355283620509278 0.0030731749006120391 0 -0.0018355283620509278 0.0030731749006120391 0 -0.0018704936799137817 0.0028125625190775026 0 -0.0020068811215169582 0.0030939816279557989 0 -0.0016798055978402809 0.0032661381009554545 0 -0.0018355283620509278 0.0030731749006120391 0 -0.0016603794570776516 0.0029523904614282854 0 -0.0019355886797049365 0.0032024756427484319 0 -0.0018355283620509278 0.0030731749006120391 0 -0.0020068811215169582 0.0030939816279557989 0 -0.0018355283620509278 0.0030731749006120391 0 -0.0018704936799137817 0.0028125625190775026 0 -0.0016603794570776516 0.0029523904614282854 0 -0.0018704936799137817 0.0028125625190775026 0 -0.0016603794570776516 0.0029523904614282854 0 -0.0014999755047759294 0.0026569494669484404 0 -0.0016603794570776516 0.0029523904614282854 0 -0.0014307625751315085 0.0028672568732872566 0 -0.0014999755047759294 0.0026569494669484404 0 -0.0016603794570776516 0.0029523904614282854 0 -0.0014969155264816052 0.0030709608125671505 0 -0.0014307625751315085 0.0028672568732872566 0 -0.0016798055978402809 0.0032661381009554545 0 -0.0014969155264816052 0.0030709608125671505 0 -0.0013031665658490529 0.0031353911286669893 0 -0.0016798055978402809 0.0032661381009554545 0 -0.0016603794570776516 0.0029523904614282854 0 -0.0014969155264816052 0.0030709608125671505 0 -0.0017915180662232233 0.0021361071301653507 0 -0.0012763023606992402 0.0024859790130054237 0 -0.0014969155264816052 0.0030709608125671505 0 -0.0012953358673035559 0.0031431136581869085 0 -0.0012780063641390266 0.003066953587900188 0 -0.0012921734956384062 0.0029833501973698072 0 -0.0011900584893077618 0.0031065283003774381 0 -0.0012493469468721598 0.0028258280641046242 0 -0.0011481460019738675 0.0027889593357011359 0 -0.001226563261672309 0.0029319461278975124 0 -0.0013786673461988782 0.0029915402098076556 0 -0.0012763023606992402 0.0024859790130054237 0 -0.0012763023606992402 0.0024859790130054237 0 -0.0010577100031552748 0.0022338824357978609 0 -0.0011893265257203612 0.0024547280350872835 0 -0.001050708630847192 0.0025036599460539805 0 -0.0010713701328347511 0.0024136316069123171 0 -0.0012763023606992402 0.0024859790130054237 0 -0.0011481460019738675 0.0027889593357011359 0 -0.0012953358673035559 0.0031431136581869085 0 -0.0012780063641390266 0.003066953587900188 0 -0.0011900584893077618 0.0031065283003774381 0 -0.0012780063641390266 0.003066953587900188 0 -0.0012921734956384062 0.0029833501973698072 0 -0.0011900584893077618 0.0031065283003774381 0 -0.0014969155264816052 0.0030709608125671505 0 -0.0012780063641390266 0.003066953587900188 0 -0.0012921734956384062 0.0029833501973698072 0 -0.0014969155264816052 0.0030709608125671505 0 -0.0012921734956384062 0.0029833501973698072 0 -0.0014307625751315085 0.0028672568732872566 0 -0.00098104893343167743 0.0028888895201053121 0 -0.00086455422053902196 0.0028728499627974917 0 -0.0009137707467837601 0.0028439634512116086 0 -0.00098104893343167743 0.0028888895201053121 0 -0.00098667102641909255 0.0028652908179952839 0 -0.0009137707467837601 0.0028439634512116086 0 -0.0010577100031552748 0.0022338824357978609 0 -0.0011481460019738675 0.0027889593357011359 0 -0.001191197986944994 0.0030015468039640537 0 -0.0011394635450318615 0.0028877879331476062 0 -0.0010242544634440766 0.0029347950301124369 0 -0.0011481460019738675 0.0027889593357011359 0 -0.00096983062618616561 0.0028829280594094924 0 -0.001191197986944994 0.0030015468039640537 0 -0.0011394635450318615 0.0028877879331476062 0 -0.0012493469468721598 0.0028258280641046242 0 -0.0011394635450318615 0.0028877879331476062 0 -0.001094734618637648 0.0027832045100120192 0 -0.0010242544634440766 0.0029347950301124369 0 -0.001094734618637648 0.0027832045100120192 0 -0.0010242544634440766 0.0029347950301124369 0 -0.00096718284018763 0.0028001410694336211 0 -0.0011394635450318615 0.0028877879331476062 0 -0.001094734618637648 0.0027832045100120192 0 -0.0012493469468721598 0.0028258280641046242 0 -0.001094734618637648 0.0027832045100120192 0 -0.0012493469468721598 0.0028258280641046242 0 -0.0012052361658362169 0.0027002392318949573 0 -0.0012921734956384062 0.0029833501973698072 0 -0.0014307625751315085 0.0028672568732872566 0 -0.0012493469468721598 0.0028258280641046242 0 -0.0012493469468721598 0.0028258280641046242 0 -0.0013437258052178894 0.0027230235393355205 0 -0.0012052361658362169 0.0027002392318949573 0 -0.0014307625751315085 0.0028672568732872566 0 -0.0012493469468721598 0.0028258280641046242 0 -0.0013437258052178894 0.0027230235393355205 0 -0.0014307625751315085 0.0028672568732872566 0 -0.0013437258052178894 0.0027230235393355205 0 -0.0014999755047759294 0.0026569494669484404 0 -0.0013437258052178894 0.0027230235393355205 0 -0.0012052361658362169 0.0027002392318949573 0 -0.0011502983768118926 0.0025150176498705281 0 -0.0015665738924065717 0.0039652853096778908 0 -0.0018603426172512389 0.0040046534454052729 0 -0.002088085672773844 0.0052794478904634196 0 -0.0019089161001214789 0.0052341540156815441 0 -0.0022479802317312029 0.0054123524696319423 0 -0.0013437258052178894 0.0027230235393355205 0 -0.0011502983768118926 0.0025150176498705281 0 -0.0014999755047759294 0.0026569494669484404 0 -0.001094734618637648 0.0027832045100120192 0 -0.0010907832554078157 0.0026745295964722528 0 -0.0010019687523228394 0.0026976292559336501 0 -0.0010907832554078157 0.0026745295964722528 0 -0.0012052361658362169 0.0027002392318949573 0 -0.001122293186055141 0.002628023934011528 0 -0.001094734618637648 0.0027832045100120192 0 -0.0010907832554078157 0.0026745295964722528 0 -0.0012052361658362169 0.0027002392318949573 0 -0.0012052361658362169 0.0027002392318949573 0 -0.001122293186055141 0.002628023934011528 0 -0.0011460859369041045 0.0025826604662703726 0 -0.0010843205142183944 0.0023033151529011772 0 -0.0015665738924065717 0.0039652853096778908 0 -0.001122293186055141 0.002628023934011528 0 -0.0010424126304448584 0.0026018707228455174 0 -0.0011460859369041045 0.0025826604662703726 0 -0.0010907832554078157 0.0026745295964722528 0 -0.001122293186055141 0.002628023934011528 0 -0.0010424126304448584 0.0026018707228455174 0 -0.0010907832554078157 0.0026745295964722528 0 -0.0010424126304448584 0.0026018707228455174 0 -0.0010019687523228394 0.0026976292559336501 0 -0.0015665738924065717 0.0039652853096778908 0 -0.0019588221520178699 0.0052653155856979272 0 -0.0015370378123869698 0.0046508837443470126 0 -0.0017623860988125093 0.0047614181742106224 0 -0.0015812889114099147 0.0048062992239020609 0 -0.0022594498419964671 0.0054707016923117111 0 -0.0023316227355139902 0.0053896218896643932 0 -0.0022285789860044271 0.005359620572618201 0 -0.0010979274104864377 0.0031597732066526761 0 -0.0015665738924065717 0.0039652853096778908 0 -0.0015665738924065717 0.0039652853096778908 0 -0.0024597406454088268 0.0054997036502732605 0 -0.0022594498419964671 0.0054707016923117111 0 -0.0023316227355139902 0.0053896218896643932 0 -0.0024422745232148117 0.0054646484118457284 0 -0.002088085672773844 0.0052794478904634196 0 -0.0019089161001214789 0.0052341540156815441 0 -0.0022826845944670217 0.0052247359569779208 0 -0.0024422745232148117 0.0054646484118457284 0 -0.0024453414784315597 0.0053798309076928076 0 -0.0026256493024578035 0.0054502815368757448 0 -0.0023316227355139902 0.0053896218896643932 0 -0.0024422745232148117 0.0054646484118457284 0 -0.0024453414784315597 0.0053798309076928076 0 -0.0022826845944670217 0.0052247359569779208 0 -0.0024593442354976882 0.0053625103532393631 0 -0.0026069117289353855 0.0052400326279722119 0 -0.0024597406454088268 0.0054997036502732605 0 -0.0025928875146957798 0.0053290958649687336 0 -0.0025463399303084708 0.0055341255821618821 0 -0.0024593442354976882 0.0053625103532393631 0 -0.0022479802317312029 0.0054123524696319423 0 -0.0024593442354976882 0.0053625103532393631 0 -0.0026091395502841636 0.0054081013876547063 0 -0.0026069117289353855 0.0052400326279722119 0 -0.0025463399303084708 0.0055341255821618821 0 -0.0024593442354976882 0.0053625103532393631 0 -0.0026091395502841636 0.0054081013876547063 0 -0.0022479858128318956 0.0042510014396652538 0 -0.0018603426172512389 0.0040046534454052729 0 -0.0022826845944670217 0.0052247359569779208 0 -0.0024593442354976882 0.0053625103532393631 0 -0.0022479802317312029 0.0054123524696319423 0 -0.002088085672773844 0.0052794478904634196 0 -0.0022826845944670217 0.0052247359569779208 0 -0.0022479802317312029 0.0054123524696319423 0 -0.0006025019893717401 0.002751215413869362 0 -0.00058917872589944514 0.0028668244003302022 0 -0.00071011273256232845 0.0028297311599056294 0 -0.00051716788149563822 0.0027957066304159098 0 -0.0006025019893717401 0.002751215413869362 0 -0.00058917872589944514 0.0028668244003302022 0 -0.00071011273256232845 0.0028297311599056294 0 -0.00080063685468505425 0.0027437003120556092 0 -0.00071056502911820451 0.0026950368974580584 0 -0.0006025019893717401 0.002751215413869362 0 -0.00071011273256232845 0.0028297311599056294 0 -0.00071056502911820451 0.0026950368974580584 0 -0.00071011273256232845 0.0028297311599056294 0 -0.00080063685468505425 0.0027437003120556092 0 -0.00085659641437799453 0.0028298359576191066 0 -0.00080063685468505425 0.0027437003120556092 0 -0.00085659641437799453 0.0028298359576191066 0 -0.00090497161484056037 0.0027135104510799118 0 -0.00071011273256232845 0.0028297311599056294 0 -0.00085659641437799453 0.0028298359576191066 0 -0.00079644319362477765 0.0028806883009691534 0 -0.00085722488323705984 0.0029368289966854757 0 -0.00079644319362477765 0.0028806883009691534 0 -0.00086455422053902196 0.0028728499627974917 0 -0.00085659641437799453 0.0028298359576191066 0 -0.00079644319362477765 0.0028806883009691534 0 -0.00086455422053902196 0.0028728499627974917 0 -0.00085659641437799453 0.0028298359576191066 0 -0.00086455422053902196 0.0028728499627974917 0 -0.0009137707467837601 0.0028439634512116086 0 -0.00087427066782508171 0.0028430317153740519 0 -0.00096983062618616561 0.0028829280594094924 0 -0.00085659641437799453 0.0028298359576191066 0 -0.0010242544634440766 0.0029347950301124369 0 -0.00096718284018763 0.0028001410694336211 0 -0.00085659641437799453 0.0028298359576191066 0 -0.00096718284018763 0.0028001410694336211 0 -0.00090497161484056037 0.0027135104510799118 0 -0.00096718284018763 0.0028001410694336211 0 -0.0010019687523228394 0.0026976292559336501 0 -0.00090497161484056037 0.0027135104510799118 0 -0.001094734618637648 0.0027832045100120192 0 -0.00096718284018763 0.0028001410694336211 0 -0.0010019687523228394 0.0026976292559336501 0 -0.0010019687523228394 0.0026976292559336501 0 -0.00090497161484056037 0.0027135104510799118 0 -0.0009300638721452439 0.0026279853943303598 0 -0.00090497161484056037 0.0027135104510799118 0 -0.0009300638721452439 0.0026279853943303598 0 -0.00082189796487598785 0.0026371925206031188 0 -0.0010424126304448584 0.0026018707228455174 0 -0.0010019687523228394 0.0026976292559336501 0 -0.0009300638721452439 0.0026279853943303598 0 -0.0015665738924065717 0.0039652853096778908 0 -0.0013366218720377067 0.0034906766950844148 0 -0.0010424126304448584 0.0026018707228455174 0 -0.0009300638721452439 0.0026279853943303598 0 -0.00088580953654855731 0.0025213528329146094 0 -0.0010424126304448584 0.0026018707228455174 0 -0.0011311949281382194 0.0025906779348687727 0 -0.00088580953654855731 0.0025213528329146094 0 -0.00088580953654855731 0.0025213528329146094 0 -0.00082189796487598785 0.0026371925206031188 0 -0.00073864462432083635 0.0025832092264623219 0 -0.00088580953654855731 0.0025213528329146094 0 -0.00073864462432083635 0.0025832092264623219 0 -0.00069846246532881211 0.0024679486418523583 0 -0.0009300638721452439 0.0026279853943303598 0 -0.00088580953654855731 0.0025213528329146094 0 -0.00082189796487598785 0.0026371925206031188 0 -0.00080063685468505425 0.0027437003120556092 0 -0.00090497161484056037 0.0027135104510799118 0 -0.00082189796487598785 0.0026371925206031188 0 -0.00080063685468505425 0.0027437003120556092 0 -0.00082189796487598785 0.0026371925206031188 0 -0.00071056502911820451 0.0026950368974580584 0 -0.00082189796487598785 0.0026371925206031188 0 -0.00071056502911820451 0.0026950368974580584 0 -0.00073864462432083635 0.0025832092264623219 0 -0.00071056502911820451 0.0026950368974580584 0 -0.00073864462432083635 0.0025832092264623219 0 -0.00059158561023627465 0.0025919173675441418 0 -0.00073864462432083635 0.0025832092264623219 0 -0.00059158561023627465 0.0025919173675441418 0 -0.00069846246532881211 0.0024679486418523583 0 0.00013184047791768436 0.0032461591323253813 0 -0.00087405413736632099 0.0043753398391043388 0 -0.0006025019893717401 0.002751215413869362 0 -0.00071056502911820451 0.0026950368974580584 0 -0.00059158561023627465 0.0025919173675441418 0 -0.0004998782299413066 0.0027029295806709295 0 -0.0006025019893717401 0.002751215413869362 0 -0.00059158561023627465 0.0025919173675441418 0 -0.0012246697013070741 0.0054126594267639144 0 -0.0014466600169912509 0.0055010065904796852 0 -0.0013847139135489555 0.005207188442527471 0 0.00048920242035015973 0.0048047829132075292 0 0.00064241919781273926 0.0040903440564850008 0 0.00099392425888056432 0.0045540130540433297 0 -0.00027221759478910317 0.0051590357436942661 0 -0.00087405413736632099 0.0043753398391043388 0 -0.0014466600169912509 0.0055010065904796852 0 -0.0016018680776643355 0.0053157299966184856 0 -0.0013847139135489555 0.005207188442527471 0 -0.00087405413736632099 0.0043753398391043388 0 -0.0017876685807539712 0.0052449134754451177 0 -0.0019506315645405545 0.0048605567275608044 0 -0.0018405922587500191 0.0050098593018982184 0 -0.0017704202003576499 0.0049063326580388771 0 -0.0018405922587500191 0.0050098593018982184 0 -0.0017704202003576499 0.0049063326580388771 0 -0.0017432668392331186 0.0050195715449036088 0 -0.0017623860988125093 0.0047614181742106224 0 -0.0019506315645405545 0.0048605567275608044 0 -0.0017704202003576499 0.0049063326580388771 0 -0.0013366218720377067 0.0034906766950844148 0 -0.00087405413736632099 0.0043753398391043388 0 -0.0017623860988125093 0.0047614181742106224 0 -0.0016609456727361908 0.0048607154228514464 0 -0.0015812889114099147 0.0048062992239020609 0 -0.0017623860988125093 0.0047614181742106224 0 -0.0017704202003576499 0.0049063326580388771 0 -0.0016609456727361908 0.0048607154228514464 0 -0.0017704202003576499 0.0049063326580388771 0 -0.0016609456727361908 0.0048607154228514464 0 -0.0017122495771854037 0.0049522915837273019 0 -0.0017656087185884647 0.005154696984732832 0 -0.0019172490860573262 0.0051355564203388656 0 -0.0016609456727361908 0.0048607154228514464 0 -0.0017122495771854037 0.0049522915837273019 0 -0.0016304770748894362 0.0049550128514365809 0 -0.0016673017091659041 0.0049667789549961133 0 -0.0017122495771854037 0.0049522915837273019 0 -0.0016304770748894362 0.0049550128514365809 0 -0.0016884895142575702 0.0050074005492187672 0 -0.0017240162490017566 0.0051184066936089071 0 -0.0016304770748894362 0.0049550128514365809 0 -0.0016673017091659041 0.0049667789549961133 0 -0.0016884895142575702 0.0050074005492187672 0 -0.0016304770748894362 0.0049550128514365809 0 -0.0016673017091659041 0.0049667789549961133 0 -0.0017122495771854037 0.0049522915837273019 0 -0.0016884895142575702 0.0050074005492187672 0 -0.0017704202003576499 0.0049063326580388771 0 -0.0017122495771854037 0.0049522915837273019 0 -0.0017432668392331186 0.0050195715449036088 0 -0.0017122495771854037 0.0049522915837273019 0 -0.0017432668392331186 0.0050195715449036088 0 -0.0016884895142575702 0.0050074005492187672 0 -0.0017432668392331186 0.0050195715449036088 0 -0.0016884895142575702 0.0050074005492187672 0 -0.0017255258092373094 0.0050679912013348802 0 -0.0017432668392331186 0.0050195715449036088 0 -0.0017255258092373094 0.0050679912013348802 0 -0.0017326533524818796 0.0051150551619866249 0 -0.0016884895142575702 0.0050074005492187672 0 -0.0017255258092373094 0.0050679912013348802 0 -0.0017240162490017566 0.0051184066936089071 0 -0.0017255258092373094 0.0050679912013348802 0 -0.0017326533524818796 0.0051150551619866249 0 -0.0017240162490017566 0.0051184066936089071 0 -0.0017326533524818796 0.0051150551619866249 0 -0.0017240162490017566 0.0051184066936089071 0 -0.0017665281516944873 0.0050000616184247915 0 -0.0018320593334882204 0.0052042800005582942 0 -0.0017666234549732289 0.0049999897758229387 0 -0.0019559924837952445 0.0051264266941972898 0 -0.0017656087185884647 0.005154696984732832 0 -0.0017665881588505399 0.0050000307280210661 0 -0.0017665281516944873 0.0050000616184247915 0 -0.0015898423059563531 0.00512838631104723 0 -0.001490411085322616 0.0049999382574025539 0 -0.0017326533524818796 0.0051150551619866249 0 -0.0017665281516944873 0.0050000616184247915 0 -0.0015898423059563531 0.00512838631104723 0 -0.0018405922587500191 0.0050098593018982184 0 -0.0017432668392331186 0.0050195715449036088 0 -0.0017326533524818796 0.0051150551619866249 0 -0.0016018680776643355 0.0053157299966184856 0 -0.0017326533524818796 0.0051150551619866249 0 -0.0015898423059563531 0.00512838631104723 0 -0.0017876685807539712 0.0052449134754451177 0 -0.0017248060113745239 0.0051019360776425977 0 -0.0016018680776643355 0.0053157299966184856 0 -0.0015898423059563531 0.00512838631104723 0 -0.0013847139135489555 0.005207188442527471 0 -0.0015898423059563531 0.00512838631104723 0 -0.001490411085322616 0.0049999382574025539 0 -0.0013847139135489555 0.005207188442527471 0 -0.0012143064261125546 0.0050000725887539175 0 -0.001490411085322616 0.0049999382574025539 0 -0.0013847139135489555 0.005207188442527471 0 -0.0011041372802128597 0.0051672267317651229 0 -0.0012246697013070741 0.0054126594267639144 0 -0.0013847139135489555 0.005207188442527471 0 -0.0024886972856469828 0.0052865369552675852 0 -0.0023642373555492011 0.0051951334632446286 0 -0.0025349946244721902 0.0051566853005708558 0 -0.0024886972856469828 0.0052865369552675852 0 -0.0025349946244721902 0.0051566853005708558 0 -0.0026722196494341371 0.0052710216439456415 0 -0.0024886972856469828 0.0052865369552675852 0 -0.0026722196494341371 0.0052710216439456415 0 -0.0026256493024578035 0.0054502815368757448 0 -0.0024886972856469828 0.0052865369552675852 0 -0.0024453414784315597 0.0053798309076928076 0 -0.0026256493024578035 0.0054502815368757448 0 -0.0024886972856469828 0.0052865369552675852 0 -0.0024453414784315597 0.0053798309076928076 0 -0.0023397850652159147 0.0053084903442748854 0 -0.0023316227355139902 0.0053896218896643932 0 -0.0024453414784315597 0.0053798309076928076 0 -0.0023397850652159147 0.0053084903442748854 0 -0.0023316227355139902 0.0053896218896643932 0 -0.0023397850652159147 0.0053084903442748854 0 -0.0022285789860044271 0.005359620572618201 0 -0.0023397850652159147 0.0053084903442748854 0 -0.0022285789860044271 0.005359620572618201 0 -0.0021939986345320783 0.0052437843413882411 0 -0.0019588221520178699 0.0052653155856979272 0 -0.0019172490860573262 0.0051355564203388656 0 -0.0016609456727361908 0.0048607154228514464 0 -0.0015812889114099147 0.0048062992239020609 0 -0.0016304770748894362 0.0049550128514365809 0 -0.001893799843960754 0.0054094065193685094 0 -0.0021350873478231153 0.0053347484673693874 0 -0.0019867240762077585 0.0052476619801377382 0 -0.0019172490860573262 0.0051355564203388656 0 -0.0022692796408404904 0.0052843786950484322 0 -0.0024886972856469828 0.0052865369552675852 0 -0.0023397850652159147 0.0053084903442748854 0 -0.0023642373555492011 0.0051951334632446286 0 -0.0023397850652159147 0.0053084903442748854 0 -0.0021939986345320783 0.0052437843413882411 0 -0.0023642373555492011 0.0051951334632446286 0 -0.0017666234549732289 0.0049999897758229387 0 -0.0019559924837952445 0.0051264266941972898 0 -0.002085930158373701 0.0050000087035874793 0 -0.0021350873478231153 0.0053347484673693874 0 -0.0021086207611499875 0.0051914120766702009 0 -0.0019867240762077585 0.0052476619801377382 0 -0.0018320593334882204 0.0052042800005582942 0 -0.001893799843960754 0.0054094065193685094 0 -0.0019867240762077585 0.0052476619801377382 0 -0.0021086207611499875 0.0051914120766702009 0 -0.0019867240762077585 0.0052476619801377382 0 -0.0019559924837952445 0.0051264266941972898 0 -0.0018320593334882204 0.0052042800005582942 0 -0.0019867240762077585 0.0052476619801377382 0 -0.0019559924837952445 0.0051264266941972898 0 -0.0021086207611499875 0.0051914120766702009 0 -0.0019559924837952445 0.0051264266941972898 0 -0.002085930158373701 0.0050000087035874793 0 -0.0021086207611499875 0.0051914120766702009 0 -0.002085930158373701 0.0050000087035874793 0 -0.0023831231452867241 0.0052492850020931297 0 -0.002085930158373701 0.0050000087035874793 0 -0.0023831231452867241 0.0052492850020931297 0 -0.0025215479865605302 0.0049999281426301063 0 -0.0021350873478231153 0.0053347484673693874 0 -0.0021086207611499875 0.0051914120766702009 0 -0.0023831231452867241 0.0052492850020931297 0 -0.0022692796408404904 0.0052843786950484322 0 -0.0024557760282862286 0.0052003516519817557 0 -0.0024557760282862286 0.0052003516519817557 0 -0.0026447323996212232 0.0051420589525077885 0 -0.0025215479865605302 0.0049999281426301063 0 -0.0026570773454897192 0.0051367986621999318 0 -0.0028491167657781653 0.0051217129303744212 0 -0.0023831231452867241 0.0052492850020931297 0 -0.0025215479865605302 0.0049999281426301063 0 -0.0026570773454897192 0.0051367986621999318 0 -0.0026570773454897192 0.0051367986621999318 0 -0.0027632982683930786 0.0052019827258877153 0 -0.0028491167657781653 0.0051217129303744212 0 -0.0025349946244721902 0.0051566853005708558 0 -0.0026570773454897192 0.0051367986621999318 0 -0.0026722196494341371 0.0052710216439456415 0 -0.0026570773454897192 0.0051367986621999318 0 -0.0026722196494341371 0.0052710216439456415 0 -0.0027632982683930786 0.0052019827258877153 0 -0.0027632982683930786 0.0052019827258877153 0 -0.0029110922612744197 0.0052386918328727917 0 -0.0028491167657781653 0.0051217129303744212 0 -0.0026722196494341371 0.0052710216439456415 0 -0.0027632982683930786 0.0052019827258877153 0 -0.0029110922612744197 0.0052386918328727917 0 -0.0026722196494341371 0.0052710216439456415 0 -0.0029110922612744197 0.0052386918328727917 0 -0.0028328024927628576 0.0054236557506372324 0 -0.0026722196494341371 0.0052710216439456415 0 -0.0026256493024578035 0.0054502815368757448 0 -0.0028328024927628576 0.0054236557506372324 0 -0.0029110922612744197 0.0052386918328727917 0 -0.0031662019004535945 0.0051994609676438742 0 -0.0030645296602958877 0.0053438061423975421 0 -0.0029110922612744197 0.0052386918328727917 0 -0.0028328024927628576 0.0054236557506372324 0 -0.0030645296602958877 0.0053438061423975421 0 -0.0029110922612744197 0.0052386918328727917 0 -0.0030585217416612613 0.0051292037806057325 0 -0.0031662019004535945 0.0051994609676438742 0 -0.0025215479865605302 0.0049999281426301063 0 -0.0028491167657781653 0.0051217129303744212 0 -0.0031150718078929969 0.0049998687795631503 0 -0.0029110922612744197 0.0052386918328727917 0 -0.0030585217416612613 0.0051292037806057325 0 -0.0028491167657781653 0.0051217129303744212 0 -0.0030585217416612613 0.0051292037806057325 0 -0.0028491167657781653 0.0051217129303744212 0 -0.0031150718078929969 0.0049998687795631503 0 -0.0031150718078929969 0.0049998687795631503 0 -0.003524571827667496 0.0050476946413474007 0 -0.0039256514715577265 0.0049995736316773912 0 -0.0031150718078929969 0.0049998687795631503 0 -0.0032973846210686735 0.0051093157263808423 0 -0.003524571827667496 0.0050476946413474007 0 -0.0030585217416612613 0.0051292037806057325 0 -0.0031150718078929969 0.0049998687795631503 0 -0.0032973846210686735 0.0051093157263808423 0 -0.0030585217416612613 0.0051292037806057325 0 -0.0032973846210686735 0.0051093157263808423 0 -0.0031662019004535945 0.0051994609676438742 0 -0.003524571827667496 0.0050476946413474007 0 -0.0037893513686338759 0.0051205923847849142 0 -0.0039256514715577265 0.0049995736316773912 0 -0.003524571827667496 0.0050476946413474007 0 -0.0036283548474894158 0.0049932715308804608 0 -0.0034937649606807003 0.0050806376122611383 0 -0.0032973846210686735 0.0051093157263808423 0 -0.003524571827667496 0.0050476946413474007 0 -0.0034937649606807003 0.0050806376122611383 0 -0.0035453016999815131 0.0050378723565814281 0 -0.0037104553783920673 0.0050518958087280774 0 -0.0036283548474894158 0.0049932715308804608 0 -0.0035903660609400423 0.0050916901729275025 0 -0.0034937649606807003 0.0050806376122611383 0 -0.0035903660609400423 0.0050916901729275025 0 -0.0034937649606807003 0.0050806376122611383 0 -0.0033852424130646403 0.0051896606829462859 0 -0.0035903660609400423 0.0050916901729275025 0 -0.0035030756318620072 0.005228044228595438 0 -0.0033852424130646403 0.0051896606829462859 0 -0.0035030756318620072 0.005228044228595438 0 -0.0033852424130646403 0.0051896606829462859 0 -0.0033474284427385446 0.0052984227286570641 0 -0.0035903660609400423 0.0050916901729275025 0 -0.0035030756318620072 0.005228044228595438 0 -0.0036956916906398557 0.0051660813737357683 0 -0.0032973846210686735 0.0051093157263808423 0 -0.0031662019004535945 0.0051994609676438742 0 -0.0033852424130646403 0.0051896606829462859 0 -0.0032973846210686735 0.0051093157263808423 0 -0.0034937649606807003 0.0050806376122611383 0 -0.0033852424130646403 0.0051896606829462859 0 -0.0033852424130646403 0.0051896606829462859 0 -0.0032319803896869582 0.0052739724480851957 0 -0.0033474284427385446 0.0052984227286570641 0 -0.0031662019004535945 0.0051994609676438742 0 -0.0033852424130646403 0.0051896606829462859 0 -0.0032319803896869582 0.0052739724480851957 0 -0.0031662019004535945 0.0051994609676438742 0 -0.0032319803896869582 0.0052739724480851957 0 -0.0030645296602958877 0.0053438061423975421 0 -0.0032585703135093063 0.0053696519747813516 0 -0.0031690294780199546 0.0054277019555845777 0 -0.0030645296602958877 0.0053438061423975421 0 -0.0032319803896869582 0.0052739724480851957 0 -0.0032585703135093063 0.0053696519747813516 0 -0.0030645296602958877 0.0053438061423975421 0 -0.0032319803896869582 0.0052739724480851957 0 -0.0032585703135093063 0.0053696519747813516 0 -0.0033474284427385446 0.0052984227286570641 0 -0.0033474284427385446 0.0052984227286570641 0 -0.0033626990101359804 0.0053890835939809792 0 -0.0034439818259264679 0.0053300072960616026 0 -0.0032585703135093063 0.0053696519747813516 0 -0.0033474284427385446 0.0052984227286570641 0 -0.0033626990101359804 0.0053890835939809792 0 -0.0032585703135093063 0.0053696519747813516 0 -0.0033626990101359804 0.0053890835939809792 0 -0.0032742966814441683 0.0054445921089383486 0 -0.0033626990101359804 0.0053890835939809792 0 -0.0032742966814441683 0.0054445921089383486 0 -0.003407000200895989 0.0054944564055466388 0 -0.0032742966814441683 0.0054445921089383486 0 -0.0031690294780199546 0.0054277019555845777 0 -0.0031769324353805727 0.0055182234326632221 0 -0.0032585703135093063 0.0053696519747813516 0 -0.0032742966814441683 0.0054445921089383486 0 -0.0031690294780199546 0.0054277019555845777 0 -0.0035030756318620072 0.005228044228595438 0 -0.0036956916906398557 0.0051660813737357683 0 -0.0035924329253332133 0.005310222072861445 0 -0.0036956916906398557 0.0051660813737357683 0 -0.0035924329253332133 0.005310222072861445 0 -0.0037890925454808315 0.0052827421639696764 0 -0.0035030756318620072 0.005228044228595438 0 -0.0033474284427385446 0.0052984227286570641 0 -0.0034439818259264679 0.0053300072960616026 0 -0.0035924329253332133 0.005310222072861445 0 -0.0034439818259264679 0.0053300072960616026 0 -0.0034929104788142822 0.0053920365146237128 0 -0.0035030756318620072 0.005228044228595438 0 -0.0035924329253332133 0.005310222072861445 0 -0.0034439818259264679 0.0053300072960616026 0 -0.0034929104788142822 0.0053920365146237128 0 -0.0036766228098584221 0.0054402483262169189 0 -0.003407000200895989 0.0054944564055466388 0 -0.0037186565538127252 0.0030374170224301885 0 -0.0034542679701059982 0.0031955980104731848 0 -0.0033626990101359804 0.0053890835939809792 0 -0.0034439818259264679 0.0053300072960616026 0 -0.0034929104788142822 0.0053920365146237128 0 -0.0033626990101359804 0.0053890835939809792 0 -0.0034929104788142822 0.0053920365146237128 0 -0.003407000200895989 0.0054944564055466388 0 -0.0035924329253332133 0.005310222072861445 0 -0.0034929104788142822 0.0053920365146237128 0 -0.0036766228098584221 0.0054402483262169189 0 -0.0035924329253332133 0.005310222072861445 0 -0.0036766228098584221 0.0054402483262169189 0 -0.0037890925454808315 0.0052827421639696764 0 -0.0038333830296157141 0.000820930021171808 0 -0.0035945186189190342 0.00097633855728721398 0 -0.0037528991950710588 0.0010701305767974966 0 -0.0038333830296157141 0.000820930021171808 0 -0.0035945186189190342 0.00097633855728721398 0 -0.0034967132222441673 0.00085430084231043028 0 -0.0035945186189190342 0.00097633855728721398 0 -0.0034967132222441673 0.00085430084231043028 0 -0.0034314018622590568 0.00092947802813029201 0 -0.0035945186189190342 0.00097633855728721398 0 -0.0037528991950710588 0.0010701305767974966 0 -0.0034613420096875039 0.0011813120546571275 0 -0.0035945186189190342 0.00097633855728721398 0 -0.0034314018622590568 0.00092947802813029201 0 -0.0034613420096875039 0.0011813120546571275 0 -0.0037528991950710588 0.0010701305767974966 0 -0.0039372295165720095 0.0011609779917898788 0 -0.0037061912400609982 0.0012881655429375261 0 -0.0032742966814441683 0.0054445921089383486 0 -0.003407000200895989 0.0054944564055466388 0 -0.0031769324353805727 0.0055182234326632221 0 -0.0031008804135317291 0.00091760589958893898 0 -0.0034314018622590568 0.00092947802813029201 0 -0.0032276733790881848 0.001073308528304096 0 -0.0034967132222441673 0.00085430084231043028 0 -0.0031008804135317291 0.00091760589958893898 0 -0.0034314018622590568 0.00092947802813029201 0 -0.0034542679701059982 0.0031955980104731848 0 -0.0031471755219936982 0.0031518761325502629 0 -0.0034294436234627093 0.00094079323871968474 0 -0.0034091664195410936 0.0011886930110381888 0 -0.0034314018622590568 0.00092947802813029201 0 -0.0032276733790881848 0.001073308528304096 0 -0.003356030403972417 0.0012114757057670755 0 -0.0032276733790881848 0.001073308528304096 0 -0.0031335090834738503 0.0012723537489063672 0 -0.003356030403972417 0.0012114757057670755 0 -0.0032276733790881848 0.001073308528304096 0 -0.0029774888799001436 0.001109713810908636 0 -0.0031335090834738503 0.0012723537489063672 0 -0.0031008804135317291 0.00091760589958893898 0 -0.0032276733790881848 0.001073308528304096 0 -0.0029774888799001436 0.001109713810908636 0 -0.0029774888799001436 0.001109713810908636 0 -0.0027736606900022978 0.0011631573495912875 0 -0.0028922463654721792 0.0012838819161461955 0 -0.0031008804135317291 0.00091760589958893898 0 -0.0029774888799001436 0.001109713810908636 0 -0.002762958647835617 0.00098867795877078009 0 -0.0031471755219936982 0.0031518761325502629 0 -0.002894497302877263 0.003715081584885671 0 -0.0031769324353805727 0.0055182234326632221 0 -0.0030098578223573514 0.0055148364286066367 0 -0.0030841820662511621 0.0054664324415925197 0 -0.0029786956234804755 0.0055751138273438701 0 -0.0030841820662511621 0.0054664324415925197 0 -0.0029566688376263415 0.0054802573756742856 0 -0.0029786956234804755 0.0055751138273438701 0 -0.0028751615924479086 0.0055313059846628359 0 -0.0029566688376263415 0.0054802573756742856 0 -0.002894497302877263 0.003715081584885671 0 -0.0028179671236586027 0.0058408719022916616 0 -0.002894497302877263 0.003715081584885671 0 -0.002481957746403354 0.0019967844164679124 0 -0.002762958647835617 0.00098867795877078009 0 -0.0027736606900022978 0.0011631573495912875 0 -0.0025768024030112606 0.0011613726900208273 0 -0.0029774888799001436 0.001109713810908636 0 -0.002762958647835617 0.00098867795877078009 0 -0.0027736606900022978 0.0011631573495912875 0 -0.0025313704776139122 0.0029274581491305898 0 -0.0022998467208503537 0.0031481554971759659 0 -0.0023092615612385551 0.0030152311633420306 0 -0.0022998467208503537 0.0031481554971759659 0 -0.0020972579471604 0.0031926884574650996 0 -0.0021782774867493068 0.0030763969494807895 0 -0.0022266628462234489 0.002975021203772642 0 -0.0023092615612385551 0.0030152311633420306 0 -0.0021782774867493068 0.0030763969494807895 0 -0.0022998467208503537 0.0031481554971759659 0 -0.0023092615612385551 0.0030152311633420306 0 -0.0021782774867493068 0.0030763969494807895 0 -0.0024263903263651346 0.0037357387453077874 0 -0.0022081001290138731 0.0034421065999689117 0 -0.0019355886797049365 0.0032024756427484319 0 -0.0020068811215169582 0.0030939816279557989 0 -0.0020972579471604 0.0031926884574650996 0 -0.0020068811215169582 0.0030939816279557989 0 -0.0020972579471604 0.0031926884574650996 0 -0.0021782774867493068 0.0030763969494807895 0 -0.0020068811215169582 0.0030939816279557989 0 -0.0021038334560571624 0.0029968145994127976 0 -0.0021782774867493068 0.0030763969494807895 0 -0.0022266628462234489 0.002975021203772642 0 -0.0021038334560571624 0.0029968145994127976 0 -0.0021782774867493068 0.0030763969494807895 0 -0.0024263903263651346 0.0037357387453077874 0 -0.0022310401372062118 0.0034016169617708376 0 -0.0018704936799137817 0.0028125625190775026 0 -0.0020068811215169582 0.0030939816279557989 0 -0.0021038334560571624 0.0029968145994127976 0 -0.0025463399303084708 0.0055341255821618821 0 -0.002790635290219408 0.0056206239594435289 0 -0.0027131461404590945 0.0054973676217134485 0 -0.0018704936799137817 0.0028125625190775026 0 -0.0022292627816560932 0.0029746519830355349 0 -0.0021038334560571624 0.0029968145994127976 0 -0.0022479858128318956 0.0042510014396652538 0 -0.0024263903263651346 0.0037357387453077874 0 -0.0025463399303084708 0.0055341255821618821 0 -0.0027131461404590945 0.0054973676217134485 0 -0.0026091395502841636 0.0054081013876547063 0 -0.002894497302877263 0.003715081584885671 0 -0.0024263903263651346 0.0037357387453077874 0 -0.0029786956234804755 0.0055751138273438701 0 -0.002790635290219408 0.0056206239594435289 0 -0.0028751615924479086 0.0055313059846628359 0 -0.0025313704776139122 0.0029274581491305898 0 -0.0022323605473006172 0.0029806641299760894 0 -0.0023092615612385551 0.0030152311633420306 0 -0.002790635290219408 0.0056206239594435289 0 -0.0028003692869052708 0.005530241067921049 0 -0.0028751615924479086 0.0055313059846628359 0 -0.0027131461404590945 0.0054973676217134485 0 -0.0028003692869052708 0.005530241067921049 0 -0.0028532354267255611 0.0054392733111313122 0 -0.002790635290219408 0.0056206239594435289 0 -0.0027131461404590945 0.0054973676217134485 0 -0.0028003692869052708 0.005530241067921049 0 -0.0028751615924479086 0.0055313059846628359 0 -0.0028532354267255611 0.0054392733111313122 0 -0.0029566688376263415 0.0054802573756742856 0 -0.0028003692869052708 0.005530241067921049 0 -0.0028751615924479086 0.0055313059846628359 0 -0.0028532354267255611 0.0054392733111313122 0 -0.0028532354267255611 0.0054392733111313122 0 -0.0027355065077984035 0.0053719332179729259 0 -0.0028747237571937301 0.00527722873972283 0 -0.0028532354267255611 0.0054392733111313122 0 -0.0028747237571937301 0.00527722873972283 0 -0.0029796857690088004 0.005393784251585227 0 -0.0027131461404590945 0.0054973676217134485 0 -0.0028532354267255611 0.0054392733111313122 0 -0.0027355065077984035 0.0053719332179729259 0 -0.0027131461404590945 0.0054973676217134485 0 -0.0026091395502841636 0.0054081013876547063 0 -0.0027355065077984035 0.0053719332179729259 0 -0.0026091395502841636 0.0054081013876547063 0 -0.0027355065077984035 0.0053719332179729259 0 -0.0026069117289353855 0.0052400326279722119 0 -0.0025928875146957798 0.0053290958649687336 0 -0.0028549952428462669 0.0053513743654411182 0 -0.0027355065077984035 0.0053719332179729259 0 -0.0026069117289353855 0.0052400326279722119 0 -0.0028747237571937301 0.00527722873972283 0 -0.0028747237571937301 0.00527722873972283 0 -0.0030645296602958877 0.0053438061423975421 0 -0.0029796857690088004 0.005393784251585227 0 -0.0028549952428462669 0.0053513743654411182 0 -0.0030429911941162748 0.0053431064687930888 0 -0.0030645296602958877 0.0053438061423975421 0 -0.0030841820662511621 0.0054664324415925197 0 -0.0029796857690088004 0.005393784251585227 0 -0.0031690294780199546 0.0054277019555845777 0 -0.0030645296602958877 0.0053438061423975421 0 -0.0030841820662511621 0.0054664324415925197 0 -0.0031690294780199546 0.0054277019555845777 0 -0.0031769324353805727 0.0055182234326632221 0 -0.0030841820662511621 0.0054664324415925197 0 -0.0030841820662511621 0.0054664324415925197 0 -0.0029566688376263415 0.0054802573756742856 0 -0.0029796857690088004 0.005393784251585227 0 -0.0028532354267255611 0.0054392733111313122 0 -0.0029566688376263415 0.0054802573756742856 0 -0.0029796857690088004 0.005393784251585227 0 -0.0049996508821788079 0.0049997581381810994 0 -0.0043833926178915399 0.005035175994971176 0 -0.0046301048538951051 0.004913389441839707 0 -0.0049996508821788079 0.0049997581381810994 0 -0.0048908067604385144 0.0047166145839582464 0 -0.0049734837885098285 0.0043949620352093984 0 -0.0049996508821788079 0.0049997581381810994 0 -0.0046301048538951051 0.004913389441839707 0 -0.0048908067604385144 0.0047166145839582464 0 -0.0049996508821788079 0.0049997581381810994 0 -0.0043833926178915399 0.005035175994971176 0 -0.0039256514715577265 0.0049995736316773912 0 -0.0042770254606131815 0.0049778919527791636 0 -0.004584738330829766 0.0049528190509934436 0 -0.0043833926178915399 0.005035175994971176 0 -0.0039256514715577265 0.0049995736316773912 0 -0.0040722184972629754 0.0050991893377818594 0 -0.0037893513686338759 0.0051205923847849142 0 -0.0039256514715577265 0.0049995736316773912 0 -0.0040722184972629754 0.0050991893377818594 0 -0.0036283548474894158 0.0049932715308804608 0 -0.0035903660609400423 0.0050916901729275025 0 -0.0038430542502289845 0.0049575729101042024 0 -0.0037104553783920673 0.0050518958087280774 0 -0.0039584105728204871 0.005024423818253897 0 -0.0042770254606131815 0.0049778919527791636 0 -0.0039584105728204871 0.005024423818253897 0 -0.0041507745913933651 0.0049322283253874274 0 -0.0038430542502289845 0.0049575729101042024 0 -0.0039083534636150342 0.0050893977665437519 0 -0.0041507745913933651 0.0049322283253874274 0 -0.0039083534636150342 0.0050893977665437519 0 -0.0041231960472431712 0.0051061886476295561 0 -0.0035903660609400423 0.0050916901729275025 0 -0.0036956916906398557 0.0051660813737357683 0 -0.0038430542502289845 0.0049575729101042024 0 -0.0036956916906398557 0.0051660813737357683 0 -0.0038430542502289845 0.0049575729101042024 0 -0.0039083534636150342 0.0050893977665437519 0 -0.0036956916906398557 0.0051660813737357683 0 -0.0039083534636150342 0.0050893977665437519 0 -0.0037890925454808315 0.0052827421639696764 0 -0.0039083534636150342 0.0050893977665437519 0 -0.0037890925454808315 0.0052827421639696764 0 -0.0039886335487361721 0.0052481083031408124 0 -0.0037890925454808315 0.0052827421639696764 0 -0.0039886335487361721 0.0052481083031408124 0 -0.0040178394056690821 0.0053507923175263369 0 -0.0039083534636150342 0.0050893977665437519 0 -0.0041231960472431712 0.0051061886476295561 0 -0.0039886335487361721 0.0052481083031408124 0 -0.0040990653743842361 0.0052270510213857594 0 -0.0040285735868097949 0.0053924564734205548 0 -0.0042566515563611266 0.0051859304497132146 0 -0.0040990653743842361 0.0052270510213857594 0 -0.0039886335487361721 0.0052481083031408124 0 -0.0040285735868097949 0.0053924564734205548 0 -0.0041231960472431712 0.0051061886476295561 0 -0.0040990653743842361 0.0052270510213857594 0 -0.0039886335487361721 0.0052481083031408124 0 -0.0043650538289576679 0.0051386555781855739 0 -0.0042850236040660843 0.0037572785786291244 0 -0.0038333830296157141 0.000820930021171808 0 -0.0041337346301403436 0.00079192868235565918 0 -0.0040120288555792818 0.0009668951380219443 0 -0.0037186565538127252 0.0030374170224301885 0 -0.0042850236040660843 0.0037572785786291244 0 -0.0036766228098584221 0.0054402483262169189 0 -0.0037890925454808315 0.0052827421639696764 0 -0.0040178394056690821 0.0053507923175263369 0 -0.0038333830296157141 0.000820930021171808 0 -0.0037528991950710588 0.0010701305767974966 0 -0.0040120288555792818 0.0009668951380219443 0 -0.0037528991950710588 0.0010701305767974966 0 -0.0040120288555792818 0.0009668951380219443 0 -0.0039372295165720095 0.0011609779917898788 0 -0.0039372295165720095 0.0011609779917898788 0 -0.0042442634853895348 0.0010527379638918947 0 -0.0041509980118361114 0.0012621013039137363 0 -0.0040120288555792818 0.0009668951380219443 0 -0.0039372295165720095 0.0011609779917898788 0 -0.0042442634853895348 0.0010527379638918947 0 -0.0041337346301403436 0.00079192868235565918 0 -0.0040120288555792818 0.0009668951380219443 0 -0.0042442634853895348 0.0010527379638918947 0 -0.0042850236040660843 0.0037572785786291244 0 -0.0050076203541286994 0.0023421422900426008 0 -0.0057612054646572217 0.0044873805101677405 0 -0.0055553036460166041 0.0043415994380828805 0 -0.0056317068708475783 0.0040857951342551475 0 -0.0055553036460166041 0.0043415994380828805 0 -0.0056317068708475783 0.0040857951342551475 0 -0.0053452969745100528 0.0040714453208894677 0 -0.0050076203541286994 0.0023421422900426008 0 -0.0049398623481772654 0.0025733449388773209 0 -0.0056317068708475783 0.0040857951342551475 0 -0.0053452969745100528 0.0040714453208894677 0 -0.0055074774714215843 0.0037142724056204069 0 -0.0053452969745100528 0.0040714453208894677 0 -0.0053284891133129047 0.0043239550047597117 0 -0.0051787425089823806 0.0042152307940670174 0 -0.0055553036460166041 0.0043415994380828805 0 -0.0053452969745100528 0.0040714453208894677 0 -0.0053284891133129047 0.0043239550047597117 0 -0.0055553036460166041 0.0043415994380828805 0 -0.0053284891133129047 0.0043239550047597117 0 -0.0054203492107228182 0.0045925152860559811 0 -0.0053284891133129047 0.0043239550047597117 0 -0.0054203492107228182 0.0045925152860559811 0 -0.0051566183185831147 0.0044420887833527311 0 -0.0040285735868097949 0.0053924564734205548 0 -0.0045474863455780045 0.0051701660531916051 0 -0.0042566515563611266 0.0051859304497132146 0 -0.0057612054646572217 0.0044873805101677405 0 -0.0055553036460166041 0.0043415994380828805 0 -0.0054203492107228182 0.0045925152860559811 0 -0.0042850236040660843 0.0037572785786291244 0 -0.0050702456634786801 0.0049889876194153934 0 -0.0045474863455780045 0.0051701660531916051 0 -0.0042566515563611266 0.0051859304497132146 0 -0.0043354771406654896 0.0050498320871428318 0 -0.0041507745913933651 0.0049322283253874274 0 -0.0043354771406654896 0.0050498320871428318 0 -0.0046301048538951051 0.004913389441839707 0 -0.0041231960472431712 0.0051061886476295561 0 -0.0040990653743842361 0.0052270510213857594 0 -0.0042566515563611266 0.0051859304497132146 0 -0.0041507745913933651 0.0049322283253874274 0 -0.0041231960472431712 0.0051061886476295561 0 -0.0043354771406654896 0.0050498320871428318 0 -0.0041231960472431712 0.0051061886476295561 0 -0.0042566515563611266 0.0051859304497132146 0 -0.0043354771406654896 0.0050498320871428318 0 -0.0045474863455780045 0.0051701660531916051 0 -0.0046301048538951051 0.004913389441839707 0 -0.0048908067604385144 0.0047166145839582464 0 -0.0045474863455780045 0.0051701660531916051 0 -0.0043354771406654896 0.0050498320871428318 0 -0.0046301048538951051 0.004913389441839707 0 -0.0049996508821788079 0.0049997581381810994 0 -0.0049995812905841317 0.0037740094758020111 0 -0.0049734837885098285 0.0043949620352093984 0 -0.0050702456634786801 0.0049889876194153934 0 -0.0048420213878839413 0.0047345396247645737 0 -0.0048908067604385144 0.0047166145839582464 0 -0.0050105626786342639 0.0043165106669407361 0 -0.0049734837885098285 0.0043949620352093984 0 -0.0048908067604385144 0.0047166145839582464 0 -0.0051566183185831147 0.0044420887833527311 0 -0.0050105626786342639 0.0043165106669407361 0 -0.0054203492107228182 0.0045925152860559811 0 -0.0048908067604385144 0.0047166145839582464 0 -0.0051566183185831147 0.0044420887833527311 0 -0.0053284891133129047 0.0043239550047597117 0 -0.0051566183185831147 0.0044420887833527311 0 -0.0051787425089823806 0.0042152307940670174 0 -0.0051787425089823806 0.0042152307940670174 0 -0.0050686170312918364 0.004048339098623511 0 -0.0050105626786342639 0.0043165106669407361 0 -0.0051566183185831147 0.0044420887833527311 0 -0.0051787425089823806 0.0042152307940670174 0 -0.0050105626786342639 0.0043165106669407361 0 -0.0053452969745100528 0.0040714453208894677 0 -0.0050686170312918364 0.004048339098623511 0 -0.005184814178556498 0.0037883594800923264 0 -0.0053452969745100528 0.0040714453208894677 0 -0.0051787425089823806 0.0042152307940670174 0 -0.0050686170312918364 0.004048339098623511 0 -0.0050686170312918364 0.004048339098623511 0 -0.0048507399919708255 0.0041256909519249438 0 -0.0048539755474346245 0.0037554630643214593 0 -0.0050105626786342639 0.0043165106669407361 0 -0.0048507399919708255 0.0041256909519249438 0 -0.0049734837885098285 0.0043949620352093984 0 -0.0050686170312918364 0.004048339098623511 0 -0.0050105626786342639 0.0043165106669407361 0 -0.0048507399919708255 0.0041256909519249438 0 -0.005152120771898085 0.0039723310208184129 0 -0.0049995812905841317 0.0037740094758020111 0 -0.0049734837885098285 0.0043949620352093984 0 -0.0049994127859828933 0.004044551277250852 0 -0.0049813653832598403 0.0043560885940899744 0 -0.0049994127859828933 0.004044551277250852 0 -0.0050225127251376398 0.0037033795520114263 0 -0.005152120771898085 0.0039723310208184129 0 -0.0049995812905841317 0.0037740094758020111 0 -0.0051939551481479237 0.0036460430706454286 0 -0.0049995812905841317 0.0037740094758020111 0 -0.0051592805047544982 0.0033743318798644586 0 -0.0050000258165690528 0.0031109136404210242 0 -0.0051592805047544982 0.0033743318798644586 0 -0.0050460669478898179 0.0031806273532096027 0 -0.0050000258165690528 0.0031109136404210242 0 -0.004904391450657325 0.003429940477357004 0 -0.0050593890709761721 0.0032559174307943139 0 -0.0050460669478898179 0.0031806273532096027 0 -0.0050334478595921578 0.0034100794943692854 0 -0.0050419020265777001 0.0032072806119976143 0 -0.0050593890709761721 0.0032559174307943139 0 -0.0050460669478898179 0.0031806273532096027 0 -0.0050469064465554839 0.0031803881265322063 0 -0.0049995812905841317 0.0037740094758020111 0 -0.0051592805047544982 0.0033743318798644586 0 -0.0051939551481479237 0.0036460430706454286 0 -0.0050334478595921578 0.0034100794943692854 0 -0.0050225127251376398 0.0037033795520114263 0 -0.004904391450657325 0.003429940477357004 0 -0.0048539755474346245 0.0037554630643214593 0 -0.0051463130593066312 0.0034791298176725855 0 -0.0048539755474346245 0.0037554630643214593 0 -0.005184814178556498 0.0037883594800923264 0 -0.0051463130593066312 0.0034791298176725855 0 -0.005184814178556498 0.0037883594800923264 0 -0.0051463130593066312 0.0034791298176725855 0 -0.0055074774714215843 0.0037142724056204069 0 -0.0050686170312918364 0.004048339098623511 0 -0.0048539755474346245 0.0037554630643214593 0 -0.005184814178556498 0.0037883594800923264 0 -0.0051463130593066312 0.0034791298176725855 0 -0.0052193790666655781 0.0032917595410287409 0 -0.0054028816621137787 0.0033911298456089718 0 -0.0051463130593066312 0.0034791298176725855 0 -0.0050593890709761721 0.0032559174307943139 0 -0.0052193790666655781 0.0032917595410287409 0 -0.004904391450657325 0.003429940477357004 0 -0.0051463130593066312 0.0034791298176725855 0 -0.0050593890709761721 0.0032559174307943139 0 -0.0050593890709761721 0.0032559174307943139 0 -0.0052193790666655781 0.0032917595410287409 0 -0.00512287911422773 0.0031662343508220784 0 -0.0052193790666655781 0.0032917595410287409 0 -0.0054028816621137787 0.0033911298456089718 0 -0.0052988074187351655 0.0031305506884336076 0 -0.004935161634593916 0.0024993896229533112 0 -0.0050246743789832864 0.0024360316793802872 0 -0.0044571762474225089 0.0017460689218094232 0 -0.0044963459516968105 0.0016114598127537113 0 -0.0045683677125482828 0.0018278932682646183 0 -0.0044571762474225089 0.0017460689218094232 0 -0.004338740965782851 0.0016992447194655051 0 -0.0044963459516968105 0.0016114598127537113 0 -0.0044571762474225089 0.0017460689218094232 0 -0.004338740965782851 0.0016992447194655051 0 -0.0044223044371713626 0.0018257856527561815 0 -0.004338740965782851 0.0016992447194655051 0 -0.0044963459516968105 0.0016114598127537113 0 -0.0042524381272357635 0.0014951184794678473 0 -0.004935161634593916 0.0024993896229533112 0 -0.0049398623481772654 0.0025733449388773209 0 -0.0051463130593066312 0.0034791298176725855 0 -0.0054028816621137787 0.0033911298456089718 0 -0.0055074774714215843 0.0037142724056204069 0 -0.0053452969745100528 0.0040714453208894677 0 -0.005184814178556498 0.0037883594800923264 0 -0.0055074774714215843 0.0037142724056204069 0 -0.0042442634853895348 0.0010527379638918947 0 -0.0043762822383734586 0.0013344965253831477 0 -0.0041509980118361114 0.0012621013039137363 0 -0.0043762822383734586 0.0013344965253831477 0 -0.0042524381272357635 0.0014951184794678473 0 -0.0041509980118361114 0.0012621013039137363 0 -0.0044963459516968105 0.0016114598127537113 0 -0.0043762822383734586 0.0013344965253831477 0 -0.0042524381272357635 0.0014951184794678473 0 -0.0042524381272357635 0.0014951184794678473 0 -0.0041509980118361114 0.0012621013039137363 0 -0.0039617701719560942 0.0013746367054656553 0 -0.0039372295165720095 0.0011609779917898788 0 -0.0039617701719560942 0.0013746367054656553 0 -0.0037061912400609982 0.0012881655429375261 0 -0.0039372295165720095 0.0011609779917898788 0 -0.0041509980118361114 0.0012621013039137363 0 -0.0039617701719560942 0.0013746367054656553 0 -0.0039617701719560942 0.0013746367054656553 0 -0.0040170826493617154 0.0015784276307278251 0 -0.0037012256935512263 0.001523320460596049 0 -0.0040170826493617154 0.0015784276307278251 0 -0.0037012256935512263 0.001523320460596049 0 -0.0038044848805655921 0.0016676533379598895 0 -0.0039707140309065388 0.0013822575587636621 0 -0.004077526806746821 0.0016054334132828186 0 -0.0042524381272357635 0.0014951184794678473 0 -0.0039617701719560942 0.0013746367054656553 0 -0.0041404424533645137 0.0016495195928255654 0 -0.004338740965782851 0.0016992447194655051 0 -0.0042524381272357635 0.0014951184794678473 0 -0.0041404424533645137 0.0016495195928255654 0 -0.0040170826493617154 0.0015784276307278251 0 -0.0039357885014478441 0.0017407583542041285 0 -0.004149447122428181 0.0017918989490939318 0 -0.004077526806746821 0.0016054334132828186 0 -0.0042265411895997789 0.00182245473911737 0 -0.004338740965782851 0.0016992447194655051 0 -0.0041404424533645137 0.0016495195928255654 0 -0.0042887800451175597 0.0018398000237848226 0 -0.0040170826493617154 0.0015784276307278251 0 -0.0039357885014478441 0.0017407583542041285 0 -0.0038044848805655921 0.0016676533379598895 0 -0.0039357885014478441 0.0017407583542041285 0 -0.0039392279436994571 0.0018992740125398538 0 -0.0037408956428032253 0.0018097947889679879 0 -0.0039357885014478441 0.0017407583542041285 0 -0.004149447122428181 0.0017918989490939318 0 -0.0039392279436994571 0.0018992740125398538 0 -0.0041258093597607197 0.0019489743085160059 0 -0.0040262235641084151 0.00206370214941744 0 -0.0044102406705485812 0.0020643980631731601 0 -0.0042265411895997789 0.00182245473911737 0 -0.0043889130891769058 0.002060647101506921 0 -0.004149447122428181 0.0017918989490939318 0 -0.0041258093597607197 0.0019489743085160059 0 -0.0039392279436994571 0.0018992740125398538 0 -0.004149447122428181 0.0017918989490939318 0 -0.0041258093597607197 0.0019489743085160059 0 -0.0044102406705485812 0.0020643980631731601 0 -0.0039392279436994571 0.0018992740125398538 0 -0.0038375820607032159 0.0021235240651616594 0 -0.0040262235641084151 0.00206370214941744 0 -0.0041258093597607197 0.0019489743085160059 0 -0.0039392279436994571 0.0018992740125398538 0 -0.0040262235641084151 0.00206370214941744 0 -0.0038375820607032159 0.0021235240651616594 0 -0.0040262235641084151 0.00206370214941744 0 -0.003890079526065719 0.0022739533429745351 0 -0.003890079526065719 0.0022739533429745351 0 -0.0037498842931675911 0.0023966868991618746 0 -0.0039593997944920587 0.0024269829596414746 0 -0.003890079526065719 0.0022739533429745351 0 -0.0040943645756439367 0.0023085093458175368 0 -0.0039593997944920587 0.0024269829596414746 0 -0.0040262235641084151 0.00206370214941744 0 -0.004380936667779836 0.002232937799775674 0 -0.0044102406705485812 0.0020643980631731601 0 -0.0040262235641084151 0.00206370214941744 0 -0.003890079526065719 0.0022739533429745351 0 -0.0040943645756439367 0.0023085093458175368 0 -0.0040412502691736527 0.0020599517656449441 0 -0.0042282655119554105 0.0022535059479583531 0 -0.0044102406705485812 0.0020643980631731601 0 -0.0045754607404945918 0.0021006397683709529 0 -0.0045723283645694472 0.0021946312906420042 0 -0.0044102406705485812 0.0020643980631731601 0 -0.0045754607404945918 0.0021006397683709529 0 -0.004496572743286264 0.0019573704792882111 0 -0.004380936667779836 0.002232937799775674 0 -0.0045723283645694472 0.0021946312906420042 0 -0.0046627652602968181 0.0022717615004226627 0 -0.004380936667779836 0.002232937799775674 0 -0.0044102406705485812 0.0020643980631731601 0 -0.0045723283645694472 0.0021946312906420042 0 -0.0047322416979675456 0.002186061043101067 0 -0.004708380796464782 0.0022153201515680032 0 -0.0047829444051264436 0.002203393211685833 0 -0.0047322416979675456 0.002186061043101067 0 -0.004708380796464782 0.0022153201515680032 0 -0.0046747204864128703 0.0021656629217279141 0 -0.0045723283645694472 0.0021946312906420042 0 -0.004708380796464782 0.0022153201515680032 0 -0.0046747204864128703 0.0021656629217279141 0 -0.0045754607404945918 0.0021006397683709529 0 -0.0045723283645694472 0.0021946312906420042 0 -0.0046747204864128703 0.0021656629217279141 0 -0.0047322416979675456 0.002186061043101067 0 -0.0046747204864128703 0.0021656629217279141 0 -0.0047351672823737565 0.0021468618663684456 0 -0.0047322416979675456 0.002186061043101067 0 -0.0047351672823737565 0.0021468618663684456 0 -0.0047679049170512655 0.0021694263036639459 0 -0.0046747204864128703 0.0021656629217279141 0 -0.0047351672823737565 0.0021468618663684456 0 -0.0046996897131971341 0.0020961588717853083 0 -0.0045754607404945918 0.0021006397683709529 0 -0.0046341663581415098 0.0020343286192652053 0 -0.004496572743286264 0.0019573704792882111 0 -0.0047351672823737565 0.0021468618663684456 0 -0.0046996897131971341 0.0020961588717853083 0 -0.0047558452535441916 0.0021120387390869814 0 -0.0045754607404945918 0.0021006397683709529 0 -0.0046747204864128703 0.0021656629217279141 0 -0.0046996897131971341 0.0020961588717853083 0 -0.0045754607404945918 0.0021006397683709529 0 -0.0046996897131971341 0.0020961588717853083 0 -0.0046341663581415098 0.0020343286192652053 0 -0.0046996897131971341 0.0020961588717853083 0 -0.0047100730629510701 0.0020373325479478835 0 -0.0047455591329834826 0.0020764887059666007 0 -0.0046996897131971341 0.0020961588717853083 0 -0.0046341663581415098 0.0020343286192652053 0 -0.0047100730629510701 0.0020373325479478835 0 -0.0047100730629510701 0.0020373325479478835 0 -0.0046384089216001947 0.0019536001213781642 0 -0.0047343514736247743 0.0019814032310558091 0 -0.0046384089216001947 0.0019536001213781642 0 -0.0047127490049434983 0.0017821882763229071 0 -0.0047343514736247743 0.0019814032310558091 0 -0.0046341663581415098 0.0020343286192652053 0 -0.0047100730629510701 0.0020373325479478835 0 -0.0046384089216001947 0.0019536001213781642 0 -0.0046384089216001947 0.0019536001213781642 0 -0.004496572743286264 0.0019573704792882111 0 -0.0045652081452243433 0.0018823309681997899 0 -0.0046341663581415098 0.0020343286192652053 0 -0.0046384089216001947 0.0019536001213781642 0 -0.004496572743286264 0.0019573704792882111 0 -0.0042887800451175597 0.0018398000237848226 0 -0.0044102406705485812 0.0020643980631731601 0 -0.004496572743286264 0.0019573704792882111 0 -0.004496572743286264 0.0019573704792882111 0 -0.0044223044371713626 0.0018257856527561815 0 -0.0045652081452243433 0.0018823309681997899 0 -0.004338740965782851 0.0016992447194655051 0 -0.0042887800451175597 0.0018398000237848226 0 -0.0044223044371713626 0.0018257856527561815 0 -0.0042887800451175597 0.0018398000237848226 0 -0.004496572743286264 0.0019573704792882111 0 -0.0044223044371713626 0.0018257856527561815 0 -0.0046384089216001947 0.0019536001213781642 0 -0.0045652081452243433 0.0018823309681997899 0 -0.0047127490049434983 0.0017821882763229071 0 -0.0044571762474225089 0.0017460689218094232 0 -0.0044223044371713626 0.0018257856527561815 0 -0.0045683677125482828 0.0018278932682646183 0 -0.0044223044371713626 0.0018257856527561815 0 -0.0045652081452243433 0.0018823309681997899 0 -0.0047127490049434983 0.0017821882763229071 0 -0.0042986702992099659 0.0017246650886833335 0 -0.0050246743789832864 0.0024360316793802872 0 -0.0050246743789832864 0.0024360316793802872 0 -0.0053266949045708955 0.0031358958827756573 0 -0.0055617746098645827 0.0030253357976690121 0 -0.0053820543945936597 0.0030481172083510763 0 -0.0054621970079611918 0.0029322813814830714 0 -0.0052193790666655781 0.0032917595410287409 0 -0.0052988074187351655 0.0031305506884336076 0 -0.00512287911422773 0.0031662343508220784 0 -0.0050593890709761721 0.0032559174307943139 0 -0.00512287911422773 0.0031662343508220784 0 -0.0050469064465554839 0.0031803881265322063 0 -0.0053820543945936597 0.0030481172083510763 0 -0.005374554435627679 0.002940055759328577 0 -0.0052760746115371321 0.0029697472846133342 0 -0.0053820543945936597 0.0030481172083510763 0 -0.005374554435627679 0.002940055759328577 0 -0.0054621970079611918 0.0029322813814830714 0 -0.005374554435627679 0.002940055759328577 0 -0.0054159991919124116 0.0028876789561991258 0 -0.0053851700910604065 0.0028391931783542453 0 -0.005374554435627679 0.002940055759328577 0 -0.0054159991919124116 0.0028876789561991258 0 -0.0054621970079611918 0.0029322813814830714 0 -0.005374554435627679 0.002940055759328577 0 -0.00528565588845581 0.0028476736494070834 0 -0.0052760746115371321 0.0029697472846133342 0 -0.005374554435627679 0.002940055759328577 0 -0.0053851700910604065 0.0028391931783542453 0 -0.00528565588845581 0.0028476736494070834 0 -0.0054159991919124116 0.0028876789561991258 0 -0.0053851700910604065 0.0028391931783542453 0 -0.0054414533194922024 0.0028386847522971865 0 -0.0053851700910604065 0.0028391931783542453 0 -0.0054414533194922024 0.0028386847522971865 0 -0.0054213759007301155 0.0027665440904593732 0 -0.0054414533194922024 0.0028386847522971865 0 -0.0054507739286687668 0.0027725775427435537 0 -0.0054940586477658692 0.002795594506429331 0 -0.0050246743789832864 0.0024360316793802872 0 -0.0051762460889606225 0.0024058723274665377 0 -0.0054414533194922024 0.0028386847522971865 0 -0.0054621970079611918 0.0029322813814830714 0 -0.0054940586477658692 0.002795594506429331 0 -0.0047127490049434983 0.0017821882763229071 0 -0.0047343514736247743 0.0019814032310558091 0 -0.0048003827552496369 0.0020377535503137275 0 -0.0055617746098645827 0.0030253357976690121 0 -0.0054621970079611918 0.0029322813814830714 0 -0.0054940586477658692 0.002795594506429331 0 -0.0054159991919124116 0.0028876789561991258 0 -0.0054414533194922024 0.0028386847522971865 0 -0.0054621970079611918 0.0029322813814830714 0 -0.0047343514736247743 0.0019814032310558091 0 -0.0047769514452630397 0.0020340237400269618 0 -0.0048003827552496369 0.0020377535503137275 0 -0.0047343514736247743 0.0019814032310558091 0 -0.0047769514452630397 0.0020340237400269618 0 -0.0047580840783415798 0.0020472011425413401 0 -0.0047100730629510701 0.0020373325479478835 0 -0.0047343514736247743 0.0019814032310558091 0 -0.0047580840783415798 0.0020472011425413401 0 -0.0047100730629510701 0.0020373325479478835 0 -0.0047580840783415798 0.0020472011425413401 0 -0.0047455591329834826 0.0020764887059666007 0 -0.0047769514452630397 0.0020340237400269618 0 -0.004781045059773335 0.0020504137990101311 0 -0.0047580840783415798 0.0020472011425413401 0 -0.0047769514452630397 0.0020340237400269618 0 -0.004781045059773335 0.0020504137990101311 0 -0.0048003827552496369 0.0020377535503137275 0 -0.004781045059773335 0.0020504137990101311 0 -0.0047735319405086676 0.002068925047990985 0 -0.0047918918870085946 0.0020642667720262914 0 -0.004781045059773335 0.0020504137990101311 0 -0.0047580840783415798 0.0020472011425413401 0 -0.0047735319405086676 0.002068925047990985 0 -0.0047580840783415798 0.0020472011425413401 0 -0.0047735319405086676 0.002068925047990985 0 -0.0047455591329834826 0.0020764887059666007 0 -0.0047735319405086676 0.002068925047990985 0 -0.0047877322766162658 0.0020802786412072471 0 -0.0047918918870085946 0.0020642667720262914 0 -0.0047735319405086676 0.002068925047990985 0 -0.0047877322766162658 0.0020802786412072471 0 -0.004776811102464854 0.0020929725538008886 0 -0.0047877322766162658 0.0020802786412072471 0 -0.0047944320799344258 0.0020934898537252819 0 -0.004776811102464854 0.0020929725538008886 0 -0.0047735319405086676 0.002068925047990985 0 -0.0047455591329834826 0.0020764887059666007 0 -0.004776811102464854 0.0020929725538008886 0 -0.0054507739286687668 0.0027725775427435537 0 -0.0054453306857175929 0.0026773510300656016 0 -0.0054213759007301155 0.0027665440904593732 0 -0.0054940586477658692 0.002795594506429331 0 -0.0054677478733035296 0.0027094977069223587 0 -0.0054453306857175929 0.0026773510300656016 0 -0.0048003827552496369 0.0020377535503137275 0 -0.0047918918870085946 0.0020642667720262914 0 -0.0048207807475836046 0.0021028858874886855 0 -0.0051762460889606225 0.0024058723274665377 0 -0.0052584563044537225 0.0024843639775959016 0 -0.0054507739286687668 0.0027725775427435537 0 -0.0054940586477658692 0.002795594506429331 0 -0.0054453306857175929 0.0026773510300656016 0 -0.0054414533194922024 0.0028386847522971865 0 -0.0054507739286687668 0.0027725775427435537 0 -0.0054213759007301155 0.0027665440904593732 0 -0.004781045059773335 0.0020504137990101311 0 -0.0048003827552496369 0.0020377535503137275 0 -0.0047918918870085946 0.0020642667720262914 0 -0.0047877322766162658 0.0020802786412072471 0 -0.0047918918870085946 0.0020642667720262914 0 -0.0048207807475836046 0.0021028858874886855 0 -0.0054677478733035296 0.0027094977069223587 0 -0.0054453306857175929 0.0026773510300656016 0 -0.0054203588764260855 0.0025656789621678507 0 -0.0047877322766162658 0.0020802786412072471 0 -0.0048207807475836046 0.0021028858874886855 0 -0.0047944320799344258 0.0020934898537252819 0 -0.0048207807475836046 0.0021028858874886855 0 -0.0047945440367272822 0.0021061236323051502 0 -0.0048011477363991573 0.0021182225687673144 0 -0.0048207807475836046 0.0021028858874886855 0 -0.0048011477363991573 0.0021182225687673144 0 -0.0048136238563977586 0.0021219148620659572 0 -0.0048207807475836046 0.0021028858874886855 0 -0.0047944320799344258 0.0020934898537252819 0 -0.0047945440367272822 0.0021061236323051502 0 -0.0047945440367272822 0.0021061236323051502 0 -0.0048011477363991573 0.0021182225687673144 0 -0.0047846034095011094 0.0021173517865775283 0 -0.0048091153702660384 0.002138557196686978 0 -0.0048136238563977586 0.0021219148620659572 0 -0.0048278527055803915 0.0021465922552749038 0 -0.0048011477363991573 0.0021182225687673144 0 -0.0047993255670695885 0.0021319393520303279 0 -0.0048136238563977586 0.0021219148620659572 0 -0.0048011477363991573 0.0021182225687673144 0 -0.0047993255670695885 0.0021319393520303279 0 -0.0047846034095011094 0.0021173517865775283 0 -0.0047993255670695885 0.0021319393520303279 0 -0.0048091153702660384 0.002138557196686978 0 -0.0048136238563977586 0.0021219148620659572 0 -0.0048207807475836046 0.0021028858874886855 0 -0.0048136238563977586 0.0021219148620659572 0 -0.0048278527055803915 0.0021465922552749038 0 -0.0052584563044537225 0.0024843639775959016 0 -0.0051648769984804586 0.0023851366238398166 0 -0.0046996897131971341 0.0020961588717853083 0 -0.0047455591329834826 0.0020764887059666007 0 -0.0047558452535441916 0.0021120387390869814 0 -0.0047455591329834826 0.0020764887059666007 0 -0.0047558452535441916 0.0021120387390869814 0 -0.004776811102464854 0.0020929725538008886 0 -0.0047944320799344258 0.0020934898537252819 0 -0.0047945440367272822 0.0021061236323051502 0 -0.004776811102464854 0.0020929725538008886 0 -0.0047945440367272822 0.0021061236323051502 0 -0.004776811102464854 0.0020929725538008886 0 -0.0047846034095011094 0.0021173517865775283 0 -0.0047558452535441916 0.0021120387390869814 0 -0.004776811102464854 0.0020929725538008886 0 -0.0047846034095011094 0.0021173517865775283 0 -0.0047558452535441916 0.0021120387390869814 0 -0.0047846034095011094 0.0021173517865775283 0 -0.0047764321411731302 0.0021385679891058594 0 -0.0047993255670695885 0.0021319393520303279 0 -0.0047846034095011094 0.0021173517865775283 0 -0.0047764321411731302 0.0021385679891058594 0 -0.0047351672823737565 0.0021468618663684456 0 -0.0047558452535441916 0.0021120387390869814 0 -0.0047764321411731302 0.0021385679891058594 0 -0.0047351672823737565 0.0021468618663684456 0 -0.0047764321411731302 0.0021385679891058594 0 -0.0047679049170512655 0.0021694263036639459 0 -0.0047679049170512655 0.0021694263036639459 0 -0.0048071517716814088 0.0021723881580036665 0 -0.0047988748411521504 0.002185623406555559 0 -0.0047679049170512655 0.0021694263036639459 0 -0.0048008476437115697 0.0021514706641966304 0 -0.0048071517716814088 0.0021723881580036665 0 -0.0047764321411731302 0.0021385679891058594 0 -0.0047679049170512655 0.0021694263036639459 0 -0.0048008476437115697 0.0021514706641966304 0 -0.0047993255670695885 0.0021319393520303279 0 -0.0047764321411731302 0.0021385679891058594 0 -0.0048008476437115697 0.0021514706641966304 0 -0.0052584563044537225 0.0024843639775959016 0 -0.0054370266903298273 0.0026532743800473449 0 -0.0051648769984804586 0.0023851366238398166 0 -0.005139985363064494 0.0023664125994781828 0 -0.0054344447645771985 0.0026059192410142454 0 -0.0054203588764260855 0.0025656789621678507 0 -0.0054313034307233868 0.0025510184115572613 0 -0.0054358516583051155 0.0026427002628864864 0 -0.0054344447645771985 0.0026059192410142454 0 -0.0054203588764260855 0.0025656789621678507 0 -0.0048008476437115697 0.0021514706641966304 0 -0.0048278527055803915 0.0021465922552749038 0 -0.0048153488216606003 0.0021620844375269841 0 -0.0047993255670695885 0.0021319393520303279 0 -0.0048091153702660384 0.002138557196686978 0 -0.0048008476437115697 0.0021514706641966304 0 -0.0048091153702660384 0.002138557196686978 0 -0.0048008476437115697 0.0021514706641966304 0 -0.0048278527055803915 0.0021465922552749038 0 -0.0048278527055803915 0.0021465922552749038 0 -0.0048216317761769576 0.0021733781998721463 0 -0.0048375281242783686 0.0021922070053156757 0 -0.0048278527055803915 0.0021465922552749038 0 -0.0048216317761769576 0.0021733781998721463 0 -0.0048153488216606003 0.0021620844375269841 0 -0.0048008476437115697 0.0021514706641966304 0 -0.0048153488216606003 0.0021620844375269841 0 -0.0048071517716814088 0.0021723881580036665 0 -0.0048216317761769576 0.0021733781998721463 0 -0.0048153488216606003 0.0021620844375269841 0 -0.0048071517716814088 0.0021723881580036665 0 -0.0048216317761769576 0.0021733781998721463 0 -0.0048071517716814088 0.0021723881580036665 0 -0.004819450087916336 0.0021856844391306769 0 -0.004819450087916336 0.0021856844391306769 0 -0.0048201776865725715 0.0021961958931753698 0 -0.0047988748411521504 0.002185623406555559 0 -0.0048071517716814088 0.0021723881580036665 0 -0.004819450087916336 0.0021856844391306769 0 -0.0047988748411521504 0.002185623406555559 0 -0.0048216317761769576 0.0021733781998721463 0 -0.004819450087916336 0.0021856844391306769 0 -0.0048375281242783686 0.0021922070053156757 0 -0.004819450087916336 0.0021856844391306769 0 -0.0048201776865725715 0.0021961958931753698 0 -0.0048375281242783686 0.0021922070053156757 0 -0.0047322416979675456 0.002186061043101067 0 -0.0047679049170512655 0.0021694263036639459 0 -0.0047829444051264436 0.002203393211685833 0 -0.0047679049170512655 0.0021694263036639459 0 -0.0047829444051264436 0.002203393211685833 0 -0.0047988748411521504 0.002185623406555559 0 -0.0048201776865725715 0.0021961958931753698 0 -0.0047829444051264436 0.002203393211685833 0 -0.0047988748411521504 0.002185623406555559 0 -0.0054203588764260855 0.0025656789621678507 0 -0.0053064839787084006 0.002600700308389972 0 -0.0053029061289090523 0.0024853609514099537 0 -0.0054203588764260855 0.0025656789621678507 0 -0.0054313034307233868 0.0025510184115572613 0 -0.0053029061289090523 0.0024853609514099537 0 -0.0054203588764260855 0.0025656789621678507 0 -0.0053687334904718798 0.002633930938399128 0 -0.0053064839787084006 0.002600700308389972 0 -0.0054453306857175929 0.0026773510300656016 0 -0.0054203588764260855 0.0025656789621678507 0 -0.0054083971289372269 0.0026374166245101624 0 -0.0054203588764260855 0.0025656789621678507 0 -0.0054083971289372269 0.0026374166245101624 0 -0.0053687334904718798 0.002633930938399128 0 -0.0054083971289372269 0.0026374166245101624 0 -0.0053687334904718798 0.002633930938399128 0 -0.005399267836625957 0.0026725954153203821 0 -0.0053687334904718798 0.002633930938399128 0 -0.0053064839787084006 0.002600700308389972 0 -0.0053577085317016628 0.0027202730928589281 0 -0.0053687334904718798 0.002633930938399128 0 -0.0053577085317016628 0.0027202730928589281 0 -0.005399267836625957 0.0026725954153203821 0 -0.0054453306857175929 0.0026773510300656016 0 -0.0054050938299117068 0.0027090778873084488 0 -0.0054213759007301155 0.0027665440904593732 0 -0.0054453306857175929 0.0026773510300656016 0 -0.0054083971289372269 0.0026374166245101624 0 -0.005399267836625957 0.0026725954153203821 0 -0.0054453306857175929 0.0026773510300656016 0 -0.005399267836625957 0.0026725954153203821 0 -0.0054050938299117068 0.0027090778873084488 0 -0.0053577085317016628 0.0027202730928589281 0 -0.005399267836625957 0.0026725954153203821 0 -0.0054050938299117068 0.0027090778873084488 0 -0.0053851700910604065 0.0028391931783542453 0 -0.0053577085317016628 0.0027202730928589281 0 -0.0054213759007301155 0.0027665440904593732 0 -0.0053577085317016628 0.0027202730928589281 0 -0.0054050938299117068 0.0027090778873084488 0 -0.0054213759007301155 0.0027665440904593732 0 -0.0053851700910604065 0.0028391931783542453 0 -0.0053577085317016628 0.0027202730928589281 0 -0.00528565588845581 0.0028476736494070834 0 -0.0051904174160701984 0.0025902260321837328 0 -0.0050000027101098909 0.0027995834786315181 0 -0.0051397180574356055 0.0029339580531589338 0 -0.0051904174160701984 0.0025902260321837328 0 -0.0051397180574356055 0.0029339580531589338 0 -0.00528565588845581 0.0028476736494070834 0 -0.0053577085317016628 0.0027202730928589281 0 -0.0051904174160701984 0.0025902260321837328 0 -0.00528565588845581 0.0028476736494070834 0 -0.0053064839787084006 0.002600700308389972 0 -0.0053577085317016628 0.0027202730928589281 0 -0.0051904174160701984 0.0025902260321837328 0 -0.0053064839787084006 0.002600700308389972 0 -0.0051904174160701984 0.0025902260321837328 0 -0.0053029061289090523 0.0024853609514099537 0 -0.0050000027101098909 0.0027995834786315181 0 -0.0051397180574356055 0.0029339580531589338 0 -0.0049999876243411144 0.0031111129140620883 0 -0.0051397180574356055 0.0029339580531589338 0 -0.00528565588845581 0.0028476736494070834 0 -0.0052760746115371321 0.0029697472846133342 0 -0.0053266949045708955 0.0031358958827756573 0 -0.0051025756392363893 0.0031231285209013643 0 -0.0053820543945936597 0.0030481172083510763 0 -0.0052760746115371321 0.0029697472846133342 0 -0.0051959775481146926 0.003076982974787785 0 -0.0051397180574356055 0.0029339580531589338 0 -0.0052760746115371321 0.0029697472846133342 0 -0.0051959775481146926 0.003076982974787785 0 -0.0051397180574356055 0.0029339580531589338 0 -0.0051959775481146926 0.003076982974787785 0 -0.0049999876243411144 0.0031111129140620883 0 -0.0050460669478898179 0.0031806273532096027 0 -0.0050469064465554839 0.0031803881265322063 0 -0.0050000258165690528 0.0031109136404210242 0 -0.0051025756392363893 0.0031231285209013643 0 -0.0050095476586866266 0.0031181037708242223 0 -0.002884481992404949 0.0016758460452404292 0 -0.0026278811404619922 0.0016963481692222812 0 -0.0027501021272797951 0.0014661796328723569 0 -0.002884481992404949 0.0016758460452404292 0 -0.0030144597395701093 0.0014659353855269049 0 -0.0031188958831475399 0.001638512928218406 0 -0.002884481992404949 0.0016758460452404292 0 -0.0031188958831475399 0.001638512928218406 0 -0.0030638394904538126 0.0018484655710221452 0 -0.002884481992404949 0.0016758460452404292 0 -0.0030638394904538126 0.0018484655710221452 0 -0.0027132920546927893 0.0019880815874373397 0 -0.002884481992404949 0.0016758460452404292 0 -0.0026278811404619922 0.0016963481692222812 0 -0.0027132920546927893 0.0019880815874373397 0 -0.00241127208382458 0.0018685163893987827 0 -0.0026278811404619922 0.0016963481692222812 0 -0.0027132920546927893 0.0019880815874373397 0 -0.002141457468152792 0.0020336926939252147 0 -0.0021378883065028796 0.0017780171491239862 0 -0.00241127208382458 0.0018685163893987827 0 -0.0021378883065028796 0.0017780171491239862 0 -0.0023944435031132121 0.0016490065661782253 0 -0.002208749438496855 0.0015787566613801988 0 -0.0021378883065028796 0.0017780171491239862 0 -0.00241127208382458 0.0018685163893987827 0 -0.0023944435031132121 0.0016490065661782253 0 -0.0023944435031132121 0.0016490065661782253 0 -0.002208749438496855 0.0015787566613801988 0 -0.0023788491115073959 0.0014632058481788219 0 -0.00241127208382458 0.0018685163893987827 0 -0.0023944435031132121 0.0016490065661782253 0 -0.0026278811404619922 0.0016963481692222812 0 -0.0023944435031132121 0.0016490065661782253 0 -0.0026278811404619922 0.0016963481692222812 0 -0.0025565756179187081 0.0015307904757469045 0 -0.0026278811404619922 0.0016963481692222812 0 -0.0025565756179187081 0.0015307904757469045 0 -0.0027501021272797951 0.0014661796328723569 0 -0.0023944435031132121 0.0016490065661782253 0 -0.0025565756179187081 0.0015307904757469045 0 -0.0023788491115073959 0.0014632058481788219 0 -0.0025565756179187081 0.0015307904757469045 0 -0.0025591655506354955 0.0013722240034415617 0 -0.0027501021272797951 0.0014661796328723569 0 -0.0025565756179187081 0.0015307904757469045 0 -0.0025591655506354955 0.0013722240034415617 0 -0.0023788491115073959 0.0014632058481788219 0 -0.0021817484802752383 0.0013763504197324189 0 -0.002208749438496855 0.0015787566613801988 0 -0.0023788491115073959 0.0014632058481788219 0 -0.0025591655506354955 0.0013722240034415617 0 -0.0023788491115073959 0.0014632058481788219 0 -0.0023180565588947566 0.0012610106525735125 0 -0.0023380448582097429 0.0013243467285228984 0 -0.0021860899297762447 0.0018050554072720809 0 -0.0021817484802752383 0.0013763504197324189 0 -0.0023788491115073959 0.0014632058481788219 0 -0.0023180565588947566 0.0012610106525735125 0 -0.002481957746403354 0.0019967844164679124 0 -0.0021860899297762447 0.0018050554072720809 0 -0.0022998467208503537 0.0031481554971759659 0 -0.0020972579471604 0.0031926884574650996 0 -0.0020565835872453663 0.0033856292052147855 0 -0.0025265244580856792 0.0013771950682950802 0 -0.0021860899297762447 0.0018050554072720809 0 -0.0019355886797049365 0.0032024756427484319 0 -0.0020972579471604 0.0031926884574650996 0 -0.0020565835872453663 0.0033856292052147855 0 -0.0025768024030112606 0.0011613726900208273 0 -0.0024098427580065643 0.0013265607157315641 0 -0.0025537593340413589 0.0012866528969153004 0 -0.0025591655506354955 0.0013722240034415617 0 -0.0025537593340413589 0.0012866528969153004 0 -0.0026794485278461484 0.0012840714429682356 0 -0.0025591655506354955 0.0013722240034415617 0 -0.0024098427580065643 0.0013265607157315641 0 -0.0025537593340413589 0.0012866528969153004 0 -0.0025768024030112606 0.0011613726900208273 0 -0.0025537593340413589 0.0012866528969153004 0 -0.0026794485278461484 0.0012840714429682356 0 -0.0027736606900022978 0.0011631573495912875 0 -0.0025768024030112606 0.0011613726900208273 0 -0.0026794485278461484 0.0012840714429682356 0 -0.0026794485278461484 0.0012840714429682356 0 -0.0027501021272797951 0.0014661796328723569 0 -0.0028922463654721792 0.0012838819161461955 0 -0.0027736606900022978 0.0011631573495912875 0 -0.0026794485278461484 0.0012840714429682356 0 -0.0028922463654721792 0.0012838819161461955 0 -0.0025591655506354955 0.0013722240034415617 0 -0.0026794485278461484 0.0012840714429682356 0 -0.0027501021272797951 0.0014661796328723569 0 -0.002884481992404949 0.0016758460452404292 0 -0.0027501021272797951 0.0014661796328723569 0 -0.0030144597395701093 0.0014659353855269049 0 -0.0027501021272797951 0.0014661796328723569 0 -0.0030144597395701093 0.0014659353855269049 0 -0.0028922463654721792 0.0012838819161461955 0 -0.0030144597395701093 0.0014659353855269049 0 -0.0028922463654721792 0.0012838819161461955 0 -0.0031335090834738503 0.0012723537489063672 0 -0.0029774888799001436 0.001109713810908636 0 -0.0028922463654721792 0.0012838819161461955 0 -0.0031335090834738503 0.0012723537489063672 0 -0.0031335090834738503 0.0012723537489063672 0 -0.003356030403972417 0.0012114757057670755 0 -0.003320614454814593 0.001471806200045834 0 -0.0034091664195410936 0.0011886930110381888 0 -0.0033839461477387484 0.0014359458881375482 0 -0.0030144597395701093 0.0014659353855269049 0 -0.003320614454814593 0.001471806200045834 0 -0.0031188958831475399 0.001638512928218406 0 -0.0030144597395701093 0.0014659353855269049 0 -0.0031335090834738503 0.0012723537489063672 0 -0.003320614454814593 0.001471806200045834 0 -0.0037528991950710588 0.0010701305767974966 0 -0.0034613420096875039 0.0011813120546571275 0 -0.0037061912400609982 0.0012881655429375261 0 -0.0034613420096875039 0.0011813120546571275 0 -0.0034498020123466329 0.0013994155600682656 0 -0.0037061912400609982 0.0012881655429375261 0 -0.0034498020123466329 0.0013994155600682656 0 -0.0037061912400609982 0.0012881655429375261 0 -0.0037012256935512263 0.001523320460596049 0 -0.0039617701719560942 0.0013746367054656553 0 -0.0037061912400609982 0.0012881655429375261 0 -0.0037012256935512263 0.001523320460596049 0 -0.0034498020123466329 0.0013994155600682656 0 -0.0037012256935512263 0.001523320460596049 0 -0.0033993971570759232 0.0016223441447125058 0 -0.0037012256935512263 0.001523320460596049 0 -0.0035695070682173371 0.0017449711010119355 0 -0.0033993971570759232 0.0016223441447125058 0 -0.0035695070682173371 0.0017449711010119355 0 -0.0038044848805655921 0.0016676533379598895 0 -0.0037408956428032253 0.0018097947889679879 0 -0.0037012256935512263 0.001523320460596049 0 -0.0035695070682173371 0.0017449711010119355 0 -0.0038044848805655921 0.0016676533379598895 0 -0.003320614454814593 0.001471806200045834 0 -0.0031188958831475399 0.001638512928218406 0 -0.0032981962666049081 0.0017225458520199694 0 -0.0033839461477387484 0.0014359458881375482 0 -0.0033477796870531539 0.0016793513674717173 0 -0.0033477796870531539 0.0016793513674717173 0 -0.0033149560389336913 0.0019110339071650633 0 -0.0035695070682173371 0.0017449711010119355 0 -0.0033993971570759232 0.0016223441447125058 0 -0.0033094000043013536 0.0019214301337785872 0 -0.0032981962666049081 0.0017225458520199694 0 -0.0030638394904538126 0.0018484655710221452 0 -0.0033094000043013536 0.0019214301337785872 0 -0.0031188958831475399 0.001638512928218406 0 -0.0032981962666049081 0.0017225458520199694 0 -0.0030638394904538126 0.0018484655710221452 0 -0.0030638394904538126 0.0018484655710221452 0 -0.0033094000043013536 0.0019214301337785872 0 -0.0030426096561968312 0.0020742825594127811 0 -0.0032726821730747822 0.0020916402774320015 0 -0.003476008923258448 0.0019758754546401426 0 -0.0033553574939214439 0.0021284098923426593 0 -0.0033094000043013536 0.0019214301337785872 0 -0.0032726821730747822 0.0020916402774320015 0 -0.003476008923258448 0.0019758754546401426 0 -0.0032726821730747822 0.0020916402774320015 0 -0.0031291475773686061 0.0022410691334936567 0 -0.0030426096561968312 0.0020742825594127811 0 -0.0033094000043013536 0.0019214301337785872 0 -0.0032726821730747822 0.0020916402774320015 0 -0.0030426096561968312 0.0020742825594127811 0 -0.0039357885014478441 0.0017407583542041285 0 -0.0038044848805655921 0.0016676533379598895 0 -0.0037408956428032253 0.0018097947889679879 0 -0.0035695070682173371 0.0017449711010119355 0 -0.0037408956428032253 0.0018097947889679879 0 -0.003476008923258448 0.0019758754546401426 0 -0.0035695070682173371 0.0017449711010119355 0 -0.0033094000043013536 0.0019214301337785872 0 -0.003476008923258448 0.0019758754546401426 0 -0.003476008923258448 0.0019758754546401426 0 -0.003663424403119181 0.0020345175730607434 0 -0.0033553574939214439 0.0021284098923426593 0 -0.0039392279436994571 0.0018992740125398538 0 -0.0038375820607032159 0.0021235240651616594 0 -0.003663424403119181 0.0020345175730607434 0 -0.0037408956428032253 0.0018097947889679879 0 -0.003476008923258448 0.0019758754546401426 0 -0.003663424403119181 0.0020345175730607434 0 -0.0039392279436994571 0.0018992740125398538 0 -0.0037408956428032253 0.0018097947889679879 0 -0.003663424403119181 0.0020345175730607434 0 -0.0038375820607032159 0.0021235240651616594 0 -0.003890079526065719 0.0022739533429745351 0 -0.0036785787504236395 0.0022234605810175015 0 -0.0038375820607032159 0.0021235240651616594 0 -0.003663424403119181 0.0020345175730607434 0 -0.0036785787504236395 0.0022234605810175015 0 -0.003663424403119181 0.0020345175730607434 0 -0.0036785787504236395 0.0022234605810175015 0 -0.0033553574939214439 0.0021284098923426593 0 -0.0033553574939214439 0.0021284098923426593 0 -0.003511439744223114 0.002343278525994134 0 -0.0030951240874518312 0.0023666762269495471 0 -0.0036785787504236395 0.0022234605810175015 0 -0.0033553574939214439 0.0021284098923426593 0 -0.003511439744223114 0.002343278525994134 0 -0.0036785787504236395 0.0022234605810175015 0 -0.003511439744223114 0.002343278525994134 0 -0.0037498842931675911 0.0023966868991618746 0 -0.003890079526065719 0.0022739533429745351 0 -0.0036785787504236395 0.0022234605810175015 0 -0.0037498842931675911 0.0023966868991618746 0 -0.0033553574939214439 0.0021284098923426593 0 -0.0026225852181490624 0.0019033295330239913 0 -0.0030951240874518312 0.0023666762269495471 0 -0.0033135417867262555 0.0021234217996891707 0 -0.0028732597065610739 0.0020786236744528321 0 -0.0032726821730747822 0.0020916402774320015 0 -0.0033553574939214439 0.0021284098923426593 0 -0.0031291475773686061 0.0022410691334936567 0 -0.0026225852181490624 0.0019033295330239913 0 -0.0022303282408105839 0.0022362424260060285 0 -0.0026677567520927924 0.0024924734894706028 0 -0.0026225852181490624 0.0019033295330239913 0 -0.0030951240874518312 0.0023666762269495471 0 -0.0026677567520927924 0.0024924734894706028 0 -0.0022303282408105839 0.0022362424260060285 0 -0.0018936034837570745 0.002314532904455054 0 -0.002031699832714947 0.0018780406540947019 0 -0.0018936034837570745 0.002314532904455054 0 -0.002031699832714947 0.0018780406540947019 0 -0.0017042603217489768 0.0021249997089573141 0 -0.0026225852181490624 0.0019033295330239913 0 -0.0022303282408105839 0.0022362424260060285 0 -0.002031699832714947 0.0018780406540947019 0 -0.0028732597065610739 0.0020786236744528321 0 -0.0024163850135139981 0.0020941878009570129 0 -0.0031291475773686061 0.0022410691334936567 0 -0.0027958025012673549 0.0023113277406155352 0 -0.0030426096561968312 0.0020742825594127811 0 -0.0027958025012673549 0.0023113277406155352 0 -0.0027132920546927893 0.0019880815874373397 0 -0.0024285514166976436 0.0023523620372729588 0 -0.0027958025012673549 0.0023113277406155352 0 -0.0030426096561968312 0.0020742825594127811 0 -0.0027132920546927893 0.0019880815874373397 0 -0.0030638394904538126 0.0018484655710221452 0 -0.0030426096561968312 0.0020742825594127811 0 -0.0027132920546927893 0.0019880815874373397 0 -0.002141457468152792 0.0020336926939252147 0 -0.00241127208382458 0.0018685163893987827 0 -0.0023635093521697636 0.0021177879884678691 0 -0.002141457468152792 0.0020336926939252147 0 -0.0020312029827202001 0.0023597176725247931 0 -0.0023635093521697636 0.0021177879884678691 0 -0.00241127208382458 0.0018685163893987827 0 -0.0027132920546927893 0.0019880815874373397 0 -0.0023635093521697636 0.0021177879884678691 0 -0.0027132920546927893 0.0019880815874373397 0 -0.0023635093521697636 0.0021177879884678691 0 -0.0024285514166976436 0.0023523620372729588 0 -0.0017425184954714243 0.0021432530103900746 0 -0.0020325031266477697 0.0021149568908032756 0 -0.0020312029827202001 0.0023597176725247931 0 -0.0023635093521697636 0.0021177879884678691 0 -0.0024285514166976436 0.0023523620372729588 0 -0.0013677194135605362 0.0018715774006685655 0 -0.0016588888467416224 0.0018924939293026709 0 -0.0014746407635022924 0.0021502442269954467 0 -0.0016588888467416224 0.0018924939293026709 0 -0.0017042603217489768 0.0021249997089573141 0 -0.0014746407635022924 0.0021502442269954467 0 -0.002031699832714947 0.0018780406540947019 0 -0.0016588888467416224 0.0018924939293026709 0 -0.0017042603217489768 0.0021249997089573141 0 -0.0024163850135139981 0.0020941878009570129 0 -0.0020325031266477697 0.0021149568908032756 0 -0.0018936034837570745 0.002314532904455054 0 -0.0017042603217489768 0.0021249997089573141 0 -0.0016542374688128859 0.0023330315910457308 0 -0.0017042603217489768 0.0021249997089573141 0 -0.0014746407635022924 0.0021502442269954467 0 -0.0016542374688128859 0.0023330315910457308 0 -0.0014885515747642814 0.002377422545593505 0 -0.0016542374688128859 0.0023330315910457308 0 -0.001632415828725706 0.0025220909942115836 0 -0.0014746407635022924 0.0021502442269954467 0 -0.0014885515747642814 0.002377422545593505 0 -0.0016542374688128859 0.0023330315910457308 0 -0.0018936034837570745 0.002314532904455054 0 -0.0016542374688128859 0.0023330315910457308 0 -0.0018344420920233489 0.0025356520690943533 0 -0.0016542374688128859 0.0023330315910457308 0 -0.001632415828725706 0.0025220909942115836 0 -0.0018344420920233489 0.0025356520690943533 0 -0.001632415828725706 0.0025220909942115836 0 -0.0018093305868904384 0.002662427268031147 0 -0.0018344420920233489 0.0025356520690943533 0 -0.0014885515747642814 0.002377422545593505 0 -0.001632415828725706 0.0025220909942115836 0 -0.0014123668307633728 0.0024984173727927756 0 -0.001632415828725706 0.0025220909942115836 0 -0.0016455257827577142 0.0027000040861307043 0 -0.0014123668307633728 0.0024984173727927756 0 -0.0016455257827577142 0.0027000040861307043 0 -0.0014123668307633728 0.0024984173727927756 0 -0.0014370012993698935 0.0028786674536126107 0 -0.0016455257827577142 0.0027000040861307043 0 -0.0017865742192848591 0.0027625862936625904 0 -0.0018093305868904384 0.002662427268031147 0 -0.001632415828725706 0.0025220909942115836 0 -0.0016455257827577142 0.0027000040861307043 0 -0.0018093305868904384 0.002662427268031147 0 -0.0016455257827577142 0.0027000040861307043 0 -0.0017002286002650703 0.0028554208860721462 0 -0.0017865742192848591 0.0027625862936625904 0 -0.0016536409701475155 0.0028131032887355931 0 -0.0014318049842340851 0.0028057570127616254 0 -0.0016455257827577142 0.0027000040861307043 0 -0.0017002286002650703 0.0028554208860721462 0 -0.0014370012993698935 0.0028786674536126107 0 -0.0018123286490185522 0.0028058087499482284 0 -0.0019146383527439959 0.0027086101038458739 0 -0.0019572429978141751 0.0027832901786050339 0 -0.0016536409701475155 0.0028131032887355931 0 -0.0017978035251347822 0.0028092640783079778 0 -0.0018123286490185522 0.0028058087499482284 0 -0.0017865742192848591 0.0027625862936625904 0 -0.0019146383527439959 0.0027086101038458739 0 -0.0017002286002650703 0.0028554208860721462 0 -0.0018123286490185522 0.0028058087499482284 0 -0.0017865742192848591 0.0027625862936625904 0 -0.0017865742192848591 0.0027625862936625904 0 -0.0018093305868904384 0.002662427268031147 0 -0.0019146383527439959 0.0027086101038458739 0 -0.0018093305868904384 0.002662427268031147 0 -0.0019146383527439959 0.0027086101038458739 0 -0.0019438140031351699 0.0026389493163102096 0 -0.0019146383527439959 0.0027086101038458739 0 -0.0019817730678930593 0.0026357617433739448 0 -0.0019438140031351699 0.0026389493163102096 0 -0.0019817730678930593 0.0026357617433739448 0 -0.0019438140031351699 0.0026389493163102096 0 -0.0020445088945358412 0.0026005964186223301 0 -0.0022276273057056572 0.0028382895599335135 0 -0.0020504462347390113 0.0026271506151312892 0 -0.0019438140031351699 0.0026389493163102096 0 -0.0018344420920233489 0.0025356520690943533 0 -0.0020445088945358412 0.0026005964186223301 0 -0.0018093305868904384 0.002662427268031147 0 -0.0019438140031351699 0.0026389493163102096 0 -0.0018344420920233489 0.0025356520690943533 0 -0.0018936034837570745 0.002314532904455054 0 -0.0018344420920233489 0.0025356520690943533 0 -0.0020445088945358412 0.0026005964186223301 0 -0.0022303282408105839 0.0022362424260060285 0 -0.0018936034837570745 0.002314532904455054 0 -0.0020445088945358412 0.0026005964186223301 0 -0.0022303282408105839 0.0022362424260060285 0 -0.0020445088945358412 0.0026005964186223301 0 -0.0026677567520927924 0.0024924734894706028 0 -0.002464417823232016 0.0030340209432398848 0 -0.0020445088945358412 0.0026005964186223301 0 -0.0026677567520927924 0.0024924734894706028 0 -0.002464417823232016 0.0030340209432398848 0 -0.0026677567520927924 0.0024924734894706028 0 -0.0031744189122630551 0.0028251602679575209 0 -0.0030951240874518312 0.0023666762269495471 0 -0.0026677567520927924 0.0024924734894706028 0 -0.0031744189122630551 0.0028251602679575209 0 -0.003511439744223114 0.002343278525994134 0 -0.0030951240874518312 0.0023666762269495471 0 -0.0031744189122630551 0.0028251602679575209 0 -0.0034108706115894018 0.0025668124027404442 0 -0.0034538011825537801 0.0027804715545701069 0 -0.0032670510332881261 0.0027964699072133719 0 -0.0033592281647857668 0.0027151444209943371 0 -0.0025250159409569255 0.0028296244761981493 0 -0.002464417823232016 0.0030340209432398848 0 -0.0031744189122630551 0.0028251602679575209 0 -0.0028289024594634216 0.0033649878144893898 0 -0.0037498842931675911 0.0023966868991618746 0 -0.0036118473600026324 0.0025299003981997556 0 -0.0038321128243385223 0.0025520003535614926 0 -0.003511439744223114 0.002343278525994134 0 -0.0037498842931675911 0.0023966868991618746 0 -0.0036118473600026324 0.0025299003981997556 0 -0.003511439744223114 0.002343278525994134 0 -0.0034108706115894018 0.0025668124027404442 0 -0.0036118473600026324 0.0025299003981997556 0 -0.0034844808938628248 0.0023553230907508681 0 -0.0033592281647857668 0.0027151444209943371 0 -0.0034108706115894018 0.0025668124027404442 0 -0.0035746283291414969 0.002688287003353349 0 -0.0034538011825537801 0.0027804715545701069 0 -0.0034108706115894018 0.0025668124027404442 0 -0.0036118473600026324 0.0025299003981997556 0 -0.0035746283291414969 0.002688287003353349 0 -0.0036118473600026324 0.0025299003981997556 0 -0.0035746283291414969 0.002688287003353349 0 -0.0037418625932139518 0.0026695285619166443 0 -0.0036118473600026324 0.0025299003981997556 0 -0.0037418625932139518 0.0026695285619166443 0 -0.0038321128243385223 0.0025520003535614926 0 -0.0035746283291414969 0.002688287003353349 0 -0.0037418625932139518 0.0026695285619166443 0 -0.0037002433678466401 0.002784096438421868 0 -0.0037418625932139518 0.0026695285619166443 0 -0.0037002433678466401 0.002784096438421868 0 -0.0038675618564549858 0.0027578537892850286 0 -0.0037752538546801852 0.0028748182409366364 0 -0.0037002433678466401 0.002784096438421868 0 -0.0038675618564549858 0.0027578537892850286 0 -0.0037752538546801852 0.0028748182409366364 0 -0.0037002433678466401 0.002784096438421868 0 -0.0036536694972849979 0.0029033804001437689 0 -0.0037002433678466401 0.002784096438421868 0 -0.0035737875723785544 0.0028209012408649133 0 -0.0036536694972849979 0.0029033804001437689 0 -0.0035746283291414969 0.002688287003353349 0 -0.0037002433678466401 0.002784096438421868 0 -0.0035737875723785544 0.0028209012408649133 0 -0.0035746283291414969 0.002688287003353349 0 -0.0035737875723785544 0.0028209012408649133 0 -0.0034538011825537801 0.0027804715545701069 0 -0.0035737875723785544 0.0028209012408649133 0 -0.0034538011825537801 0.0027804715545701069 0 -0.0035050144922947335 0.002894193667364603 0 -0.0034538011825537801 0.0027804715545701069 0 -0.0035050144922947335 0.002894193667364603 0 -0.0033945957885522758 0.0029115029338784076 0 -0.0035050144922947335 0.002894193667364603 0 -0.0035268436565848342 0.0030174043649266167 0 -0.0035775919241647241 0.0029468837661159393 0 -0.0030607413647638819 0.002857070951004488 0 -0.0027665866865285763 0.0027565028043872687 0 -0.0035050144922947335 0.002894193667364603 0 -0.0035268436565848342 0.0030174043649266167 0 -0.0033945957885522758 0.0029115029338784076 0 -0.0035253314651738175 0.0030344150789900813 0 -0.0035268436565848342 0.0030174043649266167 0 -0.0033945957885522758 0.0029115029338784076 0 -0.0030607413647638819 0.002857070951004488 0 -0.0030710252410542111 0.0028698025131765983 0 -0.0035253358479774731 0.0030358076432568247 0 -0.0035268436565848342 0.0030174043649266167 0 -0.0035775919241647241 0.0029468837661159393 0 -0.0035737875723785544 0.0028209012408649133 0 -0.0035050144922947335 0.002894193667364603 0 -0.0035775919241647241 0.0029468837661159393 0 -0.0035253358479774731 0.0030358076432568247 0 -0.0035775919241647241 0.0029468837661159393 0 -0.0036536694972849979 0.0029033804001437689 0 -0.0035737875723785544 0.0028209012408649133 0 -0.0035775919241647241 0.0029468837661159393 0 -0.0036536694972849979 0.0029033804001437689 0 -0.0037635744336058609 0.0028931763642895498 0 -0.0038390701571485906 0.0029185612263962764 0 -0.0038663784643191874 0.0030492039370900704 0 -0.0037752538546801852 0.0028748182409366364 0 -0.0037609227160000356 0.0028935577675792295 0 -0.0037635744336058609 0.0028931763642895498 0 -0.0037752538546801852 0.0028748182409366364 0 -0.0035253358479774731 0.0030358076432568247 0 -0.0036536694972849979 0.0029033804001437689 0 -0.0039650060485980961 0.0028544740065113835 0 -0.0030607413647638819 0.002857070951004488 0 -0.0037752538546801852 0.0028748182409366364 0 -0.0037635744336058609 0.0028931763642895498 0 -0.0038390701571485906 0.0029185612263962764 0 -0.0019146383527439959 0.0027086101038458739 0 -0.0019817730678930593 0.0026357617433739448 0 -0.0020319498661238574 0.0026928769197656554 0 -0.0019146383527439959 0.0027086101038458739 0 -0.0020319498661238574 0.0026928769197656554 0 -0.0019572429978141751 0.0027832901786050339 0 -0.0022276273057056572 0.0028382895599335135 0 -0.0025250159409569255 0.0028296244761981493 0 -0.0034538011825537801 0.0027804715545701069 0 -0.0032670510332881261 0.0027964699072133719 0 -0.0033945957885522758 0.0029115029338784076 0 -0.0025250159409569255 0.0028296244761981493 0 -0.0027665866865285763 0.0027565028043872687 0 -0.0020485774140951551 0.0025157521479622917 0 -0.0021669085561425178 0.0026204109706489567 0 -0.0020589823136704633 0.0027056868138895123 0 -0.0022921044711083035 0.0027292881542229064 0 -0.0021669085561425178 0.0026204109706489567 0 -0.002151763690753759 0.0027177961681521044 0 -0.0021669085561425178 0.0026204109706489567 0 -0.002151763690753759 0.0027177961681521044 0 -0.0020589823136704633 0.0027056868138895123 0 -0.0020589823136704633 0.0027056868138895123 0 -0.0019302120666391366 0.0027072340153741353 0 -0.0019632006946351745 0.0028286250829507647 0 -0.0025250159409569255 0.0028296244761981493 0 -0.0018970538075240607 0.0027319803166784315 0 -0.0020485774140951551 0.0025157521479622917 0 -0.0020589823136704633 0.0027056868138895123 0 -0.0019302120666391366 0.0027072340153741353 0 -0.0019632006946351745 0.0028286250829507647 0 -0.0020967173650325273 0.0028418061989419546 0 -0.0019088857449200997 0.0029381423174314903 0 -0.0019302120666391366 0.0027072340153741353 0 -0.0019632006946351745 0.0028286250829507647 0 -0.0018216544123243958 0.0028889355690740145 0 -0.0017163020216497493 0.0029274793357536894 0 -0.0018130552958691723 0.0029173897520719918 0 -0.0020589823136704633 0.0027056868138895123 0 -0.0019632006946351745 0.0028286250829507647 0 -0.0020967173650325273 0.0028418061989419546 0 -0.0022921044711083035 0.0027292881542229064 0 -0.002151763690753759 0.0027177961681521044 0 -0.0020967173650325273 0.0028418061989419546 0 -0.002151763690753759 0.0027177961681521044 0 -0.0020589823136704633 0.0027056868138895123 0 -0.0020967173650325273 0.0028418061989419546 0 -0.0030607413647638819 0.002857070951004488 0 -0.0017163020216497493 0.0029274793357536894 0 -0.0016730219379855965 0.0028995897121890856 0 -0.001683422543574487 0.0029291047115356256 0 -0.0017095055489097348 0.0029142307905693846 0 -0.0016730219379855965 0.0028995897121890856 0 -0.001683422543574487 0.0029291047115356256 0 -0.0016629731830138633 0.0029309639908952144 0 -0.001683422543574487 0.0029291047115356256 0 -0.0016629731830138633 0.0029309639908952144 0 -0.0016629949827548941 0.0029364800761990037 0 -0.0016629731830138633 0.0029309639908952144 0 -0.0016498606615976822 0.0029434907050092112 0 -0.0016629949827548941 0.0029364800761990037 0 -0.0016730219379855965 0.0028995897121890856 0 -0.0016629731830138633 0.0029309639908952144 0 -0.0016453291286898403 0.0029397033941046067 0 -0.0016453291286898403 0.0029397033941046067 0 -0.0016498606615976822 0.0029434907050092112 0 -0.0016547786977891765 0.00295338050202377 0 -0.0016629731830138633 0.0029309639908952144 0 -0.0016453291286898403 0.0029397033941046067 0 -0.0016498606615976822 0.0029434907050092112 0 -0.0037635195758179726 0.00283220623691367 0 -0.0036881735112830913 0.0028317115845525238 0 -0.0037044307103205839 0.0027342465769362922 0 -0.0037609227160000356 0.0028935577675792295 0 -0.0037635744336058609 0.0028931763642895498 0 -0.0037635195758179726 0.00283220623691367 0 -0.0037635744336058609 0.0028931763642895498 0 -0.0037635195758179726 0.00283220623691367 0 -0.0036881735112830913 0.0028317115845525238 0 -0.0037670313401140555 0.0028978364751644069 0 -0.0037583087286694669 0.0029622672417610081 0 -0.0030607413647638819 0.002857070951004488 0 -0.0027840533154186082 0.0028042495197296495 0 -0.0038596971196138328 0.002871903882980449 0 -0.0037875901578948911 0.0028023540855828112 0 -0.0038753316434850366 0.0027576912281470365 0 -0.0017265233709695788 0.0028668005740894922 0 -0.0016730219379855965 0.0028995897121890856 0 -0.0017095055489097348 0.0029142307905693846 0 -0.0030607413647638819 0.002857070951004488 0 -0.0038580023493076051 0.0028773089178276323 0 -0.0027840533154186082 0.0028042495197296495 0 -0.0027326920099711755 0.0029585460552124551 0 -0.0037875901578948911 0.0028023540855828112 0 -0.0038753316434850366 0.0027576912281470365 0 -0.0038054094045534832 0.002690158176273408 0 -0.0038753316434850366 0.0027576912281470365 0 -0.0038054094045534832 0.002690158176273408 0 -0.0038930208481580959 0.0026292160668773211 0 -0.001683422543574487 0.0029291047115356256 0 -0.0017095055489097348 0.0029142307905693846 0 -0.0016904109228277572 0.0029350070253157555 0 -0.0037875901578948911 0.0028023540855828112 0 -0.0038054094045534832 0.002690158176273408 0 -0.0037044307103205839 0.0027342465769362922 0 -0.0038054094045534832 0.002690158176273408 0 -0.0037442767455220633 0.0026777127864581127 0 -0.0037044307103205839 0.0027342465769362922 0 -0.0038580023493076051 0.0028773089178276323 0 -0.0036797010391296067 0.0027183519089505554 0 -0.0037879214685996115 0.0026199382946131959 0 -0.0038029054337248352 0.0025541594737312294 0 -0.003716135918643127 0.0026083875698747635 0 -0.0044931110437779831 0.0015874854022734403 0 -0.0042725715362657655 0.0020290383194900988 0 -0.0036582802329144315 0.002501842311011982 0 -0.0042725715362657655 0.0020290383194900988 0 -0.0037442767455220633 0.0026777127864581127 0 -0.0037313498198036925 0.0026499541596205598 0 -0.0037879214685996115 0.0026199382946131959 0 -0.0037313498198036925 0.0026499541596205598 0 -0.0037879214685996115 0.0026199382946131959 0 -0.0037018218102755208 0.0026159892891120281 0 -0.0038054094045534832 0.002690158176273408 0 -0.0037879214685996115 0.0026199382946131959 0 -0.0038401256889157029 0.0025990267814421019 0 -0.0038054094045534832 0.002690158176273408 0 -0.0037442767455220633 0.0026777127864581127 0 -0.0037879214685996115 0.0026199382946131959 0 -0.0037879214685996115 0.0026199382946131959 0 -0.0038401256889157029 0.0025990267814421019 0 -0.0038029054337248352 0.0025541594737312294 0 -0.0016904109228277572 0.0029350070253157555 0 -0.001690032439103912 0.0029426302320499603 0 -0.0016711857075254876 0.0029373358852479835 0 -0.0038401256889157029 0.0025990267814421019 0 -0.0038930208481580959 0.0026292160668773211 0 -0.0039053851411064823 0.0024886836089878959 0 -0.0038054094045534832 0.002690158176273408 0 -0.0038401256889157029 0.0025990267814421019 0 -0.0038930208481580959 0.0026292160668773211 0 -0.0027326920099711755 0.0029585460552124551 0 -0.0039026967684447139 0.0018386963903188965 0 -0.0038401256889157029 0.0025990267814421019 0 -0.0039053851411064823 0.0024886836089878959 0 -0.0038029054337248352 0.0025541594737312294 0 -0.0039026967684447139 0.0018386963903188965 0 -0.0044931110437779831 0.0015874854022734403 0 -0.0048582601285029536 0.00078567947883834079 0 -0.0049547155564327733 0.00075883065141176009 0 -0.0049387944548881972 0.00080306326286098593 0 -0.0048582601285029536 0.00078567947883834079 0 -0.0049387944548881972 0.00080306326286098593 0 -0.004901366082829638 0.00083847508011680304 0 -0.0049547155564327733 0.00075883065141176009 0 -0.0049949527364383187 0.00080530194913389791 0 -0.005023575382963873 0.00078396737686553975 0 -0.0049547155564327733 0.00075883065141176009 0 -0.0050185949146233973 0.00074411273366646125 0 -0.005023575382963873 0.00078396737686553975 0 -0.0049547155564327733 0.00075883065141176009 0 -0.0049387944548881972 0.00080306326286098593 0 -0.0049949527364383187 0.00080530194913389791 0 -0.0016501174616414995 0.0029412677558869581 0 -0.0016488205692841056 0.0029406550017294329 0 -0.0016392712719935267 0.0029429591970793019 0 -0.0016501174616414995 0.0029412677558869581 0 -0.0016399466819001828 0.0029479881485819457 0 -0.0016392712719935267 0.0029429591970793019 0 -0.0016501174616414995 0.0029412677558869581 0 -0.0016399466819001828 0.0029479881485819457 0 -0.0016498606615976822 0.0029434907050092112 0 -0.0016399466819001828 0.0029479881485819457 0 -0.0016498606615976822 0.0029434907050092112 0 -0.0016547786977891765 0.00295338050202377 0 -0.0016501174616414995 0.0029412677558869581 0 -0.0016498606615976822 0.0029434907050092112 0 -0.0016629949827548941 0.0029364800761990037 0 -0.001683422543574487 0.0029291047115356256 0 -0.0016629949827548941 0.0029364800761990037 0 -0.0016711857075254876 0.0029373358852479835 0 -0.001683422543574487 0.0029291047115356256 0 -0.0016904109228277572 0.0029350070253157555 0 -0.0016711857075254876 0.0029373358852479835 0 -0.0016501174616414995 0.0029412677558869581 0 -0.0016711857075254876 0.0029373358852479835 0 -0.0016488205692841056 0.0029406550017294329 0 -0.0016501174616414995 0.0029412677558869581 0 -0.0016629949827548941 0.0029364800761990037 0 -0.0016711857075254876 0.0029373358852479835 0 -0.001690032439103912 0.0029426302320499603 0 -0.0016577352636296097 0.0029413511386268826 0 -0.0016384012888646718 0.0029526988824246296 0 -0.0016577352636296097 0.0029413511386268826 0 -0.0016410736350889684 0.0029418039997837968 0 -0.0016488205692841056 0.0029406550017294329 0 -0.0016711857075254876 0.0029373358852479835 0 -0.0016577352636296097 0.0029413511386268826 0 -0.0016488205692841056 0.0029406550017294329 0 -0.001690032439103912 0.0029426302320499603 0 -0.0016711857075254876 0.0029373358852479835 0 -0.0016577352636296097 0.0029413511386268826 0 -0.0016577352636296097 0.0029413511386268826 0 -0.0016410736350889684 0.0029418039997837968 0 -0.0016384012888646718 0.0029526988824246296 0 -0.0016291724343626094 0.0029419060929352123 0 -0.0016410736350889684 0.0029418039997837968 0 -0.0016291127884986362 0.0029470375555618183 0 -0.0016291724343626094 0.0029419060929352123 0 -0.0016322052653662043 0.0029419341372028938 0 -0.0016410736350889684 0.0029418039997837968 0 -0.0016322052653662043 0.0029419341372028938 0 -0.0016410736350889684 0.0029418039997837968 0 -0.0016488205692841056 0.0029406550017294329 0 -0.0016322052653662043 0.0029419341372028938 0 -0.0016488205692841056 0.0029406550017294329 0 -0.0016392712719935267 0.0029429591970793019 0 -0.0016322052653662043 0.0029419341372028938 0 -0.0016392712719935267 0.0029429591970793019 0 -0.0016220329795454743 0.0029453301421337435 0 -0.0016399466819001828 0.0029479881485819457 0 -0.0016392712719935267 0.0029429591970793019 0 -0.0016220329795454743 0.0029453301421337435 0 -0.0016322052653662043 0.0029419341372028938 0 -0.0016220329795454743 0.0029453301421337435 0 -0.0016152400185905035 0.0029393398481109222 0 -0.0016220329795454743 0.0029453301421337435 0 -0.0016152400185905035 0.0029393398481109222 0 -0.0015973228819836265 0.0029332946490348189 0 -0.0016291724343626094 0.0029419060929352123 0 -0.0016322052653662043 0.0029419341372028938 0 -0.0016152400185905035 0.0029393398481109222 0 -0.0016220329795454743 0.0029453301421337435 0 -0.0016056384921875708 0.0029467672035367772 0 -0.0016276639080774064 0.0029541841909184676 0 -0.0016399466819001828 0.0029479881485819457 0 -0.0016276639080774064 0.0029541841909184676 0 -0.0016502140158311943 0.0029660396692559412 0 -0.0016220329795454743 0.0029453301421337435 0 -0.0016056384921875708 0.0029467672035367772 0 -0.0015973228819836265 0.0029332946490348189 0 -0.0016056384921875708 0.0029467672035367772 0 -0.0016276639080774064 0.0029541841909184676 0 -0.0016230616958189997 0.0029700335877463234 0 -0.0016276639080774064 0.0029541841909184676 0 -0.0016502140158311943 0.0029660396692559412 0 -0.0016230616958189997 0.0029700335877463234 0 -0.0016399466819001828 0.0029479881485819457 0 -0.0016220329795454743 0.0029453301421337435 0 -0.0016276639080774064 0.0029541841909184676 0 -0.0016399466819001828 0.0029479881485819457 0 -0.0016547786977891765 0.00295338050202377 0 -0.0016502140158311943 0.0029660396692559412 0 -0.0016547786977891765 0.00295338050202377 0 -0.0016932169763520973 0.0029757194166057151 0 -0.0016502140158311943 0.0029660396692559412 0 -0.0016932169763520973 0.0029757194166057151 0 -0.0016290692101898307 0.0029888318127781681 0 -0.0016343870226387658 0.0029668593348362304 0 -0.0016932169763520973 0.0029757194166057151 0 -0.0016502140158311943 0.0029660396692559412 0 -0.0016290692101898307 0.0029888318127781681 0 -0.0016230616958189997 0.0029700335877463234 0 -0.001613454372705508 0.002982674046547693 0 -0.0016290692101898307 0.0029888318127781681 0 -0.0016502140158311943 0.0029660396692559412 0 -0.0016230616958189997 0.0029700335877463234 0 -0.0016290692101898307 0.0029888318127781681 0 -0.0016056384921875708 0.0029467672035367772 0 -0.0016230616958189997 0.0029700335877463234 0 -0.0016011664213990571 0.0029499188804156307 0 -0.0016230616958189997 0.0029700335877463234 0 -0.001613454372705508 0.002982674046547693 0 -0.0016011664213990571 0.0029499188804156307 0 -0.001613454372705508 0.002982674046547693 0 -0.0015882946799733013 0.0030051035740542901 0 -0.0016290692101898307 0.0029888318127781681 0 -0.001613454372705508 0.002982674046547693 0 -0.0015882946799733013 0.0030051035740542901 0 -0.0015985618265190191 0.0029923879257450331 0 -0.0015882946799733013 0.0030051035740542901 0 -0.001560913285098115 0.0030145466822010399 0 -0.0015985618265190191 0.0029923879257450331 0 -0.001560913285098115 0.0030145466822010399 0 -0.0015566995290503698 0.0030177748305180571 0 -0.0015094276479005523 0.0030310330973054075 0 -0.0015882946799733013 0.0030051035740542901 0 -0.001560913285098115 0.0030145466822010399 0 -0.0015314903409136915 0.0030238680934798804 0 -0.001560913285098115 0.0030145466822010399 0 -0.0015314903409136915 0.0030238680934798804 0 -0.0015094276479005523 0.0030310330973054075 0 -0.0015314903409136915 0.0030238680934798804 0 -0.0014674675223299216 0.0030434771430078653 0 -0.0015094276479005523 0.0030310330973054075 0 -0.0015314903409136915 0.0030238680934798804 0 -0.0014918881845887113 0.0030285529418317826 0 -0.0014674675223299216 0.0030434771430078653 0 -0.0015314903409136915 0.0030238680934798804 0 -0.0014918881845887113 0.0030285529418317826 0 -0.0015622477473310309 0.0030020329537420267 0 -0.0015882946799733013 0.0030051035740542901 0 -0.0015314903409136915 0.0030238680934798804 0 -0.0015622477473310309 0.0030020329537420267 0 -0.0014918881845887113 0.0030285529418317826 0 -0.0015622477473310309 0.0030020329537420267 0 -0.0014656422536565002 0.0029962786856271156 0 -0.0015622477473310309 0.0030020329537420267 0 -0.0016290692101898307 0.0029888318127781681 0 -0.0016343870226387658 0.0029668593348362304 0 -0.0015882946799733013 0.0030051035740542901 0 -0.0015622477473310309 0.0030020329537420267 0 -0.0016290692101898307 0.0029888318127781681 0 -0.0015622477473310309 0.0030020329537420267 0 -0.0015722880763312404 0.0029328182845980246 0 -0.0016343870226387658 0.0029668593348362304 0 -0.0015722880763312404 0.0029328182845980246 0 -0.0016343870226387658 0.0029668593348362304 0 -0.0016897504440551256 0.0029063686604841126 0 -0.0015622477473310309 0.0030020329537420267 0 -0.0015722880763312404 0.0029328182845980246 0 -0.0014656422536565002 0.0029962786856271156 0 -0.0015722880763312404 0.0029328182845980246 0 -0.001478510248289636 0.0028767888255761555 0 -0.0014656422536565002 0.0029962786856271156 0 -0.0016139241383673775 0.0027744306643911212 0 -0.001478510248289636 0.0028767888255761555 0 -0.0014370248173752327 0.002736395162803041 0 -0.0016139241383673775 0.0027744306643911212 0 -0.0015722880763312404 0.0029328182845980246 0 -0.001478510248289636 0.0028767888255761555 0 -0.0016139241383673775 0.0027744306643911212 0 -0.0015722880763312404 0.0029328182845980246 0 -0.0016897504440551256 0.0029063686604841126 0 -0.0018123286490185522 0.0028058087499482284 0 -0.0018216544123243958 0.0028889355690740145 0 -0.0016897504440551256 0.0029063686604841126 0 -0.0016139241383673775 0.0027744306643911212 0 -0.0018123286490185522 0.0028058087499482284 0 -0.0016897504440551256 0.0029063686604841126 0 -0.0018123286490185522 0.0028058087499482284 0 -0.0019572429978141751 0.0027832901786050339 0 -0.0018216544123243958 0.0028889355690740145 0 -0.0018970538075240607 0.0027319803166784315 0 -0.0018457853181851921 0.002877444202989432 0 -0.0019632006946351745 0.0028286250829507647 0 -0.0019088857449200997 0.0029381423174314903 0 -0.0018216544123243958 0.0028889355690740145 0 -0.0018130552958691723 0.0029173897520719918 0 -0.0016961449465778399 0.002977637001931177 0 -0.0019088857449200997 0.0029381423174314903 0 -0.0016932169763520973 0.0029757194166057151 0 -0.0018216544123243958 0.0028889355690740145 0 -0.0016453291286898403 0.0029397033941046067 0 -0.0016547786977891765 0.00295338050202377 0 -0.0016932169763520973 0.0029757194166057151 0 -0.0016932169763520973 0.0029757194166057151 0 -0.0018216544123243958 0.0028889355690740145 0 -0.0016897504440551256 0.0029063686604841126 0 -0.0016932169763520973 0.0029757194166057151 0 -0.0016343870226387658 0.0029668593348362304 0 -0.0016897504440551256 0.0029063686604841126 0 -0.0051904174160701984 0.0025902260321837328 0 -0.0050000027101098909 0.0027995834786315181 0 -0.0049998861228008487 0.0021051488601529344 0 -0.0049998861228008487 0.0021051488601529344 0 -0.0052043802702165355 0.0022828127764413656 0 -0.0052574095259830932 0.0020664637584420632 0 -0.0049998861228008487 0.0021051488601529344 0 -0.0052574095259830932 0.0020664637584420632 0 -0.0051360305243822908 0.001845826774743051 0 -0.0051187416847525181 0.0020771920179814612 0 -0.0051272332704450554 0.0018771075313754153 0 -0.0051904174160701984 0.0025902260321837328 0 -0.0049998861228008487 0.0021051488601529344 0 -0.0052043802702165355 0.0022828127764413656 0 -0.0051904174160701984 0.0025902260321837328 0 -0.0052043802702165355 0.0022828127764413656 0 -0.0053029061289090523 0.0024853609514099537 0 -0.0052043802702165355 0.0022828127764413656 0 -0.0053582887851288579 0.0023020356361549009 0 -0.0052574095259830932 0.0020664637584420632 0 -0.005139985363064494 0.0023664125994781828 0 -0.005125155728242581 0.0022557059658113608 0 -0.0054313034307233868 0.0025510184115572613 0 -0.0053582887851288579 0.0023020356361549009 0 -0.0053029061289090523 0.0024853609514099537 0 -0.0052043802702165355 0.0022828127764413656 0 -0.0053582887851288579 0.0023020356361549009 0 -0.0053029061289090523 0.0024853609514099537 0 -0.0048375281242783686 0.0021922070053156757 0 -0.0048905797975945606 0.0022004979156678675 0 -0.0048508695914084212 0.002208569088651358 0 -0.0047829444051264436 0.002203393211685833 0 -0.0048508695914084212 0.002208569088651358 0 -0.0048019084756273523 0.0022281224537844826 0 -0.0048201776865725715 0.0021961958931753698 0 -0.0047829444051264436 0.002203393211685833 0 -0.0048508695914084212 0.002208569088651358 0 -0.0048201776865725715 0.0021961958931753698 0 -0.0048375281242783686 0.0021922070053156757 0 -0.0048508695914084212 0.002208569088651358 0 -0.0048905797975945606 0.0022004979156678675 0 -0.0049246677162989817 0.0021763946711837053 0 -0.0049787372693805235 0.002113192328203907 0 -0.0048905797975945606 0.0022004979156678675 0 -0.0048508695914084212 0.002208569088651358 0 -0.0049246677162989817 0.0021763946711837053 0 -0.0048508695914084212 0.002208569088651358 0 -0.0049246677162989817 0.0021763946711837053 0 -0.0048019084756273523 0.0022281224537844826 0 -0.0049246677162989817 0.0021763946711837053 0 -0.0049729133052485389 0.0021318127972676923 0 -0.0048743805576037047 0.0022110689284442608 0 -0.0049729133052485389 0.0021318127972676923 0 -0.0049787372693805235 0.002113192328203907 0 -0.0050344622312738074 0.002075717319765317 0 -0.0049246677162989817 0.0021763946711837053 0 -0.0049729133052485389 0.0021318127972676923 0 -0.0049787372693805235 0.002113192328203907 0 -0.005125155728242581 0.0022557059658113608 0 -0.0051187416847525181 0.0020771920179814612 0 -0.0048905797975945606 0.0022004979156678675 0 -0.0049787372693805235 0.002113192328203907 0 -0.0049640545375187351 0.0020780976304153121 0 -0.0049787372693805235 0.002113192328203907 0 -0.0049640545375187351 0.0020780976304153121 0 -0.0050575859642275093 0.0019996992315829314 0 -0.0049640545375187351 0.0020780976304153121 0 -0.0050575859642275093 0.0019996992315829314 0 -0.0051360305243822908 0.001845826774743051 0 -0.0050575859642275093 0.0019996992315829314 0 -0.0050498607701257329 0.0020630813003399895 0 -0.0051682990695624187 0.0018490382957030949 0 -0.0050032110302163932 0.0020495879012201578 0 -0.0050183863082390078 0.0020371310216195909 0 -0.0049439854799361279 0.0019462275827538719 0 -0.0050575859642275093 0.0019996992315829314 0 -0.0050344622312738074 0.002075717319765317 0 -0.0050498607701257329 0.0020630813003399895 0 -0.0049729133052485389 0.0021318127972676923 0 -0.0050344622312738074 0.002075717319765317 0 -0.0050351390988343098 0.0020756235613326821 0 -0.0048539317883204798 0.002325318319734268 0 -0.0047004395457333108 0.0023906544880725939 0 -0.0049052198605685189 0.0022771758035856795 0 -0.0048539317883204798 0.002325318319734268 0 -0.0049787372693805235 0.002113192328203907 0 -0.0050575859642275093 0.0019996992315829314 0 -0.0050344622312738074 0.002075717319765317 0 -0.0044104560190832993 0.0028920728677289797 0 -0.0042628352666969028 0.0028428788344305048 0 -0.0043805768277010255 0.0029164931567984532 0 -0.0042628352666969028 0.0028428788344305048 0 -0.0043805768277010255 0.0029164931567984532 0 -0.0042011858550744987 0.0030570536455893221 0 -0.0042628352666969028 0.0028428788344305048 0 -0.00409868475822043 0.0029198308461247896 0 -0.0042011858550744987 0.0030570536455893221 0 -0.0042628352666969028 0.0028428788344305048 0 -0.0040204145835064618 0.0027686259136299181 0 -0.00409868475822043 0.0029198308461247896 0 -0.0042628352666969028 0.0028428788344305048 0 -0.0042964279368531665 0.0027091076415703781 0 -0.0041601554168191283 0.0026836725437288452 0 -0.0042628352666969028 0.0028428788344305048 0 -0.0041601554168191283 0.0026836725437288452 0 -0.0040204145835064618 0.0027686259136299181 0 -0.0044104560190832993 0.0028920728677289797 0 -0.0042628352666969028 0.0028428788344305048 0 -0.0042964279368531665 0.0027091076415703781 0 -0.0048539317883204798 0.002325318319734268 0 -0.0045694787244744718 0.0024696867280266967 0 -0.0049729133052485389 0.0021318127972676923 0 -0.0050351390988343098 0.0020756235613326821 0 -0.0048743805576037047 0.0022110689284442608 0 -0.0048743805576037047 0.0022110689284442608 0 -0.0048019084756273523 0.0022281224537844826 0 -0.0046627652602968181 0.0022717615004226627 0 -0.0049246677162989817 0.0021763946711837053 0 -0.0048743805576037047 0.0022110689284442608 0 -0.0048019084756273523 0.0022281224537844826 0 -0.004708380796464782 0.0022153201515680032 0 -0.0048019084756273523 0.0022281224537844826 0 -0.0046627652602968181 0.0022717615004226627 0 -0.004708380796464782 0.0022153201515680032 0 -0.0047829444051264436 0.002203393211685833 0 -0.0048019084756273523 0.0022281224537844826 0 -0.0042282655119554105 0.0022535059479583531 0 -0.0044219310876553869 0.0023812890231653182 0 -0.0045723283645694472 0.0021946312906420042 0 -0.004708380796464782 0.0022153201515680032 0 -0.0046627652602968181 0.0022717615004226627 0 -0.0042964279368531665 0.0027091076415703781 0 -0.0041933558246811829 0.0025186723294397611 0 -0.0041601554168191283 0.0026836725437288452 0 -0.0045694787244744718 0.0024696867280266967 0 -0.0044219310876553869 0.0023812890231653182 0 -0.0041933558246811829 0.0025186723294397611 0 -0.0041601554168191283 0.0026836725437288452 0 -0.0040229647104546721 0.0025738421846032023 0 -0.0041601554168191283 0.0026836725437288452 0 -0.0040229647104546721 0.0025738421846032023 0 -0.0040204145835064618 0.0027686259136299181 0 -0.0040229647104546721 0.0025738421846032023 0 -0.0039077531529438572 0.0026536420776710995 0 -0.0040204145835064618 0.0027686259136299181 0 -0.0041933558246811829 0.0025186723294397611 0 -0.0040229647104546721 0.0025738421846032023 0 -0.0039593997944920587 0.0024269829596414746 0 -0.0040943645756439367 0.0023085093458175368 0 -0.0041933558246811829 0.0025186723294397611 0 -0.0039593997944920587 0.0024269829596414746 0 -0.0040229647104546721 0.0025738421846032023 0 -0.0039593997944920587 0.0024269829596414746 0 -0.0038321128243385223 0.0025520003535614926 0 -0.0037498842931675911 0.0023966868991618746 0 -0.0039593997944920587 0.0024269829596414746 0 -0.0038321128243385223 0.0025520003535614926 0 -0.0040229647104546721 0.0025738421846032023 0 -0.0038321128243385223 0.0025520003535614926 0 -0.0039077531529438572 0.0026536420776710995 0 -0.0037418625932139518 0.0026695285619166443 0 -0.0038321128243385223 0.0025520003535614926 0 -0.0039077531529438572 0.0026536420776710995 0 -0.0037418625932139518 0.0026695285619166443 0 -0.0039077531529438572 0.0026536420776710995 0 -0.0038675618564549858 0.0027578537892850286 0 -0.0039077531529438572 0.0026536420776710995 0 -0.0038675618564549858 0.0027578537892850286 0 -0.0040204145835064618 0.0027686259136299181 0 -0.0038675618564549858 0.0027578537892850286 0 -0.0038860430613561559 0.0028515440684799402 0 -0.0040204145835064618 0.0027686259136299181 0 -0.0038860430613561559 0.0028515440684799402 0 -0.0040204145835064618 0.0027686259136299181 0 -0.0039531770564910215 0.0029283609546407732 0 -0.0037752538546801852 0.0028748182409366364 0 -0.0038675618564549858 0.0027578537892850286 0 -0.0038860430613561559 0.0028515440684799402 0 -0.0040204145835064618 0.0027686259136299181 0 -0.00409868475822043 0.0029198308461247896 0 -0.0039531770564910215 0.0029283609546407732 0 -0.00409868475822043 0.0029198308461247896 0 -0.0039531770564910215 0.0029283609546407732 0 -0.0040296365583816296 0.0030295285204865506 0 -0.0039531770564910215 0.0029283609546407732 0 -0.0038390701571485906 0.0029185612263962764 0 -0.0038663784643191874 0.0030492039370900704 0 -0.0037752538546801852 0.0028748182409366364 0 -0.0038860430613561559 0.0028515440684799402 0 -0.0038390701571485906 0.0029185612263962764 0 -0.0038860430613561559 0.0028515440684799402 0 -0.0039531770564910215 0.0029283609546407732 0 -0.0038390701571485906 0.0029185612263962764 0 -0.0039531770564910215 0.0029283609546407732 0 -0.0038663784643191874 0.0030492039370900704 0 -0.0040296365583816296 0.0030295285204865506 0 -0.0040296365583816296 0.0030295285204865506 0 -0.0040229931241500139 0.0031930457121365644 0 -0.0042011858550744987 0.0030570536455893221 0 -0.0038663784643191874 0.0030492039370900704 0 -0.0040296365583816296 0.0030295285204865506 0 -0.0040229931241500139 0.0031930457121365644 0 -0.0044040436516849411 0.0025238970751360976 0 -0.0044322714749128259 0.0025485171553429309 0 -0.004536303623266842 0.0024219711724412073 0 -0.0042051286115306567 0.0022926630121195418 0 -0.0041756383525411982 0.0022652095686413647 0 -0.0043423319518113091 0.0021667782825862889 0 -0.0040681923926441316 0.0026658132820084452 0 -0.0044792463882273202 0.0022107420052538199 0 -0.0044792463882273202 0.0022107420052538199 0 -0.0049017517555941361 0.0017918053762166597 0 -0.0037583087286694669 0.0029622672417610081 0 -0.0040681923926441316 0.0026658132820084452 0 -0.0035813644182228471 0.0027274776890301275 0 -0.0036590903447598013 0.0027374989745014029 0 -0.0036874003878345678 0.0026810291168575437 0 -0.0035813644182228471 0.0027274776890301275 0 -0.0036874003878345678 0.0026810291168575437 0 -0.0037018218102755208 0.0026159892891120281 0 -0.0036881735112830913 0.0028317115845525238 0 -0.0035813644182228471 0.0027274776890301275 0 -0.0036590903447598013 0.0027374989745014029 0 -0.0036881735112830913 0.0028317115845525238 0 -0.0036590903447598013 0.0027374989745014029 0 -0.0037044307103205839 0.0027342465769362922 0 -0.0036590903447598013 0.0027374989745014029 0 -0.0037044307103205839 0.0027342465769362922 0 -0.0036874003878345678 0.0026810291168575437 0 -0.0037442767455220633 0.0026777127864581127 0 -0.0037044307103205839 0.0027342465769362922 0 -0.0036874003878345678 0.0026810291168575437 0 -0.0040681923926441316 0.0026658132820084452 0 -0.0042725715362657655 0.0020290383194900988 0 -0.0037442767455220633 0.0026777127864581127 0 -0.0037313498198036925 0.0026499541596205598 0 -0.0036874003878345678 0.0026810291168575437 0 -0.0044792463882273202 0.0022107420052538199 0 -0.0042725715362657655 0.0020290383194900988 0 -0.0037313498198036925 0.0026499541596205598 0 -0.0036874003878345678 0.0026810291168575437 0 -0.0037018218102755208 0.0026159892891120281 0 -0.005023575382963873 0.00078396737686553975 0 -0.0050458409067806256 0.00079791923867412161 0 -0.0050611465908752869 0.00077606790866821486 0 -0.0050185949146233973 0.00074411273366646125 0 -0.005023575382963873 0.00078396737686553975 0 -0.0050611465908752869 0.00077606790866821486 0 -0.0050458409067806256 0.00079791923867412161 0 -0.0050356383520047234 0.00081109320559522968 0 -0.0050610695150101635 0.00081865168172231477 0 -0.0050458409067806256 0.00079791923867412161 0 -0.0050611465908752869 0.00077606790866821486 0 -0.0050610695150101635 0.00081865168172231477 0 -0.005023575382963873 0.00078396737686553975 0 -0.0050458409067806256 0.00079791923867412161 0 -0.0050356383520047234 0.00081109320559522968 0 -0.0049949527364383187 0.00080530194913389791 0 -0.005023575382963873 0.00078396737686553975 0 -0.0050356383520047234 0.00081109320559522968 0 -0.0051963601067921642 0.00080610440309797577 0 -0.0051980257066628725 0.00078032971867669082 0 -0.0051677065198791798 0.00081365818171606991 0 -0.0050611465908752869 0.00077606790866821486 0 -0.0050983486815745728 0.00075753069028289331 0 -0.0050610695150101635 0.00081865168172231477 0 -0.0050709903742412171 0.0011030290944249268 0 -0.0051416239933998985 0.0007500135550642179 0 -0.0047081304267032626 0.0016979278266168478 0 -0.0044001453550336815 0.0018682913553123434 0 -0.0047467572169581085 0.0018961785859370416 0 -0.0050185949146233973 0.00074411273366646125 0 -0.0050611465908752869 0.00077606790866821486 0 -0.0050983486815745728 0.00075753069028289331 0 -0.0042725715362657655 0.0020290383194900988 0 -0.0050709903742412171 0.0011030290944249268 0 -0.0047081304267032626 0.0016979278266168478 0 -0.0047467572169581085 0.0018961785859370416 0 -0.0048132660035273356 0.0017916731956378769 0 -0.0050423921399512742 0.0013487596020566365 0 -0.0050477607847928584 0.001341082955390246 0 -0.0050468949376002714 0.0013472125118451966 0 -0.0050709903742412171 0.0011030290944249268 0 -0.0049017517555941361 0.0017918053762166597 0 -0.0049017517555941361 0.0017918053762166597 0 -0.0050649313566588881 0.0016209675205240942 0 -0.0050477607847928584 0.001341082955390246 0 -0.0050532721963086084 0.0013444351189622927 0 -0.0050468949376002714 0.0013472125118451966 0 -0.0051419184417668884 0.0018377474506873956 0 -0.0051242145198490312 0.0018217014504591567 0 -0.0050711476700776659 0.001852020600957614 0 -0.0050532721963086084 0.0013444351189622927 0 -0.0050628676442184923 0.0013522841182725654 0 -0.0050493181953941797 0.0013506951926427512 0 -0.0051632339011587541 0.0013567994216652172 0 -0.0051108795822053538 0.001152068347532848 0 -0.0052181892059115376 0.0011582328811978288 0 -0.0051825801716148439 0.0011550211119705587 0 -0.00521660163849325 0.0012006439520424938 0 -0.0050649313566588881 0.0016209675205240942 0 -0.0051632339011587541 0.0013567994216652172 0 -0.0051980257066628725 0.00078032971867669082 0 -0.0052086007312874072 0.00078101135665773554 0 -0.0052104105343896492 0.00079590908404943367 0 -0.0050423921399512742 0.0013487596020566365 0 -0.0050468949376002714 0.0013472125118451966 0 -0.0050486960243009867 0.0013492280389109461 0 -0.0050709903742412171 0.0011030290944249268 0 -0.0051108795822053538 0.001152068347532848 0 -0.0051198069397016934 0.0011870136235519581 0 -0.0051108795822053538 0.001152068347532848 0 -0.0050532721963086084 0.0013444351189622927 0 -0.0050468949376002714 0.0013472125118451966 0 -0.0050493181953941797 0.0013506951926427512 0 -0.0051963601067921642 0.00080610440309797577 0 -0.0051980257066628725 0.00078032971867669082 0 -0.0052104105343896492 0.00079590908404943367 0 -0.0051963601067921642 0.00080610440309797577 0 -0.0052104105343896492 0.00079590908404943367 0 -0.0052281682850139994 0.00080136043894613019 0 -0.0051963601067921642 0.00080610440309797577 0 -0.0052281682850139994 0.00080136043894613019 0 -0.0051820082732806413 0.00084640910747104314 0 -0.0052086007312874072 0.00078101135665773554 0 -0.0052104105343896492 0.00079590908404943367 0 -0.0052281682850139994 0.00080136043894613019 0 -0.0051108795822053538 0.001152068347532848 0 -0.0052471801064075769 0.0010093782726002623 0 -0.0052181892059115376 0.0011582328811978288 0 -0.00521660163849325 0.0012006439520424938 0 -0.005242386730555655 0.0011798251399410058 0 -0.005375880615224011 0.0012493602851845842 0 -0.0054340260176481449 0.0011084133534941319 0 -0.0054776952867080864 0.0011362287671679654 0 -0.0055089749121759136 0.001212749452237181 0 -0.0053780122874428496 0.0011002289038455236 0 -0.0055453273290906949 0.0011815640977426401 0 -0.0054776952867080864 0.0011362287671679654 0 -0.0055089749121759136 0.001212749452237181 0 -0.0052471801064075769 0.0010093782726002623 0 -0.005375880615224011 0.0012493602851845842 0 -0.0051596018274409983 0.0015482053355331015 0 -0.0051671418176350396 0.0015420523515435212 0 -0.0052031196323880004 0.0015529539668853861 0 -0.0050805575327063333 0.001526758628763394 0 -0.0051223576495886703 0.0015649576727224208 0 -0.0052117714775769767 0.0015632677019896276 0 -0.0051431094672011483 0.0016259429148203978 0 -0.0051812625160320225 0.0015722743005361286 0 -0.0055266018529077131 0.0012447872865336777 0 -0.0054881480049151585 0.0012763743590151074 0 -0.0054271715515194462 0.0012705586954643937 0 -0.0050649313566588881 0.0016209675205240942 0 -0.0051431094672011483 0.0016259429148203978 0 -0.0051242145198490312 0.0018217014504591567 0 -0.0050333451371726854 0.0017956493910905645 0 -0.0050711476700776659 0.001852020600957614 0 -0.0052688245279776981 0.0014862834476901227 0 -0.0051812625160320225 0.0015722743005361286 0 -0.0052688245279776981 0.0014862834476901227 0 -0.0051431094672011483 0.0016259429148203978 0 -0.0051223576495886703 0.0015649576727224208 0 -0.0052013789842200531 0.0015718767926933934 0 -0.0052117714775769767 0.0015632677019896276 0 -0.0051632339011587541 0.0013567994216652172 0 -0.0052688245279776981 0.0014862834476901227 0 -0.0052302479186412528 0.0013792054420143573 0 -0.0052737681678622665 0.0014187641660937281 0 -0.0053124744732316841 0.0013869620067469743 0 -0.0051632339011587541 0.0013567994216652172 0 -0.005375880615224011 0.0012493602851845842 0 -0.005375880615224011 0.0012493602851845842 0 -0.0052688245279776981 0.0014862834476901227 0 -0.0050333451371726854 0.0017956493910905645 0 -0.0050254985271086412 0.001843001045072006 0 -0.0050711476700776659 0.001852020600957614 0 -0.0050254985271086412 0.001843001045072006 0 -0.0050254484856022 0.0018859355457321602 0 -0.0050711476700776659 0.001852020600957614 0 -0.0050254484856022 0.0018859355457321602 0 -0.0050906434296800395 0.0019229414821311547 0 -0.0050247490986145065 0.0019622635970140282 0 -0.0050254484856022 0.0018859355457321602 0 -0.0050711476700776659 0.001852020600957614 0 -0.0050906434296800395 0.0019229414821311547 0 -0.0047388174310708979 0.0020561608038719269 0 -0.0047642024708090961 0.0020779792432942005 0 -0.0048005021235714828 0.0020232356567807266 0 -0.0049017517555941361 0.0017918053762166597 0 -0.0048690278852347437 0.0020906575105942922 0 -0.0051419184417668884 0.0018377474506873956 0 -0.0050711476700776659 0.001852020600957614 0 -0.0050906434296800395 0.0019229414821311547 0 -0.0040681923926441316 0.0026658132820084452 0 -0.0043415513854805788 0.0028002878438869463 0 -0.0044792463882273202 0.0022107420052538199 0 -0.0048690278852347437 0.0020906575105942922 0 -0.0044322714749128259 0.0025485171553429309 0 -0.0045637346572649628 0.0024773278803422592 0 -0.004536303623266842 0.0024219711724412073 0 -0.00409868475822043 0.0029198308461247896 0 -0.0040296365583816296 0.0030295285204865506 0 -0.0042011858550744987 0.0030570536455893221 0 -0.0047004395457333108 0.0023906544880725939 0 -0.0043415513854805788 0.0028002878438869463 0 -0.004665870725460367 0.0023220279432318905 0 -0.0045637346572649628 0.0024773278803422592 0 -0.004536303623266842 0.0024219711724412073 0 -0.0047004395457333108 0.0023906544880725939 0 -0.0048690278852347437 0.0020906575105942922 0 -0.0050183863082390078 0.0020371310216195909 0 -0.0050837295258074379 0.0019285731097909945 0 -0.0050247490986145065 0.0019622635970140282 0 -0.0048690278852347437 0.0020906575105942922 0 -0.0051054837697879617 0.0019194716362830621 0 -0.0049998861228008487 0.0021051488601529344 0 -0.0049998519380957474 0.001257207354935966 0 -0.0051360305243822908 0.001845826774743051 0 -0.0048539317883204798 0.002325318319734268 0 -0.0050603521257537613 0.0018420867674617358 0 -0.0050183863082390078 0.0020371310216195909 0 -0.0050247490986145065 0.0019622635970140282 0 -0.0049439854799361279 0.0019462275827538719 0 -0.0050247490986145065 0.0019622635970140282 0 -0.0049439854799361279 0.0019462275827538719 0 -0.0049791465008084531 0.0019030832886835511 0 -0.0050575859642275093 0.0019996992315829314 0 -0.0051682990695624187 0.0018490382957030949 0 -0.0051360305243822908 0.001845826774743051 0 -0.0050603521257537613 0.0018420867674617358 0 -0.0050278276146917406 0.001727600310849684 0 -0.0049439854799361279 0.0019462275827538719 0 -0.0049198705288131276 0.0018809260428145512 0 -0.0048761974416178981 0.0018112959079614659 0 -0.0051682990695624187 0.0018490382957030949 0 -0.0052084371764739967 0.0016027560348767537 0 -0.0051360305243822908 0.001845826774743051 0 -0.0049198705288131276 0.0018809260428145512 0 -0.0049791465008084531 0.0019030832886835511 0 -0.004976844178585244 0.0018424075121163234 0 -0.0049198705288131276 0.0018809260428145512 0 -0.0050088591461337076 0.0018166086593486858 0 -0.0049416322892081206 0.0017887051601222065 0 -0.0049365952289449639 0.0018702401553493447 0 -0.0049706701009169275 0.0018438468915824037 0 -0.0049439854799361279 0.0019462275827538719 0 -0.0049198705288131276 0.0018809260428145512 0 -0.0049791465008084531 0.0019030832886835511 0 -0.0050254484856022 0.0018859355457321602 0 -0.0050247490986145065 0.0019622635970140282 0 -0.0049791465008084531 0.0019030832886835511 0 -0.0050254985271086412 0.001843001045072006 0 -0.0050254484856022 0.0018859355457321602 0 -0.004976844178585244 0.0018424075121163234 0 -0.0050254484856022 0.0018859355457321602 0 -0.0049791465008084531 0.0019030832886835511 0 -0.004976844178585244 0.0018424075121163234 0 -0.0050333451371726854 0.0017956493910905645 0 -0.0050254985271086412 0.001843001045072006 0 -0.004976844178585244 0.0018424075121163234 0 -0.0051431094672011483 0.0016259429148203978 0 -0.0049706701009169275 0.0018438468915824037 0 -0.0050088591461337076 0.0018166086593486858 0 -0.0049875006815581352 0.001729747744763765 0 -0.0049416322892081206 0.0017887051601222065 0 -0.0050929924230700349 0.0017476358752615015 0 -0.0050088591461337076 0.0018166086593486858 0 -0.0050419203805240126 0.0017337773364335912 0 -0.0050088591461337076 0.0018166086593486858 0 -0.0049875006815581352 0.001729747744763765 0 -0.0050419203805240126 0.0017337773364335912 0 -0.0050205442763469419 0.0016380388600743395 0 -0.0051812625160320225 0.0015722743005361286 0 -0.0051812625160320225 0.0015722743005361286 0 -0.0050991385531956217 0.001463582356248417 0 -0.0055266018529077131 0.0012447872865336777 0 -0.0054271715515194462 0.0012705586954643937 0 -0.0053847219113364268 0.0011981609605676983 0 -0.0054271715515194462 0.0012705586954643937 0 -0.0053847219113364268 0.0011981609605676983 0 -0.0052964379709784133 0.0012340899160632865 0 -0.0049875006815581352 0.001729747744763765 0 -0.0050405376906765293 0.0017334238402271953 0 -0.004915171887984059 0.0017001237325341559 0 -0.0055266018529077131 0.0012447872865336777 0 -0.0053847219113364268 0.0011981609605676983 0 -0.0053780122874428496 0.0011002289038455236 0 -0.0052964379709784133 0.0012340899160632865 0 -0.0051633932049410317 0.0011999480445913924 0 -0.0052923607813134292 0.001138396469047079 0 -0.0053847219113364268 0.0011981609605676983 0 -0.0052964379709784133 0.0012340899160632865 0 -0.0052923607813134292 0.001138396469047079 0 -0.004915171887984059 0.0017001237325341559 0 -0.0049416322892081206 0.0017887051601222065 0 -0.0048761974416178981 0.0018112959079614659 0 -0.004915171887984059 0.0017001237325341559 0 -0.0048761974416178981 0.0018112959079614659 0 -0.004791512786747977 0.0016621667172728872 0 -0.0049875006815581352 0.001729747744763765 0 -0.004915171887984059 0.0017001237325341559 0 -0.0049416322892081206 0.0017887051601222065 0 -0.0049198705288131276 0.0018809260428145512 0 -0.0049416322892081206 0.0017887051601222065 0 -0.0048761974416178981 0.0018112959079614659 0 -0.0052084371764739967 0.0016027560348767537 0 -0.0049998519380957474 0.001257207354935966 0 -0.0051360305243822908 0.001845826774743051 0 -0.0050278276146917406 0.001727600310849684 0 -0.0050583971777474141 0.0014023573420116015 0 -0.0052084371764739967 0.0016027560348767537 0 -0.0051404833853357403 0.0013558889597896375 0 -0.0049998519380957474 0.001257207354935966 0 -0.0050991385531956217 0.001463582356248417 0 -0.0050583971777474141 0.0014023573420116015 0 -0.0050583971777474141 0.0014023573420116015 0 -0.0050001372121785664 0.0012569005440372476 0 -0.0051610625126756061 0.00073411177887745946 0 -0.0050357841936887159 0.00063781459927550195 0 -0.0052015926803918484 0.00078191433975301552 0 -0.004999977259934933 0.0008003283800637358 0 -0.0050000059997107492 0.00061789262637994551 0 -0.0050859937443215675 0.00065807369274436492 0 -0.0050772171013400086 0.00067987831981161585 0 -0.0050375490377402516 0.00065600517067209135 0 -0.0050859937443215675 0.00065807369274436492 0 -0.0050772171013400086 0.00067987831981161585 0 -0.005101340423408967 0.00068027308200471303 0 -0.0052015926803918484 0.00078191433975301552 0 -0.0050966650247008258 0.00087620684677689018 0 -0.0051749377712514968 0.00095418493345270268 0 -0.0050966650247008258 0.00087620684677689018 0 -0.004999977259934933 0.0008003283800637358 0 -0.0050000181374202863 0.00097181092786000826 0 -0.0052015926803918484 0.00078191433975301552 0 -0.0050966650247008258 0.00087620684677689018 0 -0.004999977259934933 0.0008003283800637358 0 -0.0050000181374202863 0.00097181092786000826 0 -0.0050869838777600528 0.0010836405630554836 0 -0.0051749377712514968 0.00095418493345270268 0 -0.0050966650247008258 0.00087620684677689018 0 -0.0050000181374202863 0.00097181092786000826 0 -0.0051749377712514968 0.00095418493345270268 0 -0.0050000285842408624 0.00097192713134301798 0 -0.0050953271245992721 0.0010994989634510622 0 -0.0049999973938800717 0.0012568707313013263 0 -0.0050000000354285378 0.00097188790392918156 0 -0.0051030223605613729 0.0011441548350337185 0 -0.0052042107858682749 0.0013145015675836765 0 -0.0049999973938800717 0.0012568707313013263 0 -0.0051030223605613729 0.0011441548350337185 0 -0.0051633932049410317 0.0011999480445913924 0 -0.0050869838777600528 0.0010836405630554836 0 -0.0052082626406925632 0.0010769339516914687 0 -0.0050583971777474141 0.0014023573420116015 0 -0.0050953271245992721 0.0010994989634510622 0 -0.0051633932049410317 0.0011999480445913924 0 -0.0052082626406925632 0.0010769339516914687 0 -0.0052923607813134292 0.001138396469047079 0 -0.0050869838777600528 0.0010836405630554836 0 -0.0052082626406925632 0.0010769339516914687 0 -0.0051749377712514968 0.00095418493345270268 0 -0.0052082626406925632 0.0010769339516914687 0 -0.0051749377712514968 0.00095418493345270268 0 -0.0053228768705425008 0.0010208102932384663 0 -0.0051749377712514968 0.00095418493345270268 0 -0.0053228768705425008 0.0010208102932384663 0 -0.0053657106007349558 0.00089492753725879226 0 -0.0052082626406925632 0.0010769339516914687 0 -0.0053228768705425008 0.0010208102932384663 0 -0.0052923607813134292 0.001138396469047079 0 -0.0053228768705425008 0.0010208102932384663 0 -0.0052923607813134292 0.001138396469047079 0 -0.0053780122874428496 0.0011002289038455236 0 -0.0053228768705425008 0.0010208102932384663 0 -0.0053780122874428496 0.0011002289038455236 0 -0.0054603326024344851 0.0010525939972659553 0 -0.0054776952867080864 0.0011362287671679654 0 -0.0053780122874428496 0.0011002289038455236 0 -0.0054603326024344851 0.0010525939972659553 0 -0.0053847219113364268 0.0011981609605676983 0 -0.0052923607813134292 0.001138396469047079 0 -0.0053780122874428496 0.0011002289038455236 0 -0.0053228768705425008 0.0010208102932384663 0 -0.0053657106007349558 0.00089492753725879226 0 -0.0054603326024344851 0.0010525939972659553 0 -0.0049832204981553174 0.00078444102509788902 0 -0.0050509791675630491 0.00082101081332136756 0 -0.0050320986646302376 0.00085702095364083276 0 -0.0051042119121687103 0.00078929872368554142 0 -0.0049789512758173834 0.00079587026949789162 0 -0.0051042119121687103 0.00078929872368554142 0 -0.005274281155751211 0.00097912349393575009 0 -0.0048877154981911567 0.00073448807983819589 0 -0.0049205795443049505 0.00065665078112913137 0 -0.0050086227026307686 0.00068639961156188379 0 -0.0048877154981911567 0.00073448807983819589 0 -0.0048291515158928947 0.00064647549055491243 0 -0.0049205795443049505 0.00065665078112913137 0 -0.0050772171013400086 0.00067987831981161585 0 -0.0051166615968198667 0.00070316323647929852 0 -0.005101340423408967 0.00068027308200471303 0 -0.0052015926803918484 0.00078191433975301552 0 -0.0051749377712514968 0.00095418493345270268 0 -0.0053657106007349558 0.00089492753725879226 0 -0.0051610625126756061 0.00073411177887745946 0 -0.0051042119121687103 0.00078929872368554142 0 -0.0051042119121687103 0.00078929872368554142 0 -0.0049540193210049739 0.00064082186064557387 0 -0.0050728214794571553 0.00056253486397844961 0 -0.0050917012625250327 0.00047960399747328479 0 -0.004771876988769525 0.00056397548214695721 0 -0.0048291515158928947 0.00064647549055491243 0 -0.0049494486444997942 0.00056553062347779192 0 -0.0050728214794571553 0.00056253486397844961 0 -0.0049540193210049739 0.00064082186064557387 0 -0.0049494486444997942 0.00056553062347779192 0 -0.0049205795443049505 0.00065665078112913137 0 -0.0050086227026307686 0.00068639961156188379 0 -0.0048291515158928947 0.00064647549055491243 0 -0.0049494486444997942 0.00056553062347779192 0 -0.0049205795443049505 0.00065665078112913137 0 -0.0050917012625250327 0.00047960399747328479 0 -0.0052584706478648905 0.00048811676728585765 0 -0.0049494486444997942 0.00056553062347779192 0 -0.0051312650343242894 0.00054599688572650362 0 -0.0050086227026307686 0.00068639961156188379 0 -0.0051312650343242894 0.00054599688572650362 0 -0.0051210407526905109 0.00073781999455328447 0 -0.0052547904388237044 0.00065783802672947844 0 -0.0051312650343242894 0.00054599688572650362 0 -0.0051210407526905109 0.00073781999455328447 0 -0.0050086227026307686 0.00068639961156188379 0 -0.0051210407526905109 0.00073781999455328447 0 -0.0050086227026307686 0.00068639961156188379 0 -0.0050509791675630491 0.00082101081332136756 0 -0.0048877154981911567 0.00073448807983819589 0 -0.0050086227026307686 0.00068639961156188379 0 -0.0050509791675630491 0.00082101081332136756 0 -0.0050509791675630491 0.00082101081332136756 0 -0.0050866783018103127 0.0008612063589151155 0 -0.0051254299766254124 0.00082541605265756487 0 -0.0050509791675630491 0.00082101081332136756 0 -0.0050320986646302376 0.00085702095364083276 0 -0.0050866783018103127 0.0008612063589151155 0 -0.0052471801064075769 0.0010093782726002623 0 -0.005274281155751211 0.00097912349393575009 0 -0.0051113249516624376 0.00094681462303529429 0 -0.0050320986646302376 0.00085702095364083276 0 -0.0050866783018103127 0.0008612063589151155 0 -0.0055453273290906949 0.0011815640977426401 0 -0.0054776952867080864 0.0011362287671679654 0 -0.0054603326024344851 0.0010525939972659553 0 -0.0051113249516624376 0.00094681462303529429 0 -0.0051332909015245403 0.00086763652803074302 0 -0.0051820082732806413 0.00084640910747104314 0 -0.0052471801064075769 0.0010093782726002623 0 -0.0051632035934974152 0.00081093562599903 0 -0.0051113249516624376 0.00094681462303529429 0 -0.0050866783018103127 0.0008612063589151155 0 -0.0051332909015245403 0.00086763652803074302 0 -0.0051332909015245403 0.00086763652803074302 0 -0.0051254299766254124 0.00082541605265756487 0 -0.0051732571406600874 0.0008488851009884527 0 -0.0051254299766254124 0.00082541605265756487 0 -0.0052243451987093875 0.00083015625024484261 0 -0.0051732571406600874 0.0008488851009884527 0 -0.0051210407526905109 0.00073781999455328447 0 -0.0051254299766254124 0.00082541605265756487 0 -0.0052243451987093875 0.00083015625024484261 0 -0.0050866783018103127 0.0008612063589151155 0 -0.0051332909015245403 0.00086763652803074302 0 -0.0051254299766254124 0.00082541605265756487 0 -0.0051210407526905109 0.00073781999455328447 0 -0.0050509791675630491 0.00082101081332136756 0 -0.0051254299766254124 0.00082541605265756487 0 -0.0052243451987093875 0.00083015625024484261 0 -0.0051665910797149897 0.00085806017405075743 0 -0.0051732571406600874 0.0008488851009884527 0 -0.0051665910797149897 0.00085806017405075743 0 -0.0051732571406600874 0.0008488851009884527 0 -0.0051820082732806413 0.00084640910747104314 0 -0.0051332909015245403 0.00086763652803074302 0 -0.0051732571406600874 0.0008488851009884527 0 -0.0051820082732806413 0.00084640910747104314 0 -0.0051665910797149897 0.00085806017405075743 0 -0.0051820082732806413 0.00084640910747104314 0 -0.0051677065198791798 0.00081365818171606991 0 -0.0051963601067921642 0.00080610440309797577 0 -0.0051820082732806413 0.00084640910747104314 0 -0.0051677065198791798 0.00081365818171606991 0 -0.0051665910797149897 0.00085806017405075743 0 -0.0051677065198791798 0.00081365818171606991 0 -0.0050693188829529197 0.00089709863675123695 0 -0.0051416239933998985 0.0007500135550642179 0 -0.0050544177994008843 0.00092411378637793971 0 -0.0050610695150101635 0.00081865168172231477 0 -0.0050306947506581715 0.00084253261941081225 0 -0.0050693188829529197 0.00089709863675123695 0 -0.0049949527364383187 0.00080530194913389791 0 -0.0050356383520047234 0.00081109320559522968 0 -0.0050306947506581715 0.00084253261941081225 0 -0.0050356383520047234 0.00081109320559522968 0 -0.0050610695150101635 0.00081865168172231477 0 -0.0050306947506581715 0.00084253261941081225 0 -0.0051467602325179496 0.00084321215691469757 0 -0.0054425991508582532 0.00085734727414355741 0 -0.0052243451987093875 0.00083015625024484261 0 -0.0050693188829529197 0.00089709863675123695 0 -0.0050090954103627757 0.00097638145608141592 0 -0.0052243451987093875 0.00083015625024484261 0 -0.0051665910797149897 0.00085806017405075743 0 -0.0050693188829529197 0.00089709863675123695 0 -0.0052243451987093875 0.00083015625024484261 0 -0.0054154956294577934 0.00066671589775987416 0 -0.0055655378145502621 0.00078148347744390269 0 -0.0051210407526905109 0.00073781999455328447 0 -0.0052243451987093875 0.00083015625024484261 0 -0.0052547904388237044 0.00065783802672947844 0 -0.0052243451987093875 0.00083015625024484261 0 -0.0054154956294577934 0.00066671589775987416 0 -0.0052547904388237044 0.00065783802672947844 0 -0.0051312650343242894 0.00054599688572650362 0 -0.0052547904388237044 0.00065783802672947844 0 -0.0054390133160789923 0.00048985157239559416 0 -0.0052584706478648905 0.00048811676728585765 0 -0.0054328855595362586 0.00048990649403934635 0 -0.0054154956294577934 0.00066671589775987416 0 -0.0052547904388237044 0.00065783802672947844 0 -0.0054390133160789923 0.00048985157239559416 0 -0.0054154956294577934 0.00066671589775987416 0 -0.0054390133160789923 0.00048985157239559416 0 -0.0055708077232824501 0.00058115579619004876 0 -0.0054390133160789923 0.00048985157239559416 0 -0.005422186544389241 0.00028473249944414506 0 -0.0055893695027561365 0.00034966315095919063 0 -0.005422186544389241 0.00028473249944414506 0 -0.0055273176326850115 0.00020803236631834645 0 -0.0055893695027561365 0.00034966315095919063 0 -0.0053600644162596781 0.00042716260926584288 0 -0.0054390133160789923 0.00048985157239559416 0 -0.005422186544389241 0.00028473249944414506 0 -0.0046760866457928292 -0.00056098679283389822 0 -0.0049420246310326807 -0.00055904160967328552 0 -0.0047827139222731858 -0.00082006070648171921 0 -0.0052227601616974253 -0.00034252576938049371 0 -0.0048592156510883144 0.00020521189771197237 0 -0.0054610079374182059 6.5632876175485732e-05 0 -0.0055084651769480592 0.00017712439944417055 0 -0.0054145528127384854 0.00013982994493712955 0 -0.0048592156510883144 0.00020521189771197237 0 -0.0056763739292492324 0.00018484814825120191 0 -0.005422186544389241 0.00028473249944414506 0 -0.0055273176326850115 0.00020803236631834645 0 -0.0054145528127384854 0.00013982994493712955 0 -0.005422186544389241 0.00028473249944414506 0 -0.0054145528127384854 0.00013982994493712955 0 -0.0053809929128079432 0.00021390794487210444 0 -0.0053809929128079432 0.00021390794487210444 0 -0.0053388288481838317 0.00014734864692038323 0 -0.0053487966076122152 0.00028347361158305624 0 -0.005422186544389241 0.00028473249944414506 0 -0.0053809929128079432 0.00021390794487210444 0 -0.0053487966076122152 0.00028347361158305624 0 -0.0053790782629064508 4.6254981741244385e-05 0 -0.0054145528127384854 0.00013982994493712955 0 -0.0053388288481838317 0.00014734864692038323 0 -0.0054145528127384854 0.00013982994493712955 0 -0.0053809929128079432 0.00021390794487210444 0 -0.0053388288481838317 0.00014734864692038323 0 -0.0053186975337351731 1.8099367529161365e-05 0 -0.0053388288481838317 0.00014734864692038323 0 -0.0053012124213121566 7.8626302043856779e-05 0 -0.0053388288481838317 0.00014734864692038323 0 -0.0052739770352864422 0.00016415008203648877 0 -0.0053012124213121566 7.8626302043856779e-05 0 -0.0053388288481838317 0.00014734864692038323 0 -0.0052943916001635281 0.00026154597954620279 0 -0.0052739770352864422 0.00016415008203648877 0 -0.0053388288481838317 0.00014734864692038323 0 -0.0053487966076122152 0.00028347361158305624 0 -0.0052943916001635281 0.00026154597954620279 0 -0.0053487966076122152 0.00028347361158305624 0 -0.0053065826469455785 0.00034710924264012404 0 -0.0052943916001635281 0.00026154597954620279 0 -0.0053600644162596781 0.00042716260926584288 0 -0.005422186544389241 0.00028473249944414506 0 -0.0053487966076122152 0.00028347361158305624 0 -0.0052785820092083472 0.0004096214320213913 0 -0.0053600644162596781 0.00042716260926584288 0 -0.0053065826469455785 0.00034710924264012404 0 -0.0053600644162596781 0.00042716260926584288 0 -0.0053487966076122152 0.00028347361158305624 0 -0.0053065826469455785 0.00034710924264012404 0 -0.0053065826469455785 0.00034710924264012404 0 -0.0052467344701923923 0.00038310373099704711 0 -0.0052487125342183536 0.00032762022588475956 0 -0.0052785820092083472 0.0004096214320213913 0 -0.0053065826469455785 0.00034710924264012404 0 -0.0052467344701923923 0.00038310373099704711 0 -0.0051910549559060727 0.00043577450646056591 0 -0.0052467344701923923 0.00038310373099704711 0 -0.0052079812042607155 0.00039157156434664164 0 -0.0051910549559060727 0.00043577450646056591 0 -0.0052785820092083472 0.0004096214320213913 0 -0.0052467344701923923 0.00038310373099704711 0 -0.0052467344701923923 0.00038310373099704711 0 -0.0052079812042607155 0.00039157156434664164 0 -0.0052487125342183536 0.00032762022588475956 0 -0.0052079812042607155 0.00039157156434664164 0 -0.0052487125342183536 0.00032762022588475956 0 -0.0051829439913429042 0.00033140104234152768 0 -0.0052487125342183536 0.00032762022588475956 0 -0.005233012336799508 0.00023840311337916146 0 -0.0051829439913429042 0.00033140104234152768 0 -0.0052487125342183536 0.00032762022588475956 0 -0.0052943916001635281 0.00026154597954620279 0 -0.005233012336799508 0.00023840311337916146 0 -0.0053065826469455785 0.00034710924264012404 0 -0.0052487125342183536 0.00032762022588475956 0 -0.0052943916001635281 0.00026154597954620279 0 -0.0052943916001635281 0.00026154597954620279 0 -0.0052739770352864422 0.00016415008203648877 0 -0.005233012336799508 0.00023840311337916146 0 -0.0052700914222836336 -9.5671623010286585e-06 0 -0.0052739770352864422 0.00016415008203648877 0 -0.0053012124213121566 7.8626302043856779e-05 0 -0.0052700914222836336 -9.5671623010286585e-06 0 -0.0052739770352864422 0.00016415008203648877 0 -0.0052167659346618461 9.4764638749361363e-05 0 -0.0052739770352864422 0.00016415008203648877 0 -0.0052167659346618461 9.4764638749361363e-05 0 -0.005233012336799508 0.00023840311337916146 0 -0.0052167659346618461 9.4764638749361363e-05 0 -0.005233012336799508 0.00023840311337916146 0 -0.0051521826709066895 0.00023442781524433691 0 -0.005233012336799508 0.00023840311337916146 0 -0.0051521826709066895 0.00023442781524433691 0 -0.0051829439913429042 0.00033140104234152768 0 -0.0052167659346618461 9.4764638749361363e-05 0 -0.0051521826709066895 0.00023442781524433691 0 -0.0051120411389244981 0.00011236312280537197 0 -0.0051571986659637841 -7.7041608472733499e-05 0 -0.0052167659346618461 9.4764638749361363e-05 0 -0.0051120411389244981 0.00011236312280537197 0 -0.0051120411389244981 0.00011236312280537197 0 -0.0049999630385449507 2.1810622223644065e-05 0 -0.0049999802843233567 0.00031979431143452545 0 -0.0051571986659637841 -7.7041608472733499e-05 0 -0.0051120411389244981 0.00011236312280537197 0 -0.0049999630385449507 2.1810622223644065e-05 0 -0.0051521826709066895 0.00023442781524433691 0 -0.0051120411389244981 0.00011236312280537197 0 -0.0049999802843233567 0.00031979431143452545 0 -0.0049999802843233567 0.00031979431143452545 0 -0.0051017422153338187 0.00037674433156846126 0 -0.0049999500332949332 0.00061768944828252811 0 -0.0051521826709066895 0.00023442781524433691 0 -0.0049999802843233567 0.00031979431143452545 0 -0.0051017422153338187 0.00037674433156846126 0 -0.0051521826709066895 0.00023442781524433691 0 -0.0051017422153338187 0.00037674433156846126 0 -0.0051829439913429042 0.00033140104234152768 0 -0.0052079812042607155 0.00039157156434664164 0 -0.0051829439913429042 0.00033140104234152768 0 -0.0051659854039124119 0.00044575446327490718 0 -0.0051017422153338187 0.00037674433156846126 0 -0.0051829439913429042 0.00033140104234152768 0 -0.0051659854039124119 0.00044575446327490718 0 -0.0052360571133116028 0.00054049593889879031 0 -0.0051659854039124119 0.00044575446327490718 0 -0.0049999500332949332 0.00061768944828252811 0 -0.0051910549559060727 0.00043577450646056591 0 -0.0052079812042607155 0.00039157156434664164 0 -0.0051659854039124119 0.00044575446327490718 0 -0.0050728214794571553 0.00056253486397844961 0 -0.0051578899824249232 0.00046774537170159554 0 -0.0050728214794571553 0.00056253486397844961 0 -0.0050357841936887159 0.00063781459927550195 0 -0.0051017422153338187 0.00037674433156846126 0 -0.0051659854039124119 0.00044575446327490718 0 -0.0049999500332949332 0.00061768944828252811 0 -0.0014986653086311186 0.0026880501856211773 0 -0.0015252818051864185 0.0027404177393704019 0 -0.0015292373108059458 0.0027465333202155197 0 -0.0014986653086311186 0.0026880501856211773 0 -0.0015252818051864185 0.0027404177393704019 0 -0.0015303568335306814 0.0027917000485908551 0 -0.0015252818051864185 0.0027404177393704019 0 -0.0015220786559969409 0.0027886383529869786 0 -0.0015303568335306814 0.0027917000485908551 0 -0.0015252818051864185 0.0027404177393704019 0 -0.0015220786559969409 0.0027886383529869786 0 -0.0015203201013508306 0.002741378450168858 0 -0.0015252818051864185 0.0027404177393704019 0 -0.0015292373108059458 0.0027465333202155197 0 -0.0015203201013508306 0.002741378450168858 0 -0.0035205428579585078 0.00091718124853574189 0 -0.0035874037706975586 0.00084947593850077615 0 -0.0036336563628119622 0.00092135314515688724 0 -0.0021490873659718397 0.0014664248426433392 0 -0.0025890163311526257 0.0017714459856661888 0 -0.00079592149702760711 0.0018504642510594675 0 -0.0015869195426215484 0.0021786332453033784 0 -0.0015392524246019919 0.0016933930586696165 0 -0.0014986653086311186 0.0026880501856211773 0 -0.00079592149702760711 0.0018504642510594675 0 -0.0015869195426215484 0.0021786332453033784 0 -0.0012374910991683132 0.0028824295660664092 0 -0.0021490873659718397 0.0014664248426433392 0 -0.0015869195426215484 0.0021786332453033784 0 -0.0020972270651464352 0.0020479003712929257 0 -0.0015392524246019919 0.0016933930586696165 0 -0.0015869195426215484 0.0021786332453033784 0 -0.0020972270651464352 0.0020479003712929257 0 -0.0018963533638570132 0.0025389723445151317 0 -0.0017105592425882394 0.001266327219400809 0 -0.0017442621172988973 0.0012106417577031669 0 -0.0017880560911492606 0.0012252645469146193 0 -0.0017105592425882394 0.001266327219400809 0 -0.0017880560911492606 0.0012252645469146193 0 -0.0017879068688190713 0.0013113979536767233 0 -0.0020972270651464352 0.0020479003712929257 0 -0.0023019064554686709 0.0026997374347996379 0 -0.0018963533638570132 0.0025389723445151317 0 -0.0018896120215336413 0.0016553238383567044 0 -0.0020436916961548072 0.0020402721684735646 0 -0.0017105592425882394 0.001266327219400809 0 -0.0017268179139501643 0.0014161325883015545 0 -0.0017879068688190713 0.0013113979536767233 0 -0.0017268179139501643 0.0014161325883015545 0 -0.0017879068688190713 0.0013113979536767233 0 -0.0017836330075786436 0.0013814759123002931 0 -0.0023019064554686709 0.0026997374347996379 0 -0.0018963533638570132 0.0025389723445151317 0 -0.0020006348014460257 0.0028036266598526712 0 -0.0017268179139501643 0.0014161325883015545 0 -0.0017836330075786436 0.0013814759123002931 0 -0.001790597614197446 0.0014544190861083064 0 -0.0014986653086311186 0.0026880501856211773 0 -0.0015869195426215484 0.0021786332453033784 0 -0.0018963533638570132 0.0025389723445151317 0 -0.0018963533638570132 0.0025389723445151317 0 -0.0016679742023689745 0.0028958584640645327 0 -0.0020006348014460257 0.0028036266598526712 0 -0.0014986653086311186 0.0026880501856211773 0 -0.0018963533638570132 0.0025389723445151317 0 -0.0016679742023689745 0.0028958584640645327 0 -0.0016679742023689745 0.0028958584640645327 0 -0.0016106895304412202 0.0029853317754844929 0 -0.0016243141757934011 0.0029492760258187927 0 -0.0016679742023689745 0.0028958584640645327 0 -0.0020006348014460257 0.0028036266598526712 0 -0.0021285123696088296 0.003094188439275974 0 -0.0016658153190496215 0.0029143418936124735 0 -0.0019198104743480761 0.0030467577857381436 0 -0.0023019064554686709 0.0026997374347996379 0 -0.0021285123696088296 0.003094188439275974 0 -0.0025256330056664098 0.0032665560983570203 0 -0.0020436916961548072 0.0020402721684735646 0 -0.0018029839922124606 0.0026638441392292335 0 -0.0023019064554686709 0.0026997374347996379 0 -0.0020006348014460257 0.0028036266598526712 0 -0.0021285123696088296 0.003094188439275974 0 -0.0019198104743480761 0.0030467577857381436 0 -0.0018029839922124606 0.0026638441392292335 0 -0.0016106895304412202 0.0029853317754844929 0 -0.0015566995290503698 0.0030177748305180571 0 -0.0015445647265605947 0.0030286070787867245 0 -0.0016106895304412202 0.0029853317754844929 0 -0.0015566995290503698 0.0030177748305180571 0 -0.0015985618265190191 0.0029923879257450331 0 -0.001560913285098115 0.0030145466822010399 0 -0.0015566995290503698 0.0030177748305180571 0 -0.0015985618265190191 0.0029923879257450331 0 -0.0016106895304412202 0.0029853317754844929 0 -0.0016243141757934011 0.0029492760258187927 0 -0.0015985618265190191 0.0029923879257450331 0 -0.001613454372705508 0.002982674046547693 0 -0.0016243141757934011 0.0029492760258187927 0 -0.0015985618265190191 0.0029923879257450331 0 -0.001613454372705508 0.002982674046547693 0 -0.0016243141757934011 0.0029492760258187927 0 -0.0016011664213990571 0.0029499188804156307 0 -0.0016011664213990571 0.0029499188804156307 0 -0.0015662667480113555 0.0028845040302560776 0 -0.0015808231546417199 0.0029199481569493631 0 -0.0016243141757934011 0.0029492760258187927 0 -0.0016011664213990571 0.0029499188804156307 0 -0.0015662667480113555 0.0028845040302560776 0 -0.0014986653086311186 0.0026880501856211773 0 -0.0016679742023689745 0.0028958584640645327 0 -0.0015662667480113555 0.0028845040302560776 0 -0.0016679742023689745 0.0028958584640645327 0 -0.0016243141757934011 0.0029492760258187927 0 -0.0015662667480113555 0.0028845040302560776 0 -0.0014986653086311186 0.0026880501856211773 0 -0.0015662667480113555 0.0028845040302560776 0 -0.0015303568335306814 0.0027917000485908551 0 -0.0015220786559969409 0.0027886383529869786 0 -0.0015303568335306814 0.0027917000485908551 0 -0.0015480412946511806 0.0028716961710676179 0 -0.0015662667480113555 0.0028845040302560776 0 -0.0015303568335306814 0.0027917000485908551 0 -0.0015480412946511806 0.0028716961710676179 0 -0.0015662667480113555 0.0028845040302560776 0 -0.0015480412946511806 0.0028716961710676179 0 -0.0015808231546417199 0.0029199481569493631 0 -0.0015220786559969409 0.0027886383529869786 0 -0.0015480412946511806 0.0028716961710676179 0 -0.0015067306572982822 0.0028311518380390414 0 -0.0015480412946511806 0.0028716961710676179 0 -0.0015808231546417199 0.0029199481569493631 0 -0.0015973228819836265 0.0029332946490348189 0 -0.0016056384921875708 0.0029467672035367772 0 -0.0016011664213990571 0.0029499188804156307 0 -0.0015808231546417199 0.0029199481569493631 0 -0.0016056384921875708 0.0029467672035367772 0 -0.0015808231546417199 0.0029199481569493631 0 -0.0015973228819836265 0.0029332946490348189 0 -0.0016152400185905035 0.0029393398481109222 0 -0.0015973228819836265 0.0029332946490348189 0 -0.0016291127884986362 0.0029470375555618183 0 -0.0015480412946511806 0.0028716961710676179 0 -0.0015973228819836265 0.0029332946490348189 0 -0.001626784310683585 0.0029508167221118224 0 -0.0012327362777493206 0.0031310496913275134 0 -0.0022763417006503037 0.0020886872973211621 0 -0.0015480412946511806 0.0028716961710676179 0 -0.0015008890012635514 0.0028508096160241555 0 -0.0015067306572982822 0.0028311518380390414 0 -0.0015973228819836265 0.0029332946490348189 0 -0.001626784310683585 0.0029508167221118224 0 -0.0016291127884986362 0.0029470375555618183 0 -0.0016410736350889684 0.0029418039997837968 0 -0.0016384012888646718 0.0029526988824246296 0 -0.0016291127884986362 0.0029470375555618183 0 -0.0022763417006503037 0.0020886872973211621 0 -0.002250859117076039 0.0023219234770792446 0 -0.0016291724343626094 0.0029419060929352123 0 -0.0016152400185905035 0.0029393398481109222 0 -0.0016291127884986362 0.0029470375555618183 0 -0.0045096965313476444 0.00080956296628782254 0 -0.0047864551275425687 0.00086035844426756759 0 -0.0046288794077139908 0.0010444165938598719 0 -0.0048281130519589694 0.00065558470825380236 0 -0.0045096965313476444 0.00080956296628782254 0 -0.0047864551275425687 0.00086035844426756759 0 -0.0039026967684447139 0.0018386963903188965 0 -0.0022763417006503037 0.0020886872973211621 0 -0.0022763417006503037 0.0020886872973211621 0 -0.003779717754981642 0.0016473623352497926 0 -0.0047864551275425687 0.00086035844426756759 0 -0.0047291196556931026 0.00095007867138421681 0 -0.0047956638077898302 0.00093305497324553711 0 -0.0049344807469545995 0.00064348777555444693 0 -0.003779717754981642 0.0016473623352497926 0 -0.003779717754981642 0.0016473623352497926 0 -0.0046145392245176102 0.0010105762810604538 0 -0.0047291196556931026 0.00095007867138421681 0 -0.0047956638077898302 0.00093305497324553711 0 -0.0047678367063786597 0.0010172064751703164 0 -0.0047956638077898302 0.00093305497324553711 0 -0.0047678367063786597 0.0010172064751703164 0 -0.0048563408443479438 0.00093227119891575424 0 -0.0046145392245176102 0.0010105762810604538 0 -0.0024903251390442408 0.0020648626044528777 0 -0.0036979069177617862 0.001151670082736843 0 -0.0039935676414887423 0.0017119652111685919 0 -0.0032049442133177549 0.0017132414653027149 0 -0.003779717754981642 0.0016473623352497926 0 -0.0024903251390442408 0.0020648626044528777 0 -0.0014952594564712973 0.0028241788492551745 0 -0.0015006281082576881 0.0028088839463934153 0 -0.0015067306572982822 0.0028311518380390414 0 -0.0015220786559969409 0.0027886383529869786 0 -0.0015006281082576881 0.0028088839463934153 0 -0.0015067306572982822 0.0028311518380390414 0 -0.0012048066523706797 0.0027700975272770181 0 -0.0024903251390442408 0.0020648626044528777 0 -0.0015008890012635514 0.0028508096160241555 0 -0.0014952594564712973 0.0028241788492551745 0 -0.0015067306572982822 0.0028311518380390414 0 -0.0050306947506581715 0.00084253261941081225 0 -0.0050693188829529197 0.00089709863675123695 0 -0.0050040464155405888 0.00087212140406467853 0 -0.0050306947506581715 0.00084253261941081225 0 -0.0050040464155405888 0.00087212140406467853 0 -0.0049755146066306176 0.00083913573795288117 0 -0.0049949527364383187 0.00080530194913389791 0 -0.0050306947506581715 0.00084253261941081225 0 -0.0049755146066306176 0.00083913573795288117 0 -0.0049387944548881972 0.00080306326286098593 0 -0.0049949527364383187 0.00080530194913389791 0 -0.0049755146066306176 0.00083913573795288117 0 -0.0049387944548881972 0.00080306326286098593 0 -0.0049755146066306176 0.00083913573795288117 0 -0.004901366082829638 0.00083847508011680304 0 -0.0050040464155405888 0.00087212140406467853 0 -0.0049755146066306176 0.00083913573795288117 0 -0.0049488840511846812 0.00087571319095503799 0 -0.0049755146066306176 0.00083913573795288117 0 -0.0049488840511846812 0.00087571319095503799 0 -0.004901366082829638 0.00083847508011680304 0 -0.0048281130519589694 0.00065558470825380236 0 -0.0047864551275425687 0.00086035844426756759 0 -0.0048252043214920808 0.00089668489320952633 0 -0.0048582601285029536 0.00078567947883834079 0 -0.004901366082829638 0.00083847508011680304 0 -0.0048252043214920808 0.00089668489320952633 0 -0.0039026967684447139 0.0018386963903188965 0 -0.004910113802379385 0.00046451113536879817 0 -0.0048943923101716254 0.00088557749871869202 0 -0.004901366082829638 0.00083847508011680304 0 -0.0048252043214920808 0.00089668489320952633 0 -0.0049488840511846812 0.00087571319095503799 0 -0.0048943923101716254 0.00088557749871869202 0 -0.004901366082829638 0.00083847508011680304 0 -0.0049488840511846812 0.00087571319095503799 0 -0.0048943923101716254 0.00088557749871869202 0 -0.004917294227893278 0.00091111344599656635 0 -0.0047864551275425687 0.00086035844426756759 0 -0.0047956638077898302 0.00093305497324553711 0 -0.0048252043214920808 0.00089668489320952633 0 -0.0046145392245176102 0.0010105762810604538 0 -0.0054425991508582532 0.00085734727414355741 0 -0.0047678367063786597 0.0010172064751703164 0 -0.0049075444218430169 0.00095125731906925903 0 -0.0050090954103627757 0.00097638145608141592 0 -0.0047678367063786597 0.0010172064751703164 0 -0.0048563408443479438 0.00093227119891575424 0 -0.0049075444218430169 0.00095125731906925903 0 -0.0048943923101716254 0.00088557749871869202 0 -0.0048252043214920808 0.00089668489320952633 0 -0.0048563408443479438 0.00093227119891575424 0 -0.0047956638077898302 0.00093305497324553711 0 -0.0048252043214920808 0.00089668489320952633 0 -0.0048563408443479438 0.00093227119891575424 0 -0.0048563408443479438 0.00093227119891575424 0 -0.0049075444218430169 0.00095125731906925903 0 -0.004917294227893278 0.00091111344599656635 0 -0.0048943923101716254 0.00088557749871869202 0 -0.0048563408443479438 0.00093227119891575424 0 -0.004917294227893278 0.00091111344599656635 0 -0.0049075444218430169 0.00095125731906925903 0 -0.004917294227893278 0.00091111344599656635 0 -0.0049756107469979194 0.00091333625047734237 0 -0.0050040464155405888 0.00087212140406467853 0 -0.0049488840511846812 0.00087571319095503799 0 -0.0049756107469979194 0.00091333625047734237 0 -0.0049488840511846812 0.00087571319095503799 0 -0.004917294227893278 0.00091111344599656635 0 -0.0049756107469979194 0.00091333625047734237 0 -0.0049075444218430169 0.00095125731906925903 0 -0.0049756107469979194 0.00091333625047734237 0 -0.0050090954103627757 0.00097638145608141592 0 -0.0050693188829529197 0.00089709863675123695 0 -0.0049756107469979194 0.00091333625047734237 0 -0.0050090954103627757 0.00097638145608141592 0 -0.0050693188829529197 0.00089709863675123695 0 -0.0050040464155405888 0.00087212140406467853 0 -0.0049756107469979194 0.00091333625047734237 0 -0.0055655378145502621 0.00078148347744390269 0 -0.0056668563282500431 0.00067907035298148219 0 -0.0055708077232824501 0.00058115579619004876 0 -0.0054154956294577934 0.00066671589775987416 0 -0.0055655378145502621 0.00078148347744390269 0 -0.0055708077232824501 0.00058115579619004876 0 -0.0046145392245176102 0.0010105762810604538 0 -0.0047549700792217575 0.00066409882581533767 0 -0.0057984311100362515 0.00076424529967744875 0 -0.0056668563282500431 0.00067907035298148219 0 -0.0056996660137287741 0.00055412465184507447 0 -0.0057984311100362515 0.00076424529967744875 0 -0.0055655378145502621 0.00078148347744390269 0 -0.0056668563282500431 0.00067907035298148219 0 -0.0056668563282500431 0.00067907035298148219 0 -0.0056996660137287741 0.00055412465184507447 0 -0.0055708077232824501 0.00058115579619004876 0 -0.0056996660137287741 0.00055412465184507447 0 -0.0055708077232824501 0.00058115579619004876 0 -0.0055893695027561365 0.00034966315095919063 0 -0.0036519141774858138 0.00078380551314398699 0 -0.0035874037706975586 0.00084947593850077615 0 -0.0036854227857360429 0.00085862537271080169 0 -0.0015220786559969409 0.0027886383529869786 0 -0.0014988612528503819 0.0027761533083825486 0 -0.0015203201013508306 0.002741378450168858 0 -0.0024903251390442408 0.0020648626044528777 0 -0.0025890163311526257 0.0017714459856661888 0 -0.0037208074188997214 0.00078218130071421683 0 -0.0037914613611607188 0.000893459824801002 0 -0.0036854227857360429 0.00085862537271080169 0 -0.0037208074188997214 0.00078218130071421683 0 -0.0036519141774858138 0.00078380551314398699 0 -0.0036854227857360429 0.00085862537271080169 0 -0.0037914613611607188 0.000893459824801002 0 -0.0036854227857360429 0.00085862537271080169 0 -0.0037170704115528285 0.00092605086419924134 0 -0.0036854227857360429 0.00085862537271080169 0 -0.0037170704115528285 0.00092605086419924134 0 -0.0036336563628119622 0.00092135314515688724 0 -0.0035874037706975586 0.00084947593850077615 0 -0.0036854227857360429 0.00085862537271080169 0 -0.0036336563628119622 0.00092135314515688724 0 -0.0036336563628119622 0.00092135314515688724 0 -0.0036703088270423696 0.00097526560630290719 0 -0.0036185449279338665 0.0010148993699220373 0 -0.0035205428579585078 0.00091718124853574189 0 -0.0036336563628119622 0.00092135314515688724 0 -0.0036185449279338665 0.0010148993699220373 0 -0.0037170704115528285 0.00092605086419924134 0 -0.0036703088270423696 0.00097526560630290719 0 -0.0037208633254173459 0.00098625237263935727 0 -0.0037170704115528285 0.00092605086419924134 0 -0.0036336563628119622 0.00092135314515688724 0 -0.0036703088270423696 0.00097526560630290719 0 -0.0037170704115528285 0.00092605086419924134 0 -0.0037208633254173459 0.00098625237263935727 0 -0.0037734647402926109 0.00095947791713320784 0 -0.0036703088270423696 0.00097526560630290719 0 -0.0037208633254173459 0.00098625237263935727 0 -0.0036814891793847072 0.0010384760574421727 0 -0.0035955800512784417 0.0010408292368831178 0 -0.0038911159683597644 0.00037095071745932848 0 -0.0042712931923656163 -0.00099600620527830327 0 -0.0042380049039850223 -0.0009499264373217034 0 -0.0043457671328476291 -0.00082848225880576291 0 -0.0038911159683597644 0.00037095071745932848 0 -0.0040666120966236004 4.2186329448586744e-06 0 -0.0037208633254173459 0.00098625237263935727 0 -0.003693846585175685 0.0010210533739948477 0 -0.0037835341877004271 0.001003028876910042 0 -0.0038911159683597644 0.00037095071745932848 0 -0.0037839207139705577 -0.00024567962219465225 0 -0.0027628324025499962 0.00041433173436370704 0 -0.0027385770922808811 0.00041584134345191759 0 -0.0027474944436565946 0.00040517043454426949 0 -0.0027385770922808811 0.00041584134345191759 0 -0.002740679997023843 0.00040477362277246666 0 -0.0027474944436565946 0.00040517043454426949 0 -0.0031634038484321097 0.00034585849516619792 0 -0.0033964624478569384 0.00041046058197510344 0 -0.0036703088270423696 0.00097526560630290719 0 -0.0036814891793847072 0.0010384760574421727 0 -0.0036185449279338665 0.0010148993699220373 0 -0.003721061339867653 0.0002562821297150334 0 -0.0036830060678366412 0.00030779308300484367 0 -0.0035985355965487405 0.00020671774139775927 0 -0.0038911159683597644 0.00037095071745932848 0 -0.0033964624478569384 0.00041046058197510344 0 -0.0037839207139705577 -0.00024567962219465225 0 -0.0033964624478569384 0.00041046058197510344 0 -0.0054390133160789923 0.00048985157239559416 0 -0.0055708077232824501 0.00058115579619004876 0 -0.0055893695027561365 0.00034966315095919063 0 -0.0047549700792217575 0.00066409882581533767 0 -0.0047236593875293912 0.0007681153779946629 0 -0.0037914613611607188 0.000893459824801002 0 -0.0037734647402926109 0.00095947791713320784 0 -0.0038596476382751865 0.00099546596962904379 0 -0.0037734647402926109 0.00095947791713320784 0 -0.0037835341877004271 0.001003028876910042 0 -0.0038596476382751865 0.00099546596962904379 0 -0.0037914613611607188 0.000893459824801002 0 -0.0037170704115528285 0.00092605086419924134 0 -0.0037734647402926109 0.00095947791713320784 0 -0.0037208633254173459 0.00098625237263935727 0 -0.0037734647402926109 0.00095947791713320784 0 -0.0037835341877004271 0.001003028876910042 0 -0.003693846585175685 0.0010210533739948477 0 -0.0037835341877004271 0.001003028876910042 0 -0.0038095134454956608 0.0010598272748074402 0 -0.0037835341877004271 0.001003028876910042 0 -0.0038596476382751865 0.00099546596962904379 0 -0.0038095134454956608 0.0010598272748074402 0 -0.0039328788312399006 0.001093350689899392 0 -0.0038596476382751865 0.00099546596962904379 0 -0.0038095134454956608 0.0010598272748074402 0 -0.0048592156510883144 0.00020521189771197237 0 -0.0047236593875293912 0.0007681153779946629 0 -0.0048592156510883144 0.00020521189771197237 0 -0.0040666120966236004 4.2186329448586744e-06 0 -0.0047827139222731858 -0.00082006070648171921 0 -0.0045117882882133153 -0.00091488264211372135 0 -0.0046044453427255922 -0.00075065143678791776 0 -0.0045117882882133153 -0.00091488264211372135 0 -0.0044504952592726498 -0.00069915764329451645 0 -0.0043457671328476291 -0.00082848225880576291 0 -0.0045117882882133153 -0.00091488264211372135 0 -0.0044504952592726498 -0.00069915764329451645 0 -0.0046044453427255922 -0.00075065143678791776 0 -0.0046760866457928292 -0.00056098679283389822 0 -0.0044504952592726498 -0.00069915764329451645 0 -0.0046044453427255922 -0.00075065143678791776 0 -0.0046760866457928292 -0.00056098679283389822 0 -0.0047827139222731858 -0.00082006070648171921 0 -0.0046044453427255922 -0.00075065143678791776 0 -0.0041796592045277312 -0.0010086069881837508 0 -0.0043109768620215056 -0.00085781451552936869 0 -0.0040092715142953286 -0.00078230193504913686 0 -0.0037839207139705577 -0.00024567962219465225 0 -0.0033196512216514778 -0.00014817262224799864 0 -0.0027628324025499962 0.00041433173436370704 0 -0.0027385770922808811 0.00041584134345191759 0 -0.002739177189477028 0.00044211807735694916 0 -0.0037839207139705577 -0.00024567962219465225 0 -0.0042960660166078569 -0.0008802174000251677 0 -0.0042712931923656163 -0.00099600620527830327 0 -0.0045117882882133153 -0.00091488264211372135 0 -0.0043457671328476291 -0.00082848225880576291 0 -0.0044504952592726498 -0.00069915764329451645 0 -0.0043109768620215056 -0.00085781451552936869 0 -0.004245935351672993 -0.00062234664961958975 0 -0.0044466657326573018 -0.00070125825314007895 0 -0.0042960660166078569 -0.0008802174000251677 0 -0.0040504377362575519 -0.00053839669785849366 0 -0.004245935351672993 -0.00062234664961958975 0 -0.0040092715142953286 -0.00078230193504913686 0 -0.0043109768620215056 -0.00085781451552936869 0 -0.004245935351672993 -0.00062234664961958975 0 -0.0040092715142953286 -0.00078230193504913686 0 -0.0027153341605950475 0.00047265562632346222 0 -0.0026933524234093891 0.00044621907518624507 0 -0.002739177189477028 0.00044211807735694916 0 -0.0038338839568845158 -0.00055326866957794104 0 -0.0040504377362575519 -0.00053839669785849366 0 -0.0040092715142953286 -0.00078230193504913686 0 -0.00335807875003614 -0.0001010259870464622 0 -0.0033196512216514778 -0.00014817262224799864 0 -0.0027153341605950475 0.00047265562632346222 0 -0.0026584353127880327 0.00048366692195578635 0 -0.0026933524234093891 0.00044621907518624507 0 -0.0027385770922808811 0.00041584134345191759 0 -0.002739177189477028 0.00044211807735694916 0 -0.0027164952058786637 0.00042085154708042678 0 -0.0026933524234093891 0.00044621907518624507 0 -0.002739177189477028 0.00044211807735694916 0 -0.0027164952058786637 0.00042085154708042678 0 -0.0026933524234093891 0.00044621907518624507 0 -0.0027164952058786637 0.00042085154708042678 0 -0.0026900434478789848 0.00040601657007714899 0 -0.0027262189451508489 0.00041076231373070017 0 -0.0027164952058786637 0.00042085154708042678 0 -0.0027140201214956427 0.00040283543073357737 0 -0.0027385770922808811 0.00041584134345191759 0 -0.0027262189451508489 0.00041076231373070017 0 -0.0027164952058786637 0.00042085154708042678 0 -0.002740679997023843 0.00040477362277246666 0 -0.0027262189451508489 0.00041076231373070017 0 -0.0027140201214956427 0.00040283543073357737 0 -0.0027385770922808811 0.00041584134345191759 0 -0.002740679997023843 0.00040477362277246666 0 -0.0027262189451508489 0.00041076231373070017 0 -0.0027164952058786637 0.00042085154708042678 0 -0.0026900434478789848 0.00040601657007714899 0 -0.0027140201214956427 0.00040283543073357737 0 -0.0021490873659718397 0.0014664248426433392 0 -0.0020078867268081609 0.00076247499271129193 0 -0.0027135130625864689 0.00039021803406495004 0 -0.0026900434478789848 0.00040601657007714899 0 -0.0027140201214956427 0.00040283543073357737 0 -0.00079592149702760711 0.0018504642510594675 0 -0.0014380558843720657 0.0011751611591576221 0 -0.0015392524246019919 0.0016933930586696165 0 -0.0027135130625864689 0.00039021803406495004 0 -0.002740679997023843 0.00040477362277246666 0 -0.0027140201214956427 0.00040283543073357737 0 -0.0027135130625864689 0.00039021803406495004 0 -0.002740679997023843 0.00040477362277246666 0 -0.0027463639381829913 0.00040562218970613466 0 -0.0021490873659718397 0.0014664248426433392 0 -0.0033964624478569384 0.00041046058197510344 0 -0.0017105592425882394 0.001266327219400809 0 -0.0017442621172988973 0.0012106417577031669 0 -0.0017046149265899837 0.0012512205875418101 0 -0.0017442621172988973 0.0012106417577031669 0 -0.0017046149265899837 0.0012512205875418101 0 -0.0017585483294979042 0.0011222729303109933 0 -0.0017442621172988973 0.0012106417577031669 0 -0.0017585483294979042 0.0011222729303109933 0 -0.0018007590371119596 0.0011303721595245981 0 -0.0017442621172988973 0.0012106417577031669 0 -0.0018007590371119596 0.0011303721595245981 0 -0.0017880560911492606 0.0012252645469146193 0 -0.0018896120215336413 0.0016553238383567044 0 -0.0017268309737836973 0.001284416435159062 0 -0.0020972270651464352 0.0020479003712929257 0 -0.0015392524246019919 0.0016933930586696165 0 -0.0017046149265899837 0.0012512205875418101 0 -0.0014380558843720657 0.0011751611591576221 0 -0.0015392524246019919 0.0016933930586696165 0 -0.0017046149265899837 0.0012512205875418101 0 -0.0017046149265899837 0.0012512205875418101 0 -0.0017585483294979042 0.0011222729303109933 0 -0.0017086828860591583 0.00097043775095275364 0 -0.0020078867268081609 0.00076247499271129193 0 -0.002212820102506475 0.00070149592524919996 0 -0.0014380558843720657 0.0011751611591576221 0 -0.0017046149265899837 0.0012512205875418101 0 -0.0017086828860591583 0.00097043775095275364 0 -0.0017585483294979042 0.0011222729303109933 0 -0.0018038783473452624 0.0010089525840275982 0 -0.0018007590371119596 0.0011303721595245981 0 -0.0017585483294979042 0.0011222729303109933 0 -0.0017086828860591583 0.00097043775095275364 0 -0.0018038783473452624 0.0010089525840275982 0 -0.0026933524234093891 0.00044621907518624507 0 -0.0026900434478789848 0.00040601657007714899 0 -0.002659491256756537 0.00043041426066663021 0 -0.0017086828860591583 0.00097043775095275364 0 -0.0017974786776547261 0.00087604284432143595 0 -0.0018038783473452624 0.0010089525840275982 0 -0.002212820102506475 0.00070149592524919996 0 -0.0020263975277967751 0.0006357565543030966 0 -0.0026933524234093891 0.00044621907518624507 0 -0.002659491256756537 0.00043041426066663021 0 -0.002659506815958826 0.0004550965661712737 0 -0.0026584353127880327 0.00048366692195578635 0 -0.0026933524234093891 0.00044621907518624507 0 -0.002659506815958826 0.0004550965661712737 0 -0.0026584353127880327 0.00048366692195578635 0 -0.002659506815958826 0.0004550965661712737 0 -0.0026259702292101336 0.00046068340636292837 0 -0.002659491256756537 0.00043041426066663021 0 -0.002659506815958826 0.0004550965661712737 0 -0.0026259702292101336 0.00046068340636292837 0 -0.0019013008358545142 0.00062997446584985115 0 -0.0017652838900414341 0.00072556380065805627 0 -0.001874769404851376 0.00071050760557939997 0 -0.0017652838900414341 0.00072556380065805627 0 -0.001874769404851376 0.00071050760557939997 0 -0.0018211009413226663 0.00080458623765043182 0 -0.0020263975277967751 0.0006357565543030966 0 -0.0018314694063348758 0.00087043185524823862 0 -0.0019106370972742741 0.0007613208605945738 0 -0.001874769404851376 0.00071050760557939997 0 -0.0018211009413226663 0.00080458623765043182 0 -0.0019239762697376265 0.00067011425731153078 0 -0.0019106370972742741 0.0007613208605945738 0 -0.001874769404851376 0.00071050760557939997 0 -0.0019106370972742741 0.0007613208605945738 0 -0.0019561507590658204 0.00088672394246130557 0 -0.0018914492837405566 0.00094805281708466567 0 -0.0019106370972742741 0.0007613208605945738 0 -0.0018211009413226663 0.00080458623765043182 0 -0.0018914492837405566 0.00094805281708466567 0 -0.0018555761508568206 0.00094147827900965461 0 -0.0018495493810089456 0.0010361382766813471 0 -0.0018914492837405566 0.00094805281708466567 0 -0.0018314694063348758 0.00087043185524823862 0 -0.0018953117236302081 0.00094369964664743123 0 -0.0018038783473452624 0.0010089525840275982 0 -0.0018555761508568206 0.00094147827900965461 0 -0.0018495493810089456 0.0010361382766813471 0 -0.0017974786776547261 0.00087604284432143595 0 -0.0018038783473452624 0.0010089525840275982 0 -0.0018555761508568206 0.00094147827900965461 0 -0.0018033545150500584 0.00069758807111414438 0 -0.0019404638162743243 0.0007085986583667621 0 -0.0018097820220591553 0.00065002129313234791 0 -0.0019111848509809379 0.00068835319244299486 0 -0.0018033545150500584 0.00069758807111414438 0 -0.0019404638162743243 0.0007085986583667621 0 -0.0019239762697376265 0.00067011425731153078 0 -0.0019106370972742741 0.0007613208605945738 0 -0.0019404638162743243 0.0007085986583667621 0 -0.0019239762697376265 0.00067011425731153078 0 -0.0019111848509809379 0.00068835319244299486 0 -0.0019404638162743243 0.0007085986583667621 0 -0.0019404638162743243 0.0007085986583667621 0 -0.0019561507590658204 0.00088672394246130557 0 -0.002089827523426695 0.0010228314724655073 0 -0.0019106370972742741 0.0007613208605945738 0 -0.0019404638162743243 0.0007085986583667621 0 -0.0019561507590658204 0.00088672394246130557 0 -0.0019404638162743243 0.0007085986583667621 0 -0.0018169614684818208 0.0005982548839617393 0 -0.0018494691666279611 0.00055020695412672036 0 -0.0019404638162743243 0.0007085986583667621 0 -0.0018169614684818208 0.0005982548839617393 0 -0.0018097820220591553 0.00065002129313234791 0 -0.0019143808512874089 0.00078216554139464735 0 -0.0020816607000202756 0.00065084697595463217 0 -0.0018169614684818208 0.0005982548839617393 0 -0.0018097820220591553 0.00065002129313234791 0 -0.0017739225666775762 0.00060644449810020684 0 -0.0017998268741683586 0.00055313219163231322 0 -0.0018494691666279611 0.00055020695412672036 0 -0.001775030068127424 0.00050718915117567887 0 -0.0018169614684818208 0.0005982548839617393 0 -0.0017998268741683586 0.00055313219163231322 0 -0.0017588291657537648 0.0005583513873112664 0 -0.0018169614684818208 0.0005982548839617393 0 -0.0017998268741683586 0.00055313219163231322 0 -0.0018494691666279611 0.00055020695412672036 0 -0.002089827523426695 0.0010228314724655073 0 -0.0019637057046105258 0.0010281500973002627 0 -0.0020133934280809284 0.0010983434546628259 0 -0.0019561507590658204 0.00088672394246130557 0 -0.002089827523426695 0.0010228314724655073 0 -0.0019637057046105258 0.0010281500973002627 0 -0.0019561507590658204 0.00088672394246130557 0 -0.0019637057046105258 0.0010281500973002627 0 -0.0018914492837405566 0.00094805281708466567 0 -0.002089827523426695 0.0010228314724655073 0 -0.0020378707345138384 0.0011884508844508877 0 -0.0020133934280809284 0.0010983434546628259 0 -0.0019637057046105258 0.0010281500973002627 0 -0.001963924238669609 0.0011486856036943801 0 -0.0020133934280809284 0.0010983434546628259 0 -0.001963924238669609 0.0011486856036943801 0 -0.0020378707345138384 0.0011884508844508877 0 -0.0019679024852274287 0.0012287685840828219 0 -0.001963924238669609 0.0011486856036943801 0 -0.0020378707345138384 0.0011884508844508877 0 -0.0020133934280809284 0.0010983434546628259 0 -0.0020816607000202756 0.00065084697595463217 0 -0.0011722866889068641 0.0014101830688788735 0 -0.001775030068127424 0.00050718915117567887 0 -0.0018320938628725745 0.00036599035608613753 0 -0.0016660528133046343 0.00042588330122946206 0 -0.0018494691666279611 0.00055020695412672036 0 -0.001775030068127424 0.00050718915117567887 0 -0.0018320938628725745 0.00036599035608613753 0 -0.002089827523426695 0.0010228314724655073 0 -0.0020378707345138384 0.0011884508844508877 0 -0.0021007534047089065 0.001275778781062057 0 -0.0018038783473452624 0.0010089525840275982 0 -0.0018495493810089456 0.0010361382766813471 0 -0.0018007590371119596 0.0011303721595245981 0 -0.0018495493810089456 0.0010361382766813471 0 -0.0018914492837405566 0.00094805281708466567 0 -0.001903145517869435 0.0010901289482790294 0 -0.0019637057046105258 0.0010281500973002627 0 -0.0018914492837405566 0.00094805281708466567 0 -0.001903145517869435 0.0010901289482790294 0 -0.0018495493810089456 0.0010361382766813471 0 -0.001903145517869435 0.0010901289482790294 0 -0.001853988088421372 0.0011657252095639095 0 -0.0019637057046105258 0.0010281500973002627 0 -0.001963924238669609 0.0011486856036943801 0 -0.001903145517869435 0.0010901289482790294 0 -0.001963924238669609 0.0011486856036943801 0 -0.001903145517869435 0.0010901289482790294 0 -0.0019085377595618534 0.0012070686036329931 0 -0.001963924238669609 0.0011486856036943801 0 -0.0019085377595618534 0.0012070686036329931 0 -0.0019679024852274287 0.0012287685840828219 0 -0.001903145517869435 0.0010901289482790294 0 -0.001853988088421372 0.0011657252095639095 0 -0.0019085377595618534 0.0012070686036329931 0 -0.0018495493810089456 0.0010361382766813471 0 -0.001853988088421372 0.0011657252095639095 0 -0.0018007590371119596 0.0011303721595245981 0 -0.001853988088421372 0.0011657252095639095 0 -0.0018007590371119596 0.0011303721595245981 0 -0.0017880560911492606 0.0012252645469146193 0 -0.001853988088421372 0.0011657252095639095 0 -0.0017880560911492606 0.0012252645469146193 0 -0.0018593749283703242 0.0012703335707001091 0 -0.0018593749283703242 0.0012703335707001091 0 -0.0017879068688190713 0.0013113979536767233 0 -0.0018428700296174542 0.0013415297728532605 0 -0.0017880560911492606 0.0012252645469146193 0 -0.0018593749283703242 0.0012703335707001091 0 -0.0017879068688190713 0.0013113979536767233 0 -0.0017879068688190713 0.0013113979536767233 0 -0.0018428700296174542 0.0013415297728532605 0 -0.0017836330075786436 0.0013814759123002931 0 -0.0018428700296174542 0.0013415297728532605 0 -0.0017836330075786436 0.0013814759123002931 0 -0.0018658302119223778 0.0014274697605789301 0 -0.001772633869290728 0.0013746082414613696 0 -0.0019827130487544233 0.0015057076195447853 0 -0.0017836330075786436 0.0013814759123002931 0 -0.001790597614197446 0.0014544190861083064 0 -0.0019584055700481492 0.0015014047406084149 0 -0.0018959735813933998 0.0013617506035917301 0 -0.0019366157152885246 0.0013523293175208156 0 -0.0019493115368900238 0.0014854844727987392 0 -0.0018428700296174542 0.0013415297728532605 0 -0.0018959735813933998 0.0013617506035917301 0 -0.0018658302119223778 0.0014274697605789301 0 -0.0018593749283703242 0.0012703335707001091 0 -0.0018428700296174542 0.0013415297728532605 0 -0.0018959735813933998 0.0013617506035917301 0 -0.0019366157152885246 0.0013523293175208156 0 -0.0019270634380430592 0.0012897918977497701 0 -0.0019585058780713332 0.0013126855931692911 0 -0.0018959735813933998 0.0013617506035917301 0 -0.0019366157152885246 0.0013523293175208156 0 -0.0019270634380430592 0.0012897918977497701 0 -0.0019270634380430592 0.0012897918977497701 0 -0.001971121476068725 0.0012815162363900669 0 -0.0019585058780713332 0.0013126855931692911 0 -0.0018593749283703242 0.0012703335707001091 0 -0.0018959735813933998 0.0013617506035917301 0 -0.0019270634380430592 0.0012897918977497701 0 -0.0018593749283703242 0.0012703335707001091 0 -0.0019270634380430592 0.0012897918977497701 0 -0.0019085377595618534 0.0012070686036329931 0 -0.001853988088421372 0.0011657252095639095 0 -0.0018593749283703242 0.0012703335707001091 0 -0.0019085377595618534 0.0012070686036329931 0 -0.0019270634380430592 0.0012897918977497701 0 -0.0019085377595618534 0.0012070686036329931 0 -0.0019679024852274287 0.0012287685840828219 0 -0.0019679024852274287 0.0012287685840828219 0 -0.0020174886969387021 0.0012539394837251809 0 -0.001971121476068725 0.0012815162363900669 0 -0.0020378707345138384 0.0011884508844508877 0 -0.0020174886969387021 0.0012539394837251809 0 -0.0021007534047089065 0.001275778781062057 0 -0.0020378707345138384 0.0011884508844508877 0 -0.0019679024852274287 0.0012287685840828219 0 -0.0020174886969387021 0.0012539394837251809 0 -0.0020174886969387021 0.0012539394837251809 0 -0.001997891898792153 0.0013125122858096189 0 -0.0021007534047089065 0.001275778781062057 0 -0.0011722866889068641 0.0014101830688788735 0 -0.0015443857109831841 0.00155447696322112 0 -0.001997891898792153 0.0013125122858096189 0 -0.0021007534047089065 0.001275778781062057 0 -0.0019861347846671074 0.001354289396365843 0 -0.0020174886969387021 0.0012539394837251809 0 -0.001997891898792153 0.0013125122858096189 0 -0.001971121476068725 0.0012815162363900669 0 -0.0019270634380430592 0.0012897918977497701 0 -0.0019679024852274287 0.0012287685840828219 0 -0.001971121476068725 0.0012815162363900669 0 -0.001997891898792153 0.0013125122858096189 0 -0.001971121476068725 0.0012815162363900669 0 -0.0019585058780713332 0.0013126855931692911 0 -0.0011722866889068641 0.0014101830688788735 0 -0.00092994283699726111 0.001340554997845679 0 -0.00047190531594467987 0.002085692824865436 0 -0.0002175386270733209 0.0021004414781614776 0 -0.00015490202627924853 0.0023044937692923285 0 -0.00047190531594467987 0.002085692824865436 0 -0.00025966552499180319 0.0018662963546390338 0 -0.0002175386270733209 0.0021004414781614776 0 -0.0011722866889068641 0.0014101830688788735 0 -0.00029815422554548189 0.0018959812574353284 0 -0.00047190531594467987 0.002085692824865436 0 -0.00044563702390490212 0.0016159350477562063 0 -0.00025966552499180319 0.0018662963546390338 0 -0.00049321265926828008 0.0020129362146574809 0 -0.00071987957362462272 0.0018470480197541189 0 -0.00044563702390490212 0.0016159350477562063 0 -0.0019857151725787606 0.0013473523181665361 0 -0.0019727718421503988 0.001356970457083623 0 -0.0019493115368900238 0.0014854844727987392 0 -0.0019366157152885246 0.0013523293175208156 0 -0.0019727718421503988 0.001356970457083623 0 -0.0019493115368900238 0.0014854844727987392 0 -0.001987496457862766 0.0013467235749025617 0 -0.0019727718421503988 0.001356970457083623 0 -0.0019703578183376176 0.0013362743585642546 0 -0.0015443857109831841 0.00155447696322112 0 -0.0016439630063145804 0.0014891492340341774 0 -0.0019366157152885246 0.0013523293175208156 0 -0.0019727718421503988 0.001356970457083623 0 -0.0019703578183376176 0.0013362743585642546 0 -0.0019366157152885246 0.0013523293175208156 0 -0.0019703578183376176 0.0013362743585642546 0 -0.0019585058780713332 0.0013126855931692911 0 -0.001997891898792153 0.0013125122858096189 0 -0.0019703578183376176 0.0013362743585642546 0 -0.0019585058780713332 0.0013126855931692911 0 -0.001997891898792153 0.0013125122858096189 0 -0.001987496457862766 0.0013467235749025617 0 -0.0019703578183376176 0.0013362743585642546 0 -0.0016980107668376722 0.0013558036685725242 0 -0.0015443857109831841 0.00155447696322112 0 -0.0015443857109831841 0.00155447696322112 0 -0.0014098974119489446 0.0016702159611243805 0 -0.00071987957362462272 0.0018470480197541189 0 -0.00062995570036979164 0.0015639045476240931 0 -0.00081270654555644091 0.0014799622724186764 0 -0.00062995570036979164 0.0015639045476240931 0 -0.00081270654555644091 0.0014799622724186764 0 -0.00053845042122352459 0.0013033094637856537 0 -0.00071987957362462272 0.0018470480197541189 0 -0.00062995570036979164 0.0015639045476240931 0 -0.00044563702390490212 0.0016159350477562063 0 -0.00044563702390490212 0.0016159350477562063 0 -0.00034722090823486131 0.0014029669459101847 0 -0.00014189859009483354 0.001568983144994641 0 -0.00044563702390490212 0.0016159350477562063 0 -0.00034722090823486131 0.0014029669459101847 0 -0.00053845042122352459 0.0013033094637856537 0 -0.00062995570036979164 0.0015639045476240931 0 -0.00044563702390490212 0.0016159350477562063 0 -0.00053845042122352459 0.0013033094637856537 0 -0.00034722090823486131 0.0014029669459101847 0 -0.00053845042122352459 0.0013033094637856537 0 -0.00026215622991774401 0.0011284465223189853 0 -0.00060347645795967434 0.0018225189481613246 0 -0.00024680503607468762 0.0018859435512702854 0 -0.0014098974119489446 0.0016702159611243805 0 -0.00060347645795967434 0.0018225189481613246 0 -0.00094312231311371444 0.0024812713208416633 0 -0.0007571588219057034 0.0023699144805717468 0 -0.00098333339868975685 0.0023178130053009894 0 -0.0007571588219057034 0.0023699144805717468 0 -0.00098333339868975685 0.0023178130053009894 0 -0.00078938376813616161 0.0022362215183559029 0 -0.0014447945579028653 0.0030465621138010754 0 -0.0014676884114948488 0.0030435078006680427 0 -0.0015050934829222609 0.0030680049448268886 0 -0.002086965887964858 0.0018124670028561336 0 -0.001802956576531758 0.0016768424461492768 0 -0.0019742440943140887 0.001652739608431226 0 -0.0021327147857639725 0.0016226874682563547 0 -0.002086965887964858 0.0018124670028561336 0 -0.0019742440943140887 0.001652739608431226 0 -0.0014098974119489446 0.0016702159611243805 0 -0.0013922399245019088 0.0027102858944572338 0 -0.0014676884114948488 0.0030435078006680427 0 -0.0014958565723296605 0.0030398711325637547 0 -0.0015050934829222609 0.0030680049448268886 0 -0.0013922399245019088 0.0027102858944572338 0 -0.0018029839922124606 0.0026638441392292335 0 -0.0015566995290503698 0.0030177748305180571 0 -0.0014958565723296605 0.0030398711325637547 0 -0.0015094276479005523 0.0030310330973054075 0 -0.0015566995290503698 0.0030177748305180571 0 -0.0014958565723296605 0.0030398711325637547 0 -0.0015445647265605947 0.0030286070787867245 0 -0.0016140304912716946 0.0030417869507248221 0 -0.0018029839922124606 0.0026638441392292335 0 -0.0017268179139501643 0.0014161325883015545 0 -0.001802956576531758 0.0016768424461492768 0 -0.0018156538720656707 0.0015230154127604243 0 -0.0018882667060349328 0.0015877871419698933 0 -0.0019584055700481492 0.0015014047406084149 0 -0.0019742440943140887 0.001652739608431226 0 -0.001802956576531758 0.0016768424461492768 0 -0.0018882667060349328 0.0015877871419698933 0 -0.0019742440943140887 0.001652739608431226 0 -0.001802956576531758 0.0016768424461492768 0 -0.0018882667060349328 0.0015877871419698933 0 -0.0018156538720656707 0.0015230154127604243 0 -0.0017268179139501643 0.0014161325883015545 0 -0.0018156538720656707 0.0015230154127604243 0 -0.001790597614197446 0.0014544190861083064 0 -0.0018156538720656707 0.0015230154127604243 0 -0.001790597614197446 0.0014544190861083064 0 -0.0019584055700481492 0.0015014047406084149 0 -0.0018882667060349328 0.0015877871419698933 0 -0.0018156538720656707 0.0015230154127604243 0 -0.0019584055700481492 0.0015014047406084149 0 -0.0018959735813933998 0.0013617506035917301 0 -0.0019493115368900238 0.0014854844727987392 0 -0.0018658302119223778 0.0014274697605789301 0 -0.0014098974119489446 0.0016702159611243805 0 -0.0019827130487544233 0.0015057076195447853 0 -0.0021327147857639725 0.0016226874682563547 0 -0.0019584055700481492 0.0015014047406084149 0 -0.0019742440943140887 0.001652739608431226 0 0.00035296334996800756 0.0017223830688735335 0 0.00054006477288625796 0.0015851014589749455 0 0.00030594030664798195 0.001601300476224435 0 0.00035296334996800756 0.0017223830688735335 0 0.00047631528250048448 0.0017703310907751933 0 0.00054006477288625796 0.0015851014589749455 0 0.00035296334996800756 0.0017223830688735335 0 0.00030594030664798195 0.001601300476224435 0 0.00017207611330141321 0.0017107892399581843 0 0.00035296334996800756 0.0017223830688735335 0 0.00040359378938197292 0.0018467874223106213 0 0.00026813539852147387 0.0018378540787391624 0 0.00035296334996800756 0.0017223830688735335 0 0.00047631528250048448 0.0017703310907751933 0 0.00040359378938197292 0.0018467874223106213 0 0.00047631528250048448 0.0017703310907751933 0 0.00058825094288880069 0.0017754961003375292 0 0.00053171834335867714 0.0018625762375515105 0 0.00071864986389410526 0.002351124800588667 0 0.00094924851218193931 0.002309415553793822 0 0.00047631528250048448 0.0017703310907751933 0 0.00058825094288880069 0.0017754961003375292 0 0.00054006477288625796 0.0015851014589749455 0 0.00058825094288880069 0.0017754961003375292 0 0.00054006477288625796 0.0015851014589749455 0 0.00070906307507715739 0.0017915557432821257 0 0.00088143708657458333 0.0030546681608578322 0 0.00094229346110543863 0.0031425149522837062 0 0.00095682979752866949 0.0030536922391134215 0 0.00088143708657458333 0.0030546681608578322 0 0.00095997297989036299 0.0029554987528533773 0 0.00082082208982563003 0.002962360421341753 0 0.00088143708657458333 0.0030546681608578322 0 0.00095682979752866949 0.0030536922391134215 0 0.00095997297989036299 0.0029554987528533773 0 0.00030594030664798195 0.001601300476224435 0 0.00025066948056918489 0.0014737297578087619 0 0.00038308990051603509 0.0013940653904985982 0 0.00071864986389410526 0.002351124800588667 0 0.0005790552380217826 0.0020910852646365916 0 0.00054006477288625796 0.0015851014589749455 0 0.00030594030664798195 0.001601300476224435 0 0.00038308990051603509 0.0013940653904985982 0 0.00025066948056918489 0.0014737297578087619 0 0.00011113121725988614 0.0015224646228102379 0 0.00020080752778006244 0.0013786732955385901 0 0.00030594030664798195 0.001601300476224435 0 0.00011113121725988614 0.0015224646228102379 0 0.00017207611330141321 0.0017107892399581843 0 0.00030594030664798195 0.001601300476224435 0 0.00025066948056918489 0.0014737297578087619 0 0.00011113121725988614 0.0015224646228102379 0 -8.3861952383131399e-05 0.0015092727037172005 0 -0.00024680503607468762 0.0018859435512702854 0 0.00011113121725988614 0.0015224646228102379 0 -7.7063126978794562e-05 0.0014065859086847131 0 7.952680508555711e-05 0.0014037397094543546 0 0.00011113121725988614 0.0015224646228102379 0 -1.8513803423834836e-05 0.0017142139221097601 0 -7.7063126978794562e-05 0.0014065859086847131 0 -0.00034722090823486131 0.0014029669459101847 0 -0.00014189859009483354 0.001568983144994641 0 -0.00026215622991774401 0.0011284465223189853 0 -0.00044563702390490212 0.0016159350477562063 0 -0.00014189859009483354 0.001568983144994641 0 -0.00025966552499180319 0.0018662963546390338 0 0.00011113121725988614 0.0015224646228102379 0 -1.8513803423834836e-05 0.0017142139221097601 0 0.00017207611330141321 0.0017107892399581843 0 -1.8513803423834836e-05 0.0017142139221097601 0 0.00017207611330141321 0.0017107892399581843 0 0.00013012026274053452 0.0018789330505882681 0 0.00035296334996800756 0.0017223830688735335 0 0.00017207611330141321 0.0017107892399581843 0 0.00026813539852147387 0.0018378540787391624 0 0.00017207611330141321 0.0017107892399581843 0 0.00013012026274053452 0.0018789330505882681 0 0.00026813539852147387 0.0018378540787391624 0 0.00013012026274053452 0.0018789330505882681 0 0.00023627166850060185 0.0019176174061510426 0 0.00026813539852147387 0.0018378540787391624 0 0.00013012026274053452 0.0018789330505882681 0 0.00021785823408508243 0.0020159914285576542 0 3.285526208799549e-06 0.0020603373499907536 0 0.00013012026274053452 0.0018789330505882681 0 0.00021785823408508243 0.0020159914285576542 0 0.00023627166850060185 0.0019176174061510426 0 0.00021785823408508243 0.0020159914285576542 0 0.00023627166850060185 0.0019176174061510426 0 0.0003298058553785524 0.0019389613296784435 0 -8.3861952383131399e-05 0.0015092727037172005 0 8.4263450648082245e-06 0.0021015753799575846 0 -0.00014189859009483354 0.001568983144994641 0 -0.00025966552499180319 0.0018662963546390338 0 3.285526208799549e-06 0.0020603373499907536 0 -1.8513803423834836e-05 0.0017142139221097601 0 0.00013012026274053452 0.0018789330505882681 0 3.285526208799549e-06 0.0020603373499907536 0 -0.00025966552499180319 0.0018662963546390338 0 -0.0002175386270733209 0.0021004414781614776 0 3.285526208799549e-06 0.0020603373499907536 0 -0.0002175386270733209 0.0021004414781614776 0 3.285526208799549e-06 0.0020603373499907536 0 3.7512224968154094e-06 0.0022049220905810754 0 -0.0002175386270733209 0.0021004414781614776 0 3.7512224968154094e-06 0.0022049220905810754 0 -0.00015490202627924853 0.0023044937692923285 0 0.00021785823408508243 0.0020159914285576542 0 0.00014572374562795066 0.0021388582512346255 0 0.00029050120421364819 0.0021466829817158575 0 0.00021785823408508243 0.0020159914285576542 0 3.285526208799549e-06 0.0020603373499907536 0 0.00014572374562795066 0.0021388582512346255 0 3.285526208799549e-06 0.0020603373499907536 0 3.7512224968154094e-06 0.0022049220905810754 0 0.00014572374562795066 0.0021388582512346255 0 3.7512224968154094e-06 0.0022049220905810754 0 0.00014572374562795066 0.0021388582512346255 0 0.00017030148648663991 0.0022686408621381549 0 0.00029050120421364819 0.0021466829817158575 0 0.00031628813795091791 0.0022791823341758569 0 0.00017030148648663991 0.0022686408621381549 0 0.00014572374562795066 0.0021388582512346255 0 0.00029050120421364819 0.0021466829817158575 0 0.00017030148648663991 0.0022686408621381549 0 0.00029050120421364819 0.0021466829817158575 0 0.00041145540284837437 0.0021717887107767092 0 0.00031628813795091791 0.0022791823341758569 0 0.00041145540284837437 0.0021717887107767092 0 0.00051571709644409084 0.0020763203326281347 0 0.00054615611657528361 0.0022100554675671181 0 0.00041145540284837437 0.0021717887107767092 0 0.00054615611657528361 0.0022100554675671181 0 0.00043673282389889313 0.0022887964487364361 0 0.00041145540284837437 0.0021717887107767092 0 0.00043673282389889313 0.0022887964487364361 0 0.00031628813795091791 0.0022791823341758569 0 0.00041145540284837437 0.0021717887107767092 0 0.00037210023225735229 0.0020491624350760956 0 0.00051571709644409084 0.0020763203326281347 0 0.00037210023225735229 0.0020491624350760956 0 0.00046642436869214323 0.0019587470330717917 0 0.00051571709644409084 0.0020763203326281347 0 0.00029050120421364819 0.0021466829817158575 0 0.00041145540284837437 0.0021717887107767092 0 0.00037210023225735229 0.0020491624350760956 0 0.00021785823408508243 0.0020159914285576542 0 0.00029050120421364819 0.0021466829817158575 0 0.00037210023225735229 0.0020491624350760956 0 0.00021785823408508243 0.0020159914285576542 0 0.00037210023225735229 0.0020491624350760956 0 0.0003298058553785524 0.0019389613296784435 0 0.0003298058553785524 0.0019389613296784435 0 0.00046642436869214323 0.0019587470330717917 0 0.00040359378938197292 0.0018467874223106213 0 0.00037210023225735229 0.0020491624350760956 0 0.0003298058553785524 0.0019389613296784435 0 0.00046642436869214323 0.0019587470330717917 0 0.00047631528250048448 0.0017703310907751933 0 0.00040359378938197292 0.0018467874223106213 0 0.00053171834335867714 0.0018625762375515105 0 0.00046642436869214323 0.0019587470330717917 0 0.00040359378938197292 0.0018467874223106213 0 0.00053171834335867714 0.0018625762375515105 0 0.0003298058553785524 0.0019389613296784435 0 0.00040359378938197292 0.0018467874223106213 0 0.00026813539852147387 0.0018378540787391624 0 0.00023627166850060185 0.0019176174061510426 0 0.0003298058553785524 0.0019389613296784435 0 0.00026813539852147387 0.0018378540787391624 0 0.00066034211453510879 0.0018506387372880695 0 0.00057668457713171606 0.0019740335616188938 0 0.00069185954398835313 0.0021012938094346137 0 0.00058825094288880069 0.0017754961003375292 0 0.00066034211453510879 0.0018506387372880695 0 0.00070906307507715739 0.0017915557432821257 0 0.00091159413030961591 0.0020797483387380673 0 0.00094924851218193931 0.002309415553793822 0 0.00058825094288880069 0.0017754961003375292 0 0.00066034211453510879 0.0018506387372880695 0 0.00053171834335867714 0.0018625762375515105 0 0.00066034211453510879 0.0018506387372880695 0 0.00053171834335867714 0.0018625762375515105 0 0.00057668457713171606 0.0019740335616188938 0 0.00046642436869214323 0.0019587470330717917 0 0.00053171834335867714 0.0018625762375515105 0 0.00057668457713171606 0.0019740335616188938 0 0.00046642436869214323 0.0019587470330717917 0 0.00057668457713171606 0.0019740335616188938 0 0.00051571709644409084 0.0020763203326281347 0 0.00057668457713171606 0.0019740335616188938 0 0.00069185954398835313 0.0021012938094346137 0 0.00051571709644409084 0.0020763203326281347 0 0.00069185954398835313 0.0021012938094346137 0 0.00051571709644409084 0.0020763203326281347 0 0.00054615611657528361 0.0022100554675671181 0 0.00069185954398835313 0.0021012938094346137 0 0.00066961172536105494 0.0022888228696218583 0 0.00086422521538176433 0.0023163849551584357 0 0.00069185954398835313 0.0021012938094346137 0 0.00054615611657528361 0.0022100554675671181 0 0.00066961172536105494 0.0022888228696218583 0 0.00066961172536105494 0.0022888228696218583 0 0.00070631078175964642 0.0024604066134941982 0 0.00054272714596838095 0.0023585964463305989 0 0.00066961172536105494 0.0022888228696218583 0 0.00070631078175964642 0.0024604066134941982 0 0.00086422521538176433 0.0023163849551584357 0 0.00070631078175964642 0.0024604066134941982 0 0.00054272714596838095 0.0023585964463305989 0 0.00053416699625260307 0.0025190212934947942 0 0.00054615611657528361 0.0022100554675671181 0 0.00054272714596838095 0.0023585964463305989 0 0.00043673282389889313 0.0022887964487364361 0 0.00054615611657528361 0.0022100554675671181 0 0.00066961172536105494 0.0022888228696218583 0 0.00054272714596838095 0.0023585964463305989 0 0.00054272714596838095 0.0023585964463305989 0 0.00043673282389889313 0.0022887964487364361 0 0.00036696560815129042 0.002426522186912214 0 0.00031628813795091791 0.0022791823341758569 0 0.00036696560815129042 0.002426522186912214 0 0.00022012297326070389 0.0023728894576043194 0 0.00043673282389889313 0.0022887964487364361 0 0.00031628813795091791 0.0022791823341758569 0 0.00036696560815129042 0.002426522186912214 0 0.00054272714596838095 0.0023585964463305989 0 0.00036696560815129042 0.002426522186912214 0 0.00053416699625260307 0.0025190212934947942 0 -0.00064152054730772878 0.0016219829429649326 0 -0.00052398826350528061 0.0016298769636629476 0 0.00036696560815129042 0.002426522186912214 0 0.00039445344510263629 0.0026981206928697191 0 0.00012727407090468881 0.0024962325401512273 0 0.00036696560815129042 0.002426522186912214 0 0.00039445344510263629 0.0026981206928697191 0 0.00053416699625260307 0.0025190212934947942 0 0.00039445344510263629 0.0026981206928697191 0 0.00065878692951280469 0.0026567415545034126 0 0.00076658052235680017 0.0028419640231582026 0 0.00039445344510263629 0.0026981206928697191 0 0.00065878692951280469 0.0026567415545034126 0 0.00053416699625260307 0.0025190212934947942 0 0.00065878692951280469 0.0026567415545034126 0 0.00079104994689350994 0.0027334743582740672 0 0.00082390068708721018 0.0026396876016322934 0 0.00065878692951280469 0.0026567415545034126 0 0.00076658052235680017 0.0028419640231582026 0 0.00079104994689350994 0.0027334743582740672 0 0.00070631078175964642 0.0024604066134941982 0 0.00065878692951280469 0.0026567415545034126 0 0.00082390068708721018 0.0026396876016322934 0 0.00070631078175964642 0.0024604066134941982 0 0.00065878692951280469 0.0026567415545034126 0 0.00053416699625260307 0.0025190212934947942 0 -0.0016909259028385732 0.00055907952432954992 0 -0.0017133774176132392 0.00051760648473223362 0 -0.00092994283699726111 0.001340554997845679 0 -0.00052398826350528061 0.0016298769636629476 0 -0.001775030068127424 0.00050718915117567887 0 -0.0016660528133046343 0.00042588330122946206 0 -0.001414684403349555 0.00072925194498815531 0 3.7512224968154094e-06 0.0022049220905810754 0 -0.00015490202627924853 0.0023044937692923285 0 3.8935753597853661e-05 0.0023457316400089163 0 -0.0016660528133046343 0.00042588330122946206 0 -0.0013249422314634645 0.00065184568972874175 0 -0.001414684403349555 0.00072925194498815531 0 -0.00015490202627924853 0.0023044937692923285 0 0.00012727407090468881 0.0024962325401512273 0 3.8935753597853661e-05 0.0023457316400089163 0 0.00012727407090468881 0.0024962325401512273 0 3.8935753597853661e-05 0.0023457316400089163 0 0.00013302094070100746 0.0023789773561786361 0 3.7512224968154094e-06 0.0022049220905810754 0 3.8935753597853661e-05 0.0023457316400089163 0 0.00017030148648663991 0.0022686408621381549 0 3.8935753597853661e-05 0.0023457316400089163 0 0.00017030148648663991 0.0022686408621381549 0 0.00013302094070100746 0.0023789773561786361 0 0.00017030148648663991 0.0022686408621381549 0 0.00022012297326070389 0.0023728894576043194 0 0.00013302094070100746 0.0023789773561786361 0 0.00031628813795091791 0.0022791823341758569 0 0.00017030148648663991 0.0022686408621381549 0 0.00022012297326070389 0.0023728894576043194 0 0.00012727407090468881 0.0024962325401512273 0 0.00022012297326070389 0.0023728894576043194 0 0.00013302094070100746 0.0023789773561786361 0 0.00036696560815129042 0.002426522186912214 0 0.00012727407090468881 0.0024962325401512273 0 0.00022012297326070389 0.0023728894576043194 0 -0.00089731986861313958 0.00098286152067041587 0 -0.0013249422314634645 0.00065184568972874175 0 -0.001414684403349555 0.00072925194498815531 0 -0.00064152054730772878 0.0016219829429649326 0 -0.0017133774176132392 0.00051760648473223362 0 -0.0016053623219943736 0.00058550687319376671 0 -0.0016744339477788423 0.00058629816088664501 0 -0.001697585852790075 0.00054101230267493319 0 -0.0016744339477788423 0.00058629816088664501 0 -0.001697585852790075 0.00054101230267493319 0 -0.0017188517383241657 0.00057061622617782693 0 -0.0016744339477788423 0.00058629816088664501 0 -0.0017188517383241657 0.00057061622617782693 0 -0.0016999898727063899 0.0006105967282400538 0 -0.001775030068127424 0.00050718915117567887 0 -0.001697585852790075 0.00054101230267493319 0 -0.0017380517804893188 0.00054365611273054192 0 -0.001697585852790075 0.00054101230267493319 0 -0.0017380517804893188 0.00054365611273054192 0 -0.0017188517383241657 0.00057061622617782693 0 -0.0017380517804893188 0.00054365611273054192 0 -0.0017188517383241657 0.00057061622617782693 0 -0.0017588291657537648 0.0005583513873112664 0 -0.0017188517383241657 0.00057061622617782693 0 -0.0017588291657537648 0.0005583513873112664 0 -0.0017339527157993087 0.00059995385893250267 0 -0.0018169614684818208 0.0005982548839617393 0 -0.0017588291657537648 0.0005583513873112664 0 -0.0017739225666775762 0.00060644449810020684 0 -0.0017588291657537648 0.0005583513873112664 0 -0.0017739225666775762 0.00060644449810020684 0 -0.0017339527157993087 0.00059995385893250267 0 -0.001775030068127424 0.00050718915117567887 0 -0.0017380517804893188 0.00054365611273054192 0 -0.0017588291657537648 0.0005583513873112664 0 -0.0017998268741683586 0.00055313219163231322 0 -0.001775030068127424 0.00050718915117567887 0 -0.0017588291657537648 0.0005583513873112664 0 -0.0018097820220591553 0.00065002129313234791 0 -0.0017739225666775762 0.00060644449810020684 0 -0.0017403009130400218 0.00064109743565566137 0 -0.0017188517383241657 0.00057061622617782693 0 -0.0017339527157993087 0.00059995385893250267 0 -0.0016999898727063899 0.0006105967282400538 0 -0.0017739225666775762 0.00060644449810020684 0 -0.0017339527157993087 0.00059995385893250267 0 -0.0017403009130400218 0.00064109743565566137 0 -0.0017339527157993087 0.00059995385893250267 0 -0.0017403009130400218 0.00064109743565566137 0 -0.0016999898727063899 0.0006105967282400538 0 -0.0016053623219943736 0.00058550687319376671 0 -0.0016744339477788423 0.00058629816088664501 0 -0.0016500984884886024 0.00062180569949836257 0 -0.0016999898727063899 0.0006105967282400538 0 -0.0016500984884886024 0.00062180569949836257 0 -0.0016789371745947188 0.00065315637549842338 0 -0.0017403009130400218 0.00064109743565566137 0 -0.0016999898727063899 0.0006105967282400538 0 -0.0016789371745947188 0.00065315637549842338 0 -0.0016744339477788423 0.00058629816088664501 0 -0.0016999898727063899 0.0006105967282400538 0 -0.0016500984884886024 0.00062180569949836257 0 -0.0016500984884886024 0.00062180569949836257 0 -0.0016789371745947188 0.00065315637549842338 0 -0.0016387164444099467 0.00065036948809614112 0 -0.001647651199512119 0.00067152808910262416 0 -0.0016789371745947188 0.00065315637549842338 0 -0.0016387164444099467 0.00065036948809614112 0 -0.0016862887588546961 0.00068997214890735819 0 -0.001647651199512119 0.00067152808910262416 0 -0.0016789371745947188 0.00065315637549842338 0 -0.0016862887588546961 0.00068997214890735819 0 -0.0016789371745947188 0.00065315637549842338 0 -0.0017244119435673069 0.00068114129965281321 0 -0.0017403009130400218 0.00064109743565566137 0 -0.0016789371745947188 0.00065315637549842338 0 -0.0017244119435673069 0.00068114129965281321 0 -0.0017222958000943569 0.00070512875570689752 0 -0.0018033545150500584 0.00069758807111414438 0 -0.0017244119435673069 0.00068114129965281321 0 -0.0018033545150500584 0.00069758807111414438 0 -0.0018097820220591553 0.00065002129313234791 0 -0.0017403009130400218 0.00064109743565566137 0 -0.0018033545150500584 0.00069758807111414438 0 -0.0017403009130400218 0.00064109743565566137 0 -0.0017244119435673069 0.00068114129965281321 0 -0.00046897007932838666 0.0022197431295817873 0 0.00035378484295231683 0.0028273655936688407 0 0.00032553285978298668 0.0027592359409222959 0 -0.00064152054730772878 0.0016219829429649326 0 0.00072709163201448656 0.0028412553892727377 0 -0.00064152054730772878 0.0016219829429649326 0 -0.00073200391037072906 0.0016332117514917359 0 -0.00046897007932838666 0.0022197431295817873 0 0.00032553285978298668 0.0027592359409222959 0 0.0003709173544968066 0.0025937658134887786 0 -0.0016053623219943736 0.00058550687319376671 0 -0.0015658247536889307 0.00064463933392438989 0 -0.0015353104625491431 0.00064719763913935035 0 -0.0015658247536889307 0.00064463933392438989 0 -0.0016088585069387387 0.00063897234663947073 0 -0.0015826149301562422 0.00065587746570953075 0 -0.0015658247536889307 0.00064463933392438989 0 -0.00153232193941282 0.00065396818439879365 0 -0.0015353104625491431 0.00064719763913935035 0 -0.0015658247536889307 0.00064463933392438989 0 -0.0015580101836010537 0.00065154931573517842 0 -0.0015673071528956052 0.00065344663815032264 0 -0.0016084304145744285 0.0009484512678190741 0 -0.00096761655670753513 0.0013615413298303624 0 0.00032553285978298668 0.0027592359409222959 0 0.0003709173544968066 0.0025937658134887786 0 0.00043825352301825576 0.0028736709371684379 0 -0.00084656420687689209 0.001516658494415144 0 -0.0008583777949637847 0.0014897943283520665 0 -0.00081352176185065699 0.0015213169069948965 0 0.00035140980578564595 0.0028149564191997712 0 0.00032553285978298668 0.0027592359409222959 0 0.00043825352301825576 0.0028736709371684379 0 -0.00096761655670753513 0.0013615413298303624 0 -0.00073200391037072906 0.0016332117514917359 0 -0.00073200391037072906 0.0016332117514917359 0 -0.0006382772178567664 0.0018082066850129098 0 -0.0016053623219943736 0.00058550687319376671 0 -0.0016500984884886024 0.00062180569949836257 0 -0.0016088585069387387 0.00063897234663947073 0 -0.0016053623219943736 0.00058550687319376671 0 -0.0015658247536889307 0.00064463933392438989 0 -0.0016088585069387387 0.00063897234663947073 0 -0.0016500984884886024 0.00062180569949836257 0 -0.0016088585069387387 0.00063897234663947073 0 -0.0016387164444099467 0.00065036948809614112 0 -0.0016088585069387387 0.00063897234663947073 0 -0.0016111005894196681 0.00066148538068926783 0 -0.0015826149301562422 0.00065587746570953075 0 -0.0016088585069387387 0.00063897234663947073 0 -0.0016111005894196681 0.00066148538068926783 0 -0.0016387164444099467 0.00065036948809614112 0 -0.001647651199512119 0.00067152808910262416 0 -0.0016111005894196681 0.00066148538068926783 0 -0.0016387164444099467 0.00065036948809614112 0 -0.0015998557771803282 0.00067930984972275192 0 -0.001647651199512119 0.00067152808910262416 0 -0.0016111005894196681 0.00066148538068926783 0 -0.0015998557771803282 0.00067930984972275192 0 -0.0016111005894196681 0.00066148538068926783 0 -0.0015856145628609306 0.00066735140569189528 0 -0.0016111005894196681 0.00066148538068926783 0 -0.0015856145628609306 0.00066735140569189528 0 -0.0015826149301562422 0.00065587746570953075 0 -0.0015856145628609306 0.00066735140569189528 0 -0.0015826149301562422 0.00065587746570953075 0 -0.0015677670498084558 0.00066316911858065367 0 -0.0015713343875364833 0.00067435717583139534 0 -0.0015856145628609306 0.00066735140569189528 0 -0.0015677670498084558 0.00066316911858065367 0 -0.0015826149301562422 0.00065587746570953075 0 -0.0015673071528956052 0.00065344663815032264 0 -0.0015677670498084558 0.00066316911858065367 0 -0.0015658247536889307 0.00064463933392438989 0 -0.0015826149301562422 0.00065587746570953075 0 -0.0015673071528956052 0.00065344663815032264 0 -0.0015580101836010537 0.00065154931573517842 0 -0.0015673071528956052 0.00065344663815032264 0 -0.0015677670498084558 0.00066316911858065367 0 -0.00047026905293717005 0.0016887527415553928 0 0.00061129723418919799 0.0025070636091987066 0 -0.00087756427206722644 0.0015580098605183943 0 -0.00047026905293717005 0.0016887527415553928 0 -0.0014310412348281611 0.0012837128031494426 0 -0.0012618606303527169 0.0011713948148571228 0 -0.0011377255649797683 0.0015023441550901717 0 -0.0012618606303527169 0.0011713948148571228 0 -0.0011129236011778276 0.0015060394975057779 0 -0.0011377255649797683 0.0015023441550901717 0 -0.0014698945855040415 0.00085525468077331137 0 -0.00096761655670753513 0.0013615413298303624 0 -0.0015516802435485109 0.00068268157356379301 0 -0.0015580101836010537 0.00065154931573517842 0 -0.0015677670498084558 0.00066316911858065367 0 0.00076658052235680017 0.0028419640231582026 0 0.00090276382583664733 0.0027904060010931985 0 0.0010191744184189857 0.0029242265076849742 0 0.0003709173544968066 0.0025937658134887786 0 0.00043825352301825576 0.0028736709371684379 0 0.0010191744184189857 0.0029242265076849742 0 0.00072709163201448656 0.0028412553892727377 0 0.00091787774262301993 0.0028679838623961529 0 -0.00096761655670753513 0.0013615413298303624 0 -0.00047026905293717005 0.0016887527415553928 0 -0.00073200391037072906 0.0016332117514917359 0 -0.00047026905293717005 0.0016887527415553928 0 0.00076658052235680017 0.0028419640231582026 0 0.00090276382583664733 0.0027904060010931985 0 0.00079104994689350994 0.0027334743582740672 0 0.0011493428176263944 0.0028239776250573215 0 0.0012204066224539051 0.00271872813888671 0 0.0010486337340328868 0.0027157864165290434 0 0.00090276382583664733 0.0027904060010931985 0 0.0010290721573961035 0.0028143934965818573 0 0.0010486337340328868 0.0027157864165290434 0 0.0011493428176263944 0.0028239776250573215 0 0.0010290721573961035 0.0028143934965818573 0 0.0010486337340328868 0.0027157864165290434 0 0.00090276382583664733 0.0027904060010931985 0 0.0010290721573961035 0.0028143934965818573 0 0.0010191744184189857 0.0029242265076849742 0 0.0011493428176263944 0.0028239776250573215 0 0.0010290721573961035 0.0028143934965818573 0 0.0010191744184189857 0.0029242265076849742 0 0.0011493428176263944 0.0028239776250573215 0 0.0010191744184189857 0.0029242265076849742 0 0.00116480856022367 0.0029985423052898436 0 0.00043825352301825576 0.0028736709371684379 0 0.0010191744184189857 0.0029242265076849742 0 0.00116480856022367 0.0029985423052898436 0 -0.00018536754236370102 0.001877315732047027 0 -0.00025090399239409449 0.0018343127976358778 0 -0.00017622097226432983 0.0018459881900937311 0 0.00061129723418919799 0.0025070636091987066 0 0.00067956921453578669 0.0023864431476644699 0 -0.00018536754236370102 0.001877315732047027 0 -0.00017622097226432983 0.0018459881900937311 0 -0.00011365176873886922 0.0018585645533507045 0 0.00026998242442543159 0.0020599746845485424 0 0.00033207610613819101 0.0022228168477116147 0 0.00021052084985321494 0.0022041484390786029 0 0.00067956921453578669 0.0023864431476644699 0 0.0013303180039231147 0.0024499255855174656 0 0.0012078996716453306 0.0025026697109743526 0 0.0011475714409014035 0.0025091584807818974 0 0.0011569005965211853 0.002503082080087655 0 0.0012078996716453306 0.0025026697109743526 0 0.0011569005965211853 0.002503082080087655 0 0.0011446815728556774 0.0024927987397790267 0 0.0011480099522617688 0.0025088566455983004 0 0.0011569005965211853 0.002503082080087655 0 0.0011446815728556774 0.0024927987397790267 0 0.0013915051836213002 0.0026066083101234116 0 0.0013697407400636247 0.0026108209328374772 0 0.0013915051836213002 0.0026066083101234116 0 0.0013493956183747635 0.0027234246238280729 0 0.00143911979247503 0.0030146568197292399 0 0.0013175152162127487 0.0028100182142132691 0 0.0015071852667371145 0.0026776827995919671 0 0.00067956921453578669 0.0023864431476644699 0 0.0013493956183747635 0.0027234246238280729 0 0.0012078996716453306 0.0025026697109743526 0 0.0011475714409014035 0.0025091584807818974 0 0.0011787644271114735 0.0026680293094739948 0 0.00116480856022367 0.0029985423052898436 0 0.00143911979247503 0.0030146568197292399 0 0.0013175152162127487 0.0028100182142132691 0 0.0011493428176263944 0.0028239776250573215 0 0.00116480856022367 0.0029985423052898436 0 0.0013175152162127487 0.0028100182142132691 0 0.0011493428176263944 0.0028239776250573215 0 0.0013175152162127487 0.0028100182142132691 0 0.0012204066224539051 0.00271872813888671 0 0.0013175152162127487 0.0028100182142132691 0 0.0012204066224539051 0.00271872813888671 0 0.0013371458447814075 0.0026681199972531195 0 0.0013175152162127487 0.0028100182142132691 0 0.0013371458447814075 0.0026681199972531195 0 0.0015071852667371145 0.0026776827995919671 0 0.0013371458447814075 0.0026681199972531195 0 0.0012565895308663949 0.0025792852882281646 0 0.0014027959367576167 0.002576045208212314 0 0.0012204066224539051 0.00271872813888671 0 0.0013371458447814075 0.0026681199972531195 0 0.0012565895308663949 0.0025792852882281646 0 0.0013371458447814075 0.0026681199972531195 0 0.0015071852667371145 0.0026776827995919671 0 0.0014027959367576167 0.002576045208212314 0 0.0013114458952528411 0.0026972564073472886 0 0.0012841077828755626 0.0025577176859068419 0 0.0013372160838539028 0.0025597439954713726 0 0.0013493956183747635 0.0027234246238280729 0 0.0014143159246533274 0.0024990123135801403 0 0.0015071852667371145 0.0026776827995919671 0 0.0014027959367576167 0.002576045208212314 0 0.0014634903217228966 0.0024441368649959524 0 0.0013493956183747635 0.0027234246238280729 0 0.0013329336340376049 0.0025643601319007849 0 0.0013111632537925126 0.0026965666709608473 0 0.0013372160838539028 0.0025597439954713726 0 0.001390936587897284 0.0026308528624270264 0 0.0014438606086375877 0.0024577770845594167 0 0.0014569258310146588 0.0024625832933007183 0 0.0014318171293092638 0.002462796765824591 0 0.0014438606086375877 0.0024577770845594167 0 0.0014489895654793547 0.0024561206467797457 0 0.0014374317417666677 0.0024515269058714428 0 0.0014438606086375877 0.0024577770845594167 0 0.0014318171293092638 0.002462796765824591 0 0.0014374317417666677 0.0024515269058714428 0 0.0014438606086375877 0.0024577770845594167 0 0.0014489895654793547 0.0024561206467797457 0 0.0014569258310146588 0.0024625832933007183 0 0.0014174595505655539 0.0024851814257906713 0 0.0014143159246533274 0.0024990123135801403 0 0.0014489895654793547 0.0024561206467797457 0 0.0014497717434914471 0.0024613590910763997 0 0.0014580511008900636 0.0024483987947245081 0 0.0014143159246533274 0.0024990123135801403 0 0.0014240172519462927 0.002473590979159055 0 0.0012841077828755626 0.0025577176859068419 0 0.0013372160838539028 0.0025597439954713726 0 0.0013866262204141634 0.0024888798197891374 0 0.0013824049452842682 0.002454425002511832 0 0.0013113251978142464 0.002462426004833089 0 0.0013963367893386224 0.0024409614329523512 0 0.0013251288324397327 0.0025509990319693182 0 0.0014143159246533274 0.0024990123135801403 0 0.0012565895308663949 0.0025792852882281646 0 0.0014027959367576167 0.002576045208212314 0 0.0014634903217228966 0.0024441368649959524 0 0.0013974841879898839 0.0025328059114588662 0 0.0014569258310146588 0.0024625832933007183 0 0.0014318171293092638 0.002462796765824591 0 0.0013974841879898839 0.0025328059114588662 0 0.001373141510931229 0.0024722826164368453 0 0.0014053588500240652 0.0024658560702866088 0 0.001373141510931229 0.0024722826164368453 0 0.0013824049452842682 0.002454425002511832 0 0.0013113251978142464 0.002462426004833089 0 0.0013974841879898839 0.0025328059114588662 0 0.001373141510931229 0.0024722826164368453 0 0.0013113251978142464 0.002462426004833089 0 0.0013974841879898839 0.0025328059114588662 0 0.0014053588500240652 0.0024658560702866088 0 0.0014318171293092638 0.002462796765824591 0 0.0014318171293092638 0.002462796765824591 0 0.001413125898977887 0.0024496119463568952 0 0.0014374317417666677 0.0024515269058714428 0 0.0014053588500240652 0.0024658560702866088 0 0.0014318171293092638 0.002462796765824591 0 0.001413125898977887 0.0024496119463568952 0 0.0014053588500240652 0.0024658560702866088 0 0.001413125898977887 0.0024496119463568952 0 0.0013824049452842682 0.002454425002511832 0 0.001413125898977887 0.0024496119463568952 0 0.0013824049452842682 0.002454425002511832 0 0.0013963367893386224 0.0024409614329523512 0 0.001373141510931229 0.0024722826164368453 0 0.0014053588500240652 0.0024658560702866088 0 0.0013824049452842682 0.002454425002511832 0 0.0013113251978142464 0.002462426004833089 0 0.0010596674372537714 0.0023792841567401644 0 0.00099027887366936627 0.0020860992479523372 0 0.0013131270574787337 0.0024666892923691447 0 0.0012243276412938096 0.002240432710792327 0 0.0013974841879898839 0.0025328059114588662 0 0.0013113251978142464 0.002462426004833089 0 0.0011476362091162105 0.0025446359943965421 0 0.0013113251978142464 0.002462426004833089 0 0.0010596674372537714 0.0023792841567401644 0 0.0011476362091162105 0.0025446359943965421 0 0.0010596674372537714 0.0023792841567401644 0 0.00099626568956956061 0.0024815692872558756 0 0.0011476362091162105 0.0025446359943965421 0 0.0010596674372537714 0.0023792841567401644 0 0.00086422521538176433 0.0023163849551584357 0 0.00099027887366936627 0.0020860992479523372 0 0.00070631078175964642 0.0024604066134941982 0 0.00086422521538176433 0.0023163849551584357 0 0.00086240310618525132 0.0025163989210186689 0 0.0010596674372537714 0.0023792841567401644 0 0.00086422521538176433 0.0023163849551584357 0 0.00099626568956956061 0.0024815692872558756 0 0.00086422521538176433 0.0023163849551584357 0 0.00099626568956956061 0.0024815692872558756 0 0.00086240310618525132 0.0025163989210186689 0 0.00099626568956956061 0.0024815692872558756 0 0.00096424593126718584 0.0026151994892231255 0 0.00086240310618525132 0.0025163989210186689 0 0.00096424593126718584 0.0026151994892231255 0 0.00086240310618525132 0.0025163989210186689 0 0.00082390068708721018 0.0026396876016322934 0 0.00070631078175964642 0.0024604066134941982 0 0.00086240310618525132 0.0025163989210186689 0 0.00082390068708721018 0.0026396876016322934 0 0.00090276382583664733 0.0027904060010931985 0 0.00079104994689350994 0.0027334743582740672 0 0.00082390068708721018 0.0026396876016322934 0 0.00090276382583664733 0.0027904060010931985 0 0.00096424593126718584 0.0026151994892231255 0 0.0010486337340328868 0.0027157864165290434 0 0.00090276382583664733 0.0027904060010931985 0 0.00096424593126718584 0.0026151994892231255 0 0.00082390068708721018 0.0026396876016322934 0 0.0013974841879898839 0.0025328059114588662 0 0.0010486337340328868 0.0027157864165290434 0 0.0011476362091162105 0.0025446359943965421 0 0.0012204066224539051 0.00271872813888671 0 0.0012565895308663949 0.0025792852882281646 0 0.0010486337340328868 0.0027157864165290434 0 0.0013251288324397327 0.0025509990319693182 0 0.0010753154942961492 0.0027051741007468742 0 0.00096424593126718584 0.0026151994892231255 0 0.0010486337340328868 0.0027157864165290434 0 0.0011476362091162105 0.0025446359943965421 0 0.00099626568956956061 0.0024815692872558756 0 0.00096424593126718584 0.0026151994892231255 0 0.0011476362091162105 0.0025446359943965421 0 0.0020411967938586536 0.0027351144037876403 0 0.0020317920805908163 0.002717076415446917 0 0.0020225398239288195 0.0027239323420621799 0 0.0020317920805908163 0.002717076415446917 0 0.0020454272161062118 0.0027060099415646085 0 0.0020243254865072078 0.0027057493970468827 0 0.0020411967938586536 0.0027351144037876403 0 0.0020317920805908163 0.002717076415446917 0 0.0020454272161062118 0.0027060099415646085 0 0.0020411967938586536 0.0027351144037876403 0 0.0020894498576409012 0.0027059604838761643 0 0.0020454272161062118 0.0027060099415646085 0 0.0020425730719714637 0.0027082031421976349 0 0.0020454272161062118 0.0027060099415646085 0 0.0020298026585031125 0.0027059534208648483 0 0.0020894498576409012 0.0027059604838761643 0 0.0020425730719714637 0.0027082031421976349 0 0.0020454272161062118 0.0027060099415646085 0 0.0020454272161062118 0.0027060099415646085 0 0.0020243254865072078 0.0027057493970468827 0 0.0020298026585031125 0.0027059534208648483 0 0.0020243254865072078 0.0027057493970468827 0 0.0020298026585031125 0.0027059534208648483 0 0.0020157496857324303 0.002702928865335455 0 0.0020425730719714637 0.0027082031421976349 0 0.0020298026585031125 0.0027059534208648483 0 0.0020270856823429322 0.0027074616411298922 0 0.0020298026585031125 0.0027059534208648483 0 0.0020270856823429322 0.0027074616411298922 0 0.0020157496857324303 0.002702928865335455 0 0.0020243254865072078 0.0027057493970468827 0 0.0020157496857324303 0.002702928865335455 0 0.0020157362758171306 0.0027068557930732856 0 0.0020243254865072078 0.0027057493970468827 0 0.0020137461832200644 0.0027002588295759306 0 0.0020131746403343888 0.0027124255312598721 0 0.0020317920805908163 0.002717076415446917 0 0.0020243254865072078 0.0027057493970468827 0 0.0020131746403343888 0.0027124255312598721 0 0.0020243254865072078 0.0027057493970468827 0 0.0020137461832200644 0.0027002588295759306 0 0.0020157362758171306 0.0027068557930732856 0 0.0020137461832200644 0.0027002588295759306 0 0.0020157362758171306 0.0027068557930732856 0 0.0020077761420519173 0.0027125738330579111 0 0.0020157496857324303 0.002702928865335455 0 0.0020157362758171306 0.0027068557930732856 0 0.0020077761420519173 0.0027125738330579111 0 0.0019692853615094681 0.002694917921359721 0 0.0021163391016388949 0.0027191240459342268 0 0.0019820891515270858 0.0027063279377694282 0 0.0020137461832200644 0.0027002588295759306 0 0.0020077761420519173 0.0027125738330579111 0 0.0019820891515270858 0.0027063279377694282 0 0.0020077761420519173 0.0027125738330579111 0 0.0019824413025418116 0.0027097649696401073 0 0.0021163391016388949 0.0027191240459342268 0 0.0013303180039231147 0.0024499255855174656 0 0.0013915051836213002 0.0026066083101234116 0 0.0013303180039231147 0.0024499255855174656 0 0.0013482757739243666 0.002881980847987989 0 0.0013111632537925126 0.0026965666709608473 0 0.0013960141087838507 0.0027732460835317154 0 0.0013915051836213002 0.0026066083101234116 0 0.0018037982023080957 0.0027634178840450965 0 0.0013482757739243666 0.002881980847987989 0 0.0015055843769790187 0.0027896469974790922 0 0.0013960141087838507 0.0027732460835317154 0 0.0015055843769790187 0.0027896469974790922 0 0.0013960141087838507 0.0027732460835317154 0 0.001425013413118625 0.0027016767315184509 0 0.0013111632537925126 0.0026965666709608473 0 0.0013960141087838507 0.0027732460835317154 0 0.001425013413118625 0.0027016767315184509 0 0.0013111632537925126 0.0026965666709608473 0 0.001425013413118625 0.0027016767315184509 0 0.001390936587897284 0.0026308528624270264 0 0.001425013413118625 0.0027016767315184509 0 0.001390936587897284 0.0026308528624270264 0 0.0014886575033095102 0.0026206276610185328 0 0.0013372160838539028 0.0025597439954713726 0 0.001390936587897284 0.0026308528624270264 0 0.0014104833310643748 0.0025614165828181301 0 0.0014104833310643748 0.0025614165828181301 0 0.0014886575033095102 0.0026206276610185328 0 0.0014685710763774852 0.0025054640454509405 0 0.0013372160838539028 0.0025597439954713726 0 0.0014104833310643748 0.0025614165828181301 0 0.0013866262204141634 0.0024888798197891374 0 0.001390936587897284 0.0026308528624270264 0 0.0014104833310643748 0.0025614165828181301 0 0.0014886575033095102 0.0026206276610185328 0 0.0014886575033095102 0.0026206276610185328 0 0.0015618803675845282 0.0025054063689084775 0 0.0014685710763774852 0.0025054640454509405 0 0.0015055843769790187 0.0027896469974790922 0 0.001425013413118625 0.0027016767315184509 0 0.0014886575033095102 0.0026206276610185328 0 0.0015055843769790187 0.0027896469974790922 0 0.0014886575033095102 0.0026206276610185328 0 0.00166691057122653 0.0027119729620865497 0 0.0018037982023080957 0.0027634178840450965 0 0.0018380688965082056 0.0027063542225742579 0 0.0014886575033095102 0.0026206276610185328 0 0.00166691057122653 0.0027119729620865497 0 0.0015618803675845282 0.0025054063689084775 0 0.00166691057122653 0.0027119729620865497 0 0.0017239847181785043 0.0025367014471548706 0 0.0015618803675845282 0.0025054063689084775 0 0.0019764243960676219 0.002629914320341281 0 0.00166691057122653 0.0027119729620865497 0 0.0017239847181785043 0.0025367014471548706 0 0.0019764243960676219 0.002629914320341281 0 0.0018244724648474213 0.0023433370122578384 0 0.0017239847181785043 0.0025367014471548706 0 0.0019801985987833583 0.0026286783778455996 0 0.0018380688965082056 0.0027063542225742579 0 0.0019764243960676219 0.002629914320341281 0 0.0020131746403343888 0.0027124255312598721 0 0.0020225398239288195 0.0027239323420621799 0 0.0020317920805908163 0.002717076415446917 0 0.0020131746403343888 0.0027124255312598721 0 0.0020225398239288195 0.0027239323420621799 0 0.0018244724648474213 0.0023433370122578384 0 0.0017006613916136558 0.0022771535564293293 0 0.0016723143643534734 0.0024095782892358422 0 0.0018244724648474213 0.0023433370122578384 0 0.0017239847181785043 0.0025367014471548706 0 0.0016723143643534734 0.0024095782892358422 0 0.0017239847181785043 0.0025367014471548706 0 0.0016723143643534734 0.0024095782892358422 0 0.0015618803675845282 0.0025054063689084775 0 0.0016723143643534734 0.0024095782892358422 0 0.0015618803675845282 0.0025054063689084775 0 0.0015756390723525283 0.0023907142784790406 0 0.0017006613916136558 0.0022771535564293293 0 0.0016723143643534734 0.0024095782892358422 0 0.0015756390723525283 0.0023907142784790406 0 0.0017006613916136558 0.0022771535564293293 0 0.0015756390723525283 0.0023907142784790406 0 0.0015720901494714061 0.0023493719249884897 0 0.0015756390723525283 0.0023907142784790406 0 0.0015081435507583694 0.0023996954960262187 0 0.0015720901494714061 0.0023493719249884897 0 0.0015756390723525283 0.0023907142784790406 0 0.0015081435507583694 0.0023996954960262187 0 0.00149717556231543 0.0024292756307674039 0 0.0015618803675845282 0.0025054063689084775 0 0.0015756390723525283 0.0023907142784790406 0 0.00149717556231543 0.0024292756307674039 0 0.0015618803675845282 0.0025054063689084775 0 0.0014685710763774852 0.0025054640454509405 0 0.00149717556231543 0.0024292756307674039 0 0.0014896890813989041 0.0024326436038503369 0 0.0014240172519462927 0.002473590979159055 0 0.00149717556231543 0.0024292756307674039 0 0.0014715981203050441 0.0024503556520165991 0 0.001472118619036869 0.0024333715100161107 0 0.0014685710763774852 0.0025054640454509405 0 0.00149717556231543 0.0024292756307674039 0 0.0013866262204141634 0.0024888798197891374 0 0.0014104833310643748 0.0025614165828181301 0 0.0014685710763774852 0.0025054640454509405 0 0.0013866262204141634 0.0024888798197891374 0 0.0014715981203050441 0.0024503556520165991 0 0.001472118619036869 0.0024333715100161107 0 0.0014580511008900636 0.0024483987947245081 0 0.0015081435507583694 0.0023996954960262187 0 0.00149717556231543 0.0024292756307674039 0 0.001472118619036869 0.0024333715100161107 0 0.0015081435507583694 0.0023996954960262187 0 0.001472118619036869 0.0024333715100161107 0 0.0014791684181251071 0.0024225530331207371 0 0.001472118619036869 0.0024333715100161107 0 0.0014791684181251071 0.0024225530331207371 0 0.0014616779722602358 0.0024326720867726788 0 0.0014791684181251071 0.0024225530331207371 0 0.001479775442677903 0.0024322423658586631 0 0.0014616779722602358 0.0024326720867726788 0 0.0015081435507583694 0.0023996954960262187 0 0.0014791684181251071 0.0024225530331207371 0 0.001479775442677903 0.0024322423658586631 0 0.001479775442677903 0.0024322423658586631 0 0.0014625654542923465 0.0024853193788819724 0 0.0014688741460752886 0.0025032798306294283 0 0.001479775442677903 0.0024322423658586631 0 0.0015066406649255179 0.0024386211073022628 0 0.0014688741460752886 0.0025032798306294283 0 0.0015066406649255179 0.0024386211073022628 0 0.0015258882584367713 0.0023926770538337454 0 0.0015577825160582863 0.0023786574022202026 0 0.0015066406649255179 0.0024386211073022628 0 0.0015577825160582863 0.0023786574022202026 0 0.0015074770959819779 0.0024827973171982183 0 0.0015081435507583694 0.0023996954960262187 0 0.001479775442677903 0.0024322423658586631 0 0.0015258882584367713 0.0023926770538337454 0 0.0015081435507583694 0.0023996954960262187 0 0.0015258882584367713 0.0023926770538337454 0 0.0015720901494714061 0.0023493719249884897 0 0.001479775442677903 0.0024322423658586631 0 0.0015066406649255179 0.0024386211073022628 0 0.0015258882584367713 0.0023926770538337454 0 0.0015258882584367713 0.0023926770538337454 0 0.0015720901494714061 0.0023493719249884897 0 0.0015577825160582863 0.0023786574022202026 0 0.0017006613916136558 0.0022771535564293293 0 0.0015720901494714061 0.0023493719249884897 0 0.0016034751081928449 0.0023186887493592263 0 0.0015720901494714061 0.0023493719249884897 0 0.0016034751081928449 0.0023186887493592263 0 0.0015577825160582863 0.0023786574022202026 0 0.0016034751081928449 0.0023186887493592263 0 0.0015577825160582863 0.0023786574022202026 0 0.0016182090897241114 0.0022788256150148758 0 0.0014141148725711364 0.0024563957242424708 0 0.0016182090897241114 0.0022788256150148758 0 0.0015450717260447496 0.002411926845738994 0 0.0015577825160582863 0.0023786574022202026 0 0.0016182090897241114 0.0022788256150148758 0 0.0015450717260447496 0.002411926845738994 0 0.0017437125432328549 0.0022529416462018555 0 0.0017006613916136558 0.0022771535564293293 0 0.0016182090897241114 0.0022788256150148758 0 0.0017006613916136558 0.0022771535564293293 0 0.0016034751081928449 0.0023186887493592263 0 0.0016182090897241114 0.0022788256150148758 0 0.0014251315289859233 0.0024419258618367358 0 0.001448633301522844 0.0024506344405979719 0 0.0014302410732052917 0.0024372049168120738 0 0.0012243276412938096 0.002240432710792327 0 0.00094924851218193931 0.002309415553793822 0 0.00066034211453510879 0.0018506387372880695 0 0.00099027887366936627 0.0020860992479523372 0 0.00073183937252376441 0.00177315299711483 0 0.001448633301522844 0.0024506344405979719 0 0.0014302410732052917 0.0024372049168120738 0 0.00145877726815536 0.0024513750484186124 0 0.00066034211453510879 0.0018506387372880695 0 0.00069185954398835313 0.0021012938094346137 0 0.00099027887366936627 0.0020860992479523372 0 0.00069185954398835313 0.0021012938094346137 0 0.00086422521538176433 0.0023163849551584357 0 0.00099027887366936627 0.0020860992479523372 0 0.0013113251978142464 0.002462426004833089 0 0.0014302410732052917 0.0024372049168120738 0 0.0013963367893386224 0.0024409614329523512 0 0.0014251315289859233 0.0024419258618367358 0 0.0014302410732052917 0.0024372049168120738 0 0.0013963367893386224 0.0024409614329523512 0 0.001413125898977887 0.0024496119463568952 0 0.0013963367893386224 0.0024409614329523512 0 0.0014315009399527615 0.0024423440884205525 0 0.001413125898977887 0.0024496119463568952 0 0.0014315009399527615 0.0024423440884205525 0 0.0014374317417666677 0.0024515269058714428 0 0.0013963367893386224 0.0024409614329523512 0 0.0014315009399527615 0.0024423440884205525 0 0.0014384721989488926 0.0024375434198604991 0 0.0014315009399527615 0.0024423440884205525 0 0.0014514561419994793 0.0024391380166008106 0 0.0014384721989488926 0.0024375434198604991 0 0.0014251315289859233 0.0024419258618367358 0 0.0013963367893386224 0.0024409614329523512 0 0.0014384721989488926 0.0024375434198604991 0 0.0014497717434914471 0.0024613590910763997 0 0.0014715981203050441 0.0024503556520165991 0 0.0014580511008900636 0.0024483987947245081 0 0.0014580511008900636 0.0024483987947245081 0 0.0014467216784858593 0.0024467703844054316 0 0.0014514561419994793 0.0024391380166008106 0 0.0014489895654793547 0.0024561206467797457 0 0.0014580511008900636 0.0024483987947245081 0 0.0014467216784858593 0.0024467703844054316 0 0.0014489895654793547 0.0024561206467797457 0 0.0014467216784858593 0.0024467703844054316 0 0.0014374317417666677 0.0024515269058714428 0 0.0014315009399527615 0.0024423440884205525 0 0.0014467216784858593 0.0024467703844054316 0 0.0014374317417666677 0.0024515269058714428 0 0.0014315009399527615 0.0024423440884205525 0 0.0014467216784858593 0.0024467703844054316 0 0.0014514561419994793 0.0024391380166008106 0 0.001472118619036869 0.0024333715100161107 0 0.0014580511008900636 0.0024483987947245081 0 0.0014514561419994793 0.0024391380166008106 0 0.0014514561419994793 0.0024391380166008106 0 0.0014616779722602358 0.0024326720867726788 0 0.0014384721989488926 0.0024375434198604991 0 0.0014616779722602358 0.0024326720867726788 0 0.0014384721989488926 0.0024375434198604991 0 0.0014593517448087073 0.0024458500859540805 0 0.001472118619036869 0.0024333715100161107 0 0.0014514561419994793 0.0024391380166008106 0 0.0014616779722602358 0.0024326720867726788 0 0.001448633301522844 0.0024506344405979719 0 0.0014384721989488926 0.0024375434198604991 0 0.0014593517448087073 0.0024458500859540805 0 0.0014251315289859233 0.0024419258618367358 0 0.001448633301522844 0.0024506344405979719 0 0.0014384721989488926 0.0024375434198604991 0 0.001448633301522844 0.0024506344405979719 0 0.0014593517448087073 0.0024458500859540805 0 0.0014725425317836183 0.0024698573364603789 0 0.001479775442677903 0.0024322423658586631 0 0.0014616779722602358 0.0024326720867726788 0 0.0014593517448087073 0.0024458500859540805 0 0.001479775442677903 0.0024322423658586631 0 0.0014593517448087073 0.0024458500859540805 0 0.0014625654542923465 0.0024853193788819724 0 0.0014625654542923465 0.0024853193788819724 0 0.0014725425317836183 0.0024698573364603789 0 0.0015037112673734676 0.00252779914488537 0 0.0014593517448087073 0.0024458500859540805 0 0.0014625654542923465 0.0024853193788819724 0 0.0014725425317836183 0.0024698573364603789 0 0.0014725425317836183 0.0024698573364603789 0 0.0014721220840940138 0.0024702362639340853 0 0.0015037112673734676 0.00252779914488537 0 0.0012734621644563376 0.0028355747688892179 0 0.0013380959763591006 0.0027309083048866626 0 0.001448633301522844 0.0024506344405979719 0 0.0014725425317836183 0.0024698573364603789 0 0.0014721220840940138 0.0024702362639340853 0 0.001448633301522844 0.0024506344405979719 0 0.0014721220840940138 0.0024702362639340853 0 0.00145877726815536 0.0024513750484186124 0 0.0012734621644563376 0.0028355747688892179 0 0.00094924851218193931 0.002309415553793822 0 0.0010446646102498856 0.0030569824559889937 0 0.00094229346110543863 0.0031425149522837062 0 0.00095682979752866949 0.0030536922391134215 0 0.0010446646102498856 0.0030569824559889937 0 0.00095682979752866949 0.0030536922391134215 0 0.00095997297989036299 0.0029554987528533773 0 0.00095997297989036299 0.0029554987528533773 0 0.00094910833748152877 0.0028327114502618698 0 0.0010779000192320115 0.0028226295824135455 0 0.0010446646102498856 0.0030569824559889937 0 0.00095997297989036299 0.0029554987528533773 0 0.0011748510990509391 0.0029586414710920652 0 0.00095997297989036299 0.0029554987528533773 0 0.0010779000192320115 0.0028226295824135455 0 0.0011748510990509391 0.0029586414710920652 0 0.0015037112673734676 0.00252779914488537 0 0.001437031738477467 0.002563007448714732 0 0.0013934102286041917 0.0027083956297608951 0 0.0014625654542923465 0.0024853193788819724 0 0.0015037112673734676 0.00252779914488537 0 0.001437031738477467 0.002563007448714732 0 0.0014625654542923465 0.0024853193788819724 0 0.001437031738477467 0.002563007448714732 0 0.0014688741460752886 0.0025032798306294283 0 0.001437031738477467 0.002563007448714732 0 0.0013934102286041917 0.0027083956297608951 0 0.0014625525932712433 0.0025688224307034639 0 0.0010779000192320115 0.0028226295824135455 0 0.0011748510990509391 0.0029586414710920652 0 0.0013934102286041917 0.0027083956297608951 0 0.0013380959763591006 0.0027309083048866626 0 0.0013858814980126687 0.0027149705879566757 0 0.0010779000192320115 0.0028226295824135455 0 0.0013934102286041917 0.0027083956297608951 0 0.0011784104568816143 0.0027157246470436479 0 0.0013934102286041917 0.0027083956297608951 0 0.0011784104568816143 0.0027157246470436479 0 0.0013406910356368424 0.0026555113462297434 0 0.0013934102286041917 0.0027083956297608951 0 0.0013406910356368424 0.0026555113462297434 0 0.0014489533304262799 0.0026419701510043249 0 0.0011784104568816143 0.0027157246470436479 0 0.0010638266934492504 0.0026670222268939925 0 0.0012056264450495005 0.0026289360112644977 0 0.0011784104568816143 0.0027157246470436479 0 0.0013406910356368424 0.0026555113462297434 0 0.0012056264450495005 0.0026289360112644977 0 0.0010638266934492504 0.0026670222268939925 0 0.00092683227141372845 0.0027950066598438649 0 0.00087996080482335775 0.0025389926748970166 0 0.0011784104568816143 0.0027157246470436479 0 0.0010638266934492504 0.0026670222268939925 0 0.00092683227141372845 0.0027950066598438649 0 0.00094910833748152877 0.0028327114502618698 0 0.0010779000192320115 0.0028226295824135455 0 0.00092683227141372845 0.0027950066598438649 0 0.00094910833748152877 0.0028327114502618698 0 0.00092683227141372845 0.0027950066598438649 0 0.00088324091011844652 0.0028135663033677025 0 0.0010779000192320115 0.0028226295824135455 0 0.0011784104568816143 0.0027157246470436479 0 0.00092683227141372845 0.0027950066598438649 0 0.0014840140960161708 0.0025658921580270374 0 0.0014842306105303958 0.0024984029687185674 0 0.001523328934039476 0.0024755987415130531 0 0.0014348746304733415 0.0025553151809222714 0 0.0014840140960161708 0.0025658921580270374 0 0.0014842306105303958 0.0024984029687185674 0 0.0014842306105303958 0.0024984029687185674 0 0.0015450717260447496 0.002411926845738994 0 0.001523328934039476 0.0024755987415130531 0 0.0015577825160582863 0.0023786574022202026 0 0.0015450717260447496 0.002411926845738994 0 0.001523328934039476 0.0024755987415130531 0 0.0015577825160582863 0.0023786574022202026 0 0.001523328934039476 0.0024755987415130531 0 0.0015074770959819779 0.0024827973171982183 0 0.001523328934039476 0.0024755987415130531 0 0.0015038758145570234 0.0025401266416096597 0 0.0015074770959819779 0.0024827973171982183 0 0.0014840140960161708 0.0025658921580270374 0 0.0015038758145570234 0.0025401266416096597 0 0.0014928335492142282 0.0025949137759607686 0 0.0014840140960161708 0.0025658921580270374 0 0.001523328934039476 0.0024755987415130531 0 0.0015038758145570234 0.0025401266416096597 0 0.0015038758145570234 0.0025401266416096597 0 0.0014745439015686379 0.0026126881824495487 0 0.0014928335492142282 0.0025949137759607686 0 0.0015038758145570234 0.0025401266416096597 0 0.0014625525932712433 0.0025688224307034639 0 0.0014745439015686379 0.0026126881824495487 0 0.0015074770959819779 0.0024827973171982183 0 0.0014688741460752886 0.0025032798306294283 0 0.0014625525932712433 0.0025688224307034639 0 0.0015038758145570234 0.0025401266416096597 0 0.0015074770959819779 0.0024827973171982183 0 0.0014625525932712433 0.0025688224307034639 0 0.0015066406649255179 0.0024386211073022628 0 0.0015074770959819779 0.0024827973171982183 0 0.0014688741460752886 0.0025032798306294283 0 0.001437031738477467 0.002563007448714732 0 0.0014688741460752886 0.0025032798306294283 0 0.0014625525932712433 0.0025688224307034639 0 0.0013934102286041917 0.0027083956297608951 0 0.0014625525932712433 0.0025688224307034639 0 0.0014745439015686379 0.0026126881824495487 0 0.0013934102286041917 0.0027083956297608951 0 0.0014489533304262799 0.0026419701510043249 0 0.0014745439015686379 0.0026126881824495487 0 0.0013406910356368424 0.0026555113462297434 0 0.0014489533304262799 0.0026419701510043249 0 0.0014276863585868666 0.0026168540331533794 0 0.0014489533304262799 0.0026419701510043249 0 0.0014745439015686379 0.0026126881824495487 0 0.0014913197493438323 0.0026357407314135865 0 0.0014489533304262799 0.0026419701510043249 0 0.0014913197493438323 0.0026357407314135865 0 0.0014908539957060969 0.0026451583905045539 0 0.0014745439015686379 0.0026126881824495487 0 0.0014928335492142282 0.0025949137759607686 0 0.0014913197493438323 0.0026357407314135865 0 0.0014928335492142282 0.0025949137759607686 0 0.0014913197493438323 0.0026357407314135865 0 0.001476100017672311 0.0026422823597984724 0 0.0014913197493438323 0.0026357407314135865 0 0.001476100017672311 0.0026422823597984724 0 0.0014873705648173463 0.0026845070953669331 0 0.0014480420323859798 0.0026083681033094771 0 0.0014840140960161708 0.0025658921580270374 0 0.001476100017672311 0.0026422823597984724 0 0.0014840140960161708 0.0025658921580270374 0 0.0014928335492142282 0.0025949137759607686 0 0.001476100017672311 0.0026422823597984724 0 0.0014609234170704589 0.0027422590589554802 0 0.0014873705648173463 0.0026845070953669331 0 0.001504012218746428 0.0027040979691474671 0 0.0014609234170704589 0.0027422590589554802 0 0.001504012218746428 0.0027040979691474671 0 0.0014770463569296118 0.0028061934458422735 0 0.0014311621348035235 0.0026949752400626504 0 0.001476100017672311 0.0026422823597984724 0 0.0014873705648173463 0.0026845070953669331 0 0.0014913197493438323 0.0026357407314135865 0 0.0014873705648173463 0.0026845070953669331 0 0.0014908539957060969 0.0026451583905045539 0 0.0014873705648173463 0.0026845070953669331 0 0.001504012218746428 0.0027040979691474671 0 0.0014908539957060969 0.0026451583905045539 0 0.001504012218746428 0.0027040979691474671 0 0.0014943882577876536 0.0026204269136324942 0 0.0014908539957060969 0.0026451583905045539 0 0.0014943882577876536 0.0026204269136324942 0 0.0014908539957060969 0.0026451583905045539 0 0.0014276863585868666 0.0026168540331533794 0 0.0014489533304262799 0.0026419701510043249 0 0.0014908539957060969 0.0026451583905045539 0 0.0014276863585868666 0.0026168540331533794 0 0.0014943882577876536 0.0026204269136324942 0 0.0014276863585868666 0.0026168540331533794 0 0.0013958653231772144 0.0025404539872320186 0 0.0014276863585868666 0.0026168540331533794 0 0.0013958653231772144 0.0025404539872320186 0 0.0013187992540662288 0.0025873901251504058 0 0.0014943882577876536 0.0026204269136324942 0 0.0013958653231772144 0.0025404539872320186 0 0.0014774966357670913 0.0025115931732660646 0 0.0013958653231772144 0.0025404539872320186 0 0.0014774966357670913 0.0025115931732660646 0 0.0013258894853549986 0.002428250942316927 0 0.0014774966357670913 0.0025115931732660646 0 0.0013258894853549986 0.002428250942316927 0 0.0013264786207765392 0.0023136256480582864 0 0.0014976059944375255 0.0026865466834559582 0 0.0013470261360597931 0.0026063857112908454 0 0.0015059470615018306 0.0028542178305058139 0 0.0015495912600641073 0.0028580298728344577 0 0.0014211691997644382 0.0029125585461430431 0 0.0015059470615018306 0.0028542178305058139 0 0.0015495912600641073 0.0028580298728344577 0 0.0015536628141776332 0.0028521944231333848 0 0.0015495912600641073 0.0028580298728344577 0 0.0015536628141776332 0.0028521944231333848 0 0.0015267377497588813 0.0027612527188939015 0 0.0014976059944375255 0.0026865466834559582 0 0.001510163209221836 0.002742044368400318 0 0.0014943882577876536 0.0026204269136324942 0 0.0014774966357670913 0.0025115931732660646 0 0.0015267377497588813 0.0027612527188939015 0 0.001504012218746428 0.0027040979691474671 0 0.0014943882577876536 0.0026204269136324942 0 0.0015267377497588813 0.0027612527188939015 0 0.0015409453680802717 0.0029159550299240593 0 0.0015267377497588813 0.0027612527188939015 0 0.0014868678581025326 0.0028847241935544689 0 0.0015409453680802717 0.0029159550299240593 0 0.0015536628141776332 0.0028521944231333848 0 0.0015267377497588813 0.0027612527188939015 0 0.0015267377497588813 0.0027612527188939015 0 0.0014868678581025326 0.0028847241935544689 0 0.0014770463569296118 0.0028061934458422735 0 0.001504012218746428 0.0027040979691474671 0 0.0015267377497588813 0.0027612527188939015 0 0.0014770463569296118 0.0028061934458422735 0 0.001053886092156499 0.0024614721510495012 0 0.00087996080482335775 0.0025389926748970166 0 0.0010891047932165964 0.0025732187613260317 0 0.001053886092156499 0.0024614721510495012 0 0.00087996080482335775 0.0025389926748970166 0 0.00089001186668626595 0.0023759377011771023 0 0.00071496468220821159 0.0023824675123620908 0 0.00087996080482335775 0.0025389926748970166 0 0.00059965983470112181 0.0025444201063662057 0 0.00071496468220821159 0.0023824675123620908 0 0.00087996080482335775 0.0025389926748970166 0 0.00089001186668626595 0.0023759377011771023 0 0.00092683227141372845 0.0027950066598438649 0 0.00087996080482335775 0.0025389926748970166 0 0.00059965983470112181 0.0025444201063662057 0 0.0010638266934492504 0.0026670222268939925 0 0.00087996080482335775 0.0025389926748970166 0 0.0010891047932165964 0.0025732187613260317 0 0.0010638266934492504 0.0026670222268939925 0 0.0010891047932165964 0.0025732187613260317 0 0.0012056264450495005 0.0026289360112644977 0 0.0010891047932165964 0.0025732187613260317 0 0.0012056264450495005 0.0026289360112644977 0 0.0012015699177213271 0.0025344295837698505 0 0.0012056264450495005 0.0026289360112644977 0 0.0013187992540662288 0.0025873901251504058 0 0.0012015699177213271 0.0025344295837698505 0 0.0013406910356368424 0.0026555113462297434 0 0.0012056264450495005 0.0026289360112644977 0 0.0013187992540662288 0.0025873901251504058 0 0.0013406910356368424 0.0026555113462297434 0 0.0014276863585868666 0.0026168540331533794 0 0.0013187992540662288 0.0025873901251504058 0 0.0013958653231772144 0.0025404539872320186 0 0.0013187992540662288 0.0025873901251504058 0 0.0012851645867548757 0.0024976795386068415 0 0.0013187992540662288 0.0025873901251504058 0 0.0012851645867548757 0.0024976795386068415 0 0.0012015699177213271 0.0025344295837698505 0 0.001053886092156499 0.0024614721510495012 0 0.0010891047932165964 0.0025732187613260317 0 0.0012015699177213271 0.0025344295837698505 0 0.0012851645867548757 0.0024976795386068415 0 0.0012015699177213271 0.0025344295837698505 0 0.001182810732232014 0.0024188581910535049 0 0.001053886092156499 0.0024614721510495012 0 0.0012015699177213271 0.0025344295837698505 0 0.001182810732232014 0.0024188581910535049 0 0.001053886092156499 0.0024614721510495012 0 0.001182810732232014 0.0024188581910535049 0 0.0010431316853194957 0.0023083991125402662 0 0.001182810732232014 0.0024188581910535049 0 0.0011964784548656739 0.0023214074272571586 0 0.0013258894853549986 0.002428250942316927 0 0.001182810732232014 0.0024188581910535049 0 0.0011964784548656739 0.0023214074272571586 0 0.0010431316853194957 0.0023083991125402662 0 0.0013958653231772144 0.0025404539872320186 0 0.0012851645867548757 0.0024976795386068415 0 0.0013258894853549986 0.002428250942316927 0 0.0012851645867548757 0.0024976795386068415 0 0.001182810732232014 0.0024188581910535049 0 0.0013258894853549986 0.002428250942316927 0 0.0011964784548656739 0.0023214074272571586 0 0.0013258894853549986 0.002428250942316927 0 0.0013264786207765392 0.0023136256480582864 0 0.0014211691997644382 0.0029125585461430431 0 0.001421615278061232 0.0028442099232340056 0 0.0013048642781955707 0.0028657163990367914 0 0.0015059470615018306 0.0028542178305058139 0 0.0014211691997644382 0.0029125585461430431 0 0.001421615278061232 0.0028442099232340056 0 0.0013470261360597931 0.0026063857112908454 0 0.0011827555819517751 0.002532123202709886 0 0.0011964784548656739 0.0023214074272571586 0 0.0013264786207765392 0.0023136256480582864 0 0.00109174080614372 0.0021401140845496232 0 0.0014211691997644382 0.0029125585461430431 0 0.0013048642781955707 0.0028657163990367914 0 0.0011551186072238317 0.002887386453860853 0 0.0011964784548656739 0.0023214074272571586 0 0.00109174080614372 0.0021401140845496232 0 0.0010431316853194957 0.0023083991125402662 0 0.0013014907338618484 0.002771021370014119 0 0.0013048642781955707 0.0028657163990367914 0 0.0011551186072238317 0.002887386453860853 0 0.0011827555819517751 0.002532123202709886 0 0.00054976237535611823 0.0022872874283825901 0 0.00098762816907660878 0.0028236754062777457 0 0.0011551186072238317 0.002887386453860853 0 0.00092699593384015246 0.0028315277939119261 0 0.00109174080614372 0.0021401140845496232 0 0.00092464917826426841 0.0021507546550418176 0 0.00077268544188443047 0.0020018579149258843 0 0.00109174080614372 0.0021401140845496232 0 0.00092464917826426841 0.0021507546550418176 0 0.0010431316853194957 0.0023083991125402662 0 0.001053886092156499 0.0024614721510495012 0 0.0010431316853194957 0.0023083991125402662 0 0.00089001186668626595 0.0023759377011771023 0 0.00092464917826426841 0.0021507546550418176 0 0.0010431316853194957 0.0023083991125402662 0 0.00090304639718548688 0.0022557637657157851 0 0.0010431316853194957 0.0023083991125402662 0 0.00090304639718548688 0.0022557637657157851 0 0.00089001186668626595 0.0023759377011771023 0 0.00071496468220821159 0.0023824675123620908 0 0.00089001186668626595 0.0023759377011771023 0 0.0007730928633751142 0.0022273068842158226 0 0.00090304639718548688 0.0022557637657157851 0 0.0007730928633751142 0.0022273068842158226 0 0.0008178089552412824 0.0021546273614902458 0 0.00090304639718548688 0.0022557637657157851 0 0.00089001186668626595 0.0023759377011771023 0 0.0007730928633751142 0.0022273068842158226 0 0.00071496468220821159 0.0023824675123620908 0 0.0007730928633751142 0.0022273068842158226 0 0.00061859496767999818 0.0022156506429188358 0 0.0007730928633751142 0.0022273068842158226 0 0.00070843757905014433 0.0021256360292649028 0 0.00061859496767999818 0.0022156506429188358 0 0.0007730928633751142 0.0022273068842158226 0 0.00070843757905014433 0.0021256360292649028 0 0.0008178089552412824 0.0021546273614902458 0 0.00092464917826426841 0.0021507546550418176 0 0.00090304639718548688 0.0022557637657157851 0 0.0008178089552412824 0.0021546273614902458 0 0.00092464917826426841 0.0021507546550418176 0 0.0008178089552412824 0.0021546273614902458 0 0.00077268544188443047 0.0020018579149258843 0 0.00070843757905014433 0.0021256360292649028 0 0.00077268544188443047 0.0020018579149258843 0 0.00054736637615831693 0.0020780058820138018 0 0.00054976237535611823 0.0022872874283825901 0 0.00067391618042542177 0.0020378724277214364 0 0.00070843757905014433 0.0021256360292649028 0 0.0008178089552412824 0.0021546273614902458 0 0.00077268544188443047 0.0020018579149258843 0 0.00049552504234680209 0.0018987928082832893 0 0.00078085613487644499 0.0019515245427854336 0 0.00054736637615831693 0.0020780058820138018 0 0.00049552504234680209 0.0018987928082832893 0 0.00054736637615831693 0.0020780058820138018 0 0.00032103038233423825 0.0020348765293206794 0 0.00054736637615831693 0.0020780058820138018 0 0.00032103038233423825 0.0020348765293206794 0 0.00038065276572095652 0.0021984341121362924 0 0.00054736637615831693 0.0020780058820138018 0 0.00061859496767999818 0.0022156506429188358 0 0.00038065276572095652 0.0021984341121362924 0 0.00070843757905014433 0.0021256360292649028 0 0.00054736637615831693 0.0020780058820138018 0 0.00061859496767999818 0.0022156506429188358 0 0.0001540520313783779 0.0018929746187929283 0 0.00032103038233423825 0.0020348765293206794 0 5.857938921732466e-05 0.0020828251450647332 0 0.00032103038233423825 0.0020348765293206794 0 0.00038065276572095652 0.0021984341121362924 0 5.857938921732466e-05 0.0020828251450647332 0 9.22726772089799e-06 0.0018842583031627213 0 0.0001540520313783779 0.0018929746187929283 0 5.857938921732466e-05 0.0020828251450647332 0 0.00049552504234680209 0.0018987928082832893 0 0.0001540520313783779 0.0018929746187929283 0 0.00032103038233423825 0.0020348765293206794 0 0.00038065276572095652 0.0021984341121362924 0 0.0005177915415577229 0.0023459133992367212 0 0.00023497408450333084 0.0024177322839723857 0 0.00038065276572095652 0.0021984341121362924 0 0.00023497408450333084 0.0024177322839723857 0 5.857938921732466e-05 0.0020828251450647332 0 0.00061859496767999818 0.0022156506429188358 0 0.00038065276572095652 0.0021984341121362924 0 0.0005177915415577229 0.0023459133992367212 0 0.00071496468220821159 0.0023824675123620908 0 0.00061859496767999818 0.0022156506429188358 0 0.0005177915415577229 0.0023459133992367212 0 0.00071496468220821159 0.0023824675123620908 0 0.0005177915415577229 0.0023459133992367212 0 0.00059965983470112181 0.0025444201063662057 0 0.0005177915415577229 0.0023459133992367212 0 0.00023497408450333084 0.0024177322839723857 0 0.00059965983470112181 0.0025444201063662057 0 0.00023497408450333084 0.0024177322839723857 0 0.00033353586445604449 0.0025850608372720817 0 0.00059965983470112181 0.0025444201063662057 0 0.00033353586445604449 0.0025850608372720817 0 0.00059965983470112181 0.0025444201063662057 0 0.00056321352024260986 0.0027518979239097808 0 -0.0005034607681061818 0.0026974131163873235 0 -0.00019159827737177769 0.0027562721597949621 0 -0.00054812061960034025 0.0029615605972464184 0 -5.1956813147251669e-05 0.0026531484880961214 0 -0.00037198462351988959 0.0028649442033198097 0 0.00033353586445604449 0.0025850608372720817 0 8.1766034710767195e-05 0.0025658035664943447 0 0.00031933927494523463 0.0028063776797364174 0 0.00023497408450333084 0.0024177322839723857 0 0.00033353586445604449 0.0025850608372720817 0 8.1766034710767195e-05 0.0025658035664943447 0 0.00023497408450333084 0.0024177322839723857 0 -0.00019159827737177769 0.0027562721597949621 0 -0.00010581183695865942 0.0023420309824036859 0 0.00021671556444237717 0.0024254258782996892 0 -5.1956813147251669e-05 0.0026531484880961214 0 -0.00019159827737177769 0.0027562721597949621 0 -0.00040580301998795854 0.0024393764213646823 0 -0.00010581183695865942 0.0023420309824036859 0 -0.0005034607681061818 0.0026974131163873235 0 -0.00019159827737177769 0.0027562721597949621 0 -0.00040580301998795854 0.0024393764213646823 0 -0.00040580301998795854 0.0024393764213646823 0 -0.00010581183695865942 0.0023420309824036859 0 -0.00030812015970674365 0.00216498363791159 0 -0.00040580301998795854 0.0024393764213646823 0 -0.00030812015970674365 0.00216498363791159 0 -0.00064182941691330565 0.002263843747086994 0 -0.00010581183695865942 0.0023420309824036859 0 5.857938921732466e-05 0.0020828251450647332 0 -0.00030812015970674365 0.00216498363791159 0 0.00023497408450333084 0.0024177322839723857 0 -0.00010581183695865942 0.0023420309824036859 0 5.857938921732466e-05 0.0020828251450647332 0 -0.00019788351687790638 0.0019345889005620727 0 5.857938921732466e-05 0.0020828251450647332 0 -0.00030812015970674365 0.00216498363791159 0 -0.00019788351687790638 0.0019345889005620727 0 9.22726772089799e-06 0.0018842583031627213 0 5.857938921732466e-05 0.0020828251450647332 0 -0.00019788351687790638 0.0019345889005620727 0 -0.00030812015970674365 0.00216498363791159 0 -0.0005982557217557821 0.0019866201571864736 0 -0.00030812015970674365 0.00216498363791159 0 -0.0005982557217557821 0.0019866201571864736 0 -0.00064182941691330565 0.002263843747086994 0 -0.0005982557217557821 0.0019866201571864736 0 -0.00091646843308679986 0.0021006109142371423 0 -0.00064182941691330565 0.002263843747086994 0 -0.00064182941691330565 0.002263843747086994 0 -0.00098264003695030882 0.0023967091665242088 0 -0.00064739566748183157 0.0025321169160691611 0 -0.00091646843308679986 0.0021006109142371423 0 -0.00064182941691330565 0.002263843747086994 0 -0.00098264003695030882 0.0023967091665242088 0 -0.00040580301998795854 0.0024393764213646823 0 -0.00064182941691330565 0.002263843747086994 0 -0.00064739566748183157 0.0025321169160691611 0 -0.0014885515747642814 0.002377422545593505 0 -0.0013158538305514098 0.0023329193432304598 0 -0.0014123668307633728 0.0024984173727927756 0 -0.0014746407635022924 0.0021502442269954467 0 -0.0014885515747642814 0.002377422545593505 0 -0.0013158538305514098 0.0023329193432304598 0 -0.00091646843308679986 0.0021006109142371423 0 -0.0012423889108894488 0.0020578826732238708 0 -0.00098264003695030882 0.0023967091665242088 0 -0.0012423889108894488 0.0020578826732238708 0 -0.00098264003695030882 0.0023967091665242088 0 -0.0014123668307633728 0.0024984173727927756 0 -0.0012863665903837659 0.0022122252774909494 0 -0.0014003683414525543 0.0024706338458620495 0 -0.0014123668307633728 0.0024984173727927756 0 -0.0011692392791722123 0.0026471694991829424 0 -0.0014370012993698935 0.0028786674536126107 0 -0.00098264003695030882 0.0023967091665242088 0 -0.0011692392791722123 0.0026471694991829424 0 -0.00091679534463339624 0.0026466358500530293 0 -0.00098264003695030882 0.0023967091665242088 0 -0.0014123668307633728 0.0024984173727927756 0 -0.0011692392791722123 0.0026471694991829424 0 -0.0011692392791722123 0.0026471694991829424 0 -0.0010832924951991148 0.0028570969582888774 0 -0.00091679534463339624 0.0026466358500530293 0 -0.0011692392791722123 0.0026471694991829424 0 -0.0010832924951991148 0.0028570969582888774 0 -0.0014370012993698935 0.0028786674536126107 0 -0.0011098044250659018 0.0027815684753184316 0 -0.0014318049842340851 0.0028057570127616254 0 -0.0005034607681061818 0.0026974131163873235 0 -0.00040580301998795854 0.0024393764213646823 0 -0.00064739566748183157 0.0025321169160691611 0 -0.00098264003695030882 0.0023967091665242088 0 -0.00064739566748183157 0.0025321169160691611 0 -0.00091679534463339624 0.0026466358500530293 0 -0.00064739566748183157 0.0025321169160691611 0 -0.00091679534463339624 0.0026466358500530293 0 -0.00074310109752704083 0.002761915389881756 0 -0.0011098044250659018 0.0027815684753184316 0 -0.00077990804097152636 0.0027629235170509403 0 -0.0010832924951991148 0.0028570969582888774 0 -0.00091679534463339624 0.0026466358500530293 0 -0.00074310109752704083 0.002761915389881756 0 -0.0005034607681061818 0.0026974131163873235 0 -0.00064739566748183157 0.0025321169160691611 0 -0.00074310109752704083 0.002761915389881756 0 -0.0005034607681061818 0.0026974131163873235 0 -0.00074310109752704083 0.002761915389881756 0 -0.00054812061960034025 0.0029615605972464184 0 -0.00074310109752704083 0.002761915389881756 0 -0.00082935468905179265 0.0029478529207030888 0 -0.00054812061960034025 0.0029615605972464184 0 -0.0011413112278790324 0.0027033098839924379 0 -0.00074310109752704083 0.002761915389881756 0 -0.00082935468905179265 0.0029478529207030888 0 -0.0011413112278790324 0.0027033098839924379 0 -0.00082935468905179265 0.0029478529207030888 0 -0.0011114804698293946 0.0029577889593265273 0 -0.00082935468905179265 0.0029478529207030888 0 -0.001018257538497463 0.0030652141001174271 0 -0.00083771378363921853 0.0031266512376196074 0 -0.00082935468905179265 0.0029478529207030888 0 -0.001018257538497463 0.0030652141001174271 0 -0.0011114804698293946 0.0029577889593265273 0 -0.001018257538497463 0.0030652141001174271 0 -0.00083771378363921853 0.0031266512376196074 0 -0.0010511259150505635 0.0031869745769177327 0 -0.00082935468905179265 0.0029478529207030888 0 -0.00083771378363921853 0.0031266512376196074 0 -0.00054812061960034025 0.0029615605972464184 0 -0.00071249299473837046 0.0030974383393010323 0 -0.00037198462351988959 0.0028649442033198097 0 -0.00057592174565931117 0.0030396034026175319 0 -0.00033582542792677056 0.0030567203540042141 0 -0.00019891585370674321 0.0027737773445013886 0 -0.0011413112278790324 0.0027033098839924379 0 -0.0014370248173752327 0.002736395162803041 0 -0.0013351683070233675 0.0029070649428176681 0 -0.001478510248289636 0.0028767888255761555 0 -0.0014370248173752327 0.002736395162803041 0 -0.0013351683070233675 0.0029070649428176681 0 -0.0011413112278790324 0.0027033098839924379 0 -0.0013351683070233675 0.0029070649428176681 0 -0.0011114804698293946 0.0029577889593265273 0 -0.001018257538497463 0.0030652141001174271 0 -0.0011114804698293946 0.0029577889593265273 0 -0.0013156883732344542 0.0031067809665678678 0 -0.0013351683070233675 0.0029070649428176681 0 -0.0011114804698293946 0.0029577889593265273 0 -0.0013156883732344542 0.0031067809665678678 0 -0.001018257538497463 0.0030652141001174271 0 -0.0013156883732344542 0.0031067809665678678 0 -0.0010511259150505635 0.0031869745769177327 0 -0.001478510248289636 0.0028767888255761555 0 -0.0013351683070233675 0.0029070649428176681 0 -0.0014656422536565002 0.0029962786856271156 0 -0.0013351683070233675 0.0029070649428176681 0 -0.0014656422536565002 0.0029962786856271156 0 -0.0013156883732344542 0.0031067809665678678 0 -0.0014656422536565002 0.0029962786856271156 0 -0.0014294112260983503 0.0030537084752098346 0 -0.0013156883732344542 0.0031067809665678678 0 -0.0014918881845887113 0.0030285529418317826 0 -0.0014674675223299216 0.0030434771430078653 0 -0.0014294112260983503 0.0030537084752098346 0 -0.0014918881845887113 0.0030285529418317826 0 -0.0014656422536565002 0.0029962786856271156 0 -0.0014294112260983503 0.0030537084752098346 0 -0.0014294112260983503 0.0030537084752098346 0 -0.0014141595793589782 0.0030616041746281343 0 -0.0013156883732344542 0.0031067809665678678 0 -0.0014674675223299216 0.0030434771430078653 0 -0.0014294112260983503 0.0030537084752098346 0 -0.0014141595793589782 0.0030616041746281343 0 -0.0013156883732344542 0.0031067809665678678 0 -0.0010945762129405232 0.0034555267677036975 0 -0.0012085893100062951 0.0034929196569606011 0 -0.0013414645517529663 0.0030737952553782821 0 -0.0012878473347388735 0.0033967400849780416 0 -0.0014141595793589782 0.0030616041746281343 0 -0.0013156883732344542 0.0031067809665678678 0 -0.0014483095203616893 0.0030473947108226478 0 -0.0013156883732344542 0.0031067809665678678 0 -0.0010945762129405232 0.0034555267677036975 0 -0.0010511259150505635 0.0031869745769177327 0 -0.0010990540960744886 0.0039287369077132461 0 -0.0012085893100062951 0.0034929196569606011 0 -0.00095787205682978851 0.0036183933741176619 0 -0.0014447945579028653 0.0030465621138010754 0 -0.0014483095203616893 0.0030473947108226478 0 -0.0014526267685694093 0.0030429208828239838 0 -0.0013922399245019088 0.0027102858944572338 0 -0.0012878473347388735 0.0033967400849780416 0 -0.0010945762129405232 0.0034555267677036975 0 -0.0012085893100062951 0.0034929196569606011 0 -0.00095787205682978851 0.0036183933741176619 0 -0.0014676884114948488 0.0030435078006680427 0 -0.0014526267685694093 0.0030429208828239838 0 -0.001459701798747878 0.0030414161007039707 0 -0.0014447945579028653 0.0030465621138010754 0 -0.0014676884114948488 0.0030435078006680427 0 -0.0014526267685694093 0.0030429208828239838 0 -0.0014526267685694093 0.0030429208828239838 0 -0.001442198676498469 0.00304607082731397 0 -0.001459701798747878 0.0030414161007039707 0 -0.0014141595793589782 0.0030616041746281343 0 -0.0014483095203616893 0.0030473947108226478 0 -0.001442198676498469 0.00304607082731397 0 -0.0014483095203616893 0.0030473947108226478 0 -0.0014526267685694093 0.0030429208828239838 0 -0.001442198676498469 0.00304607082731397 0 -0.0014674675223299216 0.0030434771430078653 0 -0.0014141595793589782 0.0030616041746281343 0 -0.001459701798747878 0.0030414161007039707 0 -0.0014141595793589782 0.0030616041746281343 0 -0.001442198676498469 0.00304607082731397 0 -0.001459701798747878 0.0030414161007039707 0 -0.0014676884114948488 0.0030435078006680427 0 -0.0014958565723296605 0.0030398711325637547 0 -0.001459701798747878 0.0030414161007039707 0 -0.0014958565723296605 0.0030398711325637547 0 -0.001459701798747878 0.0030414161007039707 0 -0.0015094276479005523 0.0030310330973054075 0 -0.0014674675223299216 0.0030434771430078653 0 -0.001459701798747878 0.0030414161007039707 0 -0.0015094276479005523 0.0030310330973054075 0 -0.00033582542792677056 0.0030567203540042141 0 -0.00048656707917167283 0.0033312607506488317 0 -0.00022520106701975274 0.0035339384410467928 0 -0.00029360289466188268 0.003207216643850055 0 -0.00033413310200986959 0.0031560503143423738 0 -0.00033582542792677056 0.0030567203540042141 0 -0.00023622600202923013 0.0033964781653247141 0 -0.00014484461355934841 0.0031871789483010268 0 -0.00057592174565931117 0.0030396034026175319 0 -0.00033582542792677056 0.0030567203540042141 0 -0.00048656707917167283 0.0033312607506488317 0 -0.00071249299473837046 0.0030974383393010323 0 -0.0010739530753351694 0.0034404394202167221 0 -0.00057592174565931117 0.0030396034026175319 0 -0.00048656707917167283 0.0033312607506488317 0 -0.00072352628483674029 0.0033274713599447691 0 -0.00083771378363921853 0.0031266512376196074 0 -0.0010945762129405232 0.0034555267677036975 0 -0.0010511259150505635 0.0031869745769177327 0 -0.00057592174565931117 0.0030396034026175319 0 -0.0010945762129405232 0.0034555267677036975 0 -0.00072352628483674029 0.0033274713599447691 0 -0.0010945762129405232 0.0034555267677036975 0 -0.00072352628483674029 0.0033274713599447691 0 -0.00075423026417503281 0.0034826185547267297 0 -0.00048656707917167283 0.0033312607506488317 0 -0.00072352628483674029 0.0033274713599447691 0 -0.00075423026417503281 0.0034826185547267297 0 -0.00075423026417503281 0.0034826185547267297 0 -0.00095787205682978851 0.0036183933741176619 0 -0.00063771351151025379 0.0037273558436342769 0 -0.0013922399245019088 0.0027102858944572338 0 -0.00067876292977507471 0.0029719229722297369 0 -0.00048656707917167283 0.0033312607506488317 0 -0.00075423026417503281 0.0034826185547267297 0 -0.00063771351151025379 0.0037273558436342769 0 -0.0010990540960744886 0.0039287369077132461 0 -0.00095787205682978851 0.0036183933741176619 0 -0.00063771351151025379 0.0037273558436342769 0 -0.0010945762129405232 0.0034555267677036975 0 -0.00075423026417503281 0.0034826185547267297 0 -0.00095787205682978851 0.0036183933741176619 0 -0.00078938376813616161 0.0022362215183559029 0 -0.00059463483041709557 0.0021559135594809236 0 -0.00057044137666420372 0.0022574068720184297 0 -0.0007571588219057034 0.0023699144805717468 0 -0.00078938376813616161 0.0022362215183559029 0 -0.00057044137666420372 0.0022574068720184297 0 -0.00048656707917167283 0.0033312607506488317 0 -0.00063771351151025379 0.0037273558436342769 0 -0.00022520106701975274 0.0035339384410467928 0 -0.00067876292977507471 0.0029719229722297369 0 -0.00033413310200986959 0.0031560503143423738 0 -8.7827817816562719e-05 0.0033007994820929564 0 -7.1945127638283274e-05 0.0033600499496509893 0 2.6769726923662842e-05 0.0033140569903898302 0 -0.00033413310200986959 0.0031560503143423738 0 -0.00024680503607468762 0.0018859435512702854 0 -8.7827817816562719e-05 0.0033007994820929564 0 4.619618543314842e-05 0.0032500264310946379 0 2.6769726923662842e-05 0.0033140569903898302 0 -7.7063126978794562e-05 0.0014065859086847131 0 7.952680508555711e-05 0.0014037397094543546 0 8.5268236201899007e-05 0.0013071721483174862 0 -0.00024680503607468762 0.0018859435512702854 0 6.8147908415905524e-05 0.0023023679662502365 0 -0.00023622600202923013 0.0033964781653247141 0 -0.00014484461355934841 0.0031871789483010268 0 4.619618543314842e-05 0.0032500264310946379 0 -0.00033413310200986959 0.0031560503143423738 0 6.1819851576342739e-05 0.0032681472000922157 0 -2.1776805605382787e-05 0.0031344114671021991 0 -0.00014484461355934841 0.0031871789483010268 0 4.619618543314842e-05 0.0032500264310946379 0 -2.1776805605382787e-05 0.0031344114671021991 0 -0.00014484461355934841 0.0031871789483010268 0 -8.3850045373633119e-05 0.0030145399156880099 0 0.00021836193088515309 0.003277552580295183 0 0.00026916723977778617 0.0030333674260211102 0 8.8458497717619668e-05 0.0030818861585105925 0 0.00028152689036837884 0.0027124690663323267 0 0.00019071333976576762 0.0031923195127270061 0 -2.1776805605382787e-05 0.0031344114671021991 0 4.619618543314842e-05 0.0032500264310946379 0 8.8458497717619668e-05 0.0030818861585105925 0 4.619618543314842e-05 0.0032500264310946379 0 0.00017160249501374682 0.0032477095685259061 0 8.8458497717619668e-05 0.0030818861585105925 0 4.619618543314842e-05 0.0032500264310946379 0 0.00017160249501374682 0.0032477095685259061 0 2.6769726923662842e-05 0.0033140569903898302 0 0.00028152689036837884 0.0027124690663323267 0 6.8147908415905524e-05 0.0023023679662502365 0 0.00024633323783431556 0.0012122588288300971 0 8.5268236201899007e-05 0.0013071721483174862 0 0.00020080752778006244 0.0013786732955385901 0 7.952680508555711e-05 0.0014037397094543546 0 8.5268236201899007e-05 0.0013071721483174862 0 0.00020080752778006244 0.0013786732955385901 0 0.00011113121725988614 0.0015224646228102379 0 7.952680508555711e-05 0.0014037397094543546 0 0.00020080752778006244 0.0013786732955385901 0 0.00028152689036837884 0.0027124690663323267 0 0.0005790552380217826 0.0020910852646365916 0 0.00024633323783431556 0.0012122588288300971 0 0.00020080752778006244 0.0013786732955385901 0 0.00038308990051603509 0.0013940653904985982 0 0.00025066948056918489 0.0014737297578087619 0 0.00020080752778006244 0.0013786732955385901 0 0.00038308990051603509 0.0013940653904985982 0 0.00076184317756500947 0.0028739362357438104 0 0.00082082208982563003 0.002962360421341753 0 0.00085688578754093063 0.0028841403568213787 0 0.00095997297989036299 0.0029554987528533773 0 0.00082082208982563003 0.002962360421341753 0 0.00085688578754093063 0.0028841403568213787 0 0.00094910833748152877 0.0028327114502618698 0 0.00085688578754093063 0.0028841403568213787 0 0.00088324091011844652 0.0028135663033677025 0 0.00095997297989036299 0.0029554987528533773 0 0.00094910833748152877 0.0028327114502618698 0 0.00085688578754093063 0.0028841403568213787 0 0.00076184317756500947 0.0028739362357438104 0 0.00085688578754093063 0.0028841403568213787 0 0.00088324091011844652 0.0028135663033677025 0 0.00021836193088515309 0.003277552580295183 0 0.00026916723977778617 0.0030333674260211102 0 0.00054660046598240344 0.0030764866611050668 0 0.00028152689036837884 0.0027124690663323267 0 0.00073698534482110841 0.0029843933056878215 0 0.00026916723977778617 0.0030333674260211102 0 0.00054660046598240344 0.0030764866611050668 0 0.00031933927494523463 0.0028063776797364174 0 0.00092683227141372845 0.0027950066598438649 0 0.00054660046598240344 0.0030764866611050668 0 0.00056321352024260986 0.0027518979239097808 0 0.00090952015283090216 0.0027968375910908537 0 0.00073698534482110841 0.0029843933056878215 0 0.00092683227141372845 0.0027950066598438649 0 0.00059965983470112181 0.0025444201063662057 0 0.00056321352024260986 0.0027518979239097808 0 0.00033353586445604449 0.0025850608372720817 0 0.00056321352024260986 0.0027518979239097808 0 0.00031933927494523463 0.0028063776797364174 0 0.00054660046598240344 0.0030764866611050668 0 0.00056321352024260986 0.0027518979239097808 0 0.00031933927494523463 0.0028063776797364174 0 8.1766034710767195e-05 0.0025658035664943447 0 0.00031933927494523463 0.0028063776797364174 0 8.4652269705564009e-05 0.0028487683213943493 0 8.1766034710767195e-05 0.0025658035664943447 0 8.4652269705564009e-05 0.0028487683213943493 0 -0.00019891585370674321 0.0027737773445013886 0 8.4652269705564009e-05 0.0028487683213943493 0 -0.00019891585370674321 0.0027737773445013886 0 -8.3850045373633119e-05 0.0030145399156880099 0 -0.00033582542792677056 0.0030567203540042141 0 -0.00019891585370674321 0.0027737773445013886 0 -8.3850045373633119e-05 0.0030145399156880099 0 -0.00033582542792677056 0.0030567203540042141 0 -0.00014484461355934841 0.0031871789483010268 0 -8.3850045373633119e-05 0.0030145399156880099 0 -2.1776805605382787e-05 0.0031344114671021991 0 -8.3850045373633119e-05 0.0030145399156880099 0 8.8458497717619668e-05 0.0030818861585105925 0 8.4652269705564009e-05 0.0028487683213943493 0 -8.3850045373633119e-05 0.0030145399156880099 0 8.8458497717619668e-05 0.0030818861585105925 0 0.00026916723977778617 0.0030333674260211102 0 0.00031933927494523463 0.0028063776797364174 0 8.4652269705564009e-05 0.0028487683213943493 0 0.00026916723977778617 0.0030333674260211102 0 8.4652269705564009e-05 0.0028487683213943493 0 8.8458497717619668e-05 0.0030818861585105925 0 
</DataArray>
</PointData>
<CellData Scalars="region_id,cross_section_updated," Vectors="" Tensors="stress,">
<DataArray type="Float64" Name="region_id" format="ascii">
6 5 5 5 5 5 5 5 5 5 5 5 5 5 5 5 5 5 6 5 5 5 6 5 6 5 5 5 5 5 6 5 5 5 5 5 5 6 5 5 6 6 5 5 5 5 5 5 5 6 5 5 5 5 6 5 5 5 5 6 5 5 5 5 5 5 5 5 5 5 5 5 5 5 5 5 5 6 5 5 5 5 5 5 5 5 5 5 5 5 6 5 5 5 5 5 6 5 5 5 5 5 5 5 5 5 6 5 5 5 5 5 5 5 5 5 5 5 5 5 5 5 6 5 5 5 5 5 5 5 6 5 5 5 5 5 5 5 6 5 5 5 5 5 6 5 5 6 5 5 5 5 5 5 5 5 5 5 5 5 5 5 5 5 5 5 5 5 5 5 5 5 5 5 6 5 5 5 6 5 5 5 5 5 5 5 5 5 6 5 5 5 5 5 5 5 5 6 5 5 5 5 6 5 5 5 6 5 5 6 5 5 5 5 5 6 5 6 5 5 5 5 6 5 6 5 5 5 6 5 5 6 6 5 6 6 5 5 6 6 5 5 5 6 5 6 5 6 5 5 5 5 5 6 6 5 5 5 5 5 5 5 5 5 5 6 5 5 5 5 5 5 5 6 6 5 5 5 5 5 5 5 5 6 5 5 5 5 6 5 5 6 5 5 5 6 5 5 5 5 5 5 5 5 6 5 6 5 5 5 5 5 6 5 5 5 5 5 5 5 5 5 5 5 5 5 5 5 6 5 6 6 5 6 5 5 6 5 5 5 5 5 5 5 5 5 6 5 5 6 6 5 5 5 5 6 6 5 6 5 5 5 6 5 5 5 5 6 5 5 5 6 5 6 6 5 5 6 5 5 6 5 5 6 5 5 5 5 5 5 5 5 5 5 5 5 5 5 6 5 5 5 5 6 5 5 5 5 5 5 6 5 5 5 5 5 5 5 5 5 5 5 5 5 5 5 5 5 5 5 5 5 5 5 5 5 5 5 5 5 5 5 5 5 5 5 5 5 5 5 5 5 5 5 5 5 5 5 6 5 5 5 5 5 5 6 5 6 5 5 6 5 5 5 6 5 5 5 5 6 5 5 5 5 5 5 5 5 5 5 5 5 5 5 6 5 5 5 5 5 5 5 6 5 5 5 6 5 5 5 5 5 6 5 5 5 5 5 6 5 5 5 5 5 5 5 6 6 5 5 5 5 5 5 6 5 6 5 6 5 5 5 6 5 5 5 5 6 5 5 5 5 5 5 5 5 5 6 5 5 6 5 5 6 5 6 5 5 6 5 5 5 5 5 5 5 5 6 5 5 5 5 5 5 5 6 5 5 5 6 5 5 5 5 5 5 5 5 5 5 5 5 5 5 5 5 5 5 5 5 5 5 5 5 5 5 5 5 5 6 5 5 5 5 6 5 5 5 5 5 5 5 5 6 5 5 6 5 5 5 5 6 5 5 5 5 5 6 5 5 5 5 5 5 5 5 5 5 5 5 5 5 5 5 5 5 5 5 5 5 5 5 5 5 5 5 5 5 5 5 5 5 5 5 5 5 5 5 5 5 5 5 5 5 5 5 5 5 5 5 5 5 5 5 5 5 5 5 5 5 5 5 5 5 5 5 5 5 5 5 5 5 5 5 5 5 5 5 5 5 5 5 5 5 5 5 6 5 5 5 6 5 6 6 5 6 5 5 5 5 5 5 5 5 5 5 5 5 5 5 5 5 5 5 5 5 5 5 5 5 5 5 5 5 5 5 5 5 5 5 5 5 5 5 6 6 5 5 5 5 6 5 5 5 5 5 5 5 5 5 5 5 5 5 5 5 5 6 5 5 5 5 5 5 5 5 5 5 5 5 5 5 5 5 5 5 5 5 5 5 5 5 5 5 6 5 5 5 6 5 5 5 5 6 5 5 6 5 5 6 5 5 5 6 5 5 5 5 5 5 5 5 5 5 5 5 5 5 5 5 5 6 5 5 5 5 5 5 5 5 5 6 5 5 5 5 5 5 5 5 5 6 5 5 5 5 6 5 5 5 5 5 5 5 5 5 5 6 5 5 5 5 5 5 5 5 5 6 5 6 5 5 5 6 5 5 6 5 6 5 5 6 5 6 5 5 5 5 5 6 6 5 5 5 5 5 5 5 5 5 5 5 5 5 5 5 5 5 5 5 5 5 5 5 5 5 5 5 5 5 6 5 6 5 5 5 5 5 5 6 5 5 5 5 5 5 6 6 5 5 6 5 5 6 5 5 6 5 5 5 5 6 5 5 5 5 6 5 5 6 5 6 5 5 5 5 5 5 5 5 5 5 5 5 5 5 5 5 5 5 5 5 5 5 5 5 5 5 5 5 5 6 5 5 5 5 5 5 5 5 5 5 5 6 5 5 5 6 5 5 6 6 5 5 5 6 5 5 6 6 5 5 5 5 5 5 5 6 5 5 5 5 5 6 5 6 5 6 5 5 5 5 5 5 6 5 5 6 5 5 5 5 5 5 5 6 5 5 5 5 5 6 5 5 5 5 5 5 5 5 5 5 5 5 5 5 6 5 5 5 5 5 5 6 5 5 5 6 6 5 5 5 5 6 5 5 5 5 5 6 6 5 5 5 6 5 5 5 5 5 5 6 5 6 5 5 6 5 6 5 5 5 5 5 5 6 5 5 5 5 5 5 5 5 5 5 5 5 5 5 5 5 5 6 5 5 5 5 5 6 5 5 6 5 5 5 5 5 5 5 5 5 5 5 5 5 5 5 5 5 5 5 5 5 5 5 5 6 5 5 5 6 5 5 5 6 6 5 6 5 5 6 5 5 6 5 5 6 5 5 5 5 5 5 5 5 5 5 5 5 5 6 5 5 6 5 5 6 5 5 5 5 5 5 5 5 6 6 5 5 6 5 5 5 6 5 5 5 6 5 5 5 5 5 5 5 5 5 5 5 5 5 5 5 5 6 5 5 6 5 5 5 5 5 6 5 6 5 6 6 5 6 5 5 6 5 6 5 6 5 5 5 5 5 5 6 5 5 5 5 5 5 5 5 5 6 5 6 5 5 5 5 5 5 5 5 5 5 5 5 5 5 5 6 5 5 5 6 5 5 5 5 5 5 5 5 5 5 5 5 5 5 5 5 6 5 5 5 6 5 6 5 5 5 5 5 5 5 5 5 5 5 5 6 5 5 5 5 5 6 5 6 5 6 5 5 6 5 5 5 6 6 5 5 6 5 6 6 6 5 6 5 6 5 6 6 5 5 5 5 5 6 6 5 5 5 5 5 6 5 5 5 6 5 6 5 6 6 5 5 5 6 5 6 5 5 5 6 5 5 5 6 6 5 5 6 5 5 5 5 6 5 6 5 5 6 5 6 5 5 6 5 5 5 5 5 6 5 5 5 6 5 5 5 6 5 5 5 6 5 6 5 5 5 5 5 5 5 5 5 5 5 5 6 5 5 5 6 5 5 5 5 5 5 5 6 5 5 5 5 5 5 5 5 5 5 5 5 5 5 5 5 5 5 5 5 5 5 5 5 5 5 5 5 5 5 5 5 5 5 5 5 5 5 5 6 5 5 5 5 6 5 5 5 5 5 5 5 5 5 6 5 5 5 5 5 5 5 6 5 5 5 6 5 5 5 6 5 5 6 5 5 5 6 5 5 5 5 5 5 6 5 6 5 5 6 5 5 5 5 5 5 5 5 6 5 5 5 6 5 5 5 5 5 5 5 5 5 5 6 5 5 6 5 5 5 5 5 5 5 6 5 5 5 5 5 5 5 5 5 5 5 5 6 5 5 5 5 6 5 5 6 5 5 5 6 5 5 5 5 5 5 5 5 5 5 5 5 5 5 5 5 5 5 5 5 5 5 6 5 5 5 5 5 5 5 5 5 5 5 5 5 5 5 5 6 5 5 5 5 5 5 5 5 5 6 5 5 5 5 5 5 5 5 5 5 5 5 5 5 5 5 5 6 6 6 6 5 5 5 5 6 5 6 5 5 6 6 5 6 5 5 6 5 5 6 5 5 6 5 5 6 5 5 5 5 5 5 5 6 5 5 5 5 5 5 5 5 5 5 5 6 5 5 5 6 5 5 5 6 5 5 5 5 5 6 5 5 5 6 6 5 5 5 6 5 6 5 5 5 5 5 6 5 5 5 5 5 5 5 5 5 5 5 5 5 5 5 5 5 5 5 6 5 6 5 5 5 5 6 5 5 5 5 6 5 5 5 6 5 5 5 5 6 5 5 6 5 6 5 5 5 5 5 6 6 5 6 6 5 5 6 5 5 5 5 5 5 5 5 5 5 6 5 5 5 5 5 5 5 5 6 5 5 5 5 5 5 5 5 6 5 5 5 5 6 5 5 5 6 5 5 5 5 5 5 5 5 5 5 5 5 5 5 5 5 5 5 5 5 5 5 5 5 5 5 5 5 5 5 5 5 5 5 5 6 5 6 5 5 5 5 5 5 5 5 5 5 5 5 5 5 5 5 5 5 6 5 5 5 5 5 6 5 5 5 6 5 5 6 5 5 5 5 5 6 5 6 5 5 5 5 5 6 5 5 5 6 5 5 6 5 6 5 5 6 5 5 5 6 6 5 5 5 6 5 5 5 5 5 5 5 5 5 5 6 6 5 5 6 5 5 6 5 5 5 5 5 6 5 5 5 6 6 5 5 5 5 6 6 6 5 6 5 5 5 5 5 5 5 6 5 5 5 5 5 5 5 5 5 5 5 5 5 5 6 5 5 5 5 5 6 5 5 5 5 6 5 5 5 5 5 5 6 5 5 5 5 5 5 5 5 6 5 5 5 5 5 5 6 5 5 5 5 6 5 5 5 5 5 5 5 5 5 5 5 6 5 5 5 5 5 6 5 5 6 5 5 5 6 5 6 5 5 6 6 5 5 5 6 5 5 5 5 6 5 5 5 5 5 5 5 5 5 5 5 5 5 5 6 6 5 5 5 6 5 6 5 6 5 6 5 5 5 6 5 5 5 6 5 5 5 6 6 5 6 5 5 5 5 6 5 6 5 5 5 5 5 5 5 5 5 5 5 6 5 5 5 5 5 5 6 5 6 5 5 6 5 5 6 5 5 5 5 5 5 5 5 5 6 5 5 5 5 5 5 5 5 5 5 5 5 5 5 5 6 6 5 5 5 5 6 5 5 5 5 5 5 6 5 5 5 5 6 5 5 5 5 5 5 6 5 5 6 5 5 5 5 5 6 5 5 5 6 5 5 5 5 5 6 5 6 5 6 5 5 5 5 5 5 5 5 5 5 5 5 5 6 5 5 5 6 5 5 5 5 5 5 5 6 5 5 5 5 5 5 5 5 6 5 5 6 5 5 6 5 5 5 5 5 5 5 5 6 5 5 5 5 5 5 6 5 5 5 5 5 5 5 5 5 6 5 5 5 5 5 6 5 5 5 5 5 5 5 5 5 6 5 5 5 5 5 5 6 5 5 5 5 5 5 5 5 6 5 5 5 6 5 5 5 5 5 5 5 5 5 5 5 5 5 5 5 5 5 5 5 5 5 5 5 5 5 5 5 5 5 5 5 5 5 5 5 5 5 5 5 6 5 5 5 6 5 5 6 5 5 5 5 5 5 5 5 5 5 5 5 5 5 5 5 5 5 5 5 5 5 5 5 5 5 5 6 5 6 5 5 5 5 5 5 5 6 5 5 6 5 5 5 6 5 5 5 5 5 6 5 5 5 5 5 5 5 5 5 5 5 5 6 5 5 5 6 5 5 6 5 5 5 5 5 5 5 5 5 5 5 5 6 5 6 5 5 5 5 5 5 5 5 5 6 5 5 5 5 5 5 5 5 6 5 5 5 5 5 6 5 5 5 5 5 5 5 5 5 5 5 5 5 6 5 6 6 5 5 5 5 5 5 6 5 5 5 5 6 5 5 5 6 5 5 5 5 5 5 5 5 5 5 6 5 5 5 5 6 5 5 6 5 6 5 5 5 5 6 5 5 5 5 5 6 6 5 5 5 5 5 5 6 5 5 6 5 5 6 5 5 5 5 5 6 5 5 5 5 5 5 5 5 5 5 6 5 5 5 5 5 5 5 5 5 5 5 5 5 5 5 6 5 5 5 6 5 5 6 5 5 5 5 5 5 6 5 6 5 5 5 5 5 5 5 5 5 6 6 5 5 6 5 6 6 5 5 5 5 5 5 5 5 5 6 5 5 5 5 5 5 5 5 5 5 5 5 5 5 5 5 5 6 5 5 5 5 5 5 5 5 5 5 5 5 5 5 5 5 5 5 6 5 5 5 6 5 5 5 6 5 6 5 5 6 5 5 5 6 5 5 6 5 6 5 5 6 5 6 5 5 6 5 5 5 5 5 5 6 5 5 6 5 5 5 5 5 5 5 5 5 5 6 5 6 5 5 5 6 6 5 5 5 5 6 5 5 5 5 5 6 5 5 5 5 5 6 5 5 5 6 5 5 6 5 5 5 5 5 5 5 6 5 5 5 6 5 5 5 6 5 5 5 5 5 5 6 5 5 6 5 5 5 5 6 5 6 5 5 6 5 5 5 5 6 5 5 5 5 5 5 5 5 5 5 5 5 5 5 5 5 5 5 5 5 5 5 5 5 5 5 5 5 5 5 5 5 5 5 5 5 6 5 5 5 6 5 5 5 5 5 5 5 5 5 5 5 5 5 5 5 6 5 5 5 5 5 5 5 6 5 5 5 5 5 5 5 5 5 5 5 5 6 5 6 5 5 5 5 5 6 5 5 6 5 5 6 6 5 5 6 5 5 6 5 5 6 5 5 5 5 5 6 5 5 5 5 5 5 5 5 6 5 5 5 5 5 5 5 5 6 5 5 5 5 5 6 5 5 5 5 5 5 5 5 5 5 5 5 5 5 5 5 6 5 5 6 5 5 5 5 5 5 5 5 5 5 5 5 5 5 5 6 5 5 5 5 5 5 5 6 5 5 5 5 5 5 5 5 5 5 5 5 5 6 5 5 5 5 5 5 5 6 6 5 5 5 5 5 5 6 5 5 5 5 5 5 5 5 5 5 5 5 5 5 5 6 5 5 5 5 5 5 5 5 5 5 6 5 5 5 5 5 5 5 5 5 5 6 5 5 6 5 5 5 5 5 5 5 5 5 5 6 6 5 5 6 5 5 5 5 5 5 6 5 6 5 5 5 5 5 6 5 5 5 5 5 5 5 5 5 5 6 5 5 5 5 5 6 5 5 5 5 5 5 5 5 5 5 5 5 5 5 5 5 5 5 5 5 5 5 5 5 5 5 5 5 5 5 6 6 5 5 5 5 6 5 5 5 5 5 5 5 5 5 5 5 5 5 5 5 5 5 5 5 5 5 5 5 5 5 5 5 5 6 5 5 5 5 5 5 5 5 5 5 5 5 5 5 5 5 5 5 5 5 5 5 6 5 6 5 5 5 5 5 5 5 5 5 5 5 5 5 5 5 5 5 5 6 5 5 6 5 5 5 5 5 5 5 6 6 6 5 5 5 5 5 6 5 5 5 5 5 5 5 5 5 5 5 5 5 5 5 5 5 5 5 5 5 5 5 5 5 5 5 6 5 5 5 5 6 5 5 6 5 5 6 5 5 6 5 6 5 5 5 5 5 5 5 5 5 5 5 5 6 5 5 5 6 5 5 5 5 5 5 5 5 5 5 6 5 5 6 6 5 5 5 6 6 6 5 5 5 5 5 6 5 6 6 5 5 6 6 5 6 5 5 6 5 5 5 6 6 6 6 5 5 5 5 5 5 5 5 5 5 5 5 5 5 5 5 5 5 5 5 5 5 6 5 5 5 6 5 5 5 5 5 5 5 5 5 5 5 5 5 5 5 5 5 5 5 5 5 5 5 5 5 6 5 5 5 6 5 5 5 5 6 5 5 5 6 5 5 5 5 5 5 5 5 5 5 5 5 5 6 5 6 5 5 5 5 5 5 5 5 5 5 5 5 5 5 5 5 5 5 5 5 5 5 5 5 6 6 6 5 5 5 5 5 5 6 5 5 5 5 5 5 5 5 5 5 5 6 5 5 5 5 5 5 5 5 5 5 5 5 5 5 5 6 5 5 6 6 5 5 6 5 5 5 5 5 5 5 5 5 5 5 5 5 5 5 5 5 5 5 5 5 5 6 5 5 6 5 5 5 5 5 5 5 5 5 5 5 5 6 5 5 5 5 5 5 5 5 5 5 6 5 5 5 5 5 5 5 5 5 6 5 5 6 5 5 5 6 5 5 5 6 5 5 5 5 5 5 6 5 5 5 5 5 5 5 5 5 6 5 5 6 5 6 5 5 6 5 5 5 5 5 5 5 5 5 5 5 5 5 6 5 5 5 5 5 5 5 5 5 5 5 6 5 5 5 5 5 6 6 6 5 5 5 5 5 5 5 5 5 5 5 5 5 5 5 5 5 5 5 5 5 5 5 5 5 6 5 6 5 5 6 5 5 5 5 5 5 5 6 5 5 5 5 5 5 5 5 5 6 5 5 6 5 5 5 5 5 5 5 5 6 5 5 5 5 6 5 5 5 5 5 5 5 5 5 5 5 5 5 5 5 5 5 5 5 5 5 5 5 5 5 5 5 5 6 5 5 6 5 5 5 5 5 5 5 6 5 5 5 5 5 5 6 5 5 5 5 5 5 5 5 5 5 6 5 5 5 5 5 5 5 5 5 5 6 5 5 5 5 5 6 5 5 6 5 5 5 5 5 5 5 5 5 5 5 5 5 5 5 5 6 5 5 5 5 5 5 5 5 5 5 5 5 5 5 5 5 5 5 5 6 5 5 5 5 6 5 5 5 6 5 5 5 6 5 5 5 6 5 6 5 5 5 5 5 5 5 5 5 5 5 5 5 5 5 5 5 5 5 5 5 6 5 5 5 6 5 5 5 5 5 6 5 5 5 6 5 5 5 5 5 5 5 5 5 5 5 6 6 5 5 5 5 5 6 5 5 5 5 6 5 5 6 5 5 5 5 5 5 5 5 5 5 5 5 5 5 5 5 5 5 5 5 5 5 5 5 5 5 5 5 5 5 5 5 5 5 5 5 5 6 5 5 5 5 5 6 5 6 5 5 5 5 5 5 5 5 5 5 5 5 5 5 5 5 5 5 5 5 5 5 6 5 5 5 6 6 5 5 6 5 5 5 5 5 5 5 5 5 5 5 5 6 6 5 5 5 5 5 5 6 5 5 5 5 6 5 5 5 5 6 5 5 5 5 6 5 5 5 5 5 5 6 6 5 5 5 5 6 5 5 5 5 5 5 5 5 5 5 6 5 5 5 6 5 5 5 5 6 6 5 5 5 5 5 5 5 5 5 5 5 6 5 5 5 6 5 5 5 5 5 5 5 5 6 5 5 5 5 5 5 5 5 5 5 5 5 5 5 5 5 5 5 5 5 5 5 5 5 5 5 5 5 5 5 5 5 5 5 5 5 5 5 5 5 6 5 5 5 5 5 5 5 5 5 5 5 5 5 5 5 5 5 5 5 5 5 5 5 5 5 5 5 5 5 5 5 5 5 6 5 5 5 6 5 5 5 5 5 5 5 6 5 6 5 5 5 5 5 5 5 5 5 5 6 5 5 5 5 6 5 6 5 5 5 5 5 5 5 5 5 5 5 5 5 5 5 5 5 5 5 5 5 5 5 5 5 5 5 5 5 5 5 5 5 5 5 5 5 5 5 5 5 5 5 5 5 5 5 5 5 5 5 6 5 5 5 5 5 5 5 5 5 5 5 5 6 5 5 5 6 5 6 6 5 5 5 5 5 5 5 5 6 5 5 6 5 5 5 6 5 5 5 5 5 5 5 5 6 5 5 6 5 5 5 5 5 5 5 6 6 5 5 5 5 5 6 5 5 5 6 5 5 5 5 5 5 5 5 6 5 5 5 6 5 5 5 5 5 6 5 5 5 6 5 5 5 5 5 5 5 5 5 5 5 5 5 5 5 5 5 5 5 5 5 5 5 5 5 5 5 5 5 5 5 5 5 5 5 5 5 5 5 5 5 5 5 5 5 5 5 5 5 6 5 5 5 6 5 5 5 6 5 5 5 5 5 5 5 5 6 5 5 6 5 5 5 5 5 5 5 5 5 5 5 6 5 5 5 5 5 5 5 5 5 6 5 6 5 6 6 5 5 5 5 5 5 5 5 5 5 5 5 5 5 5 5 5 5 5 5 5 5 5 5 5 5 5 5 5 5 5 5 5 5 5 5 5 5 5 5 5 5 5 5 5 5 5 5 5 5 5 5 5 5 5 5 5 5 5 5 5 5 5 5 5 5 5 5 5 5 5 5 5 5 5 5 5 5 5 5 5 5 5 5 5 5 5 5 5 5 5 5 5 5 5 5 5 5 5 5 5 5 6 5 5 6 5 5 6 5 5 6 5 5 5 5 5 5 5 5 5 5 5 5 5 5 5 5 5 5 5 5 5 5 5 5 5 5 6 6 5 5 5 5 5 5 5 5 5 5 5 5 6 5 5 5 6 5 6 5 5 5 6 5 5 5 5 5 5 6 5 5 5 5 5 5 5 5 5 6 5 5 5 5 5 5 6 5 5 6 5 5 5 5 5 5 6 5 5 5 5 5 5 5 5 5 5 5 5 5 5 5 5 5 5 5 5 5 6 5 6 5 5 5 5 5 5 5 5 5 5 5 5 5 5 6 5 5 5 6 5 5 5 5 5 5 5 5 5 6 5 5 5 5 5 5 5 5 5 6 5 5 5 5 5 5 5 5 5 5 5 5 5 5 5 5 5 5 5 5 5 5 5 5 5 6 5 5 5 5 5 5 5 5 5 5 6 5 5 6 5 5 5 5 5 5 5 5 5 5 5 5 5 5 5 5 5 5 5 6 5 5 5 5 5 5 5 5 5 5 5 5 5 5 5 5 5 5 5 5 5 5 5 5 5 5 5 5 5 5 5 5 5 5 5 6 5 5 6 5 5 5 5 6 5 5 5 6 5 5 5 5 5 5 5 5 5 5 5 6 5 5 5 5 5 5 5 5 5 5 5 5 5 5 5 5 5 5 6 5 6 5 5 5 5 5 5 5 5 5 5 5 5 5 5 5 6 5 5 6 5 5 5 6 5 5 5 5 6 5 5 6 5 5 5 5 5 5 5 5 6 5 5 5 6 5 5 6 5 5 5 5 5 5 5 5 5 5 5 5 5 5 5 5 6 5 5 5 5 6 5 5 5 5 5 5 5 5 5 5 6 5 5 6 5 5 5 5 5 5 6 5 5 5 5 5 5 5 5 6 6 5 5 5 5 5 5 6 5 5 5 5 5 5 5 5 5 5 5 5 5 5 6 5 6 5 5 5 5 5 5 5 5 5 5 5 5 6 5 5 5 5 5 5 5 5 5 5 5 5 6 5 5 5 5 5 5 5 6 5 5 5 5 5 5 5 5 6 5 5 6 5 5 5 5 5 5 6 5 5 5 5 5 5 5 5 5 5 6 5 5 5 5 5 5 6 5 5 5 5 5 5 6 5 5 5 6 5 5 5 5 5 5 5 5 5 5 5 6 5 5 5 5 5 5 6 5 5 5 5 5 6 5 5 5 5 5 6 5 5 5 5 5 5 5 5 6 5 5 5 5 5 5 5 6 5 5 6 5 5 5 5 5 5 5 5 5 5 5 5 5 5 5 5 5 5 5 5 5 5 6 5 5 6 5 5 6 5 5 5 5 5 5 5 5 5 5 5 5 5 5 5 5 5 5 5 5 5 5 5 5 5 5 5 5 5 5 5 5 5 5 5 5 5 5 5 5 5 5 5 5 5 5 5 5 5 5 5 5 5 5 5 5 5 5 5 5 5 5 5 5 5 5 6 5 5 5 5 6 5 5 5 5 5 5 6 5 5 5 5 5 5 5 5 5 5 5 6 5 5 5 5 5 6 5 5 5 5 5 5 5 5 5 5 5 5 5 5 5 5 5 5 5 6 5 5 5 5 5 5 6 5 5 5 5 5 6 5 5 5 5 5 5 5 5 5 5 6 5 5 5 5 5 5 5 5 5 5 5 6 5 5 5 5 5 5 5 5 6 5 5 5 6 5 5 5 5 6 5 5 5 5 5 5 5 6 5 6 5 6 5 5 5 5 5 5 5 5 5 5 5 5 5 6 5 5 5 5 5 5 5 5 5 6 5 5 5 5 5 5 5 5 5 5 5 5 5 5 5 5 5 5 5 5 6 5 5 5 6 5 5 5 5 5 5 5 5 5 5 5 5 5 6 5 5 5 6 5 5 6 5 5 5 6 6 5 5 5 6 5 5 5 6 5 6 6 5 6 6 6 5 5 5 5 5 5 6 5 5 6 5 5 6 5 5 5 5 5 5 5 5 5 6 5 6 5 5 5 5 5 5 5 5 5 5 5 5 5 5 6 5 5 5 5 6 5 5 5 5 6 5 6 5 5 5 5 5 6 5 5 6 5 5 5 6 5 5 5 5 5 6 5 6 6 5 5 5 6 5 5 6 6 5 5 5 5 6 5 6 5 5 5 5 5 5 6 5 5 5 5 5 5 5 5 5 5 5 5 5 5 5 6 5 5 5 6 5 6 6 5 6 5 6 5 5 6 5 5 5 6 5 5 5 5 6 5 5 5 5 5 5 6 6 5 5 5 6 6 5 5 6 5 6 5 6 6 5 5 5 5 5 5 5 5 5 5 5 5 5 6 5 5 5 5 5 5 5 5 5 5 5 5 5 6 5 5 5 6 6 5 5 5 5 5 5 5 5 5 5 5 5 5 6 5 5 5 5 5 6 5 5 5 5 5 5 5 6 5 5 6 5 5 5 5 5 5 5 5 5 5 6 5 5 5 6 5 6 5 5 5 5 5 5 5 5 5 5 5 5 5 5 5 5 5 6 6 5 5 5 5 6 5 5 5 5 5 5 6 5 5 5 5 6 6 5 5 5 6 5 5 6 5 5 5 5 5 5 5 6 5 5 6 5 6 6 5 5 6 6 5 6 5 5 5 5 5 5 5 5 5 5 6 5 5 5 6 6 5 6 5 5 5 5 5 5 6 5 6 5 5 5 5 5 5 5 5 5 5 5 6 5 5 5 5 5 5 5 5 5 5 5 5 5 5 5 5 5 5 6 5 5 5 5 6 5 5 6 6 5 5 5 5 6 5 5 5 5 5 5 5 6 5 5 5 6 5 5 5 5 5 6 5 5 5 5 5 6 5 5 5 5 5 6 5 5 5 5 5 5 5 5 5 6 5 5 5 5 6 5 6 5 6 5 5 5 6 5 6 5 5 6 5 5 5 5 5 5 6 5 5 6 5 6 5 5 5 5 5 5 5 5 6 5 5 5 5 5 5 5 5 5 6 5 5 5 5 5 6 5 6 5 5 5 5 5 5 5 5 5 5 5 5 5 5 5 5 5 5 5 5 5 5 5 5 6 5 5 5 6 5 5 6 5 5 5 5 5 5 6 5 5 5 5 5 5 5 5 5 5 5 5 6 6 5 5 5 6 5 6 5 5 5 6 5 5 5 5 6 5 6 5 5 5 5 5 5 6 5 5 5 5 5 5 6 5 6 5 5 5 5 6 5 5 5 5 5 5 5 5 5 6 5 6 5 5 5 5 5 5 5 5 5 5 5 5 5 5 5 5 5 5 5 5 5 5 5 5 5 5 6 5 5 6 5 5 5 5 5 5 5 5 5 5 5 5 5 5 5 5 5 5 5 5 5 5 5 5 5 5 5 5 5 5 6 5 5 5 5 5 5 5 5 5 5 5 5 5 5 5 5 6 5 5 5 5 5 5 5 5 5 5 5 5 5 5 6 5 5 5 5 5 5 5 5 5 5 5 5 5 5 5 5 5 5 5 5 5 5 5 5 5 5 6 5 5 5 5 5 5 5 5 5 5 5 5 5 5 5 6 5 5 5 6 5 5 5 5 5 5 5 5 5 5 5 5 5 5 5 5 5 6 5 5 5 6 5 5 5 5 6 5 5 6 5 5 5 5 5 5 5 5 5 5 5 6 5 5 5 6 5 6 5 5 5 5 5 5 5 6 5 5 5 5 5 6 5 5 5 5 5 6 5 5 5 5 5 6 5 5 5 5 5 5 5 5 5 5 5 5 5 5 6 5 5 5 5 6 5 6 5 5 5 5 5 6 5 5 5 5 6 5 5 5 5 5 5 6 5 5 6 5 5 5 5 5 5 6 5 5 5 5 6 5 5 5 6 5 5 5 5 5 5 6 5 5 5 5 5 5 5 5 5 5 5 5 5 5 5 5 5 5 5 5 5 5 6 5 6 5 5 5 5 5 5 5 5 5 5 5 5 5 5 5 5 5 5 5 6 6 5 5 5 5 5 5 5 5 6 5 5 5 5 5 5 5 5 5 5 5 6 5 5 5 6 5 5 6 5 5 5 5 5 5 5 5 5 5 5 5 5 5 5 6 5 5 5 5 6 5 5 5 6 5 5 5 5 5 5 5 5 5 6 5 5 5 5 5 5 5 5 5 5 5 5 5 5 5 5 5 5 5 5 6 5 5 5 6 5 5 5 6 5 5 5 5 5 6 5 5 6 5 5 6 6 5 5 6 5 5 5 5 5 5 6 5 5 6 5 5 6 5 5 5 5 5 5 6 5 5 5 5 5 5 5 5 5 5 5 5 5 5 5 5 5 5 6 5 5 5 5 6 5 5 5 5 5 5 5 5 5 5 5 5 5 5 5 5 5 5 5 5 5 5 5 5 5 5 5 5 5 5 5 5 5 5 6 5 5 6 5 5 5 5 6 5 5 5 5 5 5 6 5 5 5 5 5 5 5 5 5 5 5 5 5 5 5 5 5 5 5 6 5 5 6 5 6 5 5 6 5 5 5 5 5 5 5 5 5 5 5 5 6 5 5 5 5 5 6 5 5 5 5 5 5 5 5 5 5 5 5 5 5 5 5 5 5 5 5 5 6 6 5 5 5 5 5 5 5 5 5 6 5 6 5 5 6 5 6 5 5 5 5 5 5 6 6 5 5 5 5 6 5 5 5 5 5 6 5 6 5 5 5 5 5 5 5 5 5 5 5 5 5 5 6 5 5 5 5 5 5 6 5 5 5 5 5 6 5 5 5 5 5 5 5 5 5 5 5 5 5 5 5 5 5 5 5 5 5 5 5 5 5 6 5 5 5 5 5 5 5 5 5 5 5 5 5 5 5 5 5 5 5 5 5 5 5 5 5 5 5 5 5 5 5 5 5 5 5 5 5 5 5 5 5 5 5 5 5 5 5 5 5 5 6 5 5 5 5 6 5 5 5 5 5 5 5 5 5 5 5 5 5 5 5 5 5 5 5 5 6 5 5 6 5 5 5 5 6 5 5 5 5 5 5 6 5 5 5 5 5 5 5 5 5 5 5 5 6 5 6 5 5 5 5 5 5 5 5 5 5 5 5 6 5 5 5 5 5 6 5 5 5 6 6 5 5 5 5 6 5 5 5 5 5 5 5 6 5 5 5 5 5 5 5 5 5 5 6 5 5 5 5 5 5 5 5 5 5 5 5 6 6 5 5 5 5 6 6 5 5 5 5 5 5 5 6 5 5 6 5 5 5 5 6 5 5 5 5 5 5 5 6 5 5 6 6 5 5 5 5 5 5 5 5 6 6 5 6 6 5 5 5 6 5 6 5 5 5 5 5 5 5 5 5 5 5 5 5 5 5 5 5 5 5 5 5 5 5 5 5 5 5 5 5 5 5 5 5 5 6 6 5 5 5 5 5 5 5 5 5 5 5 5 6 5 5 5 5 5 5 5 6 5 5 5 5 5 5 5 6 5 5 5 5 5 5 5 5 5 6 5 5 5 5 6 6 5 5 5 5 5 5 5 5 5 5 5 5 5 6 5 5 5 5 5 5 5 5 5 5 5 5 5 5 5 5 5 5 5 5 5 5 5 5 5 5 5 5 5 6 5 6 5 5 5 6 5 6 5 5 5 5 5 5 5 5 5 5 5 5 5 5 5 5 6 5 5 5 5 5 5 5 5 5 5 5 5 5 5 5 5 5 5 5 5 5 6 5 6 5 5 5 5 5 5 5 5 5 6 5 5 6 5 5 6 5 5 6 5 5 5 5 5 5 5 5 5 5 5 5 5 5 5 5 5 5 5 6 5 5 5 6 5 5 5 5 5 5 5 5 5 5 5 5 5 5 5 5 5 5 5 5 5 5 5 5 5 5 5 5 5 5 5 5 5 5 5 5 5 5 5 5 5 5 5 5 5 5 5 5 5 5 5 5 5 5 5 5 5 5 5 6 5 5 5 5 5 5 5 5 5 5 5 5 5 5 5 5 5 5 5 5 5 5 6 5 5 5 5 5 5 5 5 5 5 5 5 6 5 5 5 5 6 5 5 5 5 5 5 5 5 5 6 5 5 5 5 5 5 5 5 5 5 5 5 5 5 5 5 5 5 5 5 6 5 5 5 5 5 5 5 5 5 5 5 5 5 5 5 5 6 5 6 5 5 5 5 5 5 5 5 5 5 5 5 5 5 5 5 5 5 5 5 5 5 5 5 5 5 5 5 5 5 5 5 5 5 5 5 5 5 5 5 5 5 5 5 5 5 5 5 5 5 5 5 5 5 5 5 5 5 5 5 5 5 5 5 5 5 5 5 5 6 5 5 5 5 5 6 5 5 5 5 5 5 5 5 5 5 5 5 5 6 5 5 5 5 5 5 5 5 6 5 5 5 5 6 6 5 5 6 5 6 5 5 5 5 5 5 6 5 5 6 5 5 5 5 5 5 6 5 5 5 5 5 5 5 5 5 5 5 5 5 5 5 5 5 5 6 5 5 5 5 5 5 5 5 6 5 5 5 5 6 5 5 5 5 5 5 5 5 5 5 5 5 5 6 5 5 5 5 6 5 5 5 5 5 5 5 6 5 5 5 5 6 5 5 5 5 5 5 6 5 5 5 5 6 5 5 5 5 5 5 5 5 5 5 5 6 5 5 5 5 5 5 5 5 5 6 5 5 5 6 5 5 5 6 5 5 5 5 5 5 5 6 5 5 5 6 5 5 5 5 5 5 5 6 5 5 6 5 5 5 5 5 5 5 5 6 5 5 5 5 5 5 5 6 5 5 6 5 5 5 5 5 5 5 5 5 6 5 5 5 5 6 5 5 6 5 5 5 5 6 5 5 5 5 5 6 5 5 5 5 5 5 5 5 5 5 5 5 5 5 6 5 5 5 5 5 5 5 5 5 6 5 5 5 5 5 5 6 5 5 5 5 5 5 5 5 5 5 5 5 5 5 5 5 5 5 5 5 5 5 5 5 5 5 5 5 5 5 5 5 5 5 5 5 5 5 5 5 5 5 5 6 5 5 5 5 5 6 5 5 5 5 5 6 5 5 5 5 5 5 5 5 5 5 5 5 5 5 5 5 5 5 5 5 5 6 5 6 5 5 5 6 5 6 5 5 5 6 5 5 5 5 5 5 5 5 5 5 5 6 6 5 5 5 5 5 5 5 5 5 6 6 5 5 5 5 5 5 5 5 5 5 6 5 5 5 5 5 5 5 5 6 6 5 5 5 5 5 6 5 5 5 5 5 6 5 6 5 5 5 5 5 6 5 5 5 5 5 5 6 5 5 5 5 5 5 5 5 5 5 6 5 6 5 6 5 5 5 5 5 5 5 5 5 5 5 5 6 5 5 5 6 5 5 6 5 5 5 5 5 6 5 5 5 5 5 5 5 5 5 5 5 5 5 5 5 5 5 5 5 5 6 5 5 5 5 5 5 5 5 5 5 5 5 5 5 5 5 5 5 5 5 5 5 5 5 5 5 5 6 5 5 5 5 5 5 5 5 5 6 5 5 5 5 5 6 5 5 5 5 5 5 5 5 5 5 5 5 5 5 5 5 5 5 5 5 5 5 5 6 5 6 5 5 5 5 5 5 5 5 6 5 5 5 6 5 5 6 5 6 5 5 5 5 5 5 6 6 6 5 5 5 6 5 5 5 5 5 5 5 5 5 6 5 5 5 6 5 5 5 5 6 5 5 5 5 5 5 5 5 5 5 5 5 5 5 5 5 5 6 5 5 5 5 5 6 5 5 6 6 5 5 6 5 5 5 5 5 5 5 5 5 6 5 6 5 6 5 5 5 5 6 5 5 6 5 5 5 6 5 5 5 5 5 6 5 5 5 6 5 5 5 5 5 6 5 5 5 5 5 5 5 5 5 6 5 5 5 6 5 5 5 5 5 5 5 5 5 5 5 6 5 5 5 5 6 5 6 5 5 5 5 5 6 6 5 5 5 5 5 5 5 5 5 6 5 5 5 5 5 6 5 5 5 5 5 5 5 5 6 5 6 5 5 6 5 5 5 5 5 5 5 5 6 5 5 6 5 5 5 5 6 5 5 5 5 5 5 5 5 5 5 5 5 5 5 5 5 5 6 5 5 5 5 5 5 5 5 5 5 5 5 6 5 5 6 6 6 5 6 5 5 5 5 5 5 6 5 6 5 5 5 5 5 5 5 5 5 5 6 5 5 5 5 5 5 6 5 5 5 6 5 5 6 6 5 5 5 5 5 6 5 5 5 6 5 5 5 5 5 5 5 5 5 5 5 5 6 5 5 5 5 5 5 5 6 5 5 5 5 5 5 5 5 5 5 6 5 5 5 5 6 5 6 5 5 5 6 5 5 5 6 5 5 5 5 5 5 5 5 5 5 5 5 5 6 5 5 5 5 6 5 5 5 5 5 5 5 5 5 5 5 5 6 5 5 6 5 5 5 5 5 5 5 5 5 5 5 6 6 5 5 5 5 5 5 5 5 5 5 5 5 5 5 5 5 5 5 5 5 5 5 6 5 5 5 5 5 5 5 5 5 5 5 5 5 5 5 5 5 5 5 5 5 5 5 5 5 6 5 5 5 5 5 5 5 5 5 5 5 5 5 6 6 5 5 5 5 5 5 6 5 5 5 6 6 5 5 5 5 5 5 6 5 5 5 5 6 5 5 5 6 5 6 5 5 5 5 5 5 5 5 5 5 5 5 6 5 5 6 5 5 5 5 5 5 5 5 5 6 5 5 5 6 6 5 5 5 5 5 5 5 5 5 5 5 6 5 6 5 5 5 5 5 5 6 5 5 6 5 5 5 5 5 5 5 6 5 5 5 5 5 5 5 5 6 5 5 5 5 5 5 5 5 5 5 5 5 6 6 5 5 5 5 6 5 5 6 5 5 5 5 5 5 5 5 5 6 5 5 5 5 6 5 5 5 5 5 5 5 5 5 5 6 5 5 5 6 5 5 5 5 5 6 5 5 5 5 5 5 5 5 5 6 5 5 5 5 5 5 5 5 5 5 5 5 5 5 5 5 5 5 5 5 5 5 5 5 5 5 5 5 5 6 6 5 5 5 5 5 5 5 5 5 5 5 5 6 5 5 5 5 5 5 5 5 5 5 5 5 5 5 5 5 5 5 5 5 6 5 5 5 5 5 5 5 5 5 5 5 5 5 5 5 6 5 5 5 5 5 5 5 5 5 5 5 5 5 6 6 5 5 5 5 5 5 5 5 5 5 5 5 5 5 5 5 5 5 5 5 5 5 5 5 5 5 5 5 5 5 5 5 5 5 5 5 5 5 5 6 5 5 5 5 6 5 5 5 5 5 5 5 5 5 5 5 5 5 5 5 5 5 5 6 5 6 5 6 5 5 5 5 5 5 5 5 5 5 5 5 5 5 6 5 5 5 5 5 5 5 5 5 5 5 6 6 5 5 5 5 5 5 5 5 5 5 5 5 5 5 5 5 5 5 5 5 5 5 5 6 5 5 5 5 5 5 6 5 5 5 5 5 5 5 5 6 5 5 5 5 6 5 5 5 5 5 5 5 5 5 5 5 5 5 6 5 5 6 5 5 5 5 5 5 6 5 5 5 5 5 5 5 5 5 5 6 5 5 5 5 6 5 5 5 5 5 5 5 5 5 5 5 5 5 5 6 5 5 6 5 5 5 5 5 5 5 6 5 5 5 6 5 6 5 5 5 5 6 5 5 5 6 5 5 5 6 5 5 5 5 5 5 5 5 5 5 6 6 5 5 6 6 5 5 5 5 5 6 5 6 6 5 5 5 5 5 5 5 5 6 5 6 5 5 5 5 5 5 5 5 5 5 5 5 5 5 5 5 5 5 5 5 5 5 5 5 5 5 5 5 5 5 5 5 5 5 5 5 5 5 5 5 5 5 5 5 5 5 5 5 5 5 5 5 5 5 5 5 5 5 5 5 5 5 5 5 5 6 5 6 5 5 5 5 5 5 5 6 5 5 5 6 5 5 5 5 5 5 5 5 5 5 5 5 6 5 5 5 5 5 5 5 6 6 5 5 5 5 5 5 5 5 6 5 5 5 5 5 6 5 5 6 5 5 5 5 5 5 5 5 5 5 5 5 5 5 5 5 5 5 5 5 5 5 5 5 6 6 6 5 5 5 5 5 5 6 5 6 5 5 5 5 5 5 5 5 5 6 5 5 6 5 5 6 6 5 5 5 6 5 6 5 5 6 6 5 5 5 5 5 6 5 6 5 5 6 5 5 6 5 6 5 6 6 5 6 5 6 6 5 5 5 5 5 6 5 6 6 5 5 6 5 6 5 6 5 6 5 5 5 6 5 5 5 5 6 5 5 5 5 5 6 5 5 5 6 6 5 5 5 5 5 5 5 5 5 5 5 6 5 6 6 6 5 5 5 5 5 5 5 5 6 5 5 5 6 5 5 5 5 5 5 5 5 5 5 5 6 6 5 5 5 5 6 6 6 5 6 5 5 6 5 5 5 5 5 5 5 6 5 5 5 6 5 5 5 5 5 5 5 5 5 5 5 5 6 5 5 5 6 5 5 5 5 5 5 6 5 5 5 5 5 5 6 5 6 5 5 5 5 5 5 5 5 5 5 5 5 5 5 5 5 5 5 5 5 5 5 5 5 5 5 5 5 5 5 5 5 5 5 5 5 5 5 5 5 5 6 6 5 5 5 5 5 5 5 6 5 5 6 5 5 5 5 5 6 5 5 5 5 5 5 5 5 5 6 5 6 5 6 5 5 5 5 5 5 5 5 5 5 5 5 5 5 5 5 5 5 5 5 6 5 5 5 6 5 5 5 6 6 5 6 6 5 5 6 5 6 5 5 6 5 5 5 5 5 5 5 5 5 5 6 5 5 5 5 6 5 5 5 5 5 5 5 5 5 5 5 5 5 5 6 5 5 5 5 5 5 6 5 5 5 5 5 5 5 5 5 5 5 6 5 6 5 6 5 5 6 5 5 6 6 5 6 5 5 5 5 5 5 5 6 6 5 5 5 5 5 5 6 5 6 5 5 6 5 5 5 5 6 5 5 5 5 5 5 5 5 5 6 5 5 5 5 6 5 5 5 5 6 5 5 5 6 5 5 5 5 5 6 5 5 5 5 5 5 6 5 5 5 5 5 6 5 5 5 5 5 5 5 5 5 5 6 5 5 5 5 5 5 5 5 5 5 5 6 5 5 5 5 5 5 5 5 5 5 5 5 5 5 5 5 5 5 6 5 5 5 5 5 5 5 5 5 5 5 5 5 5 5 6 5 5 5 5 6 5 5 6 5 5 5 5 5 6 5 5 5 5 6 6 5 5 5 5 5 5 5 6 6 5 5 5 5 5 6 5 6 5 5 6 5 5 5 5 5 5 5 5 6 5 5 5 5 5 5 5 6 5 5 5 5 5 5 6 5 5 5 5 6 5 5 5 5 5 5 5 5 5 5 5 5 6 5 5 5 5 5 5 5 5 5 5 5 5 5 5 5 5 5 5 5 5 5 5 5 5 5 5 5 5 6 5 5 5 5 5 5 5 5 5 5 5 5 5 5 5 5 5 6 5 5 5 5 5 5 5 5 6 6 5 5 5 5 5 5 5 5 5 5 5 5 6 5 5 5 5 5 5 5 5 5 5 5 5 5 5 5 5 5 5 5 5 5 5 5 5 5 5 5 5 6 6 5 5 5 5 5 6 5 5 5 6 6 5 5 5 5 5 5 5 5 5 5 5 5 5 5 6 6 5 5 6 5 5 5 6 6 6 5 5 5 5 5 5 5 5 5 6 5 5 6 5 5 5 6 6 5 6 5 5 5 5 5 5 5 5 5 5 6 5 6 5 5 5 5 5 6 5 6 5 5 6 5 5 5 5 5 5 5 5 5 5 5 5 6 5 5 5 5 5 5 5 5 5 5 5 5 5 5 5 6 5 5 5 5 5 5 5 5 5 5 5 5 5 5 5 5 5 5 6 5 5 6 6 5 6 5 5 5 5 5 5 5 5 5 5 5 5 6 5 5 5 5 6 5 5 5 5 5 5 5 5 5 5 5 5 6 5 5 5 5 5 5 5 5 5 5 5 5 5 5 5 5 5 5 5 5 5 5 5 5 5 6 5 5 5 5 5 5 5 5 5 5 5 5 5 5 5 5 5 5 5 5 5 5 5 5 5 5 5 5 5 6 5 5 6 5 5 5 5 5 5 5 5 5 5 6 5 5 5 5 5 5 5 5 5 5 5 5 5 5 5 5 5 5 5 5 5 5 5 5 5 5 5 5 5 5 5 5 5 5 5 5 5 5 5 5 5 5 5 5 5 5 5 6 5 5 5 6 5 5 5 5 5 5 5 5 5 5 5 5 5 5 5 5 5 5 5 5 5 5 5 5 5 5 5 5 5 5 6 5 5 5 5 6 5 5 5 5 5 5 5 5 5 5 5 5 5 5 5 6 5 5 5 5 5 5 5 5 5 5 5 5 5 5 5 5 5 5 5 6 5 5 5 6 5 5 5 5 5 5 5 5 5 5 5 5 5 5 5 5 5 5 6 5 5 5 5 5 6 5 5 5 6 5 5 5 5 5 5 5 5 5 5 6 5 5 5 5 5 5 5 5 5 5 5 5 5 5 5 6 5 5 5 5 6 5 5 5 5 5 5 5 5 5 5 5 5 6 5 5 6 5 5 5 5 5 5 6 5 5 5 5 5 5 6 5 6 5 5 6 5 6 5 5 5 6 5 5 5 6 5 5 5 6 5 5 5 5 5 5 5 5 6 5 5 6 5 5 5 5 5 5 5 5 5 5 5 5 
</DataArray>
<DataArray type="Float64" Name="stress" NumberOfComponents="9" format="ascii">
-1.9759926533017449 0.37184489184267733 0 0.37184489184267733 -0.19150545061196178 0 0 0 0 -15.279428193582135 4.405384341829631 0 4.405384341829631 104.48149623955555 0 0 0 0 0.47514593362100288 471.41134660080786 0 471.41134660080786 -365.02800091303834 0 0 0 0 -117.3590828825254 91.913810270581962 0 91.913810270581962 -0.60777910783326661 0 0 0 0 -4.5899469029754982 14.463415385334201 0 14.463415385334201 54.700833610826521 0 0 0 0 -2.5332383731201844 2.9366718913593104 0 2.9366718913593104 79.088917101089464 0 0 0 0 -8.4983105262035679 26.685901499240572 0 26.685901499240572 58.453078421822283 0 0 0 0 -8.2260139588506718 17.089560032396548 0 17.089560032396548 58.082373187464327 0 0 0 0 -8.5997096657663405 28.586445257771572 0 28.586445257771572 49.313703943367727 0 0 0 0 -11.186796722577128 17.81251276356852 0 17.81251276356852 88.835075033039175 0 0 0 0 -0.0086284068011082127 27.145202159784276 0 27.145202159784276 34.414427522914593 0 0 0 0 -9.1029127530263736 21.537087151174603 0 21.537087151174603 34.742799302839558 0 0 0 0 -9.8236654534666741 5.8201731743483833 0 5.8201731743483833 -5.6151742947058665 0 0 0 0 -7.9169829496750026 20.720270496836747 0 20.720270496836747 48.22148145104984 0 0 0 0 -1.952247796307347 30.757467396297216 0 30.757467396297216 38.04472044256363 0 0 0 0 -1.8948994848906295 15.35376035171339 0 15.35376035171339 -19.523134234098507 0 0 0 0 -6.9074512390288874 -3.4637527090017102 0 -3.4637527090017102 -12.521762510296867 0 0 0 0 8.9731006881120265 13.977863503472236 0 13.977863503472236 -32.720830573292915 0 0 0 0 0.31329660559204342 -0.27038820444271749 0 -0.27038820444271749 -0.30221941102742811 0 0 0 0 2.3134186936874812 18.821070550039053 0 18.821070550039053 -15.032985466339596 0 0 0 0 0.57349557277893837 19.443028107868258 0 19.443028107868258 20.100449819854475 0 0 0 0 -17.083432495761372 19.899738076592257 0 19.899738076592257 0.43679845115457283 0 0 0 0 0.35399987202960403 0.14629058700380781 0 0.14629058700380781 0.054474774841793305 0 0 0 0 -3.2296761063371378 6.8737063029575438 0 6.8737063029575438 -14.419273975038323 0 0 0 0 0.2644472510382414 -0.22238576104361485 0 -0.22238576104361485 -0.22110619891620331 0 0 0 0 -3.2858875475521927 22.291641134892416 0 22.291641134892416 28.879403547982292 0 0 0 0 -4.6276644150930224 22.957335393275571 0 22.957335393275571 34.776741483947319 0 0 0 0 -5.4445314162148861 23.228694919580448 0 23.228694919580448 44.986611834464384 0 0 0 0 -5.5238396383429063 14.822158714061516 0 14.822158714061516 42.277568645478368 0 0 0 0 -0.37718907873022545 11.901274402866875 0 11.901274402866875 27.240098864553147 0 0 0 0 -7.7508025644284189 0.56495126772136661 0 0.56495126772136661 3.085974707591884 0 0 0 0 -4.4098953962147789 18.024166696764382 0 18.024166696764382 42.796079985651886 0 0 0 0 -1.9400435725365242 22.58577786648857 0 22.58577786648857 43.711533987952862 0 0 0 0 -4.1215673460792459 16.099307237394896 0 16.099307237394896 52.06524592936421 0 0 0 0 -8.6485260032459337 21.647025702914107 0 21.647025702914107 47.618648518654481 0 0 0 0 -7.1118262144555047 22.293759208070696 0 22.293759208070696 47.864861970905622 0 0 0 0 -3.0955565013682644 3.2133894306662114 0 3.2133894306662114 0.0050639990622585174 0 0 0 0 -5.9740992628317713 1.4545718534761214 0 1.4545718534761214 0.88794418568744149 0 0 0 0 -104.70118464399638 76.723114323820482 0 76.723114323820482 -54.209591951077073 0 0 0 0 -6.7719622642616741 15.657241657075247 0 15.657241657075247 54.172294997459176 0 0 0 0 -0.85454138780212929 -0.033313459606754137 0 -0.033313459606754137 1.3643714839742067 0 0 0 0 -1.6800712064710979 3.8428290759020882 0 3.8428290759020882 0.64767113501282747 0 0 0 0 -0.56489746460101742 10.879457460155209 0 10.879457460155209 9.8092449323511346 0 0 0 0 -3.8637896297695988 3.2227627723023033 0 3.2227627723023033 0.24534880407009041 0 0 0 0 -6.8109604878191021 2.8156720768056402 0 2.8156720768056402 0.0097204374214925338 0 0 0 0 -9.2355653114245797 2.9497685999740497 0 2.9497685999740497 0.003111968756911665 0 0 0 0 -3.496650126626264 3.3041252179773437 0 3.3041252179773437 -0.27894809340614302 0 0 0 0 0.60586203441562247 5.5996992087902981 0 5.5996992087902981 -6.4810607328599872 0 0 0 0 -3.2887949959604157 -0.039056619828443218 0 -0.039056619828443218 5.0424906887692487 0 0 0 0 -5.3101467767508836 2.8609003371603166 0 2.8609003371603166 0.41004066851500554 0 0 0 0 -4.127616153935378 9.6357226704840286 0 9.6357226704840286 0.17597812934218382 0 0 0 0 -9.572968621230757 6.9008326625971677 0 6.9008326625971677 7.8988925882022158 0 0 0 0 1.8198775434284471 8.1450829755058294 0 8.1450829755058294 6.5619871762692128 0 0 0 0 -6.6443483005223243 5.4597363068633058 0 5.4597363068633058 15.777858442270372 0 0 0 0 -7.5075243192011598 0.93680927076376452 0 0.93680927076376452 2.1033447691089435 0 0 0 0 -3.3175763690578606 14.582206618608325 0 14.582206618608325 17.23588573970369 0 0 0 0 -12.686309344120673 4.7833509763968323 0 4.7833509763968323 0.12897615801011852 0 0 0 0 -12.200399703565267 -0.31331830563306085 0 -0.31331830563306085 -0.972282960310622 0 0 0 0 -5.985467387992685 4.8673650413420546 0 4.8673650413420546 -9.8579951376841564 0 0 0 0 -9.1520839410768744 2.5006099651165634 0 2.5006099651165634 0.3302635324779617 0 0 0 0 -7.307190633925984 0.79554794199498247 0 0.79554794199498247 -1.3379102360813704 0 0 0 0 -9.4276293568582332 6.0947576454909722 0 6.0947576454909722 8.3687167225334633 0 0 0 0 -4.6865923436525918 6.4172586149088602 0 6.4172586149088602 7.8733967485377434 0 0 0 0 -7.7470347411413059 1.7429475954647842 0 1.7429475954647842 1.7957726193562848 0 0 0 0 -9.3907374667323893 5.8840972280268034 0 5.8840972280268034 7.2701840855097544 0 0 0 0 -10.426969769618154 1.397504505881443 0 1.397504505881443 6.667641490475944 0 0 0 0 -12.127838998925654 5.11440996944566 0 5.11440996944566 0.98993780593264091 0 0 0 0 -9.5496414335866575 4.1314980399515662 0 4.1314980399515662 11.744289577465679 0 0 0 0 -10.154240223258967 4.8601073828085646 0 4.8601073828085646 14.791575617466151 0 0 0 0 -9.5454691375034599 5.5227085301676198 0 5.5227085301676198 8.3687144385839929 0 0 0 0 -13.04282065379266 2.7751499317128037 0 2.7751499317128037 12.028402929932781 0 0 0 0 -8.2123510380006337 3.1635362857105065 0 3.1635362857105065 12.086246917522658 0 0 0 0 -5.593713191590723 7.6596281040528993 0 7.6596281040528993 11.057622866461315 0 0 0 0 -7.1854112587025156 5.9805804065181292 0 5.9805804065181292 12.701254287582742 0 0 0 0 -6.7405206057082978 7.5041555129209883 0 7.5041555129209883 16.07867201121735 0 0 0 0 -4.2412249739427352 7.8431352627458182 0 7.8431352627458182 15.400393351650564 0 0 0 0 -4.9945984790683724 3.8902977165671473 0 3.8902977165671473 14.670725932133792 0 0 0 0 -7.6800372049521286 1.3202426052164027 0 1.3202426052164027 2.2812391430237042 0 0 0 0 -7.2899480325650075 9.7878801612469033 0 9.7878801612469033 19.016888649108296 0 0 0 0 -4.483401318128017 12.393379669753358 0 12.393379669753358 17.828995203350132 0 0 0 0 32.518767185574688 27.975623770780658 0 27.975623770780658 35.800221499754116 0 0 0 0 -3.2418423917652035 10.418678959017029 0 10.418678959017029 19.566836639280154 0 0 0 0 1.3097718493663706 7.8179798557175673 0 7.8179798557175673 13.791903968092811 0 0 0 0 0.21825952549261274 5.2122005639503186 0 5.2122005639503186 16.913695801948052 0 0 0 0 -0.35440211569948588 8.727857573529036 0 8.727857573529036 13.318876961118804 0 0 0 0 -6.347534502747294 6.9681397141393973 0 6.9681397141393973 13.399267037445497 0 0 0 0 -7.0450288349384209 3.9012679379593465 0 3.9012679379593465 8.8342079746398667 0 0 0 0 -8.0759043439365996 7.3450384750240119 0 7.3450384750240119 13.427715933805302 0 0 0 0 -3.7682884974001354 9.4886082491630077 0 9.4886082491630077 12.498930369005393 0 0 0 0 21.140692461369326 35.497067397017418 0 35.497067397017418 33.018787933565818 0 0 0 0 -1.1521882555987588 -0.19310231801654254 0 -0.19310231801654254 -0.019164139487777732 0 0 0 0 7.1436681802570092 18.8176460092036 0 18.8176460092036 20.841506629556534 0 0 0 0 -4.7348593440838158 6.2014783762188017 0 6.2014783762188017 10.734736884677204 0 0 0 0 2.0277006692558643 12.287320659081161 0 12.287320659081161 12.740818824575399 0 0 0 0 -3.8581324984897947 5.59096217459728 0 5.59096217459728 16.798768291519082 0 0 0 0 -2.8282167916040635 9.2685270737565588 0 9.2685270737565588 25.184963106432406 0 0 0 0 -3.3327785271322554 1.4569648197095137 0 1.4569648197095137 0.7403024186544549 0 0 0 0 -6.829504928256938 6.5863248262903653 0 6.5863248262903653 13.673859034457564 0 0 0 0 -6.1558667676536061 3.9801408932071354 0 3.9801408932071354 12.632096452296537 0 0 0 0 -7.2587403267443733 5.6350895356331421 0 5.6350895356331421 13.067914344988822 0 0 0 0 -7.1375414719877881 9.1540377336687015 0 9.1540377336687015 58.893176011587911 0 0 0 0 -7.1552762612845981 15.322503399637753 0 15.322503399637753 107.99110845727864 0 0 0 0 9.1970109763487926 27.876179995134862 0 27.876179995134862 62.508348040333658 0 0 0 0 9.3837106994087662 31.434470875367879 0 31.434470875367879 45.164958096072951 0 0 0 0 3.174872784416948 55.19270504232918 0 55.19270504232918 68.76141365413423 0 0 0 0 -5.4089649863926752 4.6928106736058908 0 4.6928106736058908 16.28460830552649 0 0 0 0 0.28616042617825599 -0.071928412475504189 0 -0.071928412475504189 -0.056827142478185877 0 0 0 0 13.076790911647549 55.968994546527938 0 55.968994546527938 -9.9460612240472983 0 0 0 0 15.818016892710148 41.0839511681761 0 41.0839511681761 -60.552546081125911 0 0 0 0 -17.084725823944609 9.2741389715620244 0 9.2741389715620244 -15.069112599874643 0 0 0 0 -21.24780940407436 17.7110810247068 0 17.7110810247068 12.677284630077338 0 0 0 0 -21.822057689816575 17.939740447087843 0 17.939740447087843 14.519765189221289 0 0 0 0 -8.5994761440051661 30.611509551503332 0 30.611509551503332 4.8997596711578808 0 0 0 0 16.661547379118929 22.863758720016449 0 22.863758720016449 6.9606302195934404 0 0 0 0 -2.1752287604513185 18.425674555803198 0 18.425674555803198 9.9701481260344735 0 0 0 0 -3.3926860277279047 30.884912260871715 0 30.884912260871715 22.340277979070379 0 0 0 0 -26.749720996930819 0.10282258417180401 0 0.10282258417180401 -3.8252573622939963 0 0 0 0 -26.611065273787972 15.22857819494493 0 15.22857819494493 25.771033333022615 0 0 0 0 -17.11001312607641 13.057003811758932 0 13.057003811758932 0.56316016136952385 0 0 0 0 -15.223703010218742 20.179683469650627 0 20.179683469650627 14.216255819406797 0 0 0 0 -4.4960368289957842 1.5598983465915808 0 1.5598983465915808 2.4122395963140661 0 0 0 0 -2.1798108982948179 2.2178200704856863 0 2.2178200704856863 0.80460169093203149 0 0 0 0 -1.8838509496395517 2.0525014398018691 0 2.0525014398018691 1.7759422686801116 0 0 0 0 -3.3093285341892624 1.1822707526880549 0 1.1822707526880549 0.38591294664092857 0 0 0 0 19.473215457321203 32.620404060050532 0 32.620404060050532 32.116749810582405 0 0 0 0 53.240843409408626 41.630759669061831 0 41.630759669061831 3.6477099474741408 0 0 0 0 84.554169608938537 21.655574906375477 0 21.655574906375477 11.44770985068044 0 0 0 0 -34.29042116427263 45.31407001651678 0 45.31407001651678 34.451509444675139 0 0 0 0 151.57222619797903 73.397876255542997 0 73.397876255542997 -25.820627148856147 0 0 0 0 -4.7347894405138504 1.3410313744661835 0 1.3410313744661835 0.7593709202901664 0 0 0 0 -0.26943023526252574 2.1703110322932915 0 2.1703110322932915 0.21398734045771306 0 0 0 0 -3.5333974843597389 1.6047585870383045 0 1.6047585870383045 0.33426763203169685 0 0 0 0 -4.0730236922463519 0.92718895842699567 0 0.92718895842699567 0.71592515307929716 0 0 0 0 -3.9831054666647105 1.0132799668161852 0 1.0132799668161852 -0.36437797203325317 0 0 0 0 -3.812128877860232 1.8630880876999072 0 1.8630880876999072 -0.056411219055007678 0 0 0 0 167.31971509938739 -20.720205464514947 0 -20.720205464514947 -38.470105019303446 0 0 0 0 52.925353633290797 96.912339878687817 0 96.912339878687817 3.4866094423305185 0 0 0 0 -25.952462549604206 64.898903857099185 0 64.898903857099185 22.645650998405472 0 0 0 0 -0.48735212562605668 0.40431170084331569 0 0.40431170084331569 -1.3161584322379838 0 0 0 0 42.483643213294272 -10.022459301686467 0 -10.022459301686467 23.951344634946508 0 0 0 0 45.814270169939846 31.602818836950973 0 31.602818836950973 27.194738940230309 0 0 0 0 62.565962318027232 13.431915231424682 0 13.431915231424682 1.1972136759686691 0 0 0 0 85.904242635515402 -28.629654102383938 0 -28.629654102383938 -8.5149140672219801 0 0 0 0 163.05116251704749 33.055601393853067 0 33.055601393853067 6.1973679046750476 0 0 0 0 -0.61037699680262492 -0.30893159222738831 0 -0.30893159222738831 0.58589756607883459 0 0 0 0 -291.50411438306764 111.07314196053812 0 111.07314196053812 -11.414126303723606 0 0 0 0 248.62380419221881 61.152681043079156 0 61.152681043079156 -47.808960258764273 0 0 0 0 -0.090435555862473649 1.5527348236151859 0 1.5527348236151859 -0.44211724529910867 0 0 0 0 135.72578347618492 126.95186197762769 0 126.95186197762769 24.640927374253806 0 0 0 0 14.993326480340329 135.41324474096837 0 135.41324474096837 57.250902136496734 0 0 0 0 67.481514155944751 53.855204493353085 0 53.855204493353085 30.63941353464179 0 0 0 0 -10.326089684489489 24.403837367981396 0 24.403837367981396 -4.7561299905773922 0 0 0 0 -13.932317762471939 24.086053071905098 0 24.086053071905098 0.7325348440263042 0 0 0 0 -9.874283651868609 16.623491646132607 0 16.623491646132607 -33.179302340936829 0 0 0 0 -28.615216526573931 45.277601414281889 0 45.277601414281889 -21.74479835297916 0 0 0 0 -29.964834627389791 52.348283740193438 0 52.348283740193438 -6.5258864507632097 0 0 0 0 -55.637792552326573 72.664042069687639 0 72.664042069687639 -21.117417513800319 0 0 0 0 -45.956637664654409 47.034089278929969 0 47.034089278929969 22.086000531146055 0 0 0 0 -8.0231063653809542 29.287318752788451 0 29.287318752788451 -1.1797425276472495 0 0 0 0 -12.398454822659914 24.744665282004462 0 24.744665282004462 3.5222965985012706 0 0 0 0 -2.8314596438322042 18.942375313477896 0 18.942375313477896 -17.275143121927613 0 0 0 0 -2.3747780266403424 15.388055818139946 0 15.388055818139946 9.6089814959959767 0 0 0 0 -8.7945529358303247 28.998635823307723 0 28.998635823307723 8.7966817587912374 0 0 0 0 -2.9286101481702644 34.072187281832157 0 34.072187281832157 6.5287958484004776 0 0 0 0 -9.8659788078794008 26.004948550430299 0 26.004948550430299 -0.68024432813399471 0 0 0 0 -6.6965720570560734 31.568880845222338 0 31.568880845222338 -3.9727211232184345 0 0 0 0 1.309039475489044 34.085456015229283 0 34.085456015229283 -19.515126305592275 0 0 0 0 -0.0066842217420344241 35.786360726006478 0 35.786360726006478 -5.4759448359118323 0 0 0 0 -6.3040114465584338 15.16298503370399 0 15.16298503370399 -29.566458336490541 0 0 0 0 2.0415318681316421 17.262539326811748 0 17.262539326811748 12.784396539010231 0 0 0 0 -7.1232091783685973 32.985920520624859 0 32.985920520624859 26.568530354405084 0 0 0 0 -6.3039703674621705 14.104946200319318 0 14.104946200319318 39.837245691173848 0 0 0 0 2.3543153758419066 8.128678239846522 0 8.128678239846522 31.42456144190146 0 0 0 0 0.021529256535359309 34.377618614497351 0 34.377618614497351 41.700001434153819 0 0 0 0 0.24382376254243354 -0.19820759332390026 0 -0.19820759332390026 -0.088994953722970394 0 0 0 0 -0.012880131512358315 34.671822025071037 0 34.671822025071037 -24.318017357863937 0 0 0 0 -8.9885106624042237 2.7022439817474151 0 2.7022439817474151 98.64268436844759 0 0 0 0 0.076816127566416981 12.648676815160343 0 12.648676815160343 26.67071844734528 0 0 0 0 0.28238311612438594 0.069479726634892103 0 0.069479726634892103 0.02543339801775879 0 0 0 0 -7.9439430384554726 7.8400564365347236 0 7.8400564365347236 38.52418383498798 0 0 0 0 -5.7053555771681204 7.0723809220048679 0 7.0723809220048679 18.337271879425316 0 0 0 0 -10.80821148031464 16.198757202887464 0 16.198757202887464 2.2332122801353762 0 0 0 0 -13.652722750361136 20.658926011165022 0 20.658926011165022 5.6275316640749224 0 0 0 0 -7.9419038212181476 19.329105873799563 0 19.329105873799563 21.183815108713134 0 0 0 0 -11.297024325829625 25.824633980576436 0 25.824633980576436 16.164600535345016 0 0 0 0 -9.6279688728236579 20.850111991698213 0 20.850111991698213 29.959914611023123 0 0 0 0 9.5192219088216916 15.773592583288234 0 15.773592583288234 -9.5698143351928593 0 0 0 0 8.5084763167978963 11.007391468860988 0 11.007391468860988 -9.2214022718708293 0 0 0 0 2.2668417215412831 3.9200678083175333 0 3.9200678083175333 -6.4152923329900773 0 0 0 0 10.126487928660936 11.846557287513861 0 11.846557287513861 -6.4840889923602845 0 0 0 0 16.974675315502282 8.3524715904288769 0 8.3524715904288769 -6.0251013591187075 0 0 0 0 -6.3247773403666088 9.1902765732563694 0 9.1902765732563694 -17.315518943461939 0 0 0 0 12.769932441164201 15.014118531685654 0 15.014118531685654 -6.2228459722391563 0 0 0 0 5.9529375375113887 13.386182089471731 0 13.386182089471731 -2.7010586343540126 0 0 0 0 26.030361691624535 15.062854976422955 0 15.062854976422955 -4.0914703891048703 0 0 0 0 15.595080538775164 6.9853670323198003 0 6.9853670323198003 1.6714867560003768 0 0 0 0 21.175589228409535 12.911273914129197 0 12.911273914129197 -0.0025411841797904344 0 0 0 0 0.46851978098349889 0.2912368022443772 0 0.2912368022443772 -0.38053951686284293 0 0 0 0 21.966858214566628 26.900806972704459 0 26.900806972704459 22.812081269177725 0 0 0 0 12.296401216096456 10.766428924303909 0 10.766428924303909 8.871335866829213 0 0 0 0 12.285624566881324 10.957385993828666 0 10.957385993828666 7.299004124764906 0 0 0 0 6.4220329931013111 4.4026402198851429 0 4.4026402198851429 0.011104358645752654 0 0 0 0 0.68228046599186243 0.34650699845577648 0 0.34650699845577648 -0.47412018298154734 0 0 0 0 2.5985492486106523 -8.5189388364669867 0 -8.5189388364669867 -20.357306240749494 0 0 0 0 -1.1410105210034089 25.2477187891418 0 25.2477187891418 -23.653679447819741 0 0 0 0 12.413404810340353 -2.4271974708292419 0 -2.4271974708292419 -8.4368759868248162 0 0 0 0 2.274153375015306 2.5528152225956662 0 2.5528152225956662 -6.8301189933629232 0 0 0 0 2.8866676036677745 6.266979817281026 0 6.266979817281026 -8.4822388181728456 0 0 0 0 4.6811926062773637 -8.1818333191249621 0 -8.1818333191249621 -27.138557771458181 0 0 0 0 -0.066937759432885713 0.15200193616278668 0 0.15200193616278668 -0.076395992185211981 0 0 0 0 1.6483667532775144 13.962486505318338 0 13.962486505318338 13.437301081356054 0 0 0 0 14.713327671547177 -31.628806299318057 0 -31.628806299318057 -9.873812592779359 0 0 0 0 2.0508303660571983 14.487606183173739 0 14.487606183173739 0.036818708278588019 0 0 0 0 10.390759003306357 7.5676003275593757 0 7.5676003275593757 -3.335461613647567 0 0 0 0 8.4458642790777958 12.165785328478705 0 12.165785328478705 -14.064356995789694 0 0 0 0 0.97460444136363478 3.3708498659981041 0 3.3708498659981041 -2.6305195522315756 0 0 0 0 10.7001537267397 8.0939880060077485 0 8.0939880060077485 -2.5240896159602073 0 0 0 0 1.3308181046340231 5.0385811208273346 0 5.0385811208273346 0.52704059162697803 0 0 0 0 7.2441134977552792 2.8270603052950491 0 2.8270603052950491 0.69797588014625944 0 0 0 0 4.5864386725970689 5.779050592142994 0 5.779050592142994 -2.5400959590642742 0 0 0 0 7.1660738567479711 3.4284615132437466 0 3.4284615132437466 5.2747691475633474 0 0 0 0 3.5681481924340801 2.5974140590207639 0 2.5974140590207639 -11.273135529478168 0 0 0 0 3.7851850486405532 1.9836011817532437 0 1.9836011817532437 -6.1646895010724627 0 0 0 0 7.9745549253766512 7.8678940508334563 0 7.8678940508334563 4.0347575355781373 0 0 0 0 0.81047314759192801 0.34685515277455181 0 0.34685515277455181 -0.89440698672034813 0 0 0 0 4.8714597748839878 4.2972412943327072 0 4.2972412943327072 1.9021330518571631 0 0 0 0 1.1114119317753648 -2.3948466826914228 0 -2.3948466826914228 -10.269217064120312 0 0 0 0 -1.1950819755547855 3.6299727870755305 0 3.6299727870755305 -0.016416326907346956 0 0 0 0 -0.31923350267274841 0.20246127514835521 0 0.20246127514835521 -0.11672246114390816 0 0 0 0 -0.42325406611416838 0.91334803108111373 0 0.91334803108111373 0.0004068348825967405 0 0 0 0 1.4570390246117313 3.3115603202058992 0 3.3115603202058992 0.085262936867366079 0 0 0 0 -1.5628986688076552 3.6753218334461284 0 3.6753218334461284 -2.3948422554026756 0 0 0 0 -0.10852621519763517 3.1352784387102446 0 3.1352784387102446 -4.5117771042125039 0 0 0 0 -47.945612087991321 118.26811373433156 0 118.26811373433156 -288.99469627636427 0 0 0 0 -0.21814275383162851 0.61763686158080944 0 0.61763686158080944 3.528364100307158 0 0 0 0 -0.07784038790566683 0.63067629598255337 0 0.63067629598255337 -0.62132983073737336 0 0 0 0 0.46264969456751714 1.2834478301010677 0 1.2834478301010677 -2.6412063640855195 0 0 0 0 2.4338037152338075 3.1290956839111459 0 3.1290956839111459 -1.1307099139703496 0 0 0 0 0.60612457333470005 1.557573077654073 0 1.557573077654073 -1.4109332858406809 0 0 0 0 0.99157539315107002 1.4576855675628373 0 1.4576855675628373 -3.7862599329904683 0 0 0 0 -1.4530791253382631 6.3967642305515255 0 6.3967642305515255 -2.416238240301368 0 0 0 0 8.3834915045367779 7.7360828037417377 0 7.7360828037417377 0.11036973374575609 0 0 0 0 -3.6549478263223136 9.2485142675213865 0 9.2485142675213865 -2.0829347918856911 0 0 0 0 3.5152996841055391 5.2331199269318809 0 5.2331199269318809 0.17090437344346299 0 0 0 0 -2.2088918655572343 7.1063208393420609 0 7.1063208393420609 -0.053452776352060027 0 0 0 0 -2.6512649890402571 4.2258795613241702 0 4.2258795613241702 -0.19280569172654882 0 0 0 0 -1.4890569094871466 6.7044938798663338 0 6.7044938798663338 1.4415408723089058 0 0 0 0 -7.6455997439927188 6.5582500663412056 0 6.5582500663412056 0.34814499290617817 0 0 0 0 -7.3263185995019739 7.6167941460516886 0 7.6167941460516886 53.603717757571758 0 0 0 0 0.79181396625153866 7.9552626582390076 0 7.9552626582390076 -1.1587027673231205 0 0 0 0 -10.394786317890976 5.4304123893380165 0 5.4304123893380165 0.91971788412774913 0 0 0 0 -23.391484893346387 -1.659190239628515 0 -1.659190239628515 1.4660776669243205 0 0 0 0 -15.210591247448974 4.5809786102663566 0 4.5809786102663566 -7.7873110020240119 0 0 0 0 -13.246144489975393 3.202331806882782 0 3.202331806882782 1.0565944473893412 0 0 0 0 -14.830060373871465 3.9035764437775997 0 3.9035764437775997 5.8430276826857011 0 0 0 0 -14.962872314594279 -0.012119449856982101 0 -0.012119449856982101 -0.24640281953998056 0 0 0 0 -17.198485321487169 1.1607026963642966 0 1.1607026963642966 7.4838289697545406 0 0 0 0 -11.66984422056521 2.1421471229832605 0 2.1421471229832605 6.7827850317044067 0 0 0 0 -11.79316422366901 3.6973408848789404 0 3.6973408848789404 13.557487198344461 0 0 0 0 -10.895707424035209 0.23839804720410029 0 0.23839804720410029 14.110842283000238 0 0 0 0 -15.584524327536201 2.8047389865787409 0 2.8047389865787409 12.761195781586139 0 0 0 0 -12.672920502463057 -2.8231754720504796 0 -2.8231754720504796 11.769464214168693 0 0 0 0 -18.130196664972573 21.150532216515558 0 21.150532216515558 4.5934131622125278 0 0 0 0 1.0849663686731219 8.6204174442773365 0 8.6204174442773365 -1.5461353852942921 0 0 0 0 -22.616817660709785 2.9495764611383493 0 2.9495764611383493 8.4182510193131748 0 0 0 0 -2.2400123416636735 7.9426110864914214 0 7.9426110864914214 -2.1616355013782567 0 0 0 0 -83.493239042843925 55.441199591929035 0 55.441199591929035 -11.60735649997514 0 0 0 0 -22.290884909260058 -2.5782037791159382 0 -2.5782037791159382 19.617395183206099 0 0 0 0 2.5151778955296322 -10.847715920004703 0 -10.847715920004703 10.978651922278004 0 0 0 0 -6.6166475926220301 -10.754077712414073 0 -10.754077712414073 20.275482422910613 0 0 0 0 -114.39109536430988 144.19455545548044 0 144.19455545548044 6.787778667116072 0 0 0 0 13.7740283408707 6.0023257768762051 0 6.0023257768762051 1.8788978070188023 0 0 0 0 -153.40881890652417 11.170949678988109 0 11.170949678988109 2.8266171033071714 0 0 0 0 6.5772488359027914 10.30452886347663 0 10.30452886347663 -1.4306833782308672 0 0 0 0 -0.43993700161512095 -0.12256584359373335 0 -0.12256584359373335 -0.26937812876283829 0 0 0 0 3.1328479876938218 -6.9957541084322656 0 -6.9957541084322656 9.5798810875312483 0 0 0 0 -7.6047803545952775 2.0216398725460749 0 2.0216398725460749 10.380181316058952 0 0 0 0 -9.7151856269520067 -2.970044026998039 0 -2.970044026998039 12.330150938600127 0 0 0 0 -7.5654340570708882 0.59822912163417641 0 0.59822912163417641 13.27073202198153 0 0 0 0 1.0019947974760726 -2.234008785027072 0 -2.234008785027072 3.9661482890569459 0 0 0 0 -248.10855341506976 -1.3139504622104141 0 -1.3139504622104141 -77.156941543962148 0 0 0 0 -3.1241686144858249 2.161594826315195 0 2.161594826315195 2.1167567314728331 0 0 0 0 -2.6810864572107675 2.1741901655277616 0 2.1741901655277616 1.1773905741538329 0 0 0 0 -3.0671489763223931 0.5269069724593054 0 0.5269069724593054 0.78495807708039322 0 0 0 0 -2.9632802104169969 2.994033414803198 0 2.994033414803198 2.1539572165893333 0 0 0 0 8.5557501874582158 9.7889373888897353 0 9.7889373888897353 1.6278892101618112 0 0 0 0 16.921495586851506 3.3810855292408633 0 3.3810855292408633 -1.1632932474713016 0 0 0 0 -3.0518895275854447 1.696325935792629 0 1.696325935792629 1.0542337362130638 0 0 0 0 9.4454241356483877 10.352004839237441 0 10.352004839237441 -0.2552422436199393 0 0 0 0 -194.53263042182152 165.96013388741494 0 165.96013388741494 0.21368797255854588 0 0 0 0 -3.160849936233717 1.338369563050037 0 1.338369563050037 0.29670251571224071 0 0 0 0 -0.29887148660321827 0.70012990721356516 0 0.70012990721356516 0.86424542289896777 0 0 0 0 -3.4011848030277179 1.3535611071310996 0 1.3535611071310996 0.79061831885883294 0 0 0 0 -3.184107030978339 1.4183111527363508 0 1.4183111527363508 0.1083902338423286 0 0 0 0 -305.74005265281085 67.898244824975336 0 67.898244824975336 -85.063384083157871 0 0 0 0 9.9305016278546354 11.824064615776063 0 11.824064615776063 1.4101511759431276 0 0 0 0 17.565397751400269 17.243437872216418 0 17.243437872216418 -16.426862522141164 0 0 0 0 21.790890715798014 19.517097152140195 0 19.517097152140195 -15.723556906500789 0 0 0 0 22.163015606580302 7.1651803172426298 0 7.1651803172426298 -10.094333165863191 0 0 0 0 4.140243874373482 0.40107174516924715 0 0.40107174516924715 -1.7518568750219856 0 0 0 0 21.623732948834004 13.091440101165063 0 13.091440101165063 -18.991435101062962 0 0 0 0 -4.0433249050415725 18.399357541434256 0 18.399357541434256 0.50118961162479536 0 0 0 0 3.6563507640803437 10.780238173470025 0 10.780238173470025 -3.5645471770658332 0 0 0 0 2.0657033419101936 15.104677916820037 0 15.104677916820037 -12.890224475021569 0 0 0 0 0.80380689170522501 0.83324481138387796 0 0.83324481138387796 -1.3149297347460696 0 0 0 0 2.5386345189072017 11.262393511270602 0 11.262393511270602 -3.4976578829482605 0 0 0 0 -1.8619445247702906 5.2792196883154308 0 5.2792196883154308 -7.2191144270554162 0 0 0 0 2.2544670075949398 11.767472152208029 0 11.767472152208029 -6.8334012130253541 0 0 0 0 20.067535208774643 3.4838238202319189 0 3.4838238202319189 -29.624196551506429 0 0 0 0 3.5643736242573141 7.8985428229079844 0 7.8985428229079844 -2.0607251928086043 0 0 0 0 9.3245793938967836 11.307696660967849 0 11.307696660967849 -2.6839260696287965 0 0 0 0 8.3781631880765417 9.2493199859843571 0 9.2493199859843571 -3.0566195645478729 0 0 0 0 -2.7648830456565836 3.8263715310050426 0 3.8263715310050426 -5.0412474615716931 0 0 0 0 15.586715036983151 14.630043877494245 0 14.630043877494245 0.51863365227018221 0 0 0 0 4.4809639453178534 8.0422320989123364 0 8.0422320989123364 -2.0970397613673413 0 0 0 0 6.317015383290709 10.493305002577472 0 10.493305002577472 -1.078960116982671 0 0 0 0 4.941282156838497 8.4155387352775506 0 8.4155387352775506 -1.7326248053468589 0 0 0 0 3.5595076404515567 8.2741083491737299 0 8.2741083491737299 1.8880227453332736 0 0 0 0 4.292709231707704 4.1825167418191995 0 4.1825167418191995 6.5487065137403988 0 0 0 0 8.1576500549781485 7.8375730299267161 0 7.8375730299267161 -3.0166125407777145 0 0 0 0 6.0132559280846181 9.1622726368282201 0 9.1622726368282201 -10.158101533408626 0 0 0 0 2.4077161974807666 14.494895474812225 0 14.494895474812225 -9.7277434607858595 0 0 0 0 2.3461665142931452 8.3542617806997441 0 8.3542617806997441 -2.6903447927288653 0 0 0 0 4.7925705571096842 10.991088681715155 0 10.991088681715155 -6.9929600617360848 0 0 0 0 2.3112940511446141 8.288123862048451 0 8.288123862048451 -1.6313715637770656 0 0 0 0 2.9445071283316793 13.645927860477968 0 13.645927860477968 -8.3756377912359312 0 0 0 0 2.476235105297917 9.3161423132853685 0 9.3161423132853685 -8.1284563376102597 0 0 0 0 -33.080164931585387 33.149864273001185 0 33.149864273001185 -11.803056648202983 0 0 0 0 7.5704676214307298 6.6340907529105948 0 6.6340907529105948 -2.3884615587881441 0 0 0 0 3.4366233120745164 9.1546922019570047 0 9.1546922019570047 -6.3457131848717836 0 0 0 0 -6.8101105546447691 8.3671567866736005 0 8.3671567866736005 -5.0501739235604717 0 0 0 0 -4.0118796613530598 6.0499459290621385 0 6.0499459290621385 -3.7732507511780824 0 0 0 0 -35.844040077151931 -26.718549039513164 0 -26.718549039513164 15.012690940479843 0 0 0 0 -0.93932610585384513 0.88571452158428521 0 0.88571452158428521 0.31797699765395748 0 0 0 0 41.216805920500974 15.03299729268565 0 15.03299729268565 -0.64633678035897901 0 0 0 0 17.492759871722683 33.3330888451801 0 33.3330888451801 -8.0172392361619131 0 0 0 0 10.283813634738388 3.8524095016323372 0 3.8524095016323372 -0.19467833614081442 0 0 0 0 86.569274380709885 60.191376009950545 0 60.191376009950545 -88.066079273239666 0 0 0 0 -7.9833504491671192 26.193035054522625 0 26.193035054522625 -9.2969107472913493 0 0 0 0 -0.6455724195275252 7.5153963057982764 0 7.5153963057982764 -26.34327114953976 0 0 0 0 4.6149347859709451 20.056130898190531 0 20.056130898190531 -13.762413045558787 0 0 0 0 4.8517188711909967 13.934741906278759 0 13.934741906278759 -2.4720515849076037 0 0 0 0 11.201254897436229 27.44316878880818 0 27.44316878880818 4.0797416613290807 0 0 0 0 -23.271867345815281 43.053094618634532 0 43.053094618634532 -8.2331391669913501 0 0 0 0 9.7908290970326561 18.364163880242813 0 18.364163880242813 -29.172866547138256 0 0 0 0 4.2455827078932771 17.923915528224597 0 17.923915528224597 -26.071379468059604 0 0 0 0 0.92810950304177098 2.1369326738896177 0 2.1369326738896177 -0.082093661973466681 0 0 0 0 8.8284872393300589 9.6168566386308783 0 9.6168566386308783 -38.957220668213267 0 0 0 0 8.8270744640044541 9.4571320379909594 0 9.4571320379909594 -28.937629553137413 0 0 0 0 9.4238945074659135 4.0476618931502273 0 4.0476618931502273 -2.0422085472996407 0 0 0 0 0.21259245935653936 0.48818033518017501 0 0.48818033518017501 -1.6731774990411878 0 0 0 0 5.1297450550846406 9.4566369083950121 0 9.4566369083950121 -11.958230602271215 0 0 0 0 2.30008958369217 11.931536448373663 0 11.931536448373663 -2.7089542492030887 0 0 0 0 5.7606018522783415 11.230943928498164 0 11.230943928498164 -3.0396819073066581 0 0 0 0 9.8132193077244665 10.952880934706627 0 10.952880934706627 -1.2387018220033497 0 0 0 0 9.3524193473824901 7.0472303509451422 0 7.0472303509451422 3.410887087855226 0 0 0 0 8.0601458731207423 10.665212380366452 0 10.665212380366452 -7.9006941068086718 0 0 0 0 -26.488379573353541 40.457482510164027 0 40.457482510164027 -25.741659962563972 0 0 0 0 -3.5016941293895218 6.1666678716749104 0 6.1666678716749104 3.1114125211931736 0 0 0 0 -14.14314027270666 19.575506003975534 0 19.575506003975534 3.4536823788348556 0 0 0 0 -15.754746619946332 29.3218758440172 0 29.3218758440172 -5.6307056594978349 0 0 0 0 -17.480524216468893 23.774770439613349 0 23.774770439613349 1.9145132812559496 0 0 0 0 -0.5235707312049076 0.25187306614450833 0 0.25187306614450833 -0.12582129244541207 0 0 0 0 -3.1572880467306277 16.782645888947172 0 16.782645888947172 22.961878399042689 0 0 0 0 -42.174304111903325 30.519033299141938 0 30.519033299141938 37.313443917382756 0 0 0 0 1.4927760668792871 9.0206818444676173 0 9.0206818444676173 -74.206405877406723 0 0 0 0 1.0070507610229811 7.7869639216774544 0 7.7869639216774544 -14.245694449450639 0 0 0 0 -0.83054275871492678 1.1227135109477189 0 1.1227135109477189 -0.85111217847625653 0 0 0 0 2.7974555145183331 4.4022859838432851 0 4.4022859838432851 -16.92393944901778 0 0 0 0 12.890591404578572 23.476763697500701 0 23.476763697500701 12.854211988485986 0 0 0 0 -6.868949694834555 10.111888664428079 0 10.111888664428079 -1.9806716525963566 0 0 0 0 -3.2120395334080563 6.6275409868676878 0 6.6275409868676878 -4.7471632274706295 0 0 0 0 -8.4131090349073929 3.9816723719327456 0 3.9816723719327456 -6.9129550926973025 0 0 0 0 -2.2064843606419622 5.4754902555057923 0 5.4754902555057923 -6.2834566273400156 0 0 0 0 -3.5660954260729003 2.2086555061157789 0 2.2086555061157789 -1.3457343387824494 0 0 0 0 -8.6007530042888902 11.712922773885794 0 11.712922773885794 1.9152999483776512 0 0 0 0 -14.599734836070184 24.488444178599821 0 24.488444178599821 -7.7024388210047618 0 0 0 0 -6.9659496244509995 11.87479417835937 0 11.87479417835937 -10.96633189063013 0 0 0 0 10.908930748283183 20.036264420106818 0 20.036264420106818 -26.632670525313188 0 0 0 0 0.21807690286186698 20.153157638525499 0 20.153157638525499 -16.47760164598003 0 0 0 0 -8.289891489560663 13.652984992898936 0 13.652984992898936 -12.356066976053146 0 0 0 0 -10.226854404029382 23.923913325144895 0 23.923913325144895 -2.4524382212975979 0 0 0 0 -53.991607060339447 22.986519186737041 0 22.986519186737041 -0.45758748783464398 0 0 0 0 0.22263526802974276 0.18674688308464127 0 0.18674688308464127 -0.22979345391861372 0 0 0 0 3.0160986695591419 24.63965585312053 0 24.63965585312053 -22.746162359645496 0 0 0 0 29.574835990000338 16.831534342101804 0 16.831534342101804 -4.4195005658984883 0 0 0 0 19.073508421864062 29.295985796986542 0 29.295985796986542 -18.134163555638224 0 0 0 0 16.263555340365201 31.44957252093127 0 31.44957252093127 -4.7244545784569709 0 0 0 0 26.326294967585454 31.954037038736715 0 31.954037038736715 -14.35673639995548 0 0 0 0 16.039103530221837 32.732462618643694 0 32.732462618643694 -0.83924355611316059 0 0 0 0 8.7095686966513313 30.347452732080455 0 30.347452732080455 12.836076567671626 0 0 0 0 24.230060074831272 40.016199688582674 0 40.016199688582674 4.2745719097765686 0 0 0 0 8.5988620576363246 30.902438732060091 0 30.902438732060091 10.545143242703489 0 0 0 0 3.6228772206995927 23.43257139781872 0 23.43257139781872 3.6955192036266453 0 0 0 0 6.317085211219819 10.62397715552197 0 10.62397715552197 -4.3536105960502027 0 0 0 0 -3.6249184903372225 2.9180005841599268 0 2.9180005841599268 -6.7088681371296843 0 0 0 0 -1.080598429166912 5.8541718590952314 0 5.8541718590952314 -9.1868799890053197 0 0 0 0 -8.8174552807154214 8.9294668835691482 0 8.9294668835691482 -8.4062778154657281 0 0 0 0 -0.43420735170144553 2.0406102495317846 0 2.0406102495317846 -1.2103676512812136 0 0 0 0 -3.2459338155485966 6.1670998097079064 0 6.1670998097079064 -9.0984869624571729 0 0 0 0 -0.13859051448025639 3.7608159333734648 0 3.7608159333734648 -7.8228989282624752 0 0 0 0 -8.9610957419772603 4.978991695293189 0 4.978991695293189 11.089318019716302 0 0 0 0 -2.9315188498928819 22.906254103919082 0 22.906254103919082 38.036174031498376 0 0 0 0 0.92019204737743365 -0.020179185554312085 0 -0.020179185554312085 -0.047981139742105938 0 0 0 0 42.0298076721283 1.8883457068095595 0 1.8883457068095595 -8.5478028246670874 0 0 0 0 46.516900409551454 9.0031587515768479 0 9.0031587515768479 -18.34905358182823 0 0 0 0 5.847748887281341 21.69898428115539 0 21.69898428115539 -8.4596030244356371 0 0 0 0 24.031128827353541 67.127903632866492 0 67.127903632866492 59.852924950188026 0 0 0 0 37.863580296470445 27.161821297355687 0 27.161821297355687 53.070277259292197 0 0 0 0 37.057876140888766 36.593762294693079 0 36.593762294693079 49.581289569895944 0 0 0 0 0.78312943827012305 0.31859535227470914 0 0.31859535227470914 -0.20845397672196242 0 0 0 0 41.124924463139905 11.250342613575413 0 11.250342613575413 12.042878620787633 0 0 0 0 38.496932255755667 17.961983802624019 0 17.961983802624019 0.67687483583540597 0 0 0 0 13.553753366843011 -5.7318476682421533 0 -5.7318476682421533 -8.1752002768407692 0 0 0 0 34.924943478046771 21.874162471875934 0 21.874162471875934 -2.0459454455167361 0 0 0 0 27.830902072682875 49.520041478420353 0 49.520041478420353 27.119059171813205 0 0 0 0 55.307378071316634 35.938498977487825 0 35.938498977487825 0.46007344212011958 0 0 0 0 27.436044977494021 27.387904977132166 0 27.387904977132166 -2.0390505617961026 0 0 0 0 16.843271486814047 26.268329592313421 0 26.268329592313421 -9.800982782031042 0 0 0 0 30.148977021330211 31.553938456265314 0 31.553938456265314 -7.9860283327061552 0 0 0 0 3.3314104676683201 17.05685015677409 0 17.05685015677409 -5.9920823088477846 0 0 0 0 19.670671321995087 11.583477690742029 0 11.583477690742029 -7.3016435711342638 0 0 0 0 -12.412098043798323 26.754251786322129 0 26.754251786322129 -9.1796070886503003 0 0 0 0 9.9307805535275975 17.678213728651713 0 17.678213728651713 -6.7211191040878475 0 0 0 0 12.078494164844869 29.612066516931236 0 29.612066516931236 -12.135592168970106 0 0 0 0 17.647115727281346 31.12114488808632 0 31.12114488808632 -14.319140882802458 0 0 0 0 18.105540493643275 27.237642461725045 0 27.237642461725045 -16.978527130347175 0 0 0 0 19.320027766067142 24.970493971670066 0 24.970493971670066 -13.976716534893058 0 0 0 0 18.085539486099151 28.868025830948909 0 28.868025830948909 -24.445456737485074 0 0 0 0 6.3685007367140543 26.644268989794625 0 26.644268989794625 -17.313459794535447 0 0 0 0 6.9485717176903563 30.802865620169541 0 30.802865620169541 -17.065061127787885 0 0 0 0 10.641424156262929 28.189806884704922 0 28.189806884704922 -46.085909877941958 0 0 0 0 3.922877894447538 28.722231196474013 0 28.722231196474013 -6.7379280813556761 0 0 0 0 -10.432827225024084 29.51226525972379 0 29.51226525972379 36.048713548399064 0 0 0 0 23.526136001048144 15.87256566866472 0 15.87256566866472 -9.5922827451267949 0 0 0 0 15.008027742340346 14.780754068323404 0 14.780754068323404 23.483500661749076 0 0 0 0 24.269999000346616 12.551586163809134 0 12.551586163809134 1.9490090882736695 0 0 0 0 16.875662794116579 17.183346398046524 0 17.183346398046524 -16.052187058519849 0 0 0 0 15.007263603256433 20.776415046997954 0 20.776415046997954 -1.4385873824203372 0 0 0 0 16.978911778549445 19.964996428809172 0 19.964996428809172 -6.5807016842513804 0 0 0 0 14.798509174184801 22.317853190072128 0 22.317853190072128 9.4964232604161225 0 0 0 0 -5.802176048920046 28.158153010553178 0 28.158153010553178 10.233826350269737 0 0 0 0 5.8177751947923753 9.8299756625219743 0 9.8299756625219743 38.202213928370838 0 0 0 0 12.331544163240324 43.883391683560149 0 43.883391683560149 13.952817284095431 0 0 0 0 35.459606859051746 32.302457493267411 0 32.302457493267411 -6.0771501294402697 0 0 0 0 14.905689919684391 20.878628342876482 0 20.878628342876482 -10.057593171708504 0 0 0 0 17.636384773911232 26.040304265875875 0 26.040304265875875 -5.1335796372432014 0 0 0 0 10.939950029098895 22.783953131028483 0 22.783953131028483 -1.2339925528194726 0 0 0 0 10.430255747385672 27.748673786798463 0 27.748673786798463 -10.533222194671907 0 0 0 0 18.591534560879154 23.02902782126057 0 23.02902782126057 -7.8633557591683712 0 0 0 0 17.729179418693093 26.741638430436979 0 26.741638430436979 -10.325081284472617 0 0 0 0 19.17733787036741 30.606991978881865 0 30.606991978881865 -10.088378283819111 0 0 0 0 19.097035204978056 29.814928014109228 0 29.814928014109228 -17.05309696644963 0 0 0 0 7.2608587112026726 36.894474511303997 0 36.894474511303997 -11.556220214970836 0 0 0 0 -2.7604439028355046 27.880540667266359 0 27.880540667266359 -2.9110067174124197 0 0 0 0 7.5081881565984077 19.665430209470287 0 19.665430209470287 -19.730336454630105 0 0 0 0 4.3747515749473678 15.258869986652371 0 15.258869986652371 -13.087588058457186 0 0 0 0 -17.58298034413383 11.556764859217765 0 11.556764859217765 6.5273930675648444 0 0 0 0 -2.9153373938604759 3.3992156662592343 0 3.3992156662592343 -2.0128677780166289 0 0 0 0 -2.0438948173932658 21.923257293715778 0 21.923257293715778 0.78851860701433907 0 0 0 0 11.150928735925845 20.326153986705322 0 20.326153986705322 -4.7564462799828107 0 0 0 0 9.76168913169181 15.965353625530156 0 15.965353625530156 -6.1494120668903633 0 0 0 0 17.057133559594149 9.9923980293524437 0 9.9923980293524437 -17.250459909392703 0 0 0 0 -6.0777228124989051 16.841926280550524 0 16.841926280550524 -4.1358229189145277 0 0 0 0 -5.500044496827968 22.24721804816707 0 22.24721804816707 -7.6805301642771155 0 0 0 0 -7.6923688950314286 11.275388051867846 0 11.275388051867846 -4.33978843241254 0 0 0 0 -11.336465962074726 14.483886261627049 0 14.483886261627049 -4.6753564617793018 0 0 0 0 -0.37934226535446669 3.9026602591239516 0 3.9026602591239516 0.84614079783236562 0 0 0 0 -14.043318761392584 11.450392048479443 0 11.450392048479443 -1.3063683269870126 0 0 0 0 1.4633104064459985 14.364985320960386 0 14.364985320960386 -5.4066408360649802 0 0 0 0 -6.7617076748281111 10.659350051435206 0 10.659350051435206 -4.9656311182476678 0 0 0 0 21.646217355902081 12.125008940025509 0 12.125008940025509 -7.7205762532391873 0 0 0 0 37.364634921053948 11.812585740772192 0 11.812585740772192 -8.3496251950314218 0 0 0 0 -14.303140015826102 13.360510642297186 0 13.360510642297186 11.612764325771423 0 0 0 0 -2.2864022302052192 2.7898882793303255 0 2.7898882793303255 -0.65217176762856255 0 0 0 0 -0.26967652226085193 33.702596313440495 0 33.702596313440495 18.3053788474881 0 0 0 0 -21.332419158338098 0.031164097531473089 0 0.031164097531473089 0.076385286052754964 0 0 0 0 -4.3999735039942607 18.869510903369701 0 18.869510903369701 -1.9615725472100394 0 0 0 0 15.626291345121899 23.877907421689088 0 23.877907421689088 -9.6898607199600519 0 0 0 0 -9.1218846522959449 11.351307597365055 0 11.351307597365055 -3.5353791632452953 0 0 0 0 -14.007459201699703 13.525035072688524 0 13.525035072688524 -3.9021595625417831 0 0 0 0 7.3878034535707684 5.8598202263385701 0 5.8598202263385701 -28.858409612261312 0 0 0 0 61.498493651045465 30.801886688339437 0 30.801886688339437 -17.494457083374982 0 0 0 0 -4.1851887499087752 15.943360451198259 0 15.943360451198259 1.707410981404621 0 0 0 0 -15.30453161992591 34.49962316605388 0 34.49962316605388 -6.7387228977549967 0 0 0 0 -6.6279584600397357 29.5705895155088 0 29.5705895155088 -4.8978621977903458 0 0 0 0 -4.8916140395776893 33.54098987328689 0 33.54098987328689 -0.61059809743619553 0 0 0 0 -8.3356744725788303 21.90699504173017 0 21.90699504173017 -0.93853821803531901 0 0 0 0 -7.3346626756679143 34.19933436042993 0 34.19933436042993 1.3637416792716976 0 0 0 0 2.2480042669994873 32.344879047882387 0 32.344879047882387 2.9089115255260367 0 0 0 0 -1.6675605907639692 36.080271154240108 0 36.080271154240108 2.2234155997196012 0 0 0 0 5.3356037920802919 35.200118508856576 0 35.200118508856576 5.2661382345395396 0 0 0 0 0.0057494035918352893 33.053193738861864 0 33.053193738861864 17.125395858975025 0 0 0 0 -2.3446446261896199 38.203685506786314 0 38.203685506786314 3.8353046191077738 0 0 0 0 0.21981100771387929 -0.17406359488822787 0 -0.17406359488822787 -0.15446100097391735 0 0 0 0 -5.1529987966114277 19.531680477350619 0 19.531680477350619 31.638828615561579 0 0 0 0 -8.3583417685986205 29.003558803425221 0 29.003558803425221 49.568863661053911 0 0 0 0 0.0034024925189442001 23.903722179146371 0 23.903722179146371 -8.2244116163656145 0 0 0 0 10.46769874124584 38.022795121200033 0 38.022795121200033 10.817205080240456 0 0 0 0 -2.3445449146786359 35.243339561854668 0 35.243339561854668 -38.538525896572537 0 0 0 0 6.2106611815834185 25.339777440318358 0 25.339777440318358 -73.047438118056107 0 0 0 0 -14.861057332844211 14.573523224531073 0 14.573523224531073 -31.802891833051035 0 0 0 0 0.16329938059126903 -0.022362693357255381 0 -0.022362693357255381 -0.098213910629032952 0 0 0 0 -2.63501145922055 29.322434892209458 0 29.322434892209458 -29.089647958272508 0 0 0 0 -7.1793699815279979 23.624386979298606 0 23.624386979298606 -15.768073786299283 0 0 0 0 -13.002072419313663 17.796623847218143 0 17.796623847218143 -14.3632607820673 0 0 0 0 0.12039087767011125 -0.15027000524292689 0 -0.15027000524292689 -0.14524495554158534 0 0 0 0 -25.184228997833998 15.384782291092051 0 15.384782291092051 44.053113103753276 0 0 0 0 -45.838907477893372 57.564545766698757 0 57.564545766698757 -67.428530541148575 0 0 0 0 105.32079460760315 6.0686374257454645 0 6.0686374257454645 -34.039367064360704 0 0 0 0 -108.32694228318906 60.370507854910102 0 60.370507854910102 -0.42750205724132684 0 0 0 0 -92.147846116929941 31.386580429283185 0 31.386580429283185 -19.931128087338948 0 0 0 0 0.10068868354548455 0.80190172220639511 0 0.80190172220639511 -0.024236874389131913 0 0 0 0 -40.354215345447301 5.4612043553370313 0 5.4612043553370313 -8.6886865471442434 0 0 0 0 -48.374595149251036 22.486511875211818 0 22.486511875211818 -4.2127774718392175 0 0 0 0 -18.264514728571157 31.5113180944345 0 31.5113180944345 -47.093554181516993 0 0 0 0 -9.2647411077384731 59.682578575329444 0 59.682578575329444 -2.2786844333240879 0 0 0 0 -72.348861929553095 219.63628217274891 0 219.63628217274891 -87.346829658668867 0 0 0 0 11.375690349763293 13.217885147468699 0 13.217885147468699 3.3825311137120693 0 0 0 0 -137.78029160874576 78.465467972320766 0 78.465467972320766 56.08736471350494 0 0 0 0 -48.317041357207927 122.00187454777551 0 122.00187454777551 54.541307051648801 0 0 0 0 -59.8826479185891 33.65001450816294 0 33.65001450816294 27.718517894551042 0 0 0 0 -55.626097089641917 -7.0874554998199528 0 -7.0874554998199528 -2.8962059904588386 0 0 0 0 31.654619190201629 -0.85308951761271601 0 -0.85308951761271601 -2.8204822318020888 0 0 0 0 30.058701051202661 16.906764074465173 0 16.906764074465173 -32.913223489909797 0 0 0 0 81.509540801649564 -0.82757339078352743 0 -0.82757339078352743 10.773476651758756 0 0 0 0 2.3071583342082906 1.7048863390271194 0 1.7048863390271194 -3.8901044376113418 0 0 0 0 8.2671409019674194 15.143171128829827 0 15.143171128829827 4.5950298674013581 0 0 0 0 -48.101155315387587 47.291123506359099 0 47.291123506359099 44.199086722519496 0 0 0 0 -20.369059529550213 5.3761162971895828 0 5.3761162971895828 -25.605825935190751 0 0 0 0 -8.2562520330029656 -13.252996323271873 0 -13.252996323271873 40.313356479684217 0 0 0 0 -19.471959566955775 2.2879298950883822 0 2.2879298950883822 -2.1779680597387596 0 0 0 0 -10.041026619634977 8.285689204134087 0 8.285689204134087 1.1536357393415528 0 0 0 0 -14.772546931231091 21.734914841586146 0 21.734914841586146 -10.63094184813599 0 0 0 0 -1.8666261417339207 1.7377150662786427 0 1.7377150662786427 0.70656768908834877 0 0 0 0 -1.0290791793486278 30.256622855673868 0 30.256622855673868 15.660848146813805 0 0 0 0 3.8280126866005002 15.837255680223096 0 15.837255680223096 0.01682532084223709 0 0 0 0 75.202636840756895 12.025460932370152 0 12.025460932370152 -5.8588443755379558 0 0 0 0 -3.6960213733868272 1.0106196667742893 0 1.0106196667742893 -0.093388420568256691 0 0 0 0 33.402480722899782 1.9287251547941651 0 1.9287251547941651 6.5339653342525708 0 0 0 0 23.723419361405831 13.64321523703893 0 13.64321523703893 1.105304317475202 0 0 0 0 25.117854377174808 24.582988913847657 0 24.582988913847657 -8.7376610840556168 0 0 0 0 14.041548210785088 13.97793082868904 0 13.97793082868904 0.44901581322816497 0 0 0 0 39.003967292447669 12.75450397692066 0 12.75450397692066 -8.8989736835792428 0 0 0 0 -0.99830472617031774 5.7791301358247438 0 5.7791301358247438 -0.56786458835267695 0 0 0 0 -23.429397441283072 21.085598081717762 0 21.085598081717762 -4.2164727391068482 0 0 0 0 -24.904418820702631 21.579652768511551 0 21.579652768511551 -0.77356817574764136 0 0 0 0 -0.21124987428781816 1.2468878656561415 0 1.2468878656561415 0.18351046186921138 0 0 0 0 -33.329588682201575 11.281468197486447 0 11.281468197486447 -4.1801145593717592 0 0 0 0 75.938081722057177 9.515377397499833 0 9.515377397499833 0.93997250059692306 0 0 0 0 -32.248591833493265 8.70073108413726 0 8.70073108413726 1.0876152386463218 0 0 0 0 -12.378817085947958 7.7782476590691658 0 7.7782476590691658 1.126462700480829 0 0 0 0 -17.558735752161738 15.58768268593667 0 15.58768268593667 0.33798292948813469 0 0 0 0 -11.583825636422262 23.476168094672175 0 23.476168094672175 -0.517072876148859 0 0 0 0 -4.4158294954222583 22.387359869946636 0 22.387359869946636 -1.3883596843006671 0 0 0 0 -1.6153332357753243 14.229931028454985 0 14.229931028454985 0.45169840472226497 0 0 0 0 -8.7366205424295913 9.7539026622466736 0 9.7539026622466736 0.556077969481521 0 0 0 0 2.7044030661896006 1.6855324901947171 0 1.6855324901947171 0.66664066635563657 0 0 0 0 -7.33994050815636 8.6428856246070609 0 8.6428856246070609 0.88408238896045077 0 0 0 0 34.941711619372995 5.6667216694969511 0 5.6667216694969511 -3.2388267648384499 0 0 0 0 13.732726825054815 13.097352434353002 0 13.097352434353002 0.2095241284504894 0 0 0 0 -3.1544278534202022 10.089927632531726 0 10.089927632531726 0.77517451241527624 0 0 0 0 27.085814131363804 18.296526036263913 0 18.296526036263913 -6.2223855732531774 0 0 0 0 -2.4986415025671747 1.7196357126574426 0 1.7196357126574426 0.89157747627774953 0 0 0 0 -25.839090385205054 8.3226055943478059 0 8.3226055943478059 9.4294373257880579 0 0 0 0 4.6271863148031009 14.659593047085986 0 14.659593047085986 0.15383914150963918 0 0 0 0 4.4393948221913888 3.4708601342072143 0 3.4708601342072143 -5.3963219888410094 0 0 0 0 24.630326729919034 26.342833484963649 0 26.342833484963649 -3.5922535073059407 0 0 0 0 2.6302521379129713 1.4562110202331802 0 1.4562110202331802 -0.95652289664697321 0 0 0 0 -10.745130763962152 8.8855650652899385 0 8.8855650652899385 -0.83319937553187629 0 0 0 0 -11.419774416990549 8.795417790242027 0 8.795417790242027 -0.35070607821762678 0 0 0 0 21.868980312611711 7.6304226338452281 0 7.6304226338452281 7.5725904215778428 0 0 0 0 19.781465071044295 14.668499708789568 0 14.668499708789568 3.0952129905208494 0 0 0 0 26.292533905673281 12.265205453376211 0 12.265205453376211 -0.62793141813563125 0 0 0 0 44.195981110288812 14.175831581997954 0 14.175831581997954 -11.518027309747595 0 0 0 0 -35.529478860216841 45.458749474792057 0 45.458749474792057 -18.142748922521605 0 0 0 0 -68.879337773965744 14.643521594464801 0 14.643521594464801 0.28014241175128518 0 0 0 0 -0.39265289926521518 0.4095328934775555 0 0.4095328934775555 -0.33594954655139375 0 0 0 0 -44.786522863707432 30.155990659474355 0 30.155990659474355 5.2141855516265423 0 0 0 0 14.347074484576297 43.1060544553211 0 43.1060544553211 -35.64824327045244 0 0 0 0 22.628091733990004 18.327618679599368 0 18.327618679599368 -1.3847903485884672 0 0 0 0 -6.8211347567748817 30.974831854371132 0 30.974831854371132 10.902959646221461 0 0 0 0 -0.60648332227538049 26.760279309381986 0 26.760279309381986 4.9987692806293751 0 0 0 0 -7.8018275458161952 18.531729017300222 0 18.531729017300222 50.425492176034822 0 0 0 0 52.935792363688961 12.071855696662169 0 12.071855696662169 -4.8122570635059674 0 0 0 0 0.82150622428286368 0.38274494550035953 0 0.38274494550035953 -0.41209410977762317 0 0 0 0 -7.7010377280694229 8.7607536848172458 0 8.7607536848172458 -18.493222393126416 0 0 0 0 -17.608030119250543 31.476615833557844 0 31.476615833557844 27.435821361825219 0 0 0 0 5.6707523109926115 29.133324931092375 0 29.133324931092375 -6.1636609862755449 0 0 0 0 0.4511383616193565 14.732530616816009 0 14.732530616816009 -0.1058999817008619 0 0 0 0 2.3451168444644281 20.939944416251365 0 20.939944416251365 -5.7214052633216852 0 0 0 0 36.918630998372919 43.084480708951048 0 43.084480708951048 1.0161396104231244 0 0 0 0 42.402835541338618 3.9943738817140684 0 3.9943738817140684 -2.6440653555337121 0 0 0 0 13.471235565975803 15.363161411535657 0 15.363161411535657 -7.1016265523517177 0 0 0 0 1.5732561333770718 27.351768517233268 0 27.351768517233268 -2.694265077011778 0 0 0 0 4.8739885442428204 1.456498664026185 0 1.456498664026185 -15.744720085997642 0 0 0 0 6.4245796635859733 19.511425949488512 0 19.511425949488512 9.7413187365964404 0 0 0 0 7.6004467825223401 25.526501614271183 0 25.526501614271183 39.729690583722913 0 0 0 0 39.57782289705392 45.721776217523484 0 45.721776217523484 14.460025449145178 0 0 0 0 13.581998269837641 39.255515501354239 0 39.255515501354239 1.3725895450822918 0 0 0 0 11.446830067237897 28.060925775746 0 28.060925775746 3.4338861218311649 0 0 0 0 0.084541038770112209 36.092400602144266 0 36.092400602144266 0.017619201817069552 0 0 0 0 -0.094841246322175721 35.777017804629395 0 35.777017804629395 2.1778597107595488 0 0 0 0 -2.7336839538438653 33.277323923154199 0 33.277323923154199 -1.6626862256780441 0 0 0 0 -0.040251238198834471 37.571237378574551 0 37.571237378574551 -1.0680775934256417 0 0 0 0 5.7744917308955337 22.187047286673078 0 22.187047286673078 -4.1472978715833051 0 0 0 0 6.9865663451237197 36.945188521376622 0 36.945188521376622 -0.32217994109123538 0 0 0 0 0.0015213368496915791 36.6886443335884 0 36.6886443335884 -0.37687885634204576 0 0 0 0 -0.13325449103103892 37.503946258403175 0 37.503946258403175 -0.49497152276489942 0 0 0 0 -1.3142398679483449 37.490563650003878 0 37.490563650003878 -1.0657930752058746 0 0 0 0 -0.0034225938125018729 34.521731006960636 0 34.521731006960636 -6.8290974904894028 0 0 0 0 -4.260565565984507 32.97371070756094 0 32.97371070756094 -2.1107050934106155 0 0 0 0 -2.6337349953428202 27.169741886001702 0 27.169741886001702 -18.234081419025642 0 0 0 0 0.24772982286958722 22.432460664674068 0 22.432460664674068 -14.95010402798107 0 0 0 0 -6.7564402018979308 32.257353811970461 0 32.257353811970461 1.1754412920597588 0 0 0 0 -1.7651146465523198 30.484163232051742 0 30.484163232051742 -30.46898379938375 0 0 0 0 -9.9907318020632374 21.8017456653306 0 21.8017456653306 -17.894365911637806 0 0 0 0 -0.034804812272341223 27.754754737127769 0 27.754754737127769 -43.508724368589355 0 0 0 0 0.17704816367040621 0.17606480396989355 0 0.17606480396989355 1.7453690530574022 0 0 0 0 -0.48527133969670899 -0.12194037474349839 0 -0.12194037474349839 0.19328272387673096 0 0 0 0 1.5684922177460976 -9.6478915455677452 0 -9.6478915455677452 -100.72439790402268 0 0 0 0 -4.1305560311866429 0.28435755527607398 0 0.28435755527607398 -34.191611025913176 0 0 0 0 2.8080632663441065 7.0298192898126217 0 7.0298192898126217 -29.685255555346885 0 0 0 0 -2.4559952930321742 -12.860258206534581 0 -12.860258206534581 -40.477078718421126 0 0 0 0 -0.73024146582924487 0.14330568748774475 0 0.14330568748774475 -0.014419647670973035 0 0 0 0 -0.81130806941837363 1.6961193849488154 0 1.6961193849488154 3.2011483647088426 0 0 0 0 -0.9515685361911892 0.96203154009890568 0 0.96203154009890568 3.4228917260534217 0 0 0 0 0.012364818931018817 0.011457359095402353 0 0.011457359095402353 3.0245119202409114 0 0 0 0 -0.84243073740435648 0.17183632464957554 0 0.17183632464957554 5.395305626568188 0 0 0 0 11.833410735524467 12.740742405711103 0 12.740742405711103 -11.845712449393432 0 0 0 0 17.188608839865992 12.227187517669336 0 12.227187517669336 -17.640820997246919 0 0 0 0 8.2655273293821665 1.3002840668104909 0 1.3002840668104909 -22.153074440240744 0 0 0 0 3.4376979971048058 0.88810576220203075 0 0.88810576220203075 -18.816014682317473 0 0 0 0 -0.86687002399968094 0.64026314166085152 0 0.64026314166085152 0.12627122967706228 0 0 0 0 2.0929414287631971 5.1166589064757204 0 5.1166589064757204 -11.663933542175073 0 0 0 0 0.90876184412627481 -4.0569804163596928 0 -4.0569804163596928 -21.445058623190562 0 0 0 0 0.66078456768293847 0.10648781115494543 0 0.10648781115494543 -0.094218115820087434 0 0 0 0 -12.233210142163443 6.4702901431542159 0 6.4702901431542159 22.340507408352096 0 0 0 0 0.021642852037984994 1.5347171790405127 0 1.5347171790405127 19.357068561448614 0 0 0 0 -2.1317466066923316 -4.6758783659121264 0 -4.6758783659121264 43.952694227250504 0 0 0 0 0.22786562742294336 4.2910979363896331 0 4.2910979363896331 -1.6013162056119654 0 0 0 0 0.80651046276030058 0.26806297903943133 0 0.26806297903943133 -0.15073950696025307 0 0 0 0 -4.3096054545530933 10.433233772877202 0 10.433233772877202 33.908654360618584 0 0 0 0 -3.8531522493067314 7.30542445033484 0 7.30542445033484 28.558354506255 0 0 0 0 -14.196748119769836 16.61605589417195 0 16.61605589417195 21.888661168678482 0 0 0 0 7.843111582165875 15.568158460626364 0 15.568158460626364 9.1414751827245482 0 0 0 0 4.3480187524801295 6.5722294228939973 0 6.5722294228939973 -10.68926133463583 0 0 0 0 0.42624373718761888 -0.21762755646215837 0 -0.21762755646215837 -0.047639660044001886 0 0 0 0 -3.453440738368954 -0.42941533682869704 0 -0.42941533682869704 1.9989090865510661 0 0 0 0 8.1319979963573132 -6.107599518803454 0 -6.107599518803454 55.898461595960725 0 0 0 0 3.0907817160987179 22.443147922558637 0 22.443147922558637 44.123768640637763 0 0 0 0 -9.0039471713771491 -2.8583339517490458 0 -2.8583339517490458 107.58206295375567 0 0 0 0 7.8959316795917402 7.5734674481604998 0 7.5734674481604998 56.35475260603198 0 0 0 0 2.4979515622726467 26.134820716934883 0 26.134820716934883 86.812750594599947 0 0 0 0 15.421966313861049 22.92435701763884 0 22.92435701763884 54.566059335958926 0 0 0 0 0.0066966230642719893 7.8189442232530837 0 7.8189442232530837 72.142712989892061 0 0 0 0 0.014317522951387218 27.680374193824719 0 27.680374193824719 29.357292138998901 0 0 0 0 6.6959000565984752 11.752621888231715 0 11.752621888231715 48.957606565737024 0 0 0 0 8.2650250571714423 25.130617961026019 0 25.130617961026019 7.2997056240110396 0 0 0 0 -2.3573426233924692 29.777345767116458 0 29.777345767116458 8.3857542699086025 0 0 0 0 -0.1057249693058111 31.111663238935307 0 31.111663238935307 24.272096191628407 0 0 0 0 5.2167410125148308 29.546037380379175 0 29.546037380379175 8.2616148039714972 0 0 0 0 7.6261263675005466 21.0160307695146 0 21.0160307695146 27.239938873024357 0 0 0 0 4.8085905199791341 27.649722521182213 0 27.649722521182213 42.674315204199956 0 0 0 0 1.6231979708973086 29.896230938312556 0 29.896230938312556 29.407703683087675 0 0 0 0 -4.0205654666533519 17.626727935939016 0 17.626727935939016 41.411188621944802 0 0 0 0 -0.6632769716961775 18.176241435465045 0 18.176241435465045 23.208886720180999 0 0 0 0 -2.9731066919775913 30.071605787460385 0 30.071605787460385 18.220467593071589 0 0 0 0 2.0048643984082446 24.206201530935687 0 24.206201530935687 19.692661490089449 0 0 0 0 -5.8273647828109461 25.287862982886509 0 25.287862982886509 16.470228042843701 0 0 0 0 -13.636669083343804 24.954886872686529 0 24.954886872686529 17.914247629339116 0 0 0 0 -10.339098837572237 27.726579582447357 0 27.726579582447357 6.1505336672744306 0 0 0 0 -9.4618952786258887 29.147168487267663 0 29.147168487267663 8.3264132284775769 0 0 0 0 -10.88536056457815 29.046875375345962 0 29.046875375345962 4.9456990545040753 0 0 0 0 -6.0627244902862003 29.034440660732798 0 29.034440660732798 7.5583576679000544 0 0 0 0 -3.3835852041538601 30.59318003231806 0 30.59318003231806 1.8441292090883508 0 0 0 0 -6.4486591743770987 31.66555926104229 0 31.66555926104229 6.452125592611992 0 0 0 0 -7.4113378512320196 29.719126859530661 0 29.719126859530661 2.8451457813189336 0 0 0 0 -8.4924398516886868 29.678445633968295 0 29.678445633968295 2.9130104174273583 0 0 0 0 -2.2219282609403308 31.16733940888389 0 31.16733940888389 18.032627628476803 0 0 0 0 -0.03638105447680573 30.567045178940134 0 30.567045178940134 6.8642868961651402 0 0 0 0 -5.7072633761636098 27.016382107694881 0 27.016382107694881 15.24013372151785 0 0 0 0 -3.6105098999942129 31.803379988646157 0 31.803379988646157 7.2652029983030388 0 0 0 0 1.7267552909142978 32.701067476252319 0 32.701067476252319 -0.13330700921414973 0 0 0 0 -1.3142540398202982 31.489050376058572 0 31.489050376058572 -0.47803404980186315 0 0 0 0 -0.77187779051200778 31.578460775201165 0 31.578460775201165 -5.182758903805734 0 0 0 0 -0.35387641441411688 29.03295747393895 0 29.03295747393895 -7.3311724380814667 0 0 0 0 1.7361518265788618 33.979387579521244 0 33.979387579521244 -9.2611702461217646 0 0 0 0 -5.0059515313914744 30.096520834649709 0 30.096520834649709 0.43662551825400442 0 0 0 0 -7.2413125635430333 28.494366326623549 0 28.494366326623549 0.6565030158344598 0 0 0 0 -9.9688588745484594 27.689738255550765 0 27.689738255550765 1.4573547412237531 0 0 0 0 -7.0167172337969532 28.323111332097142 0 28.323111332097142 -0.90123335221869638 0 0 0 0 -1.9909955400507897 32.136571356694731 0 32.136571356694731 -1.0512959175284777 0 0 0 0 -4.993105477969948 29.969673013075408 0 29.969673013075408 1.6139264918188019 0 0 0 0 -1.0741882715155953 29.168322412882844 0 29.168322412882844 -4.0327673041665548 0 0 0 0 -2.0319746161112562 27.922957990036593 0 27.922957990036593 -3.5323931466018621 0 0 0 0 -2.7864586019568378 29.250378786388865 0 29.250378786388865 -3.8820736632333137 0 0 0 0 -3.8017011259798892 28.07004866853913 0 28.07004866853913 -3.3698163998433301 0 0 0 0 -4.2180918803060194 28.293359202271404 0 28.293359202271404 -1.1194663861533627 0 0 0 0 -5.9581919179108809 25.700369285954366 0 25.700369285954366 -2.0528379106231114 0 0 0 0 -6.018265796607011 26.420592968886922 0 26.420592968886922 -1.5334100288282571 0 0 0 0 -3.2376836164257838 23.043559228901358 0 23.043559228901358 -2.874858513720028 0 0 0 0 -2.5896586439289422 24.423818628673985 0 24.423818628673985 -1.7968415666127839 0 0 0 0 -2.4105904852212916 26.107416160826688 0 26.107416160826688 -5.3417026643946883 0 0 0 0 0.35838434756806237 24.480994371627276 0 24.480994371627276 -4.3921461683253256 0 0 0 0 3.565189434466447 20.033719645436122 0 20.033719645436122 -7.9244377484817505 0 0 0 0 0.40966436517737748 25.325784166058384 0 25.325784166058384 -10.76734617704642 0 0 0 0 -1.5387859927577665 22.630880131533559 0 22.630880131533559 -3.7287800681833687 0 0 0 0 0.28038381235637644 28.825361400777865 0 28.825361400777865 -10.872585451106715 0 0 0 0 2.0341824230526981 27.931365029050539 0 27.931365029050539 -6.8405114185356979 0 0 0 0 2.293480724132678 29.323448226218034 0 29.323448226218034 -16.041480328937723 0 0 0 0 5.2279917955820565 22.94657559631878 0 22.94657559631878 -13.629526455451241 0 0 0 0 4.9732797631695576 25.041675072610815 0 25.041675072610815 -28.92794257630203 0 0 0 0 -1.0507292832953681 33.30800920179172 0 33.30800920179172 -17.454396261742659 0 0 0 0 -5.36370012903717 35.882793747332926 0 35.882793747332926 -10.53046930273922 0 0 0 0 -1.3321091154557507 27.908858486340719 0 27.908858486340719 -24.567814835880199 0 0 0 0 -15.806860716178562 36.461377978525661 0 36.461377978525661 -29.586750872354514 0 0 0 0 -24.416355461824423 12.698611876153791 0 12.698611876153791 -27.698704421753746 0 0 0 0 -3.1171756888725213 21.158910161573203 0 21.158910161573203 -24.50924718832448 0 0 0 0 -0.014158920853334499 29.79019720394977 0 29.79019720394977 -6.8876855370654084 0 0 0 0 -5.5663672297887388 21.607393049144321 0 21.607393049144321 6.4060751475708457 0 0 0 0 3.9301551979333453 32.32365435799511 0 32.32365435799511 -0.69145318856226368 0 0 0 0 -4.0650591625199013 28.747409656661148 0 28.747409656661148 -2.1210806947892706 0 0 0 0 -22.516461830640765 -45.631107750339652 0 -45.631107750339652 -28.945123436662925 0 0 0 0 -38.805471444440627 -17.857656671299992 0 -17.857656671299992 18.905390310317671 0 0 0 0 -36.174980560768745 1.9090738317049727 0 1.9090738317049727 -47.192607374637191 0 0 0 0 -57.724730270667351 -6.5050589622881034 0 -6.5050589622881034 17.071651324164122 0 0 0 0 -55.261797519205174 -17.507939567089664 0 -17.507939567089664 48.920839788437661 0 0 0 0 -54.759465556816167 -12.714413967227131 0 -12.714413967227131 55.625448332361884 0 0 0 0 -10.956310310078152 -30.162713649503758 0 -30.162713649503758 58.96565735178774 0 0 0 0 -20.499867591155635 -8.5610552721591375 0 -8.5610552721591375 14.268981133402804 0 0 0 0 21.907852493706741 18.150376132248311 0 18.150376132248311 40.408541172143941 0 0 0 0 31.306336833856335 38.063430009497907 0 38.063430009497907 17.182684492581757 0 0 0 0 21.428015088828033 -30.306261996151761 0 -30.306261996151761 4.7581172121423378 0 0 0 0 -7.0018918583446066 1.8563147492413918 0 1.8563147492413918 -28.82033695720861 0 0 0 0 1.5078895964629737 20.926631153314524 0 20.926631153314524 -67.88334474508315 0 0 0 0 -7.501409103352934 1.7038295462603017 0 1.7038295462603017 0.91607986879393 0 0 0 0 -4.4763271598494612 8.0582194837223824 0 8.0582194837223824 7.1516605870683634 0 0 0 0 3.3788098392128632 -34.054545739230953 0 -34.054545739230953 -55.17331112399529 0 0 0 0 -13.249713845915267 2.7106851105433236 0 2.7106851105433236 2.8123084656738229 0 0 0 0 -6.5494702200965769 2.1443565122608703 0 2.1443565122608703 1.6570028294506765 0 0 0 0 -3.1035709704483452 6.5450860550512289 0 6.5450860550512289 8.1373365250376537 0 0 0 0 -7.6642168855593944 4.6705589923142945 0 4.6705589923142945 4.5078297429560896 0 0 0 0 -5.5462377272927732 3.2389317694871589 0 3.2389317694871589 0.86550177046358234 0 0 0 0 -15.391982533601549 -44.352494714632599 0 -44.352494714632599 -58.14906399274787 0 0 0 0 -4.6999663789270736 7.4161638695338254 0 7.4161638695338254 5.3645091245753864 0 0 0 0 -13.063521790825689 18.509353395490052 0 18.509353395490052 3.3027651523498207 0 0 0 0 -17.583059460079312 7.9419837198099685 0 7.9419837198099685 6.4191011471634738 0 0 0 0 -15.31479211542046 8.3308386049445744 0 8.3308386049445744 4.2971323857502739 0 0 0 0 -8.6480920637113741 17.135651860613507 0 17.135651860613507 3.8724286935320151 0 0 0 0 -12.913778713907959 18.214721116136388 0 18.214721116136388 3.8719767814905026 0 0 0 0 -8.1045143728551921 20.664352000376539 0 20.664352000376539 1.1271079219623061 0 0 0 0 -2.6126419553365849 19.502101150999351 0 19.502101150999351 0.2917734262855447 0 0 0 0 -7.7706023623468354 22.72815411542706 0 22.72815411542706 0.099607814024238905 0 0 0 0 -8.6805514262123324 21.734620400850417 0 21.734620400850417 -0.4402856092347065 0 0 0 0 -6.9323477566140355 27.209220924819874 0 27.209220924819874 0.1298598784233036 0 0 0 0 -8.7601544197968906 25.3268571209328 0 25.3268571209328 -0.81311178046962596 0 0 0 0 -5.6278304503503023 24.949924774955434 0 24.949924774955434 -0.78708533514145529 0 0 0 0 -9.6214734940585913 24.003264781073995 0 24.003264781073995 0.77614151359921379 0 0 0 0 -11.731028098365641 24.332317713772682 0 24.332317713772682 1.7516424407258455 0 0 0 0 -11.169167745254526 23.819633097434235 0 23.819633097434235 0.84497365267816349 0 0 0 0 -9.4583327143845963 25.88679146844197 0 25.88679146844197 0.57058727375260787 0 0 0 0 -14.854836400147178 21.823231582857261 0 21.823231582857261 2.16275165553634 0 0 0 0 -13.358316164580174 22.317887361701651 0 22.317887361701651 2.2909748928832414 0 0 0 0 -11.079581011670598 21.180847613605465 0 21.180847613605465 1.9179246587082162 0 0 0 0 -14.063844712953141 20.925165520138762 0 20.925165520138762 2.6110181236945209 0 0 0 0 -18.656854721106356 20.187017483995078 0 20.187017483995078 2.7617697319947183 0 0 0 0 -23.224515173475083 19.829524687742378 0 19.829524687742378 4.1716732726126793 0 0 0 0 -21.754443323083251 22.287855164746816 0 22.287855164746816 3.6684977130753396 0 0 0 0 -15.618547267011309 22.060623706071055 0 22.060623706071055 2.2746525188376836 0 0 0 0 -18.150321542387246 23.839896794101151 0 23.839896794101151 3.5520451166657949 0 0 0 0 -15.774349992912903 25.530755252338167 0 25.530755252338167 2.4877468023478286 0 0 0 0 -17.451927919653826 23.165033862299424 0 23.165033862299424 2.3645294648595154 0 0 0 0 -15.798361452949393 23.129050261238945 0 23.129050261238945 2.7426234508020571 0 0 0 0 -14.467835625015141 24.151548175689641 0 24.151548175689641 1.8679825262042868 0 0 0 0 -14.241431876624119 23.807499662352711 0 23.807499662352711 2.0792948602047545 0 0 0 0 -12.840298966023056 26.35211008350575 0 26.35211008350575 2.1784516703228292 0 0 0 0 -12.736378359652008 24.836400213633169 0 24.836400213633169 1.3128972988815804 0 0 0 0 -13.746754353414872 25.831162616977963 0 25.831162616977963 2.0151431506092194 0 0 0 0 -13.944472944487643 26.078495140532141 0 26.078495140532141 2.6011048143745938 0 0 0 0 -9.7474663728789892 26.840280641257777 0 26.840280641257777 0.13773727810010428 0 0 0 0 -9.6751516705626273 26.01495099373642 0 26.01495099373642 0.65556971107525897 0 0 0 0 -57.706319933901881 -11.760731227636626 0 -11.760731227636626 36.047287122431044 0 0 0 0 -98.184126927145371 -2.5338911508417823 0 -2.5338911508417823 2.7736461796519052 0 0 0 0 -4.3370745049409374 -0.019997993491417176 0 -0.019997993491417176 0.04748704849951757 0 0 0 0 -15.46574758749642 9.5588702944543371 0 9.5588702944543371 5.3490727459624603 0 0 0 0 -16.928262987094058 16.717557587854571 0 16.717557587854571 2.756857712589408 0 0 0 0 -22.108003370238293 16.305307932871074 0 16.305307932871074 3.5661738872950082 0 0 0 0 -96.978319496297445 3.0860658496064843 0 3.0860658496064843 21.796180519024347 0 0 0 0 -51.875926658425669 -8.7797839529221164 0 -8.7797839529221164 14.081034864714638 0 0 0 0 0.0084170825465466059 19.741276419897059 0 19.741276419897059 7.5425185120141425 0 0 0 0 -33.762114551202103 22.093982317991504 0 22.093982317991504 9.1991655799583896 0 0 0 0 -52.193027668595732 -5.2678412236156476 0 -5.2678412236156476 56.07430288348769 0 0 0 0 -46.67551448678023 44.523139897001784 0 44.523139897001784 -11.638579466110968 0 0 0 0 -28.849280125923542 28.959175756387367 0 28.959175756387367 7.322373941818114 0 0 0 0 -14.707872926242999 26.897050236250834 0 26.897050236250834 4.4120242023991523 0 0 0 0 -11.058478051658312 28.779201104404819 0 28.779201104404819 2.5972360860087065 0 0 0 0 -14.994658442767104 28.047238016763004 0 28.047238016763004 3.4455974946722563 0 0 0 0 -20.596101236711547 22.755811352477394 0 22.755811352477394 3.8134611316902465 0 0 0 0 -20.090942549846659 26.519218241886847 0 26.519218241886847 4.6343978095374041 0 0 0 0 -21.193107992315163 29.944836480085996 0 29.944836480085996 3.1527229108887695 0 0 0 0 -16.140841992768401 27.944229481789989 0 27.944229481789989 8.8329324590304168 0 0 0 0 -17.705542989253445 25.259249421692857 0 25.259249421692857 5.6903810798721679 0 0 0 0 -37.865744069518769 24.320396966868202 0 24.320396966868202 12.137863358875165 0 0 0 0 -15.9641043747597 24.954261210733648 0 24.954261210733648 2.6712689757277985 0 0 0 0 -14.293269768048049 22.196316234724691 0 22.196316234724691 6.3492404122632706 0 0 0 0 -71.070970280443817 60.209604462860625 0 60.209604462860625 27.080070969607959 0 0 0 0 1.2813138132952149 20.028693290732907 0 20.028693290732907 4.9525722508925121 0 0 0 0 -93.462991199741737 8.4322074714409609 0 8.4322074714409609 -22.338604929360372 0 0 0 0 -13.137891806441985 76.706181169069168 0 76.706181169069168 25.04425317790583 0 0 0 0 3.7306599760613608 49.935068799386499 0 49.935068799386499 -3.0951351454032192 0 0 0 0 -26.832557272593476 35.516581318934186 0 35.516581318934186 20.539935015282651 0 0 0 0 -40.575757073225759 21.455905458309644 0 21.455905458309644 81.959531097537365 0 0 0 0 -46.751051460516891 41.999368742829979 0 41.999368742829979 46.720958056908785 0 0 0 0 -42.193091095183263 9.5904616245443322 0 9.5904616245443322 2.4844594230380608 0 0 0 0 -10.893101951817698 54.452398420035706 0 54.452398420035706 39.754122333662053 0 0 0 0 -13.527300055264277 15.767932889744657 0 15.767932889744657 68.872598031972302 0 0 0 0 -28.70366326968724 -7.3645551900898454 0 -7.3645551900898454 54.516455861696159 0 0 0 0 -50.10534363851184 -2.4028576580358276 0 -2.4028576580358276 58.119873553994466 0 0 0 0 -48.304268037980364 -6.7892812742820752 0 -6.7892812742820752 45.462914758679517 0 0 0 0 -14.266552898156078 51.33534744414942 0 51.33534744414942 139.02451103546628 0 0 0 0 20.856397645660763 -26.472455622674033 0 -26.472455622674033 120.76397076149897 0 0 0 0 108.38326522481657 -20.930880412533043 0 -20.930880412533043 52.164942583447328 0 0 0 0 127.97728612971616 100.10099673762051 0 100.10099673762051 86.757861821949064 0 0 0 0 62.828043221720691 106.59675204639916 0 106.59675204639916 51.1867714391974 0 0 0 0 129.06973969713817 39.343605389419622 0 39.343605389419622 -31.542702607699539 0 0 0 0 34.216662992453621 32.631437264616352 0 32.631437264616352 -26.325812173732629 0 0 0 0 32.376263980130716 42.268493347686444 0 42.268493347686444 -12.877669901482022 0 0 0 0 7.8773017706043902 59.112901283314841 0 59.112901283314841 -6.074196366955789 0 0 0 0 -3.7752564368774983 43.614515097402432 0 43.614515097402432 -8.0891102549458083 0 0 0 0 5.0525608293789901 20.446736449669871 0 20.446736449669871 -41.9619166331413 0 0 0 0 17.275247156484511 38.708005751459496 0 38.708005751459496 -28.280120475490548 0 0 0 0 -12.863431804387801 22.105267175811662 0 22.105267175811662 1.1220238717833126 0 0 0 0 -49.846714984253595 37.584205542019617 0 37.584205542019617 8.7725970065694128 0 0 0 0 1.9788206002492117 20.123279013429347 0 20.123279013429347 1.8116250005420476 0 0 0 0 1.6175272948498787 35.251746540446675 0 35.251746540446675 -15.695363216567557 0 0 0 0 -31.967263012711555 17.225443362495525 0 17.225443362495525 10.202614414150958 0 0 0 0 -12.461951842666167 4.3001261064664504 0 4.3001261064664504 8.9627031975865066 0 0 0 0 -2.8221880210864256 6.7156129125571979 0 6.7156129125571979 1.1180085881910919 0 0 0 0 7.0147370739687176 18.180751906709702 0 18.180751906709702 -0.71355147271378883 0 0 0 0 4.9271480306179001 6.6639103622974289 0 6.6639103622974289 -15.481925926927943 0 0 0 0 -12.22139051861285 16.583873191785869 0 16.583873191785869 8.9495351972918797 0 0 0 0 13.119883485273817 20.494072329259524 0 20.494072329259524 -10.092417588344688 0 0 0 0 2.4754237293318564 15.319683705677045 0 15.319683705677045 -0.67226108951649266 0 0 0 0 19.140354108007159 13.169843590526398 0 13.169843590526398 -14.774000449913729 0 0 0 0 16.075056149438751 22.602036729413157 0 22.602036729413157 -8.5943045773724407 0 0 0 0 5.3928990538583541 0.25462213208841433 0 0.25462213208841433 -0.075189624826027313 0 0 0 0 11.767427316409339 24.821561280518836 0 24.821561280518836 -50.566885360021161 0 0 0 0 6.4265961248020176 34.540191831136326 0 34.540191831136326 -17.776316729353312 0 0 0 0 5.7627522187110962 6.2031659557379797 0 6.2031659557379797 0.33888044726737387 0 0 0 0 0.37569375300699903 11.312258501081487 0 11.312258501081487 7.8937657576316269 0 0 0 0 -4.1772421329924327 10.203608715888095 0 10.203608715888095 35.991243598487927 0 0 0 0 3.3115192131035656 17.488266424911671 0 17.488266424911671 101.94832000244605 0 0 0 0 1.7473360028340998 0.21938124177744101 0 0.21938124177744101 0.0083747933360944771 0 0 0 0 6.5695390627060988 6.9308426246420822 0 6.9308426246420822 29.491975393214602 0 0 0 0 10.013989563422911 12.904558528063262 0 12.904558528063262 -67.959772448999502 0 0 0 0 -123.85097798197603 95.943935816380872 0 95.943935816380872 -58.55518212164634 0 0 0 0 36.009871505180854 -13.823680825526026 0 -13.823680825526026 -47.277280657769552 0 0 0 0 95.075975454688887 98.51881168755358 0 98.51881168755358 -157.89978651749334 0 0 0 0 71.819006652827738 27.757106886585461 0 27.757106886585461 25.184621385954756 0 0 0 0 -165.20519309410884 -22.142949243801013 0 -22.142949243801013 129.55564237876206 0 0 0 0 37.912896746864135 -54.28129109044653 0 -54.28129109044653 72.20185065923215 0 0 0 0 -56.859780342456361 23.032378070515733 0 23.032378070515733 36.553608193050309 0 0 0 0 -12.460689980608549 57.753936424639505 0 57.753936424639505 51.587455198557109 0 0 0 0 -131.13593390854112 128.62854630249149 0 128.62854630249149 13.904352984210163 0 0 0 0 54.910668192123012 85.36074021002878 0 85.36074021002878 1.8769688328775374 0 0 0 0 -8.5897178209961567 59.605988990942933 0 59.605988990942933 12.109592586468807 0 0 0 0 6.7066470859505216 10.685534474155617 0 10.685534474155617 76.749153803311856 0 0 0 0 58.838749263541104 -35.219156545454098 0 -35.219156545454098 -2.0025770992069738 0 0 0 0 4.7868912035903577 32.027124878177574 0 32.027124878177574 -92.929324438184267 0 0 0 0 -14.149942040402493 -15.007584379800846 0 -15.007584379800846 1.7698723176208659 0 0 0 0 0.070108024708663841 0.51977559168318166 0 0.51977559168318166 -2.0389926898472659 0 0 0 0 15.846801225703075 -13.900584508088969 0 -13.900584508088969 -4.2455089899940504 0 0 0 0 17.677764801021112 -8.2776724556497356 0 -8.2776724556497356 -13.208203662915366 0 0 0 0 14.203834723492037 -8.9881752973192306 0 -8.9881752973192306 -13.328027426166955 0 0 0 0 29.706416442092632 2.2360555124018902 0 2.2360555124018902 -35.917192660301225 0 0 0 0 13.296252036860096 -0.41097859183173568 0 -0.41097859183173568 -26.813382745701347 0 0 0 0 8.9265162359242822 0.018367433893217822 0 0.018367433893217822 -25.269622181557679 0 0 0 0 2.890616173066519 21.873595401341845 0 21.873595401341845 -43.8349930528193 0 0 0 0 17.999076587719173 -8.9411783649475183 0 -8.9411783649475183 -12.745659811313999 0 0 0 0 14.381942261946165 -8.9640866038773481 0 -8.9640866038773481 -11.450349046407609 0 0 0 0 -0.0072574291918252598 0.011559586427903668 0 0.011559586427903668 -5.693283763983743 0 0 0 0 0.29711887732537434 2.8889973331461078 0 2.8889973331461078 -12.158841214631593 0 0 0 0 0.90854573501746927 19.840935966794177 0 19.840935966794177 -17.241875862810502 0 0 0 0 -4.9551699952717172 30.868072138534899 0 30.868072138534899 -46.823562890426729 0 0 0 0 15.243840209253449 11.675041457340583 0 11.675041457340583 -29.697474443077226 0 0 0 0 -20.242452750065468 17.371067410956812 0 17.371067410956812 -21.233346321262616 0 0 0 0 -11.812258431957162 17.555531026697054 0 17.555531026697054 -24.04899429499801 0 0 0 0 -0.89756423727430956 17.105659427746559 0 17.105659427746559 5.7962706634225469 0 0 0 0 1.5563033315538632 15.900719402406139 0 15.900719402406139 1.6909891840177806 0 0 0 0 -10.230569135172118 12.411534137038188 0 12.411534137038188 3.118245004394339 0 0 0 0 -7.0924212131193478 8.9642994940160552 0 8.9642994940160552 -3.1613818439566437 0 0 0 0 -3.7419000233221595 16.13896585567818 0 16.13896585567818 -1.0663833647464287 0 0 0 0 -8.1084086561650111 20.958062663963119 0 20.958062663963119 20.997306796177327 0 0 0 0 -10.12497693181831 13.764379761433702 0 13.764379761433702 7.311356862086086 0 0 0 0 -13.477427556874545 18.711620473113953 0 18.711620473113953 63.796697959050107 0 0 0 0 1.5665337015951124 0.42550598059805722 0 0.42550598059805722 0.52496108035964184 0 0 0 0 82.928769004007336 18.194612019026863 0 18.194612019026863 -17.127939822182448 0 0 0 0 21.43177724029556 56.987142780245449 0 56.987142780245449 27.117177895889654 0 0 0 0 3.0184890230775636 11.277117284054839 0 11.277117284054839 -18.453509989905115 0 0 0 0 74.208688964868088 25.43978905002848 0 25.43978905002848 -16.68447657937395 0 0 0 0 17.077443071142625 18.035821649073114 0 18.035821649073114 -53.987826237431563 0 0 0 0 0.37282941175544693 4.6716624833329661 0 4.6716624833329661 -32.864709542342098 0 0 0 0 18.500692126295689 17.949460156544774 0 17.949460156544774 -34.628717452369528 0 0 0 0 12.972713552215282 7.1329149970015351 0 7.1329149970015351 -54.248379894648679 0 0 0 0 6.0577766929272912 7.0591046049585202 0 7.0591046049585202 -70.880235928058028 0 0 0 0 -6.8801318245514267 42.827460874332246 0 42.827460874332246 -14.682648227310892 0 0 0 0 0.25410627517720741 1.5333182387697275 0 1.5333182387697275 2.4272896041447911 0 0 0 0 -3.9937462383750244 29.547785624279186 0 29.547785624279186 -1.4790412417814878 0 0 0 0 -4.8722073168455609 38.072380924939409 0 38.072380924939409 12.469321417764149 0 0 0 0 -6.6376548445805383 32.953754321626548 0 32.953754321626548 22.938082360320323 0 0 0 0 8.9834274474433187 18.083448996534116 0 18.083448996534116 -30.752555283925631 0 0 0 0 3.6855183449742981 9.9513644470084728 0 9.9513644470084728 -20.516114127007313 0 0 0 0 -1.7871916668873382 6.4765944478681376 0 6.4765944478681376 23.698697154673937 0 0 0 0 15.116336305934965 38.363078164512444 0 38.363078164512444 8.7916511527109833 0 0 0 0 -7.8914424816321116 18.521326442379177 0 18.521326442379177 48.892599366917239 0 0 0 0 18.021947289873424 20.236993004922169 0 20.236993004922169 -0.60853477791079058 0 0 0 0 -2.7964262813155045 2.9999800077893664 0 2.9999800077893664 2.8615506770600643 0 0 0 0 0.51625136203801958 39.461348076679769 0 39.461348076679769 17.964340748561881 0 0 0 0 5.5910380825053956 5.6584560639108421 0 5.6584560639108421 3.1480618466061845 0 0 0 0 7.8274312071827126 8.769573827651385 0 8.769573827651385 1.5472365951686697 0 0 0 0 13.18222127593981 13.72053329779601 0 13.72053329779601 0.51777138726532712 0 0 0 0 6.8346765048218003 10.815885856156683 0 10.815885856156683 9.6931975884704116 0 0 0 0 -2.5928203353417789 3.9982885826283523 0 3.9982885826283523 0.3337029547905086 0 0 0 0 5.9282371223844166 6.7810360394712461 0 6.7810360394712461 0.12647963164772591 0 0 0 0 2.6529976855194946 6.7077964600721316 0 6.7077964600721316 4.9089421255403067 0 0 0 0 1.1281731765766807 2.5268756525041973 0 2.5268756525041973 0.2654353855098357 0 0 0 0 4.7711700248319175 5.0945686510410724 0 5.0945686510410724 5.2123044254408342 0 0 0 0 4.6513988080470412 4.9986347281642374 0 4.9986347281642374 1.4449500973873812 0 0 0 0 3.9956966584877591 7.0120014186753679 0 7.0120014186753679 3.7137867043443293 0 0 0 0 1.2997935960411269 6.3829892802428958 0 6.3829892802428958 3.1581546615100251 0 0 0 0 2.2874219698437912 4.5064970212669522 0 4.5064970212669522 1.1591632021845921 0 0 0 0 -3.0854804512109695 -19.993308713353372 0 -19.993308713353372 -18.484721540155533 0 0 0 0 1.5893374604873998 2.4025164543519097 0 2.4025164543519097 -3.0078834534965102 0 0 0 0 4.4479985956922974 6.3610105577708964 0 6.3610105577708964 3.80407979925576 0 0 0 0 -36.616894227136072 -20.021470107200003 0 -20.021470107200003 -18.125117526331792 0 0 0 0 11.275781283518882 -8.2614892035126104 0 -8.2614892035126104 -27.529648034253569 0 0 0 0 -11.89873304890898 28.182943190153765 0 28.182943190153765 -21.941393636587691 0 0 0 0 3.8471914617471157 5.7938312537957017 0 5.7938312537957017 4.3221455815264562 0 0 0 0 4.2743791292019395 4.8774671265558975 0 4.8774671265558975 0.9330225766379856 0 0 0 0 2.3635346526876297 3.4031684175297272 0 3.4031684175297272 -0.84364626571207602 0 0 0 0 -7.2736974061635919 -10.834590586364754 0 -10.834590586364754 -17.436401195374856 0 0 0 0 23.108811371746924 7.3824019685282565 0 7.3824019685282565 -22.586616118386701 0 0 0 0 15.876304906497353 13.747428891054369 0 13.747428891054369 4.7823844762651788 0 0 0 0 32.674724719979167 18.183708020951826 0 18.183708020951826 6.6196062191279452 0 0 0 0 44.385652983982254 33.563571638847293 0 33.563571638847293 4.6302241228800085 0 0 0 0 42.109797089760832 13.628833397282733 0 13.628833397282733 -7.7755729578640285 0 0 0 0 52.725691282880689 41.54634312824038 0 41.54634312824038 28.664718673791867 0 0 0 0 59.557220828338814 14.575678788176418 0 14.575678788176418 -6.8065012470183319 0 0 0 0 54.321426457386224 59.170201415899783 0 59.170201415899783 73.841228637981885 0 0 0 0 171.78468372688258 116.95135855284468 0 116.95135855284468 95.567868332528292 0 0 0 0 182.08642812669314 -91.456798438361716 0 -91.456798438361716 140.71929077552613 0 0 0 0 99.273133286184134 -5.6940861163344607 0 -5.6940861163344607 28.575593845365347 0 0 0 0 101.50029730702772 50.243317057728746 0 50.243317057728746 23.06123360403717 0 0 0 0 42.79121782655784 -9.1834691132071384 0 -9.1834691132071384 74.042275566109311 0 0 0 0 36.787245597331093 8.5885202667645899 0 8.5885202667645899 37.677630934005265 0 0 0 0 47.54674824027461 20.647020313955636 0 20.647020313955636 64.549942423968787 0 0 0 0 32.929035062796174 -37.874849776857218 0 -37.874849776857218 145.97910114751812 0 0 0 0 -24.101410977124033 32.21915429432056 0 32.21915429432056 63.539997682160134 0 0 0 0 -19.588197339257022 -2.0909427170698791 0 -2.0909427170698791 43.221521857308289 0 0 0 0 -3.2464864718504032 -19.510958173878635 0 -19.510958173878635 61.312042462988074 0 0 0 0 -0.51956140776042048 -25.604692187187496 0 -25.604692187187496 12.195251436718536 0 0 0 0 29.883705234424269 -17.102058947374417 0 -17.102058947374417 23.994524865753647 0 0 0 0 3.9826888280465482 9.910476600144591 0 9.910476600144591 -1.9554152360756234 0 0 0 0 32.650402459948964 14.154183778624201 0 14.154183778624201 25.622918053273679 0 0 0 0 16.280526197121162 -19.336024218212515 0 -19.336024218212515 -42.625758508904255 0 0 0 0 -17.330680066628702 13.499522896581766 0 13.499522896581766 -2.4158300912029063 0 0 0 0 18.820510128494789 -0.32614247655124018 0 -0.32614247655124018 -7.1845339377632627 0 0 0 0 -8.0342892662956729 -20.76912975505843 0 -20.76912975505843 -48.248641687637246 0 0 0 0 -39.517776026664251 -16.824705824414764 0 -16.824705824414764 10.518050506724649 0 0 0 0 0.33305775425256812 0.0071641979757828267 0 0.0071641979757828267 -1.2630286738364003 0 0 0 0 -7.7101382825202336 -15.425447920449578 0 -15.425447920449578 -4.6828941669994038 0 0 0 0 -2.2157299442600085 1.6779457714690218 0 1.6779457714690218 -0.06209807444252613 0 0 0 0 -11.022355176733981 -2.5062722255170229 0 -2.5062722255170229 -0.4300776958843926 0 0 0 0 -20.129906208948341 -6.8920175686482992 0 -6.8920175686482992 15.382495414271489 0 0 0 0 -18.874028023737992 6.99157670618456 0 6.99157670618456 31.491438464473958 0 0 0 0 -11.913245145211476 21.334635885778539 0 21.334635885778539 18.412214737125169 0 0 0 0 -16.314263667582964 6.0951057511659883 0 6.0951057511659883 7.9086975211562276 0 0 0 0 -11.599805890808057 0.74499664530890186 0 0.74499664530890186 10.461416204946659 0 0 0 0 1.060363519652233 3.7698958667879463 0 3.7698958667879463 2.6127820647080213 0 0 0 0 -11.588992393559238 7.9241569994083534 0 7.9241569994083534 5.131834530543756 0 0 0 0 -11.856752433187467 2.1750873819157164 0 2.1750873819157164 2.5664797889239708 0 0 0 0 -13.076901876231204 9.0960258812234542 0 9.0960258812234542 10.212463242096646 0 0 0 0 -0.1718666138494882 7.0623914552438691 0 7.0623914552438691 6.6174543741767593 0 0 0 0 1.6410457481651974 7.9225280603623105 0 7.9225280603623105 5.9732962334073818 0 0 0 0 1.6796276856148324 5.7718618712190164 0 5.7718618712190164 2.4529078814503009 0 0 0 0 -2.6170793460367605 3.0989891886697194 0 3.0989891886697194 0.073742173991510285 0 0 0 0 -3.6314788883159714 2.9153209572854717 0 2.9153209572854717 0.46620929445206993 0 0 0 0 7.6951982588525425 25.248891551065299 0 25.248891551065299 11.492282528550476 0 0 0 0 103.80905646237989 74.565679174987963 0 74.565679174987963 53.405747728953202 0 0 0 0 1.0157710297979516 1.8459624047827354 0 1.8459624047827354 1.0905220217839888 0 0 0 0 -9.0181569915748696 -5.8588125780229348 0 -5.8588125780229348 73.374775126117129 0 0 0 0 75.46247580173258 37.601797290856325 0 37.601797290856325 5.5540681400666472 0 0 0 0 3.3829793764910363 0.58726657208756183 0 0.58726657208756183 -1.2971266448097987 0 0 0 0 2.0262383568478981 105.59140803628702 0 105.59140803628702 235.25918267863085 0 0 0 0 -14.117076054832978 56.358892869282613 0 56.358892869282613 112.52117561903788 0 0 0 0 1.4628792699607835 -0.23453384315843895 0 -0.23453384315843895 -0.13399107524272691 0 0 0 0 2.7770095346004382 12.081445063365663 0 12.081445063365663 -3.4148076778401446 0 0 0 0 70.288371559183361 -24.869464986487401 0 -24.869464986487401 -18.886150658610518 0 0 0 0 41.991857297823117 0.15253906898504965 0 0.15253906898504965 -11.372017563473491 0 0 0 0 -4.3526836651399208 7.29455775137194 0 7.29455775137194 -3.7418902798033287 0 0 0 0 1.7945437378792839 1.0243989073917916 0 1.0243989073917916 -9.6265818072957199 0 0 0 0 1.7463594059663592 8.6365091972592154 0 8.6365091972592154 -14.761578228964481 0 0 0 0 11.136448461509644 7.3566305549811659 0 7.3566305549811659 -16.505938849355971 0 0 0 0 16.898004736916846 19.624208512813993 0 19.624208512813993 -31.175908803062612 0 0 0 0 18.291521808269636 6.7247312557045689 0 6.7247312557045689 -23.051600765136754 0 0 0 0 5.6942845005461855 7.9242277527323894 0 7.9242277527323894 1.8481569376320892 0 0 0 0 13.787573820867692 12.84577847048854 0 12.84577847048854 -29.102522332251397 0 0 0 0 -4.4210718270260259 25.374222066713628 0 25.374222066713628 -14.989747417067974 0 0 0 0 6.191932302778298 8.0869586709283929 0 8.0869586709283929 2.1782893593776045 0 0 0 0 14.676151669068531 12.044515914386466 0 12.044515914386466 -66.927181801693223 0 0 0 0 0.30391516508075611 1.4428877857796181 0 1.4428877857796181 3.365972271546136 0 0 0 0 12.324684263528752 11.849389945353209 0 11.849389945353209 -39.865922742075782 0 0 0 0 2.0384398621881701 8.2619150223190445 0 8.2619150223190445 -9.72795260230032 0 0 0 0 -0.15933951518309186 2.9075390147013422 0 2.9075390147013422 -3.137299945241466 0 0 0 0 12.127013794751292 23.268219483942744 0 23.268219483942744 5.5523855296123656 0 0 0 0 22.441844042685261 15.710717067498308 0 15.710717067498308 -10.814659218202536 0 0 0 0 9.5348909511303646 23.443592212580825 0 23.443592212580825 21.97717487312957 0 0 0 0 7.2428787144508533 -4.7487039115446805 0 -4.7487039115446805 -1.7952254698493562 0 0 0 0 -5.1758418292592978 17.88017952398468 0 17.88017952398468 13.068160618026468 0 0 0 0 -2.2205212725893944 24.977604824283162 0 24.977604824283162 47.731440352823029 0 0 0 0 -0.71140046951222757 16.369805323754008 0 16.369805323754008 13.414507113765069 0 0 0 0 -6.8909966460605574 10.913352387747068 0 10.913352387747068 84.915906899689617 0 0 0 0 -14.502910159317253 47.488985337965005 0 47.488985337965005 70.584725836193343 0 0 0 0 -8.4158060277550248 55.068391622046761 0 55.068391622046761 76.482210200484587 0 0 0 0 8.9825623069027642 46.611027611113514 0 46.611027611113514 45.298486385512717 0 0 0 0 8.6450656462839106 73.616998785332271 0 73.616998785332271 79.318756678960256 0 0 0 0 23.7133632702662 39.701427401701494 0 39.701427401701494 20.390680797596815 0 0 0 0 26.542577483509376 49.06502550736343 0 49.06502550736343 43.89313441772947 0 0 0 0 8.5692962366374559 47.787189916092871 0 47.787189916092871 53.199857040919142 0 0 0 0 31.288780174299973 65.373732192980015 0 65.373732192980015 56.337323313790591 0 0 0 0 26.052093458969466 49.706978405722111 0 49.706978405722111 43.484601996102583 0 0 0 0 64.955199836951579 74.526098192964923 0 74.526098192964923 58.545076765855129 0 0 0 0 7.7428826695340831 71.67413126780832 0 71.67413126780832 78.147129239468086 0 0 0 0 4.6288790963108113 55.034868751892816 0 55.034868751892816 68.094134353862046 0 0 0 0 12.628914972922757 77.492048005119159 0 77.492048005119159 129.8939866679525 0 0 0 0 13.799221214618228 52.066336136501036 0 52.066336136501036 62.824790987443066 0 0 0 0 16.973099022302904 68.71622706390076 0 68.71622706390076 10.151795944917467 0 0 0 0 18.033622314978402 75.835991364628512 0 75.835991364628512 57.185874077032622 0 0 0 0 15.819369471129903 45.563347713316034 0 45.563347713316034 45.48123171900977 0 0 0 0 15.600712370798647 26.054519199849437 0 26.054519199849437 4.4948250060422197 0 0 0 0 -0.0064882049443255596 -0.36804850739811368 0 -0.36804850739811368 -0.36998700508645488 0 0 0 0 38.670943374307171 49.892832366683024 0 49.892832366683024 26.353749259382766 0 0 0 0 19.809668082463304 13.34352886905998 0 13.34352886905998 -22.933573968653718 0 0 0 0 30.644465377994493 86.87865013413716 0 86.87865013413716 -26.85935421268448 0 0 0 0 30.477933232686155 103.38184050769314 0 103.38184050769314 159.92672178789098 0 0 0 0 41.22856018370112 134.29742317126636 0 134.29742317126636 96.038183048710835 0 0 0 0 107.42060521546682 3.4536891718608445 0 3.4536891718608445 29.047725783570968 0 0 0 0 -24.129866215610036 56.943672003776101 0 56.943672003776101 180.18490085903431 0 0 0 0 -5.6984476993220596 49.219985433719103 0 49.219985433719103 179.32086659258823 0 0 0 0 10.961510072340388 21.814297168001303 0 21.814297168001303 58.82549549379587 0 0 0 0 36.261412138591368 58.490612932890144 0 58.490612932890144 51.741169077268296 0 0 0 0 20.675120874788263 -18.14972657012288 0 -18.14972657012288 -42.73785915581027 0 0 0 0 -1.7546764711879348 0.34577105109806627 0 0.34577105109806627 -1.45204002357579 0 0 0 0 -7.3437286208500154 8.9582158164757857 0 8.9582158164757857 -6.7638872897750844 0 0 0 0 -33.028978471427763 5.3933091378432891 0 5.3933091378432891 50.978610633518116 0 0 0 0 -8.7857046485769388 1.9069927214211475 0 1.9069927214211475 1.8475928251507412 0 0 0 0 -4.9807323701154687 4.1500209852793359 0 4.1500209852793359 -2.6641003540555679 0 0 0 0 -3.2112878535340315 14.239154956699668 0 14.239154956699668 1.570346309455374 0 0 0 0 -7.4536515113086352 6.0543806237608777 0 6.0543806237608777 8.4200802247633959 0 0 0 0 0.44450729685124912 9.4485425705202708 0 9.4485425705202708 0.70492133647719601 0 0 0 0 -12.376154788982845 4.5566196232565197 0 4.5566196232565197 4.2517132250730061 0 0 0 0 1.1438583829567506 20.802820270276698 0 20.802820270276698 15.082923426022717 0 0 0 0 0.51266961896999419 8.1461179008547759 0 8.1461179008547759 10.16666044742442 0 0 0 0 2.4762528359606222 -0.55797465120576817 0 -0.55797465120576817 -4.9201932283482392 0 0 0 0 -2.3322875133074099 5.2011577685952535 0 5.2011577685952535 -1.1934807702258405 0 0 0 0 1.0031455660264328 -4.718524817090838 0 -4.718524817090838 34.218232844707927 0 0 0 0 16.440925616029745 18.384419440046941 0 18.384419440046941 6.4933507176272087 0 0 0 0 7.6247490180358639 3.0443446005491692 0 3.0443446005491692 -1.3440735113723021 0 0 0 0 3.0991901446105139 0.33935327780907354 0 0.33935327780907354 0.35524860950716586 0 0 0 0 18.172084452225135 63.562062626142733 0 63.562062626142733 199.52762248613385 0 0 0 0 71.07635838160968 1.1263203925111327 0 1.1263203925111327 -53.001765513605683 0 0 0 0 5.2590507810909912 18.747754564273009 0 18.747754564273009 111.83082717342921 0 0 0 0 -1.4618023609127704 16.658163216221396 0 16.658163216221396 29.186318360855466 0 0 0 0 7.9394536465360943 -9.218741998018686 0 -9.218741998018686 -16.302900176044488 0 0 0 0 -12.351157585113469 3.0058432662820564 0 3.0058432662820564 15.01195788674579 0 0 0 0 45.628833419494185 19.051597542060563 0 19.051597542060563 -1.8446863097056507 0 0 0 0 -6.9054244410607524 7.5921468149935594 0 7.5921468149935594 -3.8072348891841452 0 0 0 0 -5.8887588811621754 33.727692322495784 0 33.727692322495784 -12.415125651623825 0 0 0 0 3.8528633995802011 11.872977989597985 0 11.872977989597985 13.836355520740653 0 0 0 0 -0.62073262681724373 15.216400785977186 0 15.216400785977186 19.467340258645436 0 0 0 0 -1.8233825189636264 19.528086003161377 0 19.528086003161377 5.0269224449884859 0 0 0 0 26.575263294405886 28.643304452384086 0 28.643304452384086 30.116200171410377 0 0 0 0 -2.0879055685820482 3.4602513726034241 0 3.4602513726034241 -3.4716434688364348 0 0 0 0 6.0635281063187563 23.802706022650199 0 23.802706022650199 30.909151194213337 0 0 0 0 0.31273377596467 0.20762516595410929 0 0.20762516595410929 -0.38888433491753283 0 0 0 0 7.1245067974846279 28.899306738447208 0 28.899306738447208 14.579946738896979 0 0 0 0 -11.571389799462597 3.4107406444914954 0 3.4107406444914954 3.8298659767202352 0 0 0 0 -13.272457892477178 0.33982616901932694 0 0.33982616901932694 14.518503637619657 0 0 0 0 -8.3216009297830169 6.0927407243055178 0 6.0927407243055178 6.0249357446872622 0 0 0 0 -12.08327031989171 8.1229990924856956 0 8.1229990924856956 4.209739871090278 0 0 0 0 -12.353892212475671 0.96969066343221222 0 0.96969066343221222 2.7099826762314478 0 0 0 0 -1.4771492702084288 8.0699789836299374 0 8.0699789836299374 4.6145222827783527 0 0 0 0 0.70570087895794131 8.0531512752136223 0 8.0531512752136223 4.4394493326103657 0 0 0 0 1.9965368493854108 5.1699756367675587 0 5.1699756367675587 5.3613602165281096 0 0 0 0 -3.9777081213105703 10.258949320194574 0 10.258949320194574 8.9743229716905262 0 0 0 0 -8.7282333137372916 18.789270534420893 0 18.789270534420893 -2.01011092057729 0 0 0 0 -2.0339397709754117 0.59403616671159298 0 0.59403616671159298 2.0488951635065931 0 0 0 0 -6.378804325731835 21.203560528454886 0 21.203560528454886 8.423486368285694 0 0 0 0 -11.123434963594264 18.420423972175001 0 18.420423972175001 9.9805863645601676 0 0 0 0 -13.937618416904115 24.323575359794063 0 24.323575359794063 15.41531185423878 0 0 0 0 -2.0379209523362078 30.177127169412586 0 30.177127169412586 10.333700660641853 0 0 0 0 -4.4518691452640269 23.249361834199647 0 23.249361834199647 -7.7182037419229346 0 0 0 0 -2.9188505202446322 13.07132087630518 0 13.07132087630518 -4.1931414496377784 0 0 0 0 50.562335129838175 25.245084636210493 0 25.245084636210493 18.416911963649113 0 0 0 0 -1.9436601240562084 2.8284484217662431 0 2.8284484217662431 1.5157469929766494 0 0 0 0 -0.27945736363562901 13.168930746528702 0 13.168930746528702 -14.053680133923081 0 0 0 0 65.293137792458765 68.110796818444982 0 68.110796818444982 29.177689907979811 0 0 0 0 56.567226502123958 68.154096621248129 0 68.154096621248129 41.513181219203659 0 0 0 0 57.810483170351063 59.131787706586287 0 59.131787706586287 65.111233352425586 0 0 0 0 51.809775535926747 117.756701626905 0 117.756701626905 89.61049856989726 0 0 0 0 -1.2963903445595832 0.24257652389213913 0 0.24257652389213913 0.1801067286449598 0 0 0 0 18.536577518384547 39.809786122959281 0 39.809786122959281 -141.30317007805138 0 0 0 0 -22.051532964151193 138.64135498611256 0 138.64135498611256 45.25178945735189 0 0 0 0 62.212047385788537 128.1316614501024 0 128.1316614501024 9.5434817879687444 0 0 0 0 80.590195877404767 126.55924382755569 0 126.55924382755569 -93.20778762371026 0 0 0 0 228.77950502771455 70.071856246318077 0 70.071856246318077 -119.57571167187325 0 0 0 0 122.3980583402772 2.3006193379027309 0 2.3006193379027309 -54.11421170326571 0 0 0 0 -44.22615010397476 97.512637478812735 0 97.512637478812735 291.99288592489529 0 0 0 0 120.21361065338806 63.654671964478553 0 63.654671964478553 -17.411086409842312 0 0 0 0 56.864691082773788 70.743340949823846 0 70.743340949823846 -13.260345465378833 0 0 0 0 57.352572086143482 45.655147358780198 0 45.655147358780198 23.624833103173216 0 0 0 0 39.486826647251291 62.880561791408525 0 62.880561791408525 63.379570840979113 0 0 0 0 21.477361960476628 35.252936649005619 0 35.252936649005619 23.714078564223218 0 0 0 0 8.936076511430656 9.3644747029431983 0 9.3644747029431983 2.3586159352555001 0 0 0 0 12.17506999105558 -0.081541117097685856 0 -0.081541117097685856 -2.0158781008672122 0 0 0 0 3.5076264962851518 0.37633763757027161 0 0.37633763757027161 -1.4245376854780787 0 0 0 0 -3.97090295617636 23.670917312820052 0 23.670917312820052 53.543663831208619 0 0 0 0 -95.755838816547111 96.08397492909512 0 96.08397492909512 169.04624919905382 0 0 0 0 54.978178236626263 65.570456656233887 0 65.570456656233887 30.373973592445395 0 0 0 0 114.37117661050797 114.86097772544747 0 114.86097772544747 58.013981990160119 0 0 0 0 51.987253630162741 39.89872878552103 0 39.89872878552103 27.537795257334892 0 0 0 0 140.91372985175076 14.772359430765619 0 14.772359430765619 6.0959769187172697 0 0 0 0 0.79211548634928164 5.1737062611838915 0 5.1737062611838915 6.8862142570134512 0 0 0 0 559.06956633536174 86.631877554816356 0 86.631877554816356 -47.710364093292355 0 0 0 0 104.16771452970897 737.05123310322119 0 737.05123310322119 196.8141772012259 0 0 0 0 -56.73397938497601 -5.9720678964173999 0 -5.9720678964173999 129.43675351925367 0 0 0 0 0.80339142037024303 1.3707929231020994 0 1.3707929231020994 2.6839248940028781 0 0 0 0 5.8998782610296949 -0.53244985373421017 0 -0.53244985373421017 -1.0967597939337748 0 0 0 0 453.11183255632022 11.759261722477504 0 11.759261722477504 76.075227941992466 0 0 0 0 26.633000695395822 110.51059763075386 0 110.51059763075386 159.04311538116093 0 0 0 0 16.92823479962027 40.304429705002988 0 40.304429705002988 76.572923997677435 0 0 0 0 -0.33150718936099111 14.33955089600164 0 14.33955089600164 -6.860373375702693 0 0 0 0 -0.80817352780631069 4.6851471117425127 0 4.6851471117425127 -1.9926036250035186 0 0 0 0 39.850210122881435 29.665799716091101 0 29.665799716091101 -4.6216399365503094 0 0 0 0 11.119892652300223 37.509479603307227 0 37.509479603307227 24.621487565365442 0 0 0 0 20.163919044076181 -5.4545220489440567 0 -5.4545220489440567 -57.813016325260833 0 0 0 0 19.980619602187289 -8.9154480523070561 0 -8.9154480523070561 -19.177806308666391 0 0 0 0 29.434405248580219 -12.914861820702086 0 -12.914861820702086 19.918089762678392 0 0 0 0 0.28633029932077392 0.17268033465737176 0 0.17268033465737176 -0.31552998804837085 0 0 0 0 -9.7482013052622705 2.6363407895375115 0 2.6363407895375115 5.83004789158813 0 0 0 0 -2.6191827604616265 18.135640577059121 0 18.135640577059121 48.338629024859983 0 0 0 0 17.464329642980772 40.85270196600419 0 40.85270196600419 24.799668819459157 0 0 0 0 15.697573331561216 28.252428285621136 0 28.252428285621136 21.247192308625017 0 0 0 0 0.35225241550178765 0.28976162104987324 0 0.28976162104987324 -0.48378235876675824 0 0 0 0 11.561473015294723 22.708920431008664 0 22.708920431008664 11.272274479247585 0 0 0 0 12.636073993633545 18.388886906390098 0 18.388886906390098 30.960661646958545 0 0 0 0 -3.4783145114161016 11.823999055145727 0 11.823999055145727 17.042883276221687 0 0 0 0 -2.330389687404022 14.990131103067171 0 14.990131103067171 12.705126701104405 0 0 0 0 -2.1927191182212482 13.857167307587247 0 13.857167307587247 4.7040559411775575 0 0 0 0 0.21074116290446909 6.8496666216443032 0 6.8496666216443032 7.5344560994966514 0 0 0 0 3.9052813215741082 7.129366455686462 0 7.129366455686462 8.3774965413124018 0 0 0 0 -4.370381152129994 13.434095736128256 0 13.434095736128256 12.521250445682881 0 0 0 0 -3.1032675969244821 2.4373318389209189 0 2.4373318389209189 1.6373530090240158 0 0 0 0 21.524553887456932 59.359602598107244 0 59.359602598107244 13.637873849321295 0 0 0 0 48.482549315296637 27.647744533765092 0 27.647744533765092 16.293106845293778 0 0 0 0 -3.8696482358944131 -0.2921401332309852 0 -0.2921401332309852 2.8392526122964781 0 0 0 0 -1.3602584016543915 9.8165963998460484 0 9.8165963998460484 32.042725457690779 0 0 0 0 -3.3947137588055227 2.5380184330608468 0 2.5380184330608468 0.76679720667240758 0 0 0 0 7.1602253759438099 56.271815606629502 0 56.271815606629502 67.308298237749341 0 0 0 0 -7.6196060755555663 16.925997930585709 0 16.925997930585709 20.576225629535941 0 0 0 0 -5.1999943664231978 31.583834477732751 0 31.583834477732751 41.415834976961037 0 0 0 0 10.068792607571595 46.558338186076973 0 46.558338186076973 56.100103173010524 0 0 0 0 -20.873785944077554 7.5378769135712815 0 7.5378769135712815 47.817161158359426 0 0 0 0 -9.5000044551234168 15.671857210245349 0 15.671857210245349 23.99847098561726 0 0 0 0 -11.1684976609011 2.7119464489360432 0 2.7119464489360432 4.780294247472046 0 0 0 0 -9.8174725409007806 9.7651681451158368 0 9.7651681451158368 16.517040402603243 0 0 0 0 -11.02497748123551 13.325632978576792 0 13.325632978576792 20.483717878196103 0 0 0 0 -6.3616302660393558 19.790416645938706 0 19.790416645938706 13.18658752472038 0 0 0 0 -5.2506136686606624 17.103869866610694 0 17.103869866610694 19.013144841052508 0 0 0 0 -5.7251613879543584 15.276296403515062 0 15.276296403515062 12.317312074145548 0 0 0 0 -2.2767703086155962 15.348499583272542 0 15.348499583272542 12.211928532148136 0 0 0 0 -0.75227982553951733 17.771680278199142 0 17.771680278199142 5.3244355832848669 0 0 0 0 0.45002425036182103 21.70948913594782 0 21.70948913594782 13.723855626894476 0 0 0 0 -3.0182613727354237 29.868455676853188 0 29.868455676853188 0.73612684358613478 0 0 0 0 -5.8247939965112892 15.869874000625487 0 15.869874000625487 4.5579282064870767 0 0 0 0 12.487760144405911 23.917368694987772 0 23.917368694987772 8.0855857029752087 0 0 0 0 -6.0805832036462562 21.848614472048595 0 21.848614472048595 26.355875382283671 0 0 0 0 36.280244748711993 33.617839367847807 0 33.617839367847807 11.687303501865472 0 0 0 0 12.862163063770822 24.554058148116638 0 24.554058148116638 8.1901916464792066 0 0 0 0 27.620560066929102 17.436378105135191 0 17.436378105135191 0.31096228154321714 0 0 0 0 -11.284799376979208 23.339204061010804 0 23.339204061010804 10.072456041703816 0 0 0 0 -74.101408730530238 6.4191995013093646 0 6.4191995013093646 17.034090130222836 0 0 0 0 -1.7743454851696328 2.446817949508393 0 2.446817949508393 -4.1933509992660314 0 0 0 0 27.910564419428738 18.926066116304412 0 18.926066116304412 3.7191213605419762 0 0 0 0 30.484052413446989 18.245368722576131 0 18.245368722576131 3.8652111688707578 0 0 0 0 70.689428391418915 35.385774809206353 0 35.385774809206353 10.66797472632971 0 0 0 0 19.768153439085836 14.28212545605707 0 14.28212545605707 55.76601184411512 0 0 0 0 12.423504780475923 115.24395374443326 0 115.24395374443326 39.883667377997213 0 0 0 0 0.33190939333474745 -0.43999261293949488 0 -0.43999261293949488 0.70630761581050994 0 0 0 0 -4.0190675963403919 -50.206260602439805 0 -50.206260602439805 -14.562555921229722 0 0 0 0 -185.20118161972641 -52.057463791800998 0 -52.057463791800998 32.492491286350742 0 0 0 0 -0.57256256719763954 0.78505621791462232 0 0.78505621791462232 -1.2038442440514645 0 0 0 0 -6.7661686403043859 -35.281063918481394 0 -35.281063918481394 71.88567010036688 0 0 0 0 -75.825712949947956 44.328074367752947 0 44.328074367752947 -6.3780337887246503 0 0 0 0 -66.919489071320641 26.171290867451397 0 26.171290867451397 26.216693343354706 0 0 0 0 -56.199975307157729 75.93944375360482 0 75.93944375360482 93.439465824062069 0 0 0 0 -58.621853779855883 36.225388610438827 0 36.225388610438827 20.265057136232102 0 0 0 0 -57.172234191963071 27.119209558933864 0 27.119209558933864 7.4789460530081397 0 0 0 0 -67.444672118306698 35.720655706330128 0 35.720655706330128 41.392728520599952 0 0 0 0 -16.352605968168064 69.060476270894441 0 69.060476270894441 31.96333071773509 0 0 0 0 -6.9408432663985877 99.347946415726042 0 99.347946415726042 59.13475850028204 0 0 0 0 -5.206143474279088 66.124805142365972 0 66.124805142365972 58.497955270245448 0 0 0 0 9.3571831020453828 74.77097395905659 0 74.77097395905659 85.185394788049308 0 0 0 0 81.878946850541524 1.8990880898393385 0 1.8990880898393385 184.83406176428855 0 0 0 0 61.441809636420658 64.1953348141476 0 64.1953348141476 87.069628396251986 0 0 0 0 -20.464201787111961 16.976178934003343 0 16.976178934003343 195.02706127973349 0 0 0 0 39.719047743300507 112.83114475923264 0 112.83114475923264 106.41401361495886 0 0 0 0 -19.959007613828362 30.844973650151303 0 30.844973650151303 29.621284841606155 0 0 0 0 0.020947564698872156 63.879385575518725 0 63.879385575518725 118.05397584651921 0 0 0 0 6.8449316686564998 44.452326935216632 0 44.452326935216632 204.41351356120299 0 0 0 0 21.165128487459697 24.725036380147188 0 24.725036380147188 162.82545166998261 0 0 0 0 7.0054350788213924 66.406778403947555 0 66.406778403947555 176.83923713434723 0 0 0 0 -0.018918094117907458 49.7911002886446 0 49.7911002886446 141.79787569595419 0 0 0 0 14.586870601713599 96.628042056418906 0 96.628042056418906 237.71651317386653 0 0 0 0 49.379648917943996 102.73155779772924 0 102.73155779772924 224.32533807298501 0 0 0 0 95.153813116001402 113.28444378015695 0 113.28444378015695 102.09701707391855 0 0 0 0 0.37056133692340687 -0.29586677707987263 0 -0.29586677707987263 0.26710575009690096 0 0 0 0 60.398213667893287 69.660615388678707 0 69.660615388678707 179.52527989045996 0 0 0 0 20.982544250582578 40.616213262884457 0 40.616213262884457 209.99359768550357 0 0 0 0 -0.97979639123605011 0.865117754959428 0 0.865117754959428 7.0035001237572487 0 0 0 0 -0.46891645441154139 0.014052083924892544 0 0.014052083924892544 2.349976482020435 0 0 0 0 -0.49623639336641645 0.4832341473102133 0 0.4832341473102133 3.9706518540525622 0 0 0 0 -0.50436698669227553 -0.69789518220414948 0 -0.69789518220414948 2.0909243994287863 0 0 0 0 18.660625298121886 20.700177903327358 0 20.700177903327358 47.321536751340659 0 0 0 0 -0.40051564834308806 -0.46350622645691431 0 -0.46350622645691431 2.313444203781267 0 0 0 0 0.56035363175533881 -0.40543537566987453 0 -0.40543537566987453 2.6597932285227279 0 0 0 0 36.106831252472148 55.098179182438628 0 55.098179182438628 84.749377859466449 0 0 0 0 0.0080839335408384727 -0.36077492914392517 0 -0.36077492914392517 0.59412282919585502 0 0 0 0 0.0005455478276417125 0.60812007068284402 0 0.60812007068284402 1.8076536334292257 0 0 0 0 19.702384959899064 -2.2646900663325766 0 -2.2646900663325766 4.212588816198803 0 0 0 0 0.41789512217810909 -0.68539696469509082 0 -0.68539696469509082 1.5570201900848304 0 0 0 0 21.425536452283268 -55.27154805750726 0 -55.27154805750726 85.607368747591664 0 0 0 0 -5.758001299960597 -10.707649025719348 0 -10.707649025719348 -8.6784836998927606 0 0 0 0 -0.0063231746458214388 -0.12870290849783328 0 -0.12870290849783328 1.1978347639962483 0 0 0 0 11.250534291770236 -22.19017504385981 0 -22.19017504385981 22.107187956284434 0 0 0 0 6.8086446243869432 -14.250501864858911 0 -14.250501864858911 -33.535123514478535 0 0 0 0 0.088178652421326831 0.012869026896348057 0 0.012869026896348057 -0.052693435466006092 0 0 0 0 1.9624209705282993 -32.641054350541538 0 -32.641054350541538 28.696504304968315 0 0 0 0 17.0845143851584 21.571136395908276 0 21.571136395908276 35.965660753444382 0 0 0 0 0.65858134057634743 2.9129144200744577 0 2.9129144200744577 15.491663286702725 0 0 0 0 -6.0173191194789979 -17.122351552519255 0 -17.122351552519255 14.451918771364916 0 0 0 0 -13.511585328455112 -8.9865659356740899 0 -8.9865659356740899 12.564890184466933 0 0 0 0 -7.683429197397345 0.82657292862376153 0 0.82657292862376153 22.292247478287059 0 0 0 0 -3.8282159706104721 4.8829411259427786 0 4.8829411259427786 24.148499530107856 0 0 0 0 -1.3437450147603158 2.2711487473686827 0 2.2711487473686827 2.2450080053572066 0 0 0 0 13.974502517477958 19.858654797576264 0 19.858654797576264 17.617006043896033 0 0 0 0 13.974502517463407 19.858654797591555 0 19.858654797591555 17.617006043896367 0 0 0 0 13.974502517456131 19.85865479756967 0 19.85865479756967 17.617006043895827 0 0 0 0 -1.1901820614589269 8.22306339236175 0 8.22306339236175 38.239624137510432 0 0 0 0 -12.219869588373513 -2.0286428799054477 0 -2.0286428799054477 7.2611348069311248 0 0 0 0 0.43639617798987729 -0.13087421410926225 0 -0.13087421410926225 1.7444939596041 0 0 0 0 6.0342789002424979 27.238385770918519 0 27.238385770918519 33.845258987989496 0 0 0 0 -15.712045505372771 4.5842986076379972 0 4.5842986076379972 23.752277388426535 0 0 0 0 -0.4471539396696329 0.12715563903035054 0 0.12715563903035054 0.7865810268496265 0 0 0 0 -0.36111549998167902 3.7960930039707819 0 3.7960930039707819 9.8174973043069258 0 0 0 0 -2.8341998003816116 1.2620386627488642 0 1.2620386627488642 9.9059728235897637 0 0 0 0 -0.075683931246642189 0.098618483252749911 0 0.098618483252749911 6.3456674991546409 0 0 0 0 -17.196614852568018 -5.2266493997346615 0 -5.2266493997346615 9.9679263954867068 0 0 0 0 -13.844191401591161 14.222444392411827 0 14.222444392411827 18.017287709406446 0 0 0 0 -0.01982571713233483 -0.63301230033516731 0 -0.63301230033516731 9.3018367556356338 0 0 0 0 -0.33187991464819788 0.55429387169647271 0 0.55429387169647271 5.8968695161854612 0 0 0 0 -21.304919080812397 15.570613168772979 0 15.570613168772979 3.6222776478059586 0 0 0 0 -4.7193046932734433 6.8404250775481614 0 6.8404250775481614 -0.79555668373313893 0 0 0 0 2.7032139071779966 -1.8699942433264596 0 -1.8699942433264596 1.5126559341465509 0 0 0 0 -17.906657658300901 4.3252560039386481 0 4.3252560039386481 10.223422444707012 0 0 0 0 -0.34170873991570527 1.1282592390165043 0 1.1282592390165043 8.834067163419304 0 0 0 0 0.37079463408807101 1.9328866648927097 0 1.9328866648927097 -0.35406722304852245 0 0 0 0 6.8673307220578863 16.243735405158759 0 16.243735405158759 -21.403251631224521 0 0 0 0 4.7313311915395388 24.922678357281654 0 24.922678357281654 -56.497689758669367 0 0 0 0 -0.50401872769273837 0.5992183254000647 0 0.5992183254000647 1.5171750075555153 0 0 0 0 -1.1826489585484978 -5.2621280781303028 0 -5.2621280781303028 -42.956333491685655 0 0 0 0 -0.0012176237710265307 15.528424109579252 0 15.528424109579252 -44.939710104128608 0 0 0 0 -6.865502488148195 6.3527500880689018 0 6.3527500880689018 4.8001393034456896 0 0 0 0 1.0901152942370089 5.5782839125184083 0 5.5782839125184083 3.0656274276519158 0 0 0 0 0.58318198892811779 9.0619896542032166 0 9.0619896542032166 -1.2109398858024178 0 0 0 0 0.10542060573607159 14.553547834437282 0 14.553547834437282 13.240752066008724 0 0 0 0 -7.9461662083231204 6.6593416185101795 0 6.6593416185101795 19.578350623150243 0 0 0 0 -0.52181245755448913 4.8249803840132657 0 4.8249803840132657 -3.8096763721338425 0 0 0 0 0.827299402171775 9.1594153141923016 0 9.1594153141923016 -4.1413056705264353 0 0 0 0 1.3218024475627317 8.3771496847145954 0 8.3771496847145954 -6.5091583892062772 0 0 0 0 2.0994117921181896 13.083750914373468 0 13.083750914373468 -7.7042220996833066 0 0 0 0 4.8372614955005702 14.457581065350951 0 14.457581065350951 -22.972545462511334 0 0 0 0 6.3075157706957725 -0.73429191753027112 0 -0.73429191753027112 -10.24734998455915 0 0 0 0 3.596543470495817 20.812225815661805 0 20.812225815661805 -16.344866652937526 0 0 0 0 5.0344113865221516 12.886657539905059 0 12.886657539905059 -12.139711100601744 0 0 0 0 0.49645087355020223 18.475303245320447 0 18.475303245320447 -7.3071022690974132 0 0 0 0 2.1099387723097607 12.656484338599057 0 12.656484338599057 -4.7785597041875008 0 0 0 0 0.68622667241288582 12.253054066480217 0 12.253054066480217 -4.299393644284919 0 0 0 0 0.25995848578168079 18.011456761856152 0 18.011456761856152 -3.2039908464989821 0 0 0 0 2.1877576512415544 13.512354717574453 0 13.512354717574453 2.5426811412708048 0 0 0 0 -0.56421019369554415 10.369514877437723 0 10.369514877437723 6.6140920753769024 0 0 0 0 0.2128804867825238 12.756497699816919 0 12.756497699816919 2.9593179879996114 0 0 0 0 -3.0063508993807773 16.753884166185571 0 16.753884166185571 0.45008756847619225 0 0 0 0 1.4113824836795175 10.308915132047332 0 10.308915132047332 0.34176272464992508 0 0 0 0 2.3656906281000261 7.2852400433963993 0 7.2852400433963993 4.6694998067287159 0 0 0 0 -5.4837054527015425 12.587434577852434 0 12.587434577852434 -0.94118825472668277 0 0 0 0 -3.5750127129504108 23.79587527040988 0 23.79587527040988 -9.9660786738751597 0 0 0 0 -0.21635329947046955 1.08936185524552 0 1.08936185524552 0.75989102955992327 0 0 0 0 -8.6390958384617988 12.556839386322451 0 12.556839386322451 -7.5134313140979145 0 0 0 0 -0.89406048441742314 5.0211573298165035 0 5.0211573298165035 -18.872976367475928 0 0 0 0 -9.8650307026764494 12.78192038610311 0 12.78192038610311 -1.8434013055047558 0 0 0 0 6.5704265421445598 17.454260794375273 0 17.454260794375273 -10.678164869221007 0 0 0 0 -13.442284673506947 12.690372507482664 0 12.690372507482664 -1.5412317835082945 0 0 0 0 -0.50274716774457917 3.7542030524965497 0 3.7542030524965497 -0.22511709995426421 0 0 0 0 -11.350696284805963 8.4599139440335307 0 8.4599139440335307 2.9148619682370054 0 0 0 0 -0.35985721825699191 8.9376128604954452 0 8.9376128604954452 5.3391284794970204 0 0 0 0 -18.392348968988813 7.4698389669720839 0 7.4698389669720839 7.5086284646322383 0 0 0 0 -9.8099382547562612 3.7975261933926481 0 3.7975261933926481 5.0656779951406889 0 0 0 0 -7.1093126634515329 3.3107779310365455 0 3.3107779310365455 1.8141563695071865 0 0 0 0 -7.6420576234195323 5.7066188570393024 0 5.7066188570393024 3.6582074022156235 0 0 0 0 -6.8361930502836117 3.8109484810357408 0 3.8109484810357408 0.97118925646752885 0 0 0 0 -7.3487009651871631 6.7829380992403117 0 6.7829380992403117 5.1342989622972937 0 0 0 0 -5.6437980233113194 5.5855131582643764 0 5.5855131582643764 4.1451023808899663 0 0 0 0 -4.3573214598727148 6.3489548405279299 0 6.3489548405279299 -0.45956790921407831 0 0 0 0 -14.208763516824547 5.6774374271160468 0 5.6774374271160468 1.4148356575349226 0 0 0 0 -8.6615825846413372 3.2214154932873278 0 3.2214154932873278 2.2973406372862888 0 0 0 0 -8.3950701884987211 5.9163224283002762 0 5.9163224283002762 5.6475181165399633 0 0 0 0 -4.6781849917087612 4.9768819531223834 0 4.9768819531223834 0.25793127720911957 0 0 0 0 -8.7646822007427545 9.3917761320242619 0 9.3917761320242619 -2.9827565961175537 0 0 0 0 -9.2522356128702086 5.0009459670256149 0 5.0009459670256149 4.8749225915206296 0 0 0 0 21.911722770602864 28.646370586275566 0 28.646370586275566 30.96631916165407 0 0 0 0 -21.271699738759708 3.2516925930607954 0 3.2516925930607954 6.6594996437434588 0 0 0 0 3.9354614746516745 28.369843272006136 0 28.369843272006136 49.702734282347166 0 0 0 0 11.832178844040754 16.038868577793124 0 16.038868577793124 22.250830542437313 0 0 0 0 -0.64969745683589508 -0.24516343195964652 0 -0.24516343195964652 2.7846304258276313 0 0 0 0 -18.179273519368508 7.0768744347877259 0 7.0768744347877259 11.355599877176928 0 0 0 0 -25.596181941804389 -9.7351736684224477 0 -9.7351736684224477 8.3234913513275615 0 0 0 0 -29.893384782153589 50.667707436671165 0 50.667707436671165 43.646019102997229 0 0 0 0 139.32382292032571 83.851726673798055 0 83.851726673798055 14.231238252934485 0 0 0 0 -19.551552944893047 4.6053749730211564 0 4.6053749730211564 69.370342188167101 0 0 0 0 -139.14347817542966 35.463352443941986 0 35.463352443941986 93.726399908814543 0 0 0 0 -21.079180977963915 29.641056820327432 0 29.641056820327432 85.927664072558784 0 0 0 0 1.9018715697635429 -17.877834638815052 0 -17.877834638815052 69.545187995425835 0 0 0 0 11.319343984589068 32.033779031012195 0 32.033779031012195 81.084810323391167 0 0 0 0 0.32929869638007858 -0.1526474942867857 0 -0.1526474942867857 0.02780419432578482 0 0 0 0 -16.208423781426973 -0.74631369971589834 0 -0.74631369971589834 65.789480549232394 0 0 0 0 0.072006758763201617 0.1679508542433048 0 0.1679508542433048 0.088249481245353867 0 0 0 0 2.8236514784930478 23.349921309582953 0 23.349921309582953 -37.751656144498952 0 0 0 0 -25.608617763400616 -1.5518280453336075 0 -1.5518280453336075 69.668469943411594 0 0 0 0 -2.627964690564113 -22.707301541765787 0 -22.707301541765787 -10.931568694169243 0 0 0 0 -9.5372671879067639 5.4538903609770912 0 5.4538903609770912 65.682079808080346 0 0 0 0 -11.517809135099014 12.991564091527437 0 12.991564091527437 37.945033345415595 0 0 0 0 30.377827343980243 22.978696966392931 0 22.978696966392931 -45.249805549784242 0 0 0 0 28.640125981459278 19.800722473464475 0 19.800722473464475 -23.49129965096347 0 0 0 0 13.685601107657931 15.37409623070721 0 15.37409623070721 -24.250812652547097 0 0 0 0 29.560617011247814 1.7654233667371955 0 1.7654233667371955 -15.288329403493435 0 0 0 0 7.7259666792369899 20.744649653898705 0 20.744649653898705 2.5648625714673017 0 0 0 0 29.659667495648364 -4.7278625844812154 0 -4.7278625844812154 13.446528122934978 0 0 0 0 -46.886101570710252 62.159341185020253 0 62.159341185020253 32.931063166639206 0 0 0 0 82.705890669287328 40.255682229331796 0 40.255682229331796 -43.71129625935032 0 0 0 0 -46.516190037003298 50.991309580367556 0 50.991309580367556 -61.715458821266793 0 0 0 0 -93.466554722546562 97.049498903902787 0 97.049498903902787 -3.7514914052305812 0 0 0 0 0.75184023926465482 1.0752849017574082 0 1.0752849017574082 0.27195530939927837 0 0 0 0 -65.723464788462024 51.27717119849882 0 51.27717119849882 -19.165446937357345 0 0 0 0 -9.1332662177128441 43.430365307338946 0 43.430365307338946 -26.383044015342875 0 0 0 0 -30.890748372497455 14.347620772641591 0 14.347620772641591 -54.819781746967578 0 0 0 0 0.9392608547135417 1.1763483566601645 0 1.1763483566601645 0.41639752508461214 0 0 0 0 -19.028672365721832 48.453070703333708 0 48.453070703333708 -29.012184144671721 0 0 0 0 -75.640473950431215 45.557567995345934 0 45.557567995345934 -11.864167592206627 0 0 0 0 -45.606981732633358 22.048184416951472 0 22.048184416951472 -18.347263205750551 0 0 0 0 -36.411743347362062 18.110861699642161 0 18.110861699642161 -20.083939099306214 0 0 0 0 -42.487272310002027 17.858438706897523 0 17.858438706897523 0.59661273205203713 0 0 0 0 61.012900878225082 6.17761997814452 0 6.17761997814452 -22.502691239557599 0 0 0 0 25.691583333733433 10.966080296819001 0 10.966080296819001 -21.818914590729662 0 0 0 0 -13.689834135082606 31.418239334861255 0 31.418239334861255 -29.835600504839022 0 0 0 0 9.93930437500876 36.651180256590521 0 36.651180256590521 -38.296623480160918 0 0 0 0 42.290509171411941 44.652179746531147 0 44.652179746531147 -39.287631425056531 0 0 0 0 12.714497368441698 31.575063062353024 0 31.575063062353024 -19.79133579869611 0 0 0 0 -11.934270045230505 341.41241220074545 0 341.41241220074545 198.77610178458292 0 0 0 0 64.410009948641346 65.929266478434656 0 65.929266478434656 3.026498792139904 0 0 0 0 -155.64045330429599 28.171748293787743 0 28.171748293787743 41.755999103083496 0 0 0 0 47.900933740420896 35.231193885193271 0 35.231193885193271 -36.167813423761856 0 0 0 0 0.76340417367646296 70.832771611310136 0 70.832771611310136 -62.599888900565247 0 0 0 0 -1.0656980111763943 0.8777670071804291 0 0.8777670071804291 -1.8155965478683445 0 0 0 0 36.586143698305023 0.9072545414667843 0 0.9072545414667843 2.9065098957284476 0 0 0 0 27.783933646319383 22.992175985964352 0 22.992175985964352 -46.733030430362646 0 0 0 0 23.138742001333412 21.494106134452636 0 21.494106134452636 -22.715203636703222 0 0 0 0 5.8160359910350099 14.171261881844678 0 14.171261881844678 -4.3891441373929849 0 0 0 0 27.909869109273131 16.725749427335295 0 16.725749427335295 -35.161554754666383 0 0 0 0 3.9172586441685593 15.622011369981623 0 15.622011369981623 -2.7610243863493915 0 0 0 0 39.035278154857224 12.08122610489778 0 12.08122610489778 12.062074139756135 0 0 0 0 9.1859487760425225 20.232540688778641 0 20.232540688778641 -15.671457185576401 0 0 0 0 24.328428469935716 10.544761118286829 0 10.544761118286829 -4.5814014559581757 0 0 0 0 18.683626693675706 18.808527533229096 0 18.808527533229096 -4.0984331759771777 0 0 0 0 33.25210627062188 13.120515876162528 0 13.120515876162528 -6.7383121904608743 0 0 0 0 17.882188399888946 17.592819009457667 0 17.592819009457667 -14.886790356398478 0 0 0 0 18.050019786480988 15.693713467206464 0 15.693713467206464 -12.015213206812405 0 0 0 0 15.152617382083008 22.428859280417896 0 22.428859280417896 -6.7339701944765693 0 0 0 0 15.968247749000966 24.145513708873153 0 24.145513708873153 -18.202511483774742 0 0 0 0 21.689174131834193 24.121469386853931 0 24.121469386853931 -16.53304652390716 0 0 0 0 13.24251021487737 16.343096478916891 0 16.343096478916891 -5.3512064723838648 0 0 0 0 20.524349501236884 25.19518186709621 0 25.19518186709621 -17.60614390988394 0 0 0 0 4.6062137910537402 2.8554697152015525 0 2.8554697152015525 -6.0428716451252518 0 0 0 0 28.47849483975574 10.324970252452374 0 10.324970252452374 -2.722741653401954 0 0 0 0 21.95214402507554 23.878519241111718 0 23.878519241111718 -31.048272183828658 0 0 0 0 17.799431451276178 62.265495897753681 0 62.265495897753681 -144.06006559365051 0 0 0 0 22.764946285825374 16.306156913344495 0 16.306156913344495 -3.3168653679483668 0 0 0 0 20.900674580053419 11.040800982863971 0 11.040800982863971 -27.602139681733235 0 0 0 0 4.485430636586762 8.0181454852556211 0 8.0181454852556211 -7.1232193432075341 0 0 0 0 4.0691519582978799 43.746733769727371 0 43.746733769727371 10.033001522776658 0 0 0 0 2.1509855292679658 12.505963055026925 0 12.505963055026925 -3.6705342455356531 0 0 0 0 24.57672670968077 4.8653795649977383 0 4.8653795649977383 -16.464898268952425 0 0 0 0 3.8536716932332986 1.8263719406681984 0 1.8263719406681984 0.058821019105393724 0 0 0 0 7.9238238838961479 19.396556832772831 0 19.396556832772831 -0.27443824990541543 0 0 0 0 7.6188268578484895 6.4783789148668518 0 6.4783789148668518 5.2857718854779705 0 0 0 0 2.2912439294982541 9.1985946872090647 0 9.1985946872090647 3.472807858486691 0 0 0 0 13.731785307524817 16.699785331456724 0 16.699785331456724 6.1523395097269713 0 0 0 0 32.68620010044765 -3.4967040511673986 0 -3.4967040511673986 61.543146492231699 0 0 0 0 26.535432545339461 16.787647003725169 0 16.787647003725169 -4.8702922473815988 0 0 0 0 3.8980707975977955 2.5353025685061601 0 2.5353025685061601 1.1632559676160268 0 0 0 0 0.20363116112097401 10.30900852271896 0 10.30900852271896 -6.8498982953611272 0 0 0 0 4.5765300889361242 12.489051895681314 0 12.489051895681314 2.729529994463519 0 0 0 0 28.449115342469668 23.248876169262985 0 23.248876169262985 -7.3496682617960687 0 0 0 0 -2.4117562194959028 16.454221278590261 0 16.454221278590261 -0.11703846395944373 0 0 0 0 19.274951407071967 15.744111095173594 0 15.744111095173594 -1.3014466697636635 0 0 0 0 8.4644224711277243 9.2732006324284288 0 9.2732006324284288 -2.7937368484179657 0 0 0 0 7.2499480133950884 11.638736377626614 0 11.638736377626614 1.1817173737261837 0 0 0 0 6.3650058048206395 7.7498048446889136 0 7.7498048446889136 -3.4022236590434396 0 0 0 0 6.1755300691283992 15.567331675682794 0 15.567331675682794 2.7305378476585247 0 0 0 0 -3.3432177092413475 10.109326010054911 0 10.109326010054911 4.2920644465808717 0 0 0 0 11.151884121378316 18.077150353069555 0 18.077150353069555 10.351089639083966 0 0 0 0 3.9989674937710022 11.233958969820195 0 11.233958969820195 0.15787393668843208 0 0 0 0 1.8640873715776252 10.851221968655409 0 10.851221968655409 -3.5852919613826089 0 0 0 0 6.1766902370289589 13.989828406796068 0 13.989828406796068 -6.1583105735497075 0 0 0 0 3.7183934174036537 8.205389256202853 0 8.205389256202853 -2.1490149665484921 0 0 0 0 18.538941893104493 23.715654195410025 0 23.715654195410025 6.8125575480244152 0 0 0 0 23.610446115577361 21.157419733118331 0 21.157419733118331 7.2517460911867602 0 0 0 0 23.569380343607918 26.708659091498703 0 26.708659091498703 4.1608684503278255 0 0 0 0 19.080961609157214 28.732166078619059 0 28.732166078619059 4.623515416531518 0 0 0 0 5.7579603304222928 19.558957731302485 0 19.558957731302485 28.585671512480531 0 0 0 0 13.00881728573224 12.27318937511863 0 12.27318937511863 3.205255836305124 0 0 0 0 11.434718349347108 14.469614319609953 0 14.469614319609953 6.0620272567018922 0 0 0 0 7.3863248349575485 15.515557864106086 0 15.515557864106086 -5.5567603585579946 0 0 0 0 -13.320959757079891 26.507735437462841 0 26.507735437462841 -14.259181613122109 0 0 0 0 -1.5584581486400566 69.610733890148921 0 69.610733890148921 -9.9464110879163741 0 0 0 0 -1.9351746957181604 58.798100528716702 0 58.798100528716702 29.351017555665607 0 0 0 0 20.341505552144554 11.79085019206002 0 11.79085019206002 -16.423381888844133 0 0 0 0 22.575061101234866 12.447482554622026 0 12.447482554622026 1.2895165712832035 0 0 0 0 2.3780398778253584 67.826127876369952 0 67.826127876369952 -23.51709486433252 0 0 0 0 -11.505101411537908 38.977288826963218 0 38.977288826963218 22.22964722311545 0 0 0 0 -11.81937933174413 20.699793798890028 0 20.699793798890028 -32.51022235290084 0 0 0 0 -15.436909066830331 12.152230300804348 0 12.152230300804348 -4.7725755023647203 0 0 0 0 -377.14249607293459 225.68799726228463 0 225.68799726228463 39.22365666422229 0 0 0 0 -4.3979452049732757 17.103325718976802 0 17.103325718976802 -1.5981951638427252 0 0 0 0 5.4058305132193709 17.848349377440627 0 17.848349377440627 3.3812422818118648 0 0 0 0 4.6898241735654658 11.144114819293279 0 11.144114819293279 -4.0723940501134592 0 0 0 0 -5.951081216385866 3.9034686604893256 0 3.9034686604893256 5.0725581649552076 0 0 0 0 4.2324761715035493 16.442073314040272 0 16.442073314040272 1.8528660020519965 0 0 0 0 -326.52890118209507 535.1972554390195 0 535.1972554390195 -251.90305133305083 0 0 0 0 -34.707399842853192 19.583602511596723 0 19.583602511596723 9.5784597504974158 0 0 0 0 -3.5170495825997037 1.5314210334178533 0 1.5314210334178533 3.2530140166066697 0 0 0 0 77.166103445415501 66.790626289783091 0 66.790626289783091 28.723354419765514 0 0 0 0 -1.8257706638982238 1.972810463200581 0 1.972810463200581 -1.9656728202435225 0 0 0 0 99.054242083141617 21.360744040834788 0 21.360744040834788 83.417763435524421 0 0 0 0 108.69917710949687 75.953863237112813 0 75.953863237112813 13.001230236222909 0 0 0 0 -259.52189101094882 -179.86465002217756 0 -179.86465002217756 -109.20234320094823 0 0 0 0 -0.77812256102898303 3.7840128030765783 0 3.7840128030765783 -4.3220058082997852 0 0 0 0 -298.77682741375986 -249.94599458998849 0 -249.94599458998849 91.46860216973073 0 0 0 0 9.8313222948781913 11.413835513343656 0 11.413835513343656 6.019834964439724 0 0 0 0 8.2489067289984632 26.025548403442599 0 26.025548403442599 7.1474065474358213 0 0 0 0 -3.359595481372299 3.1481010582931086 0 3.1481010582931086 0.61405422862972259 0 0 0 0 0.064179046312711208 2.1021074368796775 0 2.1021074368796775 1.1552885466087268 0 0 0 0 35.751419084626832 18.368628869421627 0 18.368628869421627 15.603524956219189 0 0 0 0 70.606559117976303 47.701363398674175 0 47.701363398674175 27.289582815865288 0 0 0 0 0.18974961189190687 -0.13110826520433783 0 -0.13110826520433783 -0.15293524159604743 0 0 0 0 32.391559536888963 30.064067593999425 0 30.064067593999425 41.885310239960745 0 0 0 0 28.564743922376692 23.883703693979896 0 23.883703693979896 31.964620448750793 0 0 0 0 -36.29604603198959 -6.0907283699448271 0 -6.0907283699448271 45.065653131428917 0 0 0 0 44.315604553226876 75.449776265575565 0 75.449776265575565 5.1650268310913816 0 0 0 0 -1.7040862973525073 2.0768930660852116 0 2.0768930660852116 -1.6326477379673783 0 0 0 0 -327.50383555676672 85.83024051918801 0 85.83024051918801 -18.973031527631974 0 0 0 0 -4.3243226151220036 5.8621131501422754 0 5.8621131501422754 -6.9787536831068628 0 0 0 0 48.634551633667911 35.285561854838875 0 35.285561854838875 14.303737012873171 0 0 0 0 -401.72276962941578 -29.935515111022141 0 -29.935515111022141 -11.852048005757752 0 0 0 0 0.26945732467731354 0.035217933471424878 0 0.035217933471424878 0.015603719422792039 0 0 0 0 -137.46467410585319 -112.95795360011107 0 -112.95795360011107 -115.09167831534432 0 0 0 0 7.6813467695902409 10.975596747574857 0 10.975596747574857 7.5572876820727153 0 0 0 0 0.87330646477948903 27.700635389317085 0 27.700635389317085 15.833700051892265 0 0 0 0 9.0759385256914982 11.762004437694259 0 11.762004437694259 4.7564696149183874 0 0 0 0 12.017866821961794 11.569841643387065 0 11.569841643387065 7.5458056292808084 0 0 0 0 23.521058483701836 32.111394992729174 0 32.111394992729174 11.982752082417392 0 0 0 0 33.476542472136316 18.610596088524289 0 18.610596088524289 15.707834465050837 0 0 0 0 38.30050323215255 29.506236186366323 0 29.506236186366323 8.0197853442368796 0 0 0 0 24.295939001921852 31.38419670974281 0 31.38419670974281 50.63574217400128 0 0 0 0 -3.0938154558934912 2.5760032213629529 0 2.5760032213629529 25.084684000166135 0 0 0 0 4.2711710774501697 9.2257528483908295 0 9.2257528483908295 5.8385634569301033 0 0 0 0 -8.8712370994680896 10.343266480354032 0 10.343266480354032 14.65312677824204 0 0 0 0 18.394454799319533 10.600835102051406 0 10.600835102051406 4.7807128479853418 0 0 0 0 15.913841146586151 9.0399754076979661 0 9.0399754076979661 5.9899021949941016 0 0 0 0 4.5331566577000171 4.3133053997024842 0 4.3133053997024842 2.5599574598698709 0 0 0 0 15.267418394548031 11.882398980207654 0 11.882398980207654 5.4820864035664272 0 0 0 0 15.052018745232999 8.8117406691644646 0 8.8117406691644646 6.1694802284418984 0 0 0 0 16.868347372469543 18.615186909148406 0 18.615186909148406 -0.86627012439566897 0 0 0 0 11.034731790559583 7.2444843928581752 0 7.2444843928581752 4.1642937921475687 0 0 0 0 16.236298802316469 9.5216671525615766 0 9.5216671525615766 0.12804194560567339 0 0 0 0 27.51547785549792 17.138779017190473 0 17.138779017190473 -9.9155454184543714 0 0 0 0 -5.5893232278006053 15.305584192834829 0 15.305584192834829 1.0466803060476195 0 0 0 0 5.1521775093192081 2.8271392913089262 0 2.8271392913089262 0.71371100194811454 0 0 0 0 11.829089666337268 9.2977700351666499 0 9.2977700351666499 6.0987502132281861 0 0 0 0 16.873024731417999 9.8335752942625749 0 9.8335752942625749 4.1774381962044522 0 0 0 0 12.652827924405983 12.185520135117258 0 12.185520135117258 5.4471741567781464 0 0 0 0 24.61235586039561 11.009917742248717 0 11.009917742248717 -14.344176077533575 0 0 0 0 21.023259506306204 25.014652246831702 0 25.014652246831702 -20.255642825803989 0 0 0 0 12.861988434435261 39.426243105579715 0 39.426243105579715 24.373696517769758 0 0 0 0 9.9984578524854442 27.750793382909933 0 27.750793382909933 3.2717701865176423 0 0 0 0 15.562669478686985 23.379727542258934 0 23.379727542258934 20.565329496106187 0 0 0 0 15.812242943020465 30.357232620990544 0 30.357232620990544 3.1129338631608334 0 0 0 0 47.334343886365104 -15.204429061751796 0 -15.204429061751796 4.7368571984125083 0 0 0 0 5.547442783349652 38.598434682406378 0 38.598434682406378 6.9618631108523914 0 0 0 0 64.904209040004389 37.504550878363261 0 37.504550878363261 16.538055905964029 0 0 0 0 16.361253301045508 22.658757989662263 0 22.658757989662263 36.520875825681856 0 0 0 0 18.862287111527621 24.266236144010236 0 24.266236144010236 -3.5898502039490268 0 0 0 0 1.0547429404111064 2.4815409325949078 0 2.4815409325949078 0.91290480985105238 0 0 0 0 2.4228210404116908 36.449028039111909 0 36.449028039111909 40.512705286405094 0 0 0 0 13.282777938829895 12.951163207379409 0 12.951163207379409 -15.82309593274249 0 0 0 0 -109.95461185786189 16.030000744205836 0 16.030000744205836 -9.6127053523405266 0 0 0 0 0.6108039056853185 0.73836930189044825 0 0.73836930189044825 0.62697227422983737 0 0 0 0 -4.397636417659669 -3.6390693834658805 0 -3.6390693834658805 -15.999015762961051 0 0 0 0 108.00643762511277 -11.472985623015916 0 -11.472985623015916 -6.3466391523825223 0 0 0 0 -56.379164840921476 12.931984027775343 0 12.931984027775343 12.515874083521794 0 0 0 0 -57.528803890071998 57.133547433566136 0 57.133547433566136 -42.00953805768313 0 0 0 0 -31.121220122004615 41.789069228131609 0 41.789069228131609 -24.596864501438176 0 0 0 0 -24.221263191883281 26.128071663255241 0 26.128071663255241 1.6396338622089388 0 0 0 0 3.396102269236053 -5.4325348611947675 0 -5.4325348611947675 -12.453821983730904 0 0 0 0 0.84097697060993237 1.7433532477009344 0 1.7433532477009344 3.0489771451956198 0 0 0 0 51.894719979648244 -4.9884777887730252 0 -4.9884777887730252 -6.0515953092281052 0 0 0 0 4.3851437383555094 -1.4064455547872399 0 -1.4064455547872399 13.491284527427524 0 0 0 0 10.46509454162333 0.76443467601438897 0 0.76443467601438897 3.8524897984921154 0 0 0 0 -15.037644751456355 9.1035446652747396 0 9.1035446652747396 12.599795219512998 0 0 0 0 5.0092232404713286 24.641391647111504 0 24.641391647111504 -7.1335497313178848 0 0 0 0 -8.4547891023131569 38.504360857087306 0 38.504360857087306 -12.131751047945272 0 0 0 0 -24.016392277475461 39.457639453773481 0 39.457639453773481 -4.4171740030293449 0 0 0 0 -25.74426625367596 21.382902079331984 0 21.382902079331984 -9.1909326231575506 0 0 0 0 -44.162530778627115 49.912792305991161 0 49.912792305991161 -9.1257350392752414 0 0 0 0 -72.611335966004845 51.978986854783443 0 51.978986854783443 -11.631913642420898 0 0 0 0 -59.42092471601427 37.961011696576406 0 37.961011696576406 -7.5590876278276937 0 0 0 0 -31.377992902968799 64.574646558182394 0 64.574646558182394 -15.916661738754556 0 0 0 0 -29.317225952783701 58.624278964872246 0 58.624278964872246 -13.260377036050329 0 0 0 0 -31.964072468185805 62.945000962502149 0 62.945000962502149 -20.281634356821996 0 0 0 0 -25.4968400494663 61.88510985056223 0 61.88510985056223 -22.388514790726276 0 0 0 0 -14.710519275656225 52.892343311550576 0 52.892343311550576 -21.040191341517641 0 0 0 0 -23.550802403345187 43.710154203934053 0 43.710154203934053 -17.077149973137409 0 0 0 0 -16.461336056714572 57.208158614635749 0 57.208158614635749 -47.12722388169982 0 0 0 0 -59.581209233553636 55.357449554590289 0 55.357449554590289 -31.195677148156392 0 0 0 0 -28.239966272591573 57.368221046374401 0 57.368221046374401 -27.987599750992104 0 0 0 0 -48.815461810926536 70.844193392582838 0 70.844193392582838 -29.325927535451228 0 0 0 0 -84.419114418386016 60.125603336786298 0 60.125603336786298 -25.235605931357213 0 0 0 0 -79.950883078772677 84.113965665517298 0 84.113965665517298 -51.260632719379601 0 0 0 0 -145.01810915147507 63.341517095421295 0 63.341517095421295 -4.3877203156030191 0 0 0 0 -78.21248492151517 34.44185516268044 0 34.44185516268044 -4.0969773066842663 0 0 0 0 -80.453012711166593 34.357051549099879 0 34.357051549099879 -3.0711658320994957 0 0 0 0 -37.053225147839839 72.553412455572698 0 72.553412455572698 -26.803490425176207 0 0 0 0 -65.616280797022 75.528504918346528 0 75.528504918346528 -25.229039722819834 0 0 0 0 -48.565415966620094 59.633063371429103 0 59.633063371429103 -15.492071806364493 0 0 0 0 -31.0096809844772 58.95769796338368 0 58.95769796338368 -27.428077753845628 0 0 0 0 -37.30115073775778 59.440877567879625 0 59.440877567879625 -20.859733125868843 0 0 0 0 -29.220550673106573 61.748325503812453 0 61.748325503812453 -24.727213315842164 0 0 0 0 -34.27650710250964 63.522119371843928 0 63.522119371843928 -15.860494567334115 0 0 0 0 -39.882534308048889 22.228999164704355 0 22.228999164704355 -1.4817406269339699 0 0 0 0 -15.288864982336918 13.75993261065355 0 13.75993261065355 -2.2294330772388093 0 0 0 0 -33.925905002144646 20.699432926689497 0 20.699432926689497 -4.2693816042080925 0 0 0 0 14.699619575053021 40.828571872950192 0 40.828571872950192 -23.387744739567097 0 0 0 0 -20.918220205626312 25.23782393119177 0 25.23782393119177 -3.1915135563144759 0 0 0 0 16.692793025755236 44.103978651690795 0 44.103978651690795 -45.798167171630439 0 0 0 0 -0.50600245149047218 0.76703896134703875 0 0.76703896134703875 -0.92710904318424525 0 0 0 0 46.895933079978931 78.060097254084667 0 78.060097254084667 -116.51404767853091 0 0 0 0 71.6249963228247 36.202360750453181 0 36.202360750453181 -75.995747167117088 0 0 0 0 -47.501503064918325 -15.335771933843162 0 -15.335771933843162 -183.6275604791058 0 0 0 0 -211.62497749456452 9.7672189827356988 0 9.7672189827356988 42.48193393620852 0 0 0 0 0.19452089684564822 0.43650860395308388 0 0.43650860395308388 0.019332003746393767 0 0 0 0 -134.06677277644894 92.392136809877002 0 92.392136809877002 -21.763821557277879 0 0 0 0 -41.663976615951469 58.594261794204272 0 58.594261794204272 -71.58545153323621 0 0 0 0 -43.642446007654144 31.899282059599045 0 31.899282059599045 -55.590364537570167 0 0 0 0 -34.393941875623568 88.790468598438338 0 88.790468598438338 23.569588763945603 0 0 0 0 -17.012289428004635 160.73987701809415 0 160.73987701809415 -57.411665511768206 0 0 0 0 -18.703986000641635 77.003488655682986 0 77.003488655682986 -19.310813323667617 0 0 0 0 120.05407217235006 97.519710784812446 0 97.519710784812446 45.949320741742667 0 0 0 0 34.982118033697361 28.374984870099269 0 28.374984870099269 -5.5877811055174789 0 0 0 0 -1.3864085553823315 14.035404355373203 0 14.035404355373203 108.00273647507129 0 0 0 0 0.16743837646879633 0.99892098312991884 0 0.99892098312991884 0.81670827528636281 0 0 0 0 100.20566297877122 93.017756704136218 0 93.017756704136218 57.907038724329936 0 0 0 0 41.752981404286629 -43.480591369754194 0 -43.480591369754194 103.03137500111893 0 0 0 0 49.467893332444874 9.3945028251923759 0 9.3945028251923759 -34.707802000453114 0 0 0 0 55.438890339395812 41.517974625618237 0 41.517974625618237 46.834477870434966 0 0 0 0 93.426622779009449 51.174065404111843 0 51.174065404111843 36.559987924215534 0 0 0 0 -255.32466586215833 26.053177513176138 0 26.053177513176138 19.008270316895278 0 0 0 0 139.5952499096021 199.07680513607573 0 199.07680513607573 -16.862199465773756 0 0 0 0 -0.44412623854259881 0.61566057553710429 0 0.61566057553710429 0.2364305883194513 0 0 0 0 -127.6822162913594 -8.142656286165419 0 -8.142656286165419 -10.059200003922797 0 0 0 0 -47.274645454754136 -3.5934854676190753 0 -3.5934854676190753 -10.214597436260192 0 0 0 0 -40.032449144406883 6.487389919988118 0 6.487389919988118 -2.0914883502609882 0 0 0 0 -1.0421406553681489 1.1827984657168642 0 1.1827984657168642 0.45593795077122046 0 0 0 0 -18.785620782535261 -4.5660374409935685 0 -4.5660374409935685 1.4867776320944586 0 0 0 0 -37.80350474340645 -2.177581846191643 0 -2.177581846191643 6.306264569073619 0 0 0 0 -27.397344240268467 0.59846758898947883 0 0.59846758898947883 75.546884357779163 0 0 0 0 -0.70380724277332707 1.8484844961132616 0 1.8484844961132616 -0.46938155212465471 0 0 0 0 113.64193309228767 218.96362421733357 0 218.96362421733357 135.37000904787374 0 0 0 0 14.404065081946101 3.9854828235512514 0 3.9854828235512514 118.42237473612022 0 0 0 0 1.280230354457462 0.13234958117132578 0 0.13234958117132578 -0.36667309451849039 0 0 0 0 51.462944089877055 -94.674865929690441 0 -94.674865929690441 -88.527901190578405 0 0 0 0 32.515251160852131 -9.7892517625490427 0 -9.7892517625490427 66.553042202111556 0 0 0 0 104.52716551966614 30.376102144302195 0 30.376102144302195 35.003746319246602 0 0 0 0 3.7661205134392937 0.021803202338469774 0 0.021803202338469774 -0.97075486957025836 0 0 0 0 67.202189642966914 134.15188644337763 0 134.15188644337763 151.20947083736041 0 0 0 0 -16.542205097463011 28.211225422845928 0 28.211225422845928 -3.203192825717224 0 0 0 0 2.8040607962893773 52.599709500779227 0 52.599709500779227 69.02411202666508 0 0 0 0 18.172716241642775 50.448117420429071 0 50.448117420429071 39.090573263291617 0 0 0 0 23.662904294032273 -20.79820982505322 0 -20.79820982505322 -27.800847408959498 0 0 0 0 -10.083541456164085 -1.610986236499059 0 -1.610986236499059 7.9278762604526491 0 0 0 0 1.8782287002223939 2.672879236214154 0 2.672879236214154 -2.9739843734442934 0 0 0 0 5.4455368889102829 7.6362561561929851 0 7.6362561561929851 4.6638444271284243 0 0 0 0 -2.3714410462545379 2.8938915047382672 0 2.8938915047382672 2.7593381468015048 0 0 0 0 -6.0651091327272297 4.0253317663576809 0 4.0253317663576809 2.5602041112186953 0 0 0 0 -11.035679860471419 3.2064319050137158 0 3.2064319050137158 11.72139526640558 0 0 0 0 0.78933118261685387 0.94514949630657519 0 0.94514949630657519 0.071693077934407157 0 0 0 0 -18.324499639206806 -7.1048046853969709 0 -7.1048046853969709 -5.0148002358778285 0 0 0 0 -6.5888154556623704 10.06007635099138 0 10.06007635099138 -3.5295378039359093 0 0 0 0 -18.651934270061247 13.512699844188433 0 13.512699844188433 3.6562523596858227 0 0 0 0 -18.581645423308146 1.0111025871312904 0 1.0111025871312904 -8.1935794427536166 0 0 0 0 -10.565825930937535 8.6048680310059353 0 8.6048680310059353 6.2698430605566955 0 0 0 0 -6.2646957879460388 15.672370015554804 0 15.672370015554804 11.514204415146196 0 0 0 0 -6.0960128086035184 14.65080558545958 0 14.65080558545958 26.163617868707661 0 0 0 0 -0.012406563945660309 10.565316769590481 0 10.565316769590481 15.200283500778369 0 0 0 0 -0.4827801332774122 0.10619823651790661 0 0.10619823651790661 0.65428482000689225 0 0 0 0 -2.4410228937049396 10.683947590832332 0 10.683947590832332 5.2010928022610301 0 0 0 0 17.615748326510584 30.410115374305633 0 30.410115374305633 22.030562884544935 0 0 0 0 -14.468415975880248 -1.4775508569160536 0 -1.4775508569160536 8.5816626045657358 0 0 0 0 -2.7272929954205551 3.8611889439990064 0 3.8611889439990064 -2.7815354233732039 0 0 0 0 15.327009695590277 12.082261410691899 0 12.082261410691899 8.583077315477567 0 0 0 0 14.099716831945443 37.607192895290609 0 37.607192895290609 -9.5623885322713704 0 0 0 0 4.0355931641456664 27.496343797309351 0 27.496343797309351 54.321244338131237 0 0 0 0 -0.66491888047812608 -1.7713928228262148 0 -1.7713928228262148 10.758487856963256 0 0 0 0 11.936917949178223 13.53326523645967 0 13.53326523645967 11.276636603839052 0 0 0 0 -2.974575702142829 3.5687309067968727 0 3.5687309067968727 13.346933972060185 0 0 0 0 4.942968731919791 11.333767051523409 0 11.333767051523409 12.047531128062474 0 0 0 0 -0.47407518755630917 1.7748016139537413 0 1.7748016139537413 3.4330948984570568 0 0 0 0 0.54141559256913752 18.174131567549921 0 18.174131567549921 -2.6336960781454763 0 0 0 0 -0.89140616657994087 8.6464196389480605 0 8.6464196389480605 5.1129793202135261 0 0 0 0 -2.4098070620546519 3.13728770265271 0 3.13728770265271 2.530879855080904 0 0 0 0 -11.008467049025057 8.2470362930771444 0 8.2470362930771444 11.037305092441557 0 0 0 0 -4.6649803657046505 -14.621433003083439 0 -14.621433003083439 -2.637538690268002 0 0 0 0 0.21089588866331077 0.45249933552466448 0 0.45249933552466448 0.57673223648206662 0 0 0 0 -1.052480283060504 7.1549299918758607 0 7.1549299918758607 3.6738344622673935 0 0 0 0 -0.26658998126276856 6.5860195375711328 0 6.5860195375711328 3.904872881556912 0 0 0 0 0.058591997451003408 6.927107812277427 0 6.927107812277427 3.7205425729720787 0 0 0 0 -0.37238126137071959 6.4288524853237732 0 6.4288524853237732 4.3335565648392276 0 0 0 0 2.400742408934093 5.6723654422916638 0 5.6723654422916638 4.4175652407096777 0 0 0 0 -62.103035446496506 24.636673765420028 0 24.636673765420028 -6.8446385471100086 0 0 0 0 40.246219752289562 37.869198608375427 0 37.869198608375427 9.5532493184341547 0 0 0 0 -1.0146331418012862 1.8776501407536017 0 1.8776501407536017 -2.8197567309176743 0 0 0 0 -55.342980749011531 32.040724110410423 0 32.040724110410423 0.31002843973396921 0 0 0 0 47.906257432404345 -0.14443733728808184 0 -0.14443733728808184 -17.143832114227394 0 0 0 0 13.870851854451757 25.491167653466619 0 25.491167653466619 30.129664439670023 0 0 0 0 10.750619293947238 11.50130403488572 0 11.50130403488572 6.9750863774102072 0 0 0 0 -4.2076792041898443 24.439188070128921 0 24.439188070128921 -3.2505660777439687 0 0 0 0 -17.557891673425729 15.324231030789633 0 15.324231030789633 -0.74289364314790873 0 0 0 0 -8.2518628622938195 8.2936814538402359 0 8.2936814538402359 4.0886423761994592 0 0 0 0 -7.445085218208078 21.725435236428325 0 21.725435236428325 8.2830647713295207 0 0 0 0 -0.85774098237561702 16.567959394032982 0 16.567959394032982 10.738784868784251 0 0 0 0 22.57855815826565 14.810448663773855 0 14.810448663773855 7.51043185962385 0 0 0 0 2.4826207713790609 28.266842673751057 0 28.266842673751057 15.891497161957773 0 0 0 0 8.1605860433137423 17.780154432731592 0 17.780154432731592 6.9011129079742659 0 0 0 0 -1.5174663198877738 3.0752179265754558 0 3.0752179265754558 -4.0963690376979471 0 0 0 0 4.9436812245780857 14.685567953370025 0 14.685567953370025 7.5120639284382378 0 0 0 0 -2.0359827120161071 19.949998902131526 0 19.949998902131526 13.91772939536304 0 0 0 0 0.5046670213505422 18.728856573649409 0 18.728856573649409 14.489928749890169 0 0 0 0 1.3007437838787155 11.21898970562404 0 11.21898970562404 5.4478411809454883 0 0 0 0 -2.9509102702960188 4.0548665656930849 0 4.0548665656930849 -2.1804690316587494 0 0 0 0 -9.1994960644105959 3.4314000052278573 0 3.4314000052278573 9.2426764409945577 0 0 0 0 -5.9371313077608647 14.034468971113029 0 14.034468971113029 12.314746405082587 0 0 0 0 -0.82956741898313702 0.65235747338569094 0 0.65235747338569094 1.453429033501203 0 0 0 0 29.984511701009318 117.82158025226649 0 117.82158025226649 -56.855915616469332 0 0 0 0 -7.1390730251005152 5.2586182346718715 0 5.2586182346718715 4.4458602583193567 0 0 0 0 30.338727379734337 -12.753749331618913 0 -12.753749331618913 7.5704586048083051 0 0 0 0 0.20954164442746048 0.15431639916997497 0 0.15431639916997497 -0.52601094032728823 0 0 0 0 -17.836496249700758 6.2643319905498061 0 6.2643319905498061 60.196007148879488 0 0 0 0 -12.240064015528333 -3.2051527343425121 0 -3.2051527343425121 20.073450563729519 0 0 0 0 -11.766963122823654 20.01298269796682 0 20.01298269796682 15.684011781270044 0 0 0 0 -5.5200634431528215 11.204095304143578 0 11.204095304143578 -14.347498673725113 0 0 0 0 -24.782529905406136 4.1701136955554432 0 4.1701136955554432 -1.0843073349595045 0 0 0 0 -44.661459899141619 28.101852082169728 0 28.101852082169728 5.0347254910595893 0 0 0 0 -15.4713848929714 7.0990563523718606 0 7.0990563523718606 -2.123465741246072 0 0 0 0 -33.719313198660529 2.9251678621098005 0 2.9251678621098005 9.7266699825561016 0 0 0 0 -16.594334620910104 7.1110692858121691 0 7.1110692858121691 -1.0761460879930524 0 0 0 0 -20.453756405363038 6.1091747605640361 0 6.1091747605640361 -0.97491018901249049 0 0 0 0 -25.524532130182706 11.338033397685351 0 11.338033397685351 6.5931972877715452 0 0 0 0 -23.763578908560703 14.746952732115133 0 14.746952732115133 5.3784808352390598 0 0 0 0 -20.317651667977771 17.844325879398582 0 17.844325879398582 8.0377030873303852 0 0 0 0 -18.753010342766629 13.178330313664276 0 13.178330313664276 -0.61933861811678526 0 0 0 0 -15.959301945247717 15.517111939230972 0 15.517111939230972 -3.0670154904742759 0 0 0 0 -19.960215346782206 15.066871440411404 0 15.066871440411404 -3.4749943110998629 0 0 0 0 -25.613583401686356 10.882892884164903 0 10.882892884164903 -3.5897322528021505 0 0 0 0 -16.40938210656941 16.523434824801495 0 16.523434824801495 -12.088900786153168 0 0 0 0 -14.267142520947345 9.3071664843321322 0 9.3071664843321322 -1.5560469730418944 0 0 0 0 6.6446013750937709 3.9398225551221362 0 3.9398225551221362 -13.415539406587778 0 0 0 0 -4.2722334763238905 20.494145870427111 0 20.494145870427111 -20.36640730363068 0 0 0 0 -17.73526515022786 12.877795532799254 0 12.877795532799254 -7.2640161425494405 0 0 0 0 0.090242297919076897 -0.037304937182253362 0 -0.037304937182253362 0.13362008377879395 0 0 0 0 96.840762638603337 -2.9084931113924313 0 -2.9084931113924313 51.959717081797443 0 0 0 0 -16.923203458637232 30.561866446128178 0 30.561866446128178 -18.279658545073261 0 0 0 0 -41.444703955235127 26.363879524127611 0 26.363879524127611 -5.3375182342006156 0 0 0 0 -31.188790762326789 -5.8990767120571661 0 -5.8990767120571661 7.9894439257918179 0 0 0 0 2.7030822142569377 7.7975740319195523 0 7.7975740319195523 2.0045151698773225 0 0 0 0 -7.0780884409959981 6.0273268986791351 0 6.0273268986791351 2.4561017135157215 0 0 0 0 -11.498675812728834 -4.107334983686556 0 -4.107334983686556 -3.1044823522239682 0 0 0 0 -9.8356844471751401 7.4257762340531723 0 7.4257762340531723 2.9838490532741275 0 0 0 0 -16.044994435733315 3.1387897934648095 0 3.1387897934648095 2.3381109413047234 0 0 0 0 -5.564999409198208 12.868973067451719 0 12.868973067451719 7.172640891027271 0 0 0 0 -18.959730760362618 12.416600077786541 0 12.416600077786541 14.864468996967176 0 0 0 0 -27.595792182278274 7.3579115858070594 0 7.3579115858070594 14.128180576361729 0 0 0 0 47.604539480569201 19.330904045666244 0 19.330904045666244 -25.509447428399028 0 0 0 0 10.754075394883785 27.271443004930916 0 27.271443004930916 14.479896301763873 0 0 0 0 85.684715295009937 71.768001125138909 0 71.768001125138909 42.246948315500163 0 0 0 0 -50.393324339101696 3.8435499923338767 0 3.8435499923338767 3.3787820620821094 0 0 0 0 -0.34945564986455402 0.39354976042582734 0 0.39354976042582734 -0.64988759324173984 0 0 0 0 -23.980649735107363 -2.5903179073295064 0 -2.5903179073295064 -3.758539287375811 0 0 0 0 -14.259929201929481 8.9939783384553493 0 8.9939783384553493 -0.55224961600629285 0 0 0 0 -27.804454705031276 10.683169726029519 0 10.683169726029519 0.092411757111221959 0 0 0 0 -12.879265047505669 10.654923881646255 0 10.654923881646255 1.4197075334541296 0 0 0 0 -5.3887685572294686 4.036480521671848 0 4.036480521671848 -0.030998676828971838 0 0 0 0 -7.6048695938170567 0.99894964931615959 0 0.99894964931615959 -2.9917115878468792 0 0 0 0 -12.725535287800085 10.853340414601576 0 10.853340414601576 1.0026605955943069 0 0 0 0 8.4678969823046373 13.173413807745328 0 13.173413807745328 -2.7969965261861063 0 0 0 0 6.0350411640324637 6.8172727381932976 0 6.8172727381932976 -8.992145560426458 0 0 0 0 0.36222682963269603 2.0643468230160549 0 2.0643468230160549 -1.8280149230539151 0 0 0 0 10.874281424717083 6.0294102727364134 0 6.0294102727364134 0.52693341384630799 0 0 0 0 -4.1590652720487924 3.3031071080317815 0 3.3031071080317815 0.35338659385342908 0 0 0 0 5.5847221188732874 14.765503759357614 0 14.765503759357614 1.6621335090903813 0 0 0 0 18.243705847409728 28.485310088997494 0 28.485310088997494 5.0680878010941797 0 0 0 0 -6.1112109337373113 21.235160434378486 0 21.235160434378486 2.9559962252682226 0 0 0 0 -4.4955120488823468 23.688676801810999 0 23.688676801810999 6.6602543323022019 0 0 0 0 -8.3596361613845147 31.03182044887842 0 31.03182044887842 12.362785475009105 0 0 0 0 -14.375562584843465 27.032695240157182 0 27.032695240157182 9.7215102477754272 0 0 0 0 -12.334839870266478 26.540555565575289 0 26.540555565575289 9.8373415922980314 0 0 0 0 -20.234760309935133 21.175200777512966 0 21.175200777512966 6.1941929021811575 0 0 0 0 -18.067419795334899 15.895942620616211 0 15.895942620616211 1.9169776242341641 0 0 0 0 -8.1948920622589867 16.38338710116966 0 16.38338710116966 1.2393850300546774 0 0 0 0 -14.793924675212565 19.976051140430599 0 19.976051140430599 5.9426018485753502 0 0 0 0 7.10440254122841 11.675730472938767 0 11.675730472938767 8.5109522520965584 0 0 0 0 -10.507489981166145 19.054252288876341 0 19.054252288876341 7.5623832293481428 0 0 0 0 0.13877484667591489 14.995156031477791 0 14.995156031477791 14.861592780450337 0 0 0 0 1.5554978016043606 5.6869851396513695 0 5.6869851396513695 5.9696876684915878 0 0 0 0 0.1450965878933399 5.232374012411146 0 5.232374012411146 -0.27608238581232736 0 0 0 0 -3.3234590292047148 5.663865645996788 0 5.663865645996788 3.4124488714053314 0 0 0 0 0.064302682958896185 4.2299732712643578 0 4.2299732712643578 3.6849565171771226 0 0 0 0 -0.79580131325972303 3.0538088700218236 0 3.0538088700218236 4.2440657860366713 0 0 0 0 1.2090292142211183 6.3722474979159927 0 6.3722474979159927 5.5397708475439913 0 0 0 0 -2.2312279619554829 4.6084998741170864 0 4.6084998741170864 2.7861838228687077 0 0 0 0 -2.3913606722180702 2.2875360023851954 0 2.2875360023851954 0.95862909865172696 0 0 0 0 4.6586933860889985 7.4095124688051328 0 7.4095124688051328 7.0857692218810371 0 0 0 0 -0.75985877362925613 6.2588687729838943 0 6.2588687729838943 7.332975744004842 0 0 0 0 2.9746389431529678 4.2642090975500651 0 4.2642090975500651 3.657180981059355 0 0 0 0 -0.097361158314551943 5.6064663165654318 0 5.6064663165654318 0.87691783463223771 0 0 0 0 4.4131956734081541 21.236084329399091 0 21.236084329399091 15.194674648825071 0 0 0 0 1.3249664439672415 15.369203001035316 0 15.369203001035316 5.3611734912478823 0 0 0 0 3.1213080707820566 7.612348235667131 0 7.612348235667131 6.1625851062630295 0 0 0 0 3.0921744121277435 1.5496108264676653 0 1.5496108264676653 -0.82495009758632265 0 0 0 0 -9.3352963560028002 -1.1831392158217113 0 -1.1831392158217113 9.8010106011797689 0 0 0 0 -0.95228216919614894 1.4556518052349841 0 1.4556518052349841 3.5807017653231994 0 0 0 0 -10.188880614939876 4.5206292162339423 0 4.5206292162339423 32.692956674733068 0 0 0 0 0.4756150835327162 8.0312289640391192 0 8.0312289640391192 8.3376451401495615 0 0 0 0 0.75471610758462404 1.4985550777142604 0 1.4985550777142604 1.7777565111560882 0 0 0 0 -11.012836486243941 4.1315062677288097 0 4.1315062677288097 9.8762353644355017 0 0 0 0 20.377397611417223 37.75100030072494 0 37.75100030072494 -25.719809014118255 0 0 0 0 5.7099172426316915 5.3973466442340703 0 5.3973466442340703 4.2222136999806219 0 0 0 0 -0.1387166055101261 10.229984374539704 0 10.229984374539704 2.3341137166134995 0 0 0 0 4.6537778909314511 -20.742714434028585 0 -20.742714434028585 -15.105510548651182 0 0 0 0 -1.2274446505624628 4.541025866983051 0 4.541025866983051 -2.7700249393119822 0 0 0 0 0.68302938401075153 9.7747148677284201 0 9.7747148677284201 2.4460270015943451 0 0 0 0 9.7646471685823144 8.9322471336049603 0 8.9322471336049603 -7.5473181048237166 0 0 0 0 0.46537469432350242 0.33926008279022923 0 0.33926008279022923 -0.71982838865067533 0 0 0 0 -0.72824692079484521 8.8586347352904085 0 8.8586347352904085 4.3745513345933773 0 0 0 0 0.59553828775960937 8.7692573301856953 0 8.7692573301856953 2.751659356997493 0 0 0 0 -1.9166453482557699 10.268733581904257 0 10.268733581904257 2.8418925421079066 0 0 0 0 -1.5757067771182847 8.3559332722653252 0 8.3559332722653252 2.2949006671599399 0 0 0 0 -0.23606473732388622 10.074251571479333 0 10.074251571479333 3.4013365667766458 0 0 0 0 -0.72625412209026763 9.3962739969516136 0 9.3962739969516136 2.9496437922112193 0 0 0 0 -1.1052884989544509 12.920040099370887 0 12.920040099370887 -2.231345625869352 0 0 0 0 5.9912189455671676 6.4695466586156991 0 6.4695466586156991 5.079659270076581 0 0 0 0 9.8150894577947838 11.218801163634907 0 11.218801163634907 5.0956680657543529 0 0 0 0 1.7837353032346073 12.795055866688244 0 12.795055866688244 4.9725421938729539 0 0 0 0 -2.9261515904363478 22.03123778490135 0 22.03123778490135 6.5077842950918239 0 0 0 0 0.51167912036726193 20.342257018124201 0 20.342257018124201 6.9433804546761166 0 0 0 0 0.14933564703460434 21.000133193012061 0 21.000133193012061 17.374903791192082 0 0 0 0 10.283295920889941 18.805202128846304 0 18.805202128846304 4.7448692178570013 0 0 0 0 -4.3691139650486548 13.679005585475693 0 13.679005585475693 4.191715221962113 0 0 0 0 7.978362508785267 19.274143661955037 0 19.274143661955037 -2.113422270650517 0 0 0 0 -8.3386487740817756 24.037040097000727 0 24.037040097000727 0.79422143325632533 0 0 0 0 12.706190185186642 5.1909954635278837 0 5.1909954635278837 -8.5912971836633005 0 0 0 0 -31.104036090765476 3.1418908006912716 0 3.1418908006912716 2.1573883516207388 0 0 0 0 -0.088520090894129488 0.19640253938879582 0 0.19640253938879582 -0.15680990272964745 0 0 0 0 0.61420069079213135 11.30796169258042 0 11.30796169258042 1.5122569866316553 0 0 0 0 6.5201132214479003 8.5371663131327296 0 8.5371663131327296 -0.54914373457177135 0 0 0 0 -1.9183454616613744 11.064447586039478 0 11.064447586039478 3.9480458391171851 0 0 0 0 0.70886686116554642 1.2690096337441163 0 1.2690096337441163 -0.054413326760601066 0 0 0 0 -7.6196380191895514 -3.4380349676317792 0 -3.4380349676317792 3.1930387508491549 0 0 0 0 6.4378038135100724 8.130902075434733 0 8.130902075434733 2.1754340583051999 0 0 0 0 3.9163137852920045 4.0898717186678368 0 4.0898717186678368 0.95303073022216722 0 0 0 0 4.3625829301647556 3.9370945008328615 0 3.9370945008328615 3.1335769674069613 0 0 0 0 3.3017863356944872 5.8537795776710482 0 5.8537795776710482 1.6824039060693394 0 0 0 0 -0.33153828991453338 1.6663677186768382 0 1.6663677186768382 1.3816306225363064 0 0 0 0 6.6535762061406558 3.4015282923893722 0 3.4015282923893722 -9.70674435285855 0 0 0 0 0.28641916744709306 5.9477012910788289 0 5.9477012910788289 3.1553241451396161 0 0 0 0 5.322123624510823 18.35619218739771 0 18.35619218739771 -9.5597227237681182 0 0 0 0 -5.7040711407830429 4.899484107679843 0 4.899484107679843 11.929330577119027 0 0 0 0 -3.4524993971476761 4.8132040379720138 0 4.8132040379720138 15.296460011006275 0 0 0 0 -10.931261763691509 6.319212572882634 0 6.319212572882634 14.00765773790863 0 0 0 0 14.519275809241663 27.8356691380136 0 27.8356691380136 -10.210487810787527 0 0 0 0 6.4767267764610033 6.4461491683586978 0 6.4461491683586978 3.2276937795588516 0 0 0 0 2.3835392562938047 4.6534552492935646 0 4.6534552492935646 4.5209300728498132 0 0 0 0 -4.3790174747427955 13.2484614016862 0 13.2484614016862 38.863883822090429 0 0 0 0 -2.5773907149687147 10.331726227249874 0 10.331726227249874 34.083371184710813 0 0 0 0 -3.3610999058682864 -2.4863930013568734 0 -2.4863930013568734 6.2064358257557615 0 0 0 0 -1.0570964667720588 1.5743956893566757 0 1.5743956893566757 2.7510259193401221 0 0 0 0 45.552269821986556 49.915517817435102 0 49.915517817435102 14.491499354776352 0 0 0 0 -0.39008590638095342 0.5292837567792219 0 0.5292837567792219 0.80366416708108712 0 0 0 0 17.273514189279012 5.5631884987355988 0 5.5631884987355988 -0.49442866870595026 0 0 0 0 32.309579167731499 25.046605242315763 0 25.046605242315763 8.8900279588688136 0 0 0 0 4.6787514134957746 21.395068419168638 0 21.395068419168638 34.545243845736877 0 0 0 0 9.7754657140394556 14.195023590678829 0 14.195023590678829 13.024232909700459 0 0 0 0 3.1637806012777219 15.303286661561742 0 15.303286661561742 7.5496060231876072 0 0 0 0 -1.4825522206228143 6.0790318755220021 0 6.0790318755220021 5.2438962283285617 0 0 0 0 -0.96799198425469513 8.5282853453390999 0 8.5282853453390999 21.300976751200778 0 0 0 0 -4.0476182305155817 11.565584980040057 0 11.565584980040057 12.525376453665672 0 0 0 0 -1.1357418882780621 2.8306240150600388 0 2.8306240150600388 9.5753212453461174 0 0 0 0 -2.372185066136808 8.8947587937709613 0 8.8947587937709613 13.297398035915194 0 0 0 0 3.5728404041583417 6.0869600616551907 0 6.0869600616551907 8.4189039438838336 0 0 0 0 -0.24519476008663332 6.8454759230098716 0 6.8454759230098716 14.684076629177071 0 0 0 0 17.836390219901659 14.53123574216761 0 14.53123574216761 14.687731552533478 0 0 0 0 2.5246943449528771 4.9952856630097813 0 4.9952856630097813 12.585603598471607 0 0 0 0 -13.559353251645007 -2.6074516712492368 0 -2.6074516712492368 12.916504441264806 0 0 0 0 -75.699480264460362 10.537385416253528 0 10.537385416253528 96.423695717674491 0 0 0 0 15.908234511256524 49.191389744245043 0 49.191389744245043 47.254239807932663 0 0 0 0 -2.76655886098888 13.414769357751084 0 13.414769357751084 30.358322988007785 0 0 0 0 -5.4029829805313057 22.031692742838231 0 22.031692742838231 17.774017548437769 0 0 0 0 2.9446562468565389 16.075302045095441 0 16.075302045095441 13.876230778721492 0 0 0 0 -2.8177943222266322 12.185304838061597 0 12.185304838061597 12.048896966964094 0 0 0 0 -2.6587599195004259 8.8677444395934799 0 8.8677444395934799 14.737252488635022 0 0 0 0 2.299714623224645 10.275659947019676 0 10.275659947019676 8.3513949034900179 0 0 0 0 -0.33158027481658792 8.0209868881202055 0 8.0209868881202055 6.5334901640976568 0 0 0 0 -3.5612170976105517 5.1700248738541177 0 5.1700248738541177 7.3444232362721777 0 0 0 0 -2.3702266037619202 5.7135827203212477 0 5.7135827203212477 5.5845682293411105 0 0 0 0 2.7746717915881618 11.274245888182122 0 11.274245888182122 7.2925909573541503 0 0 0 0 -1.7310892672921021 5.0627784405364178 0 5.0627784405364178 6.8517526212876554 0 0 0 0 0.48760295953388777 7.1575414170742988 0 7.1575414170742988 7.6650747277562914 0 0 0 0 6.8874456041230587 10.793424131428765 0 10.793424131428765 9.1964276456974403 0 0 0 0 -0.19336529620431975 7.7612734135682331 0 7.7612734135682331 -1.3844617844197273 0 0 0 0 -3.2334106456282825 7.6623806786997193 0 7.6623806786997193 14.421509272439835 0 0 0 0 0.96971563410277639 6.2445426628758955 0 6.2445426628758955 5.9681459099939902 0 0 0 0 -7.4890894095960903 12.136067791181631 0 12.136067791181631 4.2398533322120784 0 0 0 0 -10.903778013424017 15.178189643324004 0 15.178189643324004 8.8310424877936384 0 0 0 0 -2.662922069692172 8.8659476959456924 0 8.8659476959456924 6.0663327102602125 0 0 0 0 -5.5337314224943839 13.510390814269158 0 13.510390814269158 3.560533673471582 0 0 0 0 -6.2287627281684141 9.2555569683088663 0 9.2555569683088663 0.032903586941319674 0 0 0 0 -9.161645341057465 8.3867258656109698 0 8.3867258656109698 -0.43446980621956754 0 0 0 0 11.270575574447321 7.9232317932585374 0 7.9232317932585374 -1.5813305431834124 0 0 0 0 25.848792948819209 15.878467777614901 0 15.878467777614901 -2.2462068450968218 0 0 0 0 -0.53593766639329665 -0.072132248460820669 0 -0.072132248460820669 -0.19867118806902084 0 0 0 0 16.47258341571569 7.5939549829361113 0 7.5939549829361113 -3.5102049575954197 0 0 0 0 -10.454872683012638 15.805356481949261 0 15.805356481949261 -1.2837243085314185 0 0 0 0 -10.795244923747305 27.103275014386099 0 27.103275014386099 14.197124129128838 0 0 0 0 -9.1653103106604021 23.788016878159794 0 23.788016878159794 33.289014046520606 0 0 0 0 -0.37894269938730041 0.51478603481989449 0 0.51478603481989449 0.34602243794307563 0 0 0 0 2.5384266790697438 14.864844453355431 0 14.864844453355431 27.287152429681555 0 0 0 0 -1.9399839998112611 5.0985736324211075 0 5.0985736324211075 8.6950971760484208 0 0 0 0 -2.4418118268612821 4.6634246323324904 0 4.6634246323324904 5.1088203436182633 0 0 0 0 9.2025389285704478 16.941923768192055 0 16.941923768192055 12.441296092637344 0 0 0 0 0.50315578156091156 2.3948157376065478 0 2.3948157376065478 2.5721619559861644 0 0 0 0 14.531067780399553 13.92799874928437 0 13.92799874928437 9.2919673958140265 0 0 0 0 10.483318271362805 13.56254976555806 0 13.56254976555806 9.259247466205494 0 0 0 0 10.425321178948707 12.797560377590003 0 12.797560377590003 10.950709704895189 0 0 0 0 5.0576659984781145 13.285401983962004 0 13.285401983962004 12.074109325547852 0 0 0 0 7.1074451660742852 12.472248368784676 0 12.472248368784676 6.7464599648972126 0 0 0 0 7.048254548478333 8.1670383089415122 0 8.1670383089415122 4.8377259476132384 0 0 0 0 1.3978830683364691 5.1309103344121052 0 5.1309103344121052 -0.63715765410398362 0 0 0 0 6.1309542173848968 12.934583271236647 0 12.934583271236647 13.790079194219743 0 0 0 0 9.282222933126441 12.192250736130543 0 12.192250736130543 6.1436066178654398 0 0 0 0 -0.13655333076635223 3.6408557166630375 0 3.6408557166630375 3.9351609959180482 0 0 0 0 7.3943793989828919 16.75288766929782 0 16.75288766929782 22.139884947838823 0 0 0 0 2.7026943353721435 6.2940518185049541 0 6.2940518185049541 13.157277105835192 0 0 0 0 -0.98342222211550911 0.4702961831470418 0 0.4702961831470418 -0.66479324391490646 0 0 0 0 8.6836214509131651 32.043219557966992 0 32.043219557966992 25.759620249074487 0 0 0 0 11.929508032586909 7.8885927860756055 0 7.8885927860756055 9.1870216579424095 0 0 0 0 -24.403995234576541 24.34450028973788 0 24.34450028973788 8.6715745822860981 0 0 0 0 2.4099536343874206 11.594049729379094 0 11.594049729379094 3.3591185397860954 0 0 0 0 -23.574074116648717 23.551743298659517 0 23.551743298659517 -1.8910615912991489 0 0 0 0 8.4613958284026012 20.100538214250037 0 20.100538214250037 12.793525689471323 0 0 0 0 2.4335900120622682 9.4732420418725951 0 9.4732420418725951 9.2107947593708559 0 0 0 0 31.91199417721117 24.805029870409896 0 24.805029870409896 15.613053578718791 0 0 0 0 50.89588218742756 29.864552184181548 0 29.864552184181548 -12.261783721638722 0 0 0 0 -52.39413746894661 16.046265730274627 0 16.046265730274627 5.1821182303571049 0 0 0 0 -0.18679895851084827 1.3029349614253416 0 1.3029349614253416 -1.5268524894681406 0 0 0 0 -35.160545942382669 29.149632543293592 0 29.149632543293592 2.0264520732107485 0 0 0 0 -18.160365528481634 34.127645386059839 0 34.127645386059839 6.3885680687776585 0 0 0 0 -22.341227238339343 17.802620896459416 0 17.802620896459416 -4.136665911117575 0 0 0 0 36.997751950430029 -1.2687507874641142 0 -1.2687507874641142 -21.198566432134157 0 0 0 0 32.924624904009761 16.251614986925915 0 16.251614986925915 -20.116129937053799 0 0 0 0 3.7553156551678057 20.062942069953237 0 20.062942069953237 -9.6613462647260349 0 0 0 0 -3.7347633048188982 6.8646430549416664 0 6.8646430549416664 -2.8755397874392656 0 0 0 0 -2.840958895836593 6.35281341766472 0 6.35281341766472 77.097158812153793 0 0 0 0 -0.56097958440965345 1.6650997555963718 0 1.6650997555963718 -2.8050979773311608 0 0 0 0 -3.4204158394526303 46.717832451925986 0 46.717832451925986 -18.049988029122005 0 0 0 0 5.9690741506983613 17.755145890075141 0 17.755145890075141 -8.4276676751508148 0 0 0 0 16.645603056629625 24.43095746134918 0 24.43095746134918 -4.8291041037805371 0 0 0 0 4.1789434396978322 26.663973698746318 0 26.663973698746318 11.082138779725483 0 0 0 0 8.2488842576176467 7.6072429972162183 0 7.6072429972162183 37.633915693958897 0 0 0 0 52.124679815321542 17.015927042517546 0 17.015927042517546 7.9195078831396586 0 0 0 0 60.525625853753809 31.902520252706836 0 31.902520252706836 -3.9597956826278278 0 0 0 0 8.8083333162853705 -7.5542129241222824 0 -7.5542129241222824 -0.62692798393436533 0 0 0 0 0.21162864308142204 -0.14773917655605118 0 -0.14773917655605118 -0.80975312908696906 0 0 0 0 25.122091575063678 -8.2513500026618658 0 -8.2513500026618658 -7.2234103105070062 0 0 0 0 18.573250910287243 31.851875948904762 0 31.851875948904762 49.48888190580692 0 0 0 0 34.175134837512815 39.636878223812346 0 39.636878223812346 33.86994854814111 0 0 0 0 29.837618362502326 31.928193497553366 0 31.928193497553366 20.182420013607725 0 0 0 0 -0.12292032889556848 1.0256155315277038 0 1.0256155315277038 0.19902105428866701 0 0 0 0 9.8937916087161284 20.227494508204018 0 20.227494508204018 35.677970013363847 0 0 0 0 26.120737212122549 39.492198063149374 0 39.492198063149374 -16.325427158468528 0 0 0 0 -51.123392473727563 17.802590927104347 0 17.802590927104347 16.786114768948835 0 0 0 0 -0.72196665376096192 0.3485981776480922 0 0.3485981776480922 0.25486209973242957 0 0 0 0 -39.256393517495326 47.533264521587967 0 47.533264521587967 -1.9006032358283846 0 0 0 0 -11.912295211584933 8.86251513659181 0 8.86251513659181 -8.5914091351156117 0 0 0 0 -42.71608486027958 25.835591505502236 0 25.835591505502236 17.751932960382419 0 0 0 0 -26.885305282506124 50.219091625316253 0 50.219091625316253 -7.1298585142862123 0 0 0 0 -21.732777146703484 34.601181038110553 0 34.601181038110553 15.565803299575464 0 0 0 0 -9.3321858974841234 31.948678207995357 0 31.948678207995357 10.902216048761602 0 0 0 0 -15.206713272064519 34.623448761461994 0 34.623448761461994 10.712227523372803 0 0 0 0 -24.13304697903186 25.484641886119618 0 25.484641886119618 14.392152368131633 0 0 0 0 -20.397739880643407 28.740648141368652 0 28.740648141368652 17.207745355960242 0 0 0 0 0.64518570167547296 33.624787556706792 0 33.624787556706792 15.429356967037734 0 0 0 0 -21.164384469712331 37.643885641988952 0 37.643885641988952 26.460570950582223 0 0 0 0 -11.007702488257564 28.162063966353571 0 28.162063966353571 14.40932493028663 0 0 0 0 -11.910142408893478 17.883618218242937 0 17.883618218242937 13.84083107481365 0 0 0 0 -20.293477369955781 30.249058517319781 0 30.249058517319781 15.987229691814264 0 0 0 0 10.42321124479713 8.9361721358557133 0 8.9361721358557133 7.8680418258581426 0 0 0 0 23.349343521720584 13.482484058449472 0 13.482484058449472 9.5375485608683448 0 0 0 0 20.448897573681279 18.033978290376126 0 18.033978290376126 2.6607009121876217 0 0 0 0 25.112299754827745 18.132068784739374 0 18.132068784739374 -0.39171063177059295 0 0 0 0 22.183529950535558 15.24442423294272 0 15.24442423294272 2.5089519872587793 0 0 0 0 12.531930948160152 26.977561546036384 0 26.977561546036384 9.1495888339293288 0 0 0 0 9.8136357676803527 5.7224543059067763 0 5.7224543059067763 4.0511073182622113 0 0 0 0 11.595299441673887 23.148181725554309 0 23.148181725554309 16.153058228425039 0 0 0 0 28.90013086129602 15.293357560265861 0 15.293357560265861 0.31295434576622938 0 0 0 0 26.324441016300625 16.733827647234079 0 16.733827647234079 -0.19549145958120562 0 0 0 0 25.329123054403681 8.7259272679738444 0 8.7259272679738444 -0.80965622755616096 0 0 0 0 28.185821451255833 16.796863127367146 0 16.796863127367146 -1.1727400444910927 0 0 0 0 27.202024785755839 17.837916749583371 0 17.837916749583371 -0.99570777061308036 0 0 0 0 1.1597869856432226 29.421129076652733 0 29.421129076652733 8.6766670521739684 0 0 0 0 32.434174385721235 14.914910386206088 0 14.914910386206088 0.62511742974834306 0 0 0 0 29.112110489939255 42.182084966765451 0 42.182084966765451 2.9729363411940994 0 0 0 0 57.918821261117046 18.419628518972942 0 18.419628518972942 -0.34243944308097696 0 0 0 0 56.320461455591982 42.369725938011321 0 42.369725938011321 2.7024011383560946 0 0 0 0 35.567766213441246 4.2390103182725625 0 4.2390103182725625 12.634086344779348 0 0 0 0 109.19471563315665 48.825793923237477 0 48.825793923237477 9.4601014513757775 0 0 0 0 77.99011644633606 39.429153128565645 0 39.429153128565645 29.989739681030159 0 0 0 0 0.16226690852677184 0.68780916457411045 0 0.68780916457411045 1.6290757518752241 0 0 0 0 98.603365096833386 30.478705203803685 0 30.478705203803685 -6.8174274810277495 0 0 0 0 0.5757349727635539 0.59988397535152771 0 0.59988397535152771 0.040976858284984985 0 0 0 0 -73.731923269324852 44.910803897813523 0 44.910803897813523 22.139811167266316 0 0 0 0 -49.48328304127358 8.087614385235975 0 8.087614385235975 -1.9274544272573237 0 0 0 0 -42.243419962832377 19.789883719364923 0 19.789883719364923 13.949721654698266 0 0 0 0 -32.318481980997603 6.8808228522856609 0 6.8808228522856609 4.7574411449727592 0 0 0 0 -27.665228795701296 21.449257074678485 0 21.449257074678485 13.31675952782912 0 0 0 0 -30.449459512974954 21.250042700367842 0 21.250042700367842 16.249884243469523 0 0 0 0 -1.6853919870382015 62.285606491768164 0 62.285606491768164 25.31899987390274 0 0 0 0 -35.952824849987792 26.382645328278954 0 26.382645328278954 21.527386391506923 0 0 0 0 36.96440091696968 6.8620119337022629 0 6.8620119337022629 -12.001872332292351 0 0 0 0 27.041074992670133 15.153413028264595 0 15.153413028264595 -8.5759651627508902 0 0 0 0 16.559865250641906 19.045058149149213 0 19.045058149149213 -4.3570805147057854 0 0 0 0 25.167648750179069 10.922521386603435 0 10.922521386603435 -3.0293037223214014 0 0 0 0 -8.8261952908851526 23.596252400242093 0 23.596252400242093 -4.0206413345583201 0 0 0 0 -96.318161511249855 42.898509852263601 0 42.898509852263601 -48.717207436814306 0 0 0 0 -255.96477371918081 -141.98123037641784 0 -141.98123037641784 -249.5243518724393 0 0 0 0 -78.561353663173577 108.5866634211406 0 108.5866634211406 -49.770469382954019 0 0 0 0 -54.485614926512426 61.205726500246328 0 61.205726500246328 -34.534572190398933 0 0 0 0 -88.45421848889805 20.440695092509401 0 20.440695092509401 15.416354462835784 0 0 0 0 5.7669991652870145 14.013703343315731 0 14.013703343315731 -5.9882199161952254 0 0 0 0 -49.957262106785947 52.499327890815778 0 52.499327890815778 -2.2608308349838744 0 0 0 0 -21.168382475967064 29.163203720805569 0 29.163203720805569 -7.965654976169958 0 0 0 0 -36.099583967366925 23.87125607336435 0 23.87125607336435 -9.0558215851651767 0 0 0 0 -40.827973428047244 15.796875945726754 0 15.796875945726754 0.81873351810850181 0 0 0 0 25.960383053468831 13.174465588824376 0 13.174465588824376 5.0057603585560173 0 0 0 0 0.68353482080776828 1.5009045674678365 0 1.5009045674678365 5.0914115731933816 0 0 0 0 -55.999594184113448 25.644907770975351 0 25.644907770975351 8.8497175734465827 0 0 0 0 -6.6498683071686173 14.400135221030382 0 14.400135221030382 13.684481764963721 0 0 0 0 -27.166495056534586 17.305505067666104 0 17.305505067666104 -2.38140596781966 0 0 0 0 -1.9218460147295975 3.7461739731292267 0 3.7461739731292267 7.9332743307408418 0 0 0 0 -34.775080481399755 19.347202244681 0 19.347202244681 0.75070532926270062 0 0 0 0 18.825065703380005 1.538794832434661 0 1.538794832434661 -0.77690753906756527 0 0 0 0 3.3305682407084185 13.798768815402266 0 13.798768815402266 -7.17931325225344 0 0 0 0 39.221539784747165 3.1389958109265308 0 3.1389958109265308 -7.141592197446812 0 0 0 0 39.770321430986485 18.466142398277171 0 18.466142398277171 -24.22776786954887 0 0 0 0 81.549192222215424 2.2688877126785769 0 2.2688877126785769 -19.589406228098539 0 0 0 0 43.794801522022226 -17.660398706494533 0 -17.660398706494533 3.0477181621658929 0 0 0 0 19.809875578147739 62.227134537855399 0 62.227134537855399 118.70138484280551 0 0 0 0 1.7757548655642381 2.7269884372627557 0 2.7269884372627557 -1.9151020490001183 0 0 0 0 -23.854048843735541 -10.740982065610936 0 -10.740982065610936 50.628389700030766 0 0 0 0 -3.2497684273843621 1.9232906669514778 0 1.9232906669514778 -0.3140403215498937 0 0 0 0 -10.917471269172893 53.402661240299118 0 53.402661240299118 66.545737500514292 0 0 0 0 63.236683580389354 51.455130678322774 0 51.455130678322774 4.3665963727354011 0 0 0 0 27.571886339581397 16.349200788953176 0 16.349200788953176 11.224160239408548 0 0 0 0 33.078718346710048 99.418393719582582 0 99.418393719582582 81.920699661506148 0 0 0 0 -5.5437091816525026 1.5826066795221223 0 1.5826066795221223 5.1959908557139443 0 0 0 0 -2.3521734009338324 3.7759568419980467 0 3.7759568419980467 1.4327200109343385 0 0 0 0 50.100366699730785 42.444547128903309 0 42.444547128903309 -54.899913815919263 0 0 0 0 -21.093962897009988 11.576176354132485 0 11.576176354132485 12.182675736501132 0 0 0 0 -33.683311560060247 20.575068076534194 0 20.575068076534194 2.0869499790596819 0 0 0 0 -23.985588516058119 7.9628801613499745 0 7.9628801613499745 1.9306538033108513 0 0 0 0 -21.521178665833986 27.436805304048509 0 27.436805304048509 7.2018405291871659 0 0 0 0 -32.827465093826049 41.689949784142982 0 41.689949784142982 15.958084456913042 0 0 0 0 6.3936183162191362 12.971368179914595 0 12.971368179914595 8.7000103268226212 0 0 0 0 -47.669353284802582 15.636592127635566 0 15.636592127635566 25.949981230196414 0 0 0 0 -3.0040617216352601 1.7543335408324596 0 1.7543335408324596 2.0493668105599587 0 0 0 0 -43.843889718415994 43.714557930447427 0 43.714557930447427 46.500623631747658 0 0 0 0 -26.470851032529936 -15.916718578944938 0 -15.916718578944938 32.990891265560833 0 0 0 0 0.69095163808377613 13.022828587260722 0 13.022828587260722 6.1609916195294527 0 0 0 0 35.627445952163498 -2.1116031348159936 0 -2.1116031348159936 -6.15249747411508 0 0 0 0 32.853378506211811 13.517989218992398 0 13.517989218992398 -2.0809585686349124 0 0 0 0 8.9578529968230214 38.038061867947846 0 38.038061867947846 -10.492954163764921 0 0 0 0 5.2356420233440328 8.7036009467203694 0 8.7036009467203694 1.5677100804107518 0 0 0 0 4.455280577325234 10.038943916112576 0 10.038943916112576 7.6518211415417863 0 0 0 0 -6.1943262371666279 12.436134412128354 0 12.436134412128354 2.5532258114033084 0 0 0 0 1.4053485605254536 13.355370993482211 0 13.355370993482211 2.6309539261094415 0 0 0 0 2.6124000859565513 24.629541922659314 0 24.629541922659314 -3.992472672052827 0 0 0 0 0.59447711075470178 8.6974219311193846 0 8.6974219311193846 4.792396289637864 0 0 0 0 -16.519154711599185 15.759651248223236 0 15.759651248223236 4.1857695177618552 0 0 0 0 -31.236764043515905 32.469964063272528 0 32.469964063272528 5.0771233210725768 0 0 0 0 31.839699223424759 23.312784425534574 0 23.312784425534574 -11.416291373724562 0 0 0 0 4.8231208758538742 20.377259574349182 0 20.377259574349182 2.9783309953227217 0 0 0 0 33.04734836419766 33.795892717756772 0 33.795892717756772 -27.334178993242404 0 0 0 0 11.73878324135876 32.34753506577465 0 32.34753506577465 2.7405264206107347 0 0 0 0 10.483081001743535 -48.91151223899459 0 -48.91151223899459 -86.785331746959727 0 0 0 0 7.3115639578077207 33.272285702969043 0 33.272285702969043 -10.704989656308069 0 0 0 0 4.1323039917569986 9.7440649611232857 0 9.7440649611232857 -36.712439500389451 0 0 0 0 7.2326602868424743 41.055395055101599 0 41.055395055101599 2.8352803512183726 0 0 0 0 -0.3695077229315693 8.4643459478450591 0 8.4643459478450591 -0.25519289610743723 0 0 0 0 -3.0092483497895639 9.0201017527406151 0 9.0201017527406151 0.31614293816916117 0 0 0 0 1.7471803013468161 15.356036438865885 0 15.356036438865885 1.439956979443707 0 0 0 0 2.7166931012216082 14.297965843729457 0 14.297965843729457 1.6413085348297045 0 0 0 0 -3.0900245135150115 6.6787939266317728 0 6.6787939266317728 -3.6083836114940571 0 0 0 0 1.1374497590920782 13.923443204366549 0 13.923443204366549 2.4107291594500566 0 0 0 0 4.0377310446820047 11.835065277609999 0 11.835065277609999 3.713666760984097 0 0 0 0 5.9622303052051926 9.7630004101995524 0 9.7630004101995524 3.8802280964398665 0 0 0 0 6.9607801220049623 16.576621225505733 0 16.576621225505733 4.9943329531261043 0 0 0 0 7.0089854590739833 13.751141260242088 0 13.751141260242088 -0.89718175388497912 0 0 0 0 -0.095444966057243619 15.898748553091764 0 15.898748553091764 5.4639344084484947 0 0 0 0 10.01225243427848 8.6421612417871074 0 8.6421612417871074 1.4089898449001339 0 0 0 0 18.874162881779057 19.421377666637227 0 19.421377666637227 -0.039912071279104566 0 0 0 0 -4.6135862974714863 9.6637545792108863 0 9.6637545792108863 -1.642249771777756 0 0 0 0 2.4673123697170922 18.963564314989412 0 18.963564314989412 -0.50911291534748671 0 0 0 0 9.1157292955758749 22.015267804037705 0 22.015267804037705 16.618802029139488 0 0 0 0 3.2011592723356443 13.163511939109071 0 13.163511939109071 4.3763479359990924 0 0 0 0 2.8941918858997093 13.041228867117365 0 13.041228867117365 2.1553341917182376 0 0 0 0 -0.28003278180780278 9.0856844066825495 0 9.0856844066825495 1.716576567386614 0 0 0 0 17.385672888802446 19.555142175566289 0 19.555142175566289 3.0841588890157254 0 0 0 0 7.296572011060789 26.221278531234873 0 26.221278531234873 14.532056567987865 0 0 0 0 7.0678426082013175 23.394069137709209 0 23.394069137709209 16.553292389075978 0 0 0 0 -8.1644341247685475 11.066515977547624 0 11.066515977547624 13.411900833714753 0 0 0 0 -11.837040398505158 8.5022790405229891 0 8.5022790405229891 16.017052289677565 0 0 0 0 29.40209098363022 38.793805444807674 0 38.793805444807674 -3.1740931291264083 0 0 0 0 -34.73835698828718 11.463130666251541 0 11.463130666251541 19.995832747649143 0 0 0 0 50.274116914730257 59.46969596303552 0 59.46969596303552 55.061330754721894 0 0 0 0 -5.8380514735327864 7.0992983664799763 0 7.0992983664799763 -1.0169280431400152 0 0 0 0 32.653712978441035 76.91387434908097 0 76.91387434908097 62.325837435937046 0 0 0 0 -3.4822628231331691 31.311376612345157 0 31.311376612345157 -30.255004306925912 0 0 0 0 -9.0666704725863383 27.924689183775627 0 27.924689183775627 17.366929038925718 0 0 0 0 -7.3001591355696291 17.989232107236603 0 17.989232107236603 -3.4849307945905821 0 0 0 0 -15.507498540202505 38.247828322088026 0 38.247828322088026 14.615134526880865 0 0 0 0 -5.5980962231756166 27.035596664684363 0 27.035596664684363 25.043819513590279 0 0 0 0 3.2578048770956229 43.000723825611203 0 43.000723825611203 21.006252031662825 0 0 0 0 1.272661893693801 15.512496710087154 0 15.512496710087154 11.513595072283227 0 0 0 0 6.4639274002911407 37.137464219717913 0 37.137464219717913 12.912634006114104 0 0 0 0 -19.808219352724905 16.834238599043488 0 16.834238599043488 -1.2989910273449823 0 0 0 0 16.748183701529342 22.168194668667638 0 22.168194668667638 15.864865501018812 0 0 0 0 -1.3305064100204618 14.229855988201507 0 14.229855988201507 -4.0354742055496899 0 0 0 0 -25.717952738883923 19.668439571107001 0 19.668439571107001 1.4488785138747744 0 0 0 0 7.8701369835541755 28.87730159182172 0 28.87730159182172 22.205566030711907 0 0 0 0 -2.6844225515637845 14.530167118441682 0 14.530167118441682 13.254397410007186 0 0 0 0 11.118122467529247 27.418125276043838 0 27.418125276043838 5.1786264806642066 0 0 0 0 17.591151414983415 16.998296369129775 0 16.998296369129775 -1.6035310797788043 0 0 0 0 -5.9443306629200379 25.766316730655944 0 25.766316730655944 7.1715968606702063 0 0 0 0 11.487868811734643 12.821591662234596 0 12.821591662234596 1.8637643619476876 0 0 0 0 41.322385452305753 15.809398064737252 0 15.809398064737252 6.9036454007309658 0 0 0 0 21.74300380247405 30.644190355722003 0 30.644190355722003 7.1079755054543057 0 0 0 0 49.163058092992287 28.327967050211555 0 28.327967050211555 -0.3713093025157832 0 0 0 0 5.4133273849986363 12.323270351073301 0 12.323270351073301 1.6107434516238133 0 0 0 0 -29.801622506452077 29.784550450199276 0 29.784550450199276 7.9523487526790859 0 0 0 0 -10.351439906876294 8.885855013331593 0 8.885855013331593 5.4684365931798311 0 0 0 0 -31.672344145015813 25.160895141700166 0 25.160895141700166 -1.8633132973627653 0 0 0 0 -0.53768184378077422 26.03855064564641 0 26.03855064564641 -19.76098165985195 0 0 0 0 -63.681991658741026 23.166273868879216 0 23.166273868879216 2.6877793190433295 0 0 0 0 3.6328318702287454 1.4401993667175801 0 1.4401993667175801 -1.9562585510198875 0 0 0 0 32.444339945979664 26.800296281922556 0 26.800296281922556 3.0131657652827926 0 0 0 0 32.004968937128069 22.375465223266929 0 22.375465223266929 -0.98296024942374061 0 0 0 0 9.264425866151214 35.69509243771472 0 35.69509243771472 -0.67523449712280126 0 0 0 0 5.0325541867796346 12.800777194653051 0 12.800777194653051 6.3625799703968369 0 0 0 0 -0.11409342847286208 0.64874816601595864 0 0.64874816601595864 -0.48957841252353695 0 0 0 0 118.90442778807505 33.067119503130414 0 33.067119503130414 -22.373673586769655 0 0 0 0 75.252624534932693 -2.937430049969862 0 -2.937430049969862 3.6261389439639515 0 0 0 0 -34.501852712501204 14.269592177231516 0 14.269592177231516 -10.302817817739424 0 0 0 0 -115.72288950999155 2.4319800720745661 0 2.4319800720745661 24.677789462800092 0 0 0 0 -55.62593649130531 42.486202721642144 0 42.486202721642144 23.784818451147657 0 0 0 0 14.205106452262044 -36.515209860960567 0 -36.515209860960567 -10.976487249468391 0 0 0 0 2.9922700118018923 12.290969788195524 0 12.290969788195524 9.9003191078810708 0 0 0 0 -39.709466300559143 84.975037686523137 0 84.975037686523137 -4.0243470793284359 0 0 0 0 70.553943636766235 54.665849281542705 0 54.665849281542705 4.0367379325784896 0 0 0 0 64.25308241523544 17.715794340320826 0 17.715794340320826 -4.4743882071652479 0 0 0 0 9.3508704131531317 -7.8035057913213564 0 -7.8035057913213564 27.724214356895573 0 0 0 0 4.1562671489080003 15.425221285738871 0 15.425221285738871 11.01610399070637 0 0 0 0 17.140092102281415 15.62278858249806 0 15.62278858249806 -9.0732029086766488 0 0 0 0 -27.59888342638169 29.013469106886191 0 29.013469106886191 6.1696200065771336 0 0 0 0 16.294130006718206 -20.476417516131733 0 -20.476417516131733 12.315108348639114 0 0 0 0 3.6035212869159388 12.030970192773232 0 12.030970192773232 9.8081693287095266 0 0 0 0 25.010621135845213 48.569104050731767 0 48.569104050731767 -11.768323573282487 0 0 0 0 23.793477434105853 65.62183427840705 0 65.62183427840705 -92.716935065702273 0 0 0 0 17.268836627575638 9.7350275907547257 0 9.7350275907547257 -40.245502224744996 0 0 0 0 16.993825418517645 22.513816733222257 0 22.513816733222257 41.729923409839103 0 0 0 0 23.63677631277551 36.127856590183001 0 36.127856590183001 -2.2832052856419978 0 0 0 0 29.758560918595322 44.013524497318485 0 44.013524497318485 19.901484865686598 0 0 0 0 3.9129288875009571 11.890088324122914 0 11.890088324122914 9.6115610112692131 0 0 0 0 -4.4428665662726416 27.065290398022626 0 27.065290398022626 -30.52518900733844 0 0 0 0 -15.919805035293393 26.595071188399743 0 26.595071188399743 -9.6985659880471076 0 0 0 0 31.549619949933685 33.806090442800951 0 33.806090442800951 -27.698990412618514 0 0 0 0 28.280464598312392 46.20725586649769 0 46.20725586649769 -8.0601013600490319 0 0 0 0 -0.43662123104245332 0.093991859494209962 0 0.093991859494209962 0.26723868049519339 0 0 0 0 -27.254651261129766 35.845026716101529 0 35.845026716101529 4.2412272246947396 0 0 0 0 -25.632881388168187 5.8032311665118073 0 5.8032311665118073 22.87165468564308 0 0 0 0 -14.628496171813822 19.819693259956694 0 19.819693259956694 23.402442265658465 0 0 0 0 -11.965283887537225 22.889098633061622 0 22.889098633061622 42.042043726631164 0 0 0 0 -4.0182834816914692 15.963796784525584 0 15.963796784525584 47.210894555898449 0 0 0 0 -1.7074665902491688 20.510742330263383 0 20.510742330263383 23.433022013392474 0 0 0 0 -2.3571593520248371 6.3152506287640335 0 6.3152506287640335 22.637808503390261 0 0 0 0 6.3850836803385391 17.451431914376371 0 17.451431914376371 34.345001531803064 0 0 0 0 6.094050797066302 17.573093132094982 0 17.573093132094982 34.295500214629101 0 0 0 0 2.94515408765551 12.339758009921525 0 12.339758009921525 26.293905606529734 0 0 0 0 14.869779182231468 35.717449201639283 0 35.717449201639283 42.537204781765752 0 0 0 0 -6.3634531179644291 3.1487426583520222 0 3.1487426583520222 -2.6254080850050769 0 0 0 0 -1.3153189044003284 28.998394642555922 0 28.998394642555922 52.552804419523454 0 0 0 0 19.981534326018846 50.676692271904813 0 50.676692271904813 57.706281021371979 0 0 0 0 12.181741008901156 31.008480088799558 0 31.008480088799558 57.951822515866297 0 0 0 0 8.1458098961825272 26.776559438025288 0 26.776559438025288 40.072033085898511 0 0 0 0 13.324553645037668 37.693664904816615 0 37.693664904816615 37.309763672761619 0 0 0 0 -0.64946135122584359 0.19521571750589573 0 0.19521571750589573 0.3582843849033992 0 0 0 0 0.40988179239639067 22.482653614410992 0 22.482653614410992 40.249788438564792 0 0 0 0 18.030148277751323 19.616820050812748 0 19.616820050812748 33.980216155550806 0 0 0 0 -0.41764683230774757 0.086865356986731257 0 0.086865356986731257 0.32637005717968037 0 0 0 0 14.428591590354699 30.471396314527738 0 30.471396314527738 29.366585712967208 0 0 0 0 26.701874011593873 27.322286974149847 0 27.322286974149847 28.987993503975304 0 0 0 0 17.145572736815438 46.418169955476515 0 46.418169955476515 51.557168356292095 0 0 0 0 -1.3386039829698415 0.31525705611195143 0 0.31525705611195143 0.98242435465325428 0 0 0 0 7.8786514386856652 20.310175104105838 0 20.310175104105838 34.438858214216452 0 0 0 0 0.97758921684725308 0.46679077607516817 0 0.46679077607516817 -0.35182112118203523 0 0 0 0 -17.652884896782325 0.6739600469263678 0 0.6739600469263678 -3.7393782663602906 0 0 0 0 -0.70395939336685842 68.535051802718954 0 68.535051802718954 142.01841276252094 0 0 0 0 -3.555744825247106 2.7091878020516686 0 2.7091878020516686 -0.3940939097616436 0 0 0 0 -1.6275148726242747 1.9167162356039213 0 1.9167162356039213 -0.9523573657167006 0 0 0 0 9.153604666330466 9.1784510809256972 0 9.1784510809256972 14.607028461025948 0 0 0 0 5.3469999243277471 22.964999569525162 0 22.964999569525162 38.406626192892872 0 0 0 0 -0.66453949657443445 3.4311158530681496 0 3.4311158530681496 2.1762581955517817 0 0 0 0 1.0025002711541617 1.5984125541399301 0 1.5984125541399301 -1.7624815136266574 0 0 0 0 15.925262351415313 53.455365752568468 0 53.455365752568468 41.943288727445179 0 0 0 0 47.895440746366148 54.519364894345927 0 54.519364894345927 26.82156601697352 0 0 0 0 12.372458973137327 45.08692631735903 0 45.08692631735903 29.323583768793469 0 0 0 0 22.570355527972424 11.200649848346075 0 11.200649848346075 -1.7049092884062702 0 0 0 0 -5.1644881794943256 3.7518984824326669 0 3.7518984824326669 -2.3734795893551635 0 0 0 0 -15.332926560350643 8.5622784717170362 0 8.5622784717170362 25.519926301987653 0 0 0 0 15.895222643474881 10.525040967305358 0 10.525040967305358 14.892782089962566 0 0 0 0 26.886885618775523 17.45258953805569 0 17.45258953805569 -27.247727925223444 0 0 0 0 46.983869878667065 23.51676888302336 0 23.51676888302336 -1.3958852742071031 0 0 0 0 30.7882758415235 37.836821009259438 0 37.836821009259438 34.016257507370028 0 0 0 0 55.698803896668323 49.889391944630916 0 49.889391944630916 6.1619589999563686 0 0 0 0 64.064233176945891 75.07515769924521 0 75.07515769924521 40.292742152530991 0 0 0 0 -15.971840882852121 43.483355300973926 0 43.483355300973926 71.4346171386278 0 0 0 0 35.306415241840114 35.138765801901172 0 35.138765801901172 116.77672797581772 0 0 0 0 35.559598482750516 77.502965718107589 0 77.502965718107589 104.71659788333909 0 0 0 0 34.611890012260119 46.436598762809808 0 46.436598762809808 48.405036205644137 0 0 0 0 13.758823963488339 77.875264330242317 0 77.875264330242317 46.553666246491048 0 0 0 0 -13.753259589253503 31.50875104232864 0 31.50875104232864 28.663633013782601 0 0 0 0 3.7503351276300236 20.688967475827667 0 20.688967475827667 27.019581545118854 0 0 0 0 -6.4930117771166218 10.628995222915535 0 10.628995222915535 14.847355254310632 0 0 0 0 2.6127605361617174 7.8154972979868802 0 7.8154972979868802 -4.09281730001479 0 0 0 0 2.6989293331971567 42.512548627610158 0 42.512548627610158 84.182024115332013 0 0 0 0 11.043627439684315 54.573713234823117 0 54.573713234823117 -13.805311510452157 0 0 0 0 -7.0436235376923833 24.21277745027237 0 24.21277745027237 56.218963583443838 0 0 0 0 0.12440191911798593 6.5965064634848325 0 6.5965064634848325 8.6256857074219138 0 0 0 0 25.987097338615058 45.44471564335754 0 45.44471564335754 38.512131888213617 0 0 0 0 19.135471702697721 19.001387287505271 0 19.001387287505271 2.3639465391228747 0 0 0 0 29.1543825667286 46.57953007070364 0 46.57953007070364 35.340974778806789 0 0 0 0 -15.479632848420671 14.026699312967995 0 14.026699312967995 37.252250073413222 0 0 0 0 13.910040093891894 23.879924356404445 0 23.879924356404445 20.694227853426128 0 0 0 0 6.3238367561588795 8.3555314150297129 0 8.3555314150297129 2.1941003515418309 0 0 0 0 15.217784999740616 24.683427824684259 0 24.683427824684259 22.841487594674618 0 0 0 0 12.224574004043518 34.115429135163595 0 34.115429135163595 43.128128619388008 0 0 0 0 29.982773255863322 34.581189304291911 0 34.581189304291911 34.101909658198565 0 0 0 0 4.4198507341756041 3.1724236194031672 0 3.1724236194031672 5.4336659497733493 0 0 0 0 24.478969322696685 22.365990767350013 0 22.365990767350013 23.778722606130941 0 0 0 0 25.282695182032512 13.261214290314456 0 13.261214290314456 28.141820941279548 0 0 0 0 32.506069793816096 21.117041439946661 0 21.117041439946661 28.328705515255933 0 0 0 0 2.715628234010953 11.798443463844572 0 11.798443463844572 7.4740923926229925 0 0 0 0 10.6984554850915 14.336151719906574 0 14.336151719906574 2.8026624332524079 0 0 0 0 22.461289353585016 19.384408197569428 0 19.384408197569428 18.860442994031473 0 0 0 0 29.951855359824549 16.172464182174735 0 16.172464182174735 9.972993588206009 0 0 0 0 17.751162764283471 12.621036231366901 0 12.621036231366901 -3.4242739719682134 0 0 0 0 16.217065633369266 18.858189060643525 0 18.858189060643525 4.8018827458259601 0 0 0 0 8.1316672341128395 18.736235222138461 0 18.736235222138461 10.381233404230443 0 0 0 0 11.844410697500871 23.056509759069989 0 23.056509759069989 6.0879001950362159 0 0 0 0 41.678037158249936 29.67554593541854 0 29.67554593541854 -11.960323537369732 0 0 0 0 3.3937406343757175 -3.3740241704331311 0 -3.3740241704331311 -10.350731938061017 0 0 0 0 49.788777612775448 9.0581769709560831 0 9.0581769709560831 -7.0407756523816261 0 0 0 0 72.377725468068093 36.918699807605662 0 36.918699807605662 -11.222158066843804 0 0 0 0 23.488662019521104 18.195724813043423 0 18.195724813043423 -4.0784712365182871 0 0 0 0 25.111064145894488 31.833617184829563 0 31.833617184829563 -15.741545870944606 0 0 0 0 1.0801085484473028 2.6881921771471724 0 2.6881921771471724 5.849650277442624 0 0 0 0 27.812533227672247 51.726759976279027 0 51.726759976279027 -19.80106954735993 0 0 0 0 55.115626407976379 30.543334879281247 0 30.543334879281247 -16.477184963184868 0 0 0 0 29.860868209809269 26.040546693652686 0 26.040546693652686 1.6284676860673244 0 0 0 0 51.104744192020007 48.346299731426143 0 48.346299731426143 23.54589974519331 0 0 0 0 28.448351978831852 43.428923972260463 0 43.428923972260463 21.294052930228645 0 0 0 0 21.689820529576537 58.029971012397709 0 58.029971012397709 61.073253816888155 0 0 0 0 40.73276396237452 63.102988892136636 0 63.102988892136636 42.057878323559862 0 0 0 0 53.644545819084669 45.437970393735895 0 45.437970393735895 24.68875486377317 0 0 0 0 37.391803389527922 46.91054883629522 0 46.91054883629522 53.534071241313995 0 0 0 0 41.280268355845692 58.873812251223853 0 58.873812251223853 89.645982040886338 0 0 0 0 118.24609810737365 45.006384802499838 0 45.006384802499838 4.6975557134194332 0 0 0 0 3.9698639839758321 3.0165028196959884 0 3.0165028196959884 0.41562197493861053 0 0 0 0 72.967153921827048 77.879533815864079 0 77.879533815864079 58.42239297217202 0 0 0 0 -1.2163723292141171 27.189394703659669 0 27.189394703659669 19.91644419702061 0 0 0 0 62.608112221679221 70.43838885260368 0 70.43838885260368 59.748127022288372 0 0 0 0 49.751967306305687 55.890556683063323 0 55.890556683063323 87.703454476214119 0 0 0 0 -8.4922078150611924 66.967099699245182 0 66.967099699245182 100.99659187487987 0 0 0 0 55.112059197110284 76.034003009650405 0 76.034003009650405 62.367552322752545 0 0 0 0 -8.493475783795466 -1.9672057967215704 0 -1.9672057967215704 1.4996749155580034 0 0 0 0 -35.451941483377595 -7.3315512073306763 0 -7.3315512073306763 5.4979480229812907 0 0 0 0 -12.54412326319261 18.960606123053232 0 18.960606123053232 24.683505728522739 0 0 0 0 -1.9539859872647867 35.202036599502208 0 35.202036599502208 44.023418852693794 0 0 0 0 -26.993939625721396 25.568835376149536 0 25.568835376149536 69.026971011839123 0 0 0 0 -2.4905637377488308 7.8411945512761942 0 7.8411945512761942 1.5462641549509897 0 0 0 0 6.1808247480694263 50.599979297349819 0 50.599979297349819 43.769990371302001 0 0 0 0 16.757180914916717 38.172600818990759 0 38.172600818990759 46.287256124809574 0 0 0 0 -22.598360435845116 12.023497669153651 0 12.023497669153651 32.281716873058599 0 0 0 0 -5.6979001115287247 34.877215727785369 0 34.877215727785369 30.804818848851937 0 0 0 0 22.143494487891076 28.227723176196378 0 28.227723176196378 31.994182891491619 0 0 0 0 16.285749323507048 32.260373891719382 0 32.260373891719382 42.394531982956323 0 0 0 0 23.054669106838901 49.148944903942152 0 49.148944903942152 43.168140578925431 0 0 0 0 -7.5118796699248378 -53.479355919640966 0 -53.479355919640966 -46.671200238675738 0 0 0 0 -89.87830626421237 40.779848197589672 0 40.779848197589672 -22.836387041867511 0 0 0 0 -16.680563391999385 77.92545208722504 0 77.92545208722504 -28.720192275599402 0 0 0 0 -1.7571910363385541 12.798206192313046 0 12.798206192313046 -14.816985981404741 0 0 0 0 5.6916836599511953 10.047522130880679 0 10.047522130880679 -22.931372501607257 0 0 0 0 -1.06989423172387 0.43894164360456411 0 0.43894164360456411 -0.0050855299955543387 0 0 0 0 -103.05837509202138 -39.975925062106398 0 -39.975925062106398 -1.0212004599397915 0 0 0 0 -139.78286248947779 76.660664753084006 0 76.660664753084006 30.064592879740303 0 0 0 0 -0.929207705715271 71.812971984583783 0 71.812971984583783 7.3951401002714192 0 0 0 0 45.381365087386484 33.783048452584353 0 33.783048452584353 -8.5363759976535221 0 0 0 0 4.1412516654900173 38.915906824277045 0 38.915906824277045 -9.142724698288248 0 0 0 0 -7.0060305170677566 20.135289415607531 0 20.135289415607531 6.9287261253521137 0 0 0 0 -19.649375927068832 27.778219145788171 0 27.778219145788171 3.6445698777242796 0 0 0 0 -1.9839258015499581 16.479003455879138 0 16.479003455879138 -0.57083338403299422 0 0 0 0 -6.4171482243700666 12.548153005194763 0 12.548153005194763 9.7044847660072264 0 0 0 0 -23.645755890198416 13.573620610283342 0 13.573620610283342 10.115228282289536 0 0 0 0 -15.966598838372192 21.442179770975144 0 21.442179770975144 14.396772320345917 0 0 0 0 -72.19705841220275 21.364766898822381 0 21.364766898822381 16.383458208827506 0 0 0 0 -23.053582906000884 -9.3405778406977333 0 -9.3405778406977333 -5.9229702192394598 0 0 0 0 -17.238850695493284 5.3486343450188087 0 5.3486343450188087 4.1760209386338829 0 0 0 0 -7.8641802009678941 3.2122305225830132 0 3.2122305225830132 4.042799583646115 0 0 0 0 -1.4437079490272335 2.0499175710891278 0 2.0499175710891278 -0.24540516747152807 0 0 0 0 -2.4448175214269199 3.7045271561636595 0 3.7045271561636595 3.9688949086662149 0 0 0 0 1.1953720461378907 10.034716152799774 0 10.034716152799774 5.6488677910438128 0 0 0 0 -7.0437957555553226 7.4558316951446955 0 7.4558316951446955 9.7423545088204264 0 0 0 0 9.0993095134226678 11.070885859126975 0 11.070885859126975 8.8323978104126581 0 0 0 0 6.2342177379022132 6.2448532842684017 0 6.2448532842684017 5.2294238304311875 0 0 0 0 2.0439400067536404 1.1037095910556021 0 1.1037095910556021 -2.8170026266250332 0 0 0 0 15.861496812032783 16.436846140286434 0 16.436846140286434 10.744558705206146 0 0 0 0 27.921950871093031 18.205447611440832 0 18.205447611440832 10.865559609675984 0 0 0 0 23.506821456472608 24.353891978113097 0 24.353891978113097 19.996198932062725 0 0 0 0 13.118387877223313 19.695477187550871 0 19.695477187550871 18.768042628971671 0 0 0 0 -12.982830051183555 10.028094537372453 0 10.028094537372453 20.378087857145147 0 0 0 0 -8.5607753208842041 3.8658830726435554 0 3.8658830726435554 8.1748549526437273 0 0 0 0 0.030175733874409971 0.70219082910927622 0 0.70219082910927622 0.9392890660663582 0 0 0 0 32.05608247003579 25.295416756454642 0 25.295416756454642 13.363835910793568 0 0 0 0 -13.953489882916074 27.597352284559747 0 27.597352284559747 4.7050386305127176 0 0 0 0 41.671667761991557 35.644388368803448 0 35.644388368803448 -37.648082555253495 0 0 0 0 -17.931613307418047 82.270136419755545 0 82.270136419755545 -62.061602099526681 0 0 0 0 -0.79610238622974627 0.89929963549129877 0 0.89929963549129877 -0.864041047719045 0 0 0 0 12.61947688448322 -26.916706154374651 0 -26.916706154374651 -81.118504692840361 0 0 0 0 15.480848200993933 -14.705154737899647 0 -14.705154737899647 -44.345817775487376 0 0 0 0 5.470378270430956 -6.4677123543851849 0 -6.4677123543851849 -22.866533084747061 0 0 0 0 18.968650592164522 -10.475274185465423 0 -10.475274185465423 -65.217620126713882 0 0 0 0 -8.3252056036808426 -39.7368813806861 0 -39.7368813806861 -72.491911846839685 0 0 0 0 8.2988010654762547 0.64902047012992625 0 0.64902047012992625 -46.148076027970092 0 0 0 0 -1.1816113491009457 1.7386758746256525 0 1.7386758746256525 -1.7630874061323922 0 0 0 0 24.853145882794024 -18.834718648495368 0 -18.834718648495368 -27.572572350323753 0 0 0 0 -6.5951608941354607 3.9862514845594887 0 3.9862514845594887 -43.729598054501366 0 0 0 0 -2.2015481277346858 2.1929538018467314 0 2.1929538018467314 -3.2876873075837629 0 0 0 0 37.213617815108591 33.309314977123904 0 33.309314977123904 -24.196295498990708 0 0 0 0 13.129122247996822 14.907792808198669 0 14.907792808198669 12.002416486373477 0 0 0 0 16.176397227339066 19.254816653123726 0 19.254816653123726 11.193596837063524 0 0 0 0 11.506053649163277 18.167664031338518 0 18.167664031338518 12.585507609313936 0 0 0 0 11.275010691072225 17.445460320486632 0 17.445460320486632 12.91079911671477 0 0 0 0 -2.3831179098953097 6.0416843400125178 0 6.0416843400125178 -0.682684260632481 0 0 0 0 -2.1067152036448533 69.359389785312487 0 69.359389785312487 15.931597091625235 0 0 0 0 -10.752219242561125 -0.21342242805150136 0 -0.21342242805150136 44.050082684208064 0 0 0 0 11.399330915655582 9.2118467452966115 0 9.2118467452966115 21.129766827607682 0 0 0 0 4.3153101999046122 13.144914784904294 0 13.144914784904294 9.5814610380968794 0 0 0 0 18.95416949004948 -42.072470902872283 0 -42.072470902872283 -86.947955996354722 0 0 0 0 -56.59628241608516 65.796218757845054 0 65.796218757845054 -21.279430051592499 0 0 0 0 -35.149636302934596 43.79282631929982 0 43.79282631929982 -26.726259273229516 0 0 0 0 -12.701260805392394 -59.982139903320785 0 -59.982139903320785 -162.16254706115978 0 0 0 0 -32.220360949984752 35.080955571602317 0 35.080955571602317 -3.7433962263494323 0 0 0 0 -0.64349752844785257 0.48345505029493019 0 0.48345505029493019 -0.54005755222586416 0 0 0 0 -6.1014498522754366 -10.458982231903974 0 -10.458982231903974 9.0121303621854167 0 0 0 0 0.74411099255173774 0.32194470744641634 0 0.32194470744641634 -1.0076826413605708 0 0 0 0 18.292615230919182 1.3588858787579738 0 1.3588858787579738 -9.9953553728664701 0 0 0 0 0.042895043408787359 -0.22614967229906213 0 -0.22614967229906213 0.23163560804053951 0 0 0 0 -18.937227138976596 17.613765684463942 0 17.613765684463942 -49.198577417765591 0 0 0 0 1.0204650113082607 51.481256129105532 0 51.481256129105532 113.71508664955672 0 0 0 0 2.3098616071974902 41.72144028009825 0 41.72144028009825 62.056984662436662 0 0 0 0 19.861874752053154 24.808968054631805 0 24.808968054631805 40.025898000118104 0 0 0 0 10.071008290655982 36.876086437438971 0 36.876086437438971 60.252468875931299 0 0 0 0 16.416453599667875 26.489349784910701 0 26.489349784910701 72.581746680902143 0 0 0 0 10.819175052418132 43.120900268941796 0 43.120900268941796 56.250916679005968 0 0 0 0 6.2554789770028947 31.834080901374364 0 31.834080901374364 51.943354788643774 0 0 0 0 -11.656931740918481 8.1447426994109264 0 8.1447426994109264 39.31540566404621 0 0 0 0 -7.9102267447087797 38.016759003462539 0 38.016759003462539 53.015455606140677 0 0 0 0 -1.6561352841927146 20.919961624282223 0 20.919961624282223 44.99520381600405 0 0 0 0 -4.368140925748321 17.025558713732153 0 17.025558713732153 39.553707559034592 0 0 0 0 1.5892239184395294 18.907569424331996 0 18.907569424331996 34.077263768309422 0 0 0 0 -0.91538235750722663 1.4505024075849562 0 1.4505024075849562 -0.37028234120660874 0 0 0 0 -3.71041761833294 1.6173875169934036 0 1.6173875169934036 4.1851729403626905 0 0 0 0 -1.0825374976257081 11.018943311400562 0 11.018943311400562 48.662905552306256 0 0 0 0 1.9717194325526179 18.774226992637068 0 18.774226992637068 66.500273127985565 0 0 0 0 -0.67918988499876676 1.281760986133925 0 1.281760986133925 -0.034816840939581706 0 0 0 0 8.1994586415507911 32.704625225157997 0 32.704625225157997 50.071841002516521 0 0 0 0 6.0603314953632434 36.993847478737734 0 36.993847478737734 41.473125897991849 0 0 0 0 11.482937393300745 40.438511479609588 0 40.438511479609588 68.114817759945481 0 0 0 0 13.650571250100711 39.825959544598845 0 39.825959544598845 60.48560414415806 0 0 0 0 5.137304794990996 17.939993475700248 0 17.939993475700248 62.382903658396117 0 0 0 0 5.636847969223254 22.42219502983869 0 22.42219502983869 92.230746481302049 0 0 0 0 9.6865691526195405 31.2088889542365 0 31.2088889542365 106.22282182336858 0 0 0 0 -0.3302570502895037 0.98042479565636853 0 0.98042479565636853 -0.040271762580304404 0 0 0 0 26.53683638526536 51.57506834702599 0 51.57506834702599 88.559549854297074 0 0 0 0 18.870220866728232 49.492203470158529 0 49.492203470158529 77.233898889905959 0 0 0 0 24.102637830706499 44.635368012037361 0 44.635368012037361 68.910642159866256 0 0 0 0 30.812753371613553 54.94059365122871 0 54.94059365122871 59.650104117328738 0 0 0 0 27.618581103522047 46.372231668520726 0 46.372231668520726 43.166912688953744 0 0 0 0 14.935787428159529 42.222559663183347 0 42.222559663183347 52.58731366914617 0 0 0 0 18.920912062569187 46.660407146824582 0 46.660407146824582 57.375356033375283 0 0 0 0 18.740019482406751 37.745535082399329 0 37.745535082399329 54.513396882578036 0 0 0 0 -2.6592618399529648 3.4122973262021636 0 3.4122973262021636 -3.5296142716059897 0 0 0 0 11.336245109027004 13.759287863149439 0 13.759287863149439 -14.979621352109461 0 0 0 0 19.521686134506126 36.181009065162471 0 36.181009065162471 44.460949020832686 0 0 0 0 1.6603415686756122 0.10155680333554074 0 0.10155680333554074 -1.0853912416688178 0 0 0 0 13.822097928225048 4.8034089517532266 0 4.8034089517532266 -70.069216621190208 0 0 0 0 -28.073214252988691 104.43090119293447 0 104.43090119293447 -32.65482775575083 0 0 0 0 0.48286935402399322 -0.11291880530666809 0 -0.11291880530666809 0.062423574601060849 0 0 0 0 4.9718659601749096 -18.246809980744729 0 -18.246809980744729 -34.257144733335736 0 0 0 0 -3.6419445885221648 -20.433828556093886 0 -20.433828556093886 -6.8670260360522661 0 0 0 0 -53.62264149920793 -69.329954609645256 0 -69.329954609645256 -31.078732979283814 0 0 0 0 0.23290831154099578 29.617237571744226 0 29.617237571744226 -133.81654672109289 0 0 0 0 -20.428396365470689 14.054711398057407 0 14.054711398057407 15.003184115632394 0 0 0 0 -17.010965201947329 43.475259323746286 0 43.475259323746286 -37.453667789392057 0 0 0 0 -12.307417832244937 -11.603023305641727 0 -11.603023305641727 31.48534189696511 0 0 0 0 -5.3004463502306862 25.043699566920168 0 25.043699566920168 -3.5053062700426381 0 0 0 0 -4.1413175391241523 2.9853889040703194 0 2.9853889040703194 3.7937415918300275 0 0 0 0 -12.076192622545932 4.6738144897844904 0 4.6738144897844904 7.3069439018954654 0 0 0 0 -34.435671536390601 17.082475196347787 0 17.082475196347787 16.569232648042089 0 0 0 0 8.5375227668428124 -4.2954480028329272 0 -4.2954480028329272 13.429432726681171 0 0 0 0 -17.346502241645794 2.4424904135030374 0 2.4424904135030374 15.958588390923978 0 0 0 0 0.50480524394151871 31.320374069087848 0 31.320374069087848 9.9434944011436528 0 0 0 0 14.302880470715536 12.845792598806838 0 12.845792598806838 3.8996137872982217 0 0 0 0 -3.6849294804278703 4.1508021498945649 0 4.1508021498945649 -3.310564230562175 0 0 0 0 40.762255816633115 47.336408378241686 0 47.336408378241686 54.907919301120273 0 0 0 0 -7.4539249659828783 17.560440816949267 0 17.560440816949267 -7.9937634236212034 0 0 0 0 -5.0817696646117838 27.974356533382888 0 27.974356533382888 -27.651098955230736 0 0 0 0 -13.853171806975297 12.274949486218247 0 12.274949486218247 20.029045368024526 0 0 0 0 31.921491750374344 50.822448651846344 0 50.822448651846344 63.533563168657565 0 0 0 0 42.063479091337285 54.576759022878832 0 54.576759022878832 63.281952180751546 0 0 0 0 40.804434767702332 52.774157912188457 0 52.774157912188457 71.111430862863926 0 0 0 0 67.25557117741846 77.13997994588135 0 77.13997994588135 33.205854558451392 0 0 0 0 48.61867953869114 74.730115500253305 0 74.730115500253305 84.312138462773873 0 0 0 0 -0.43535245167981529 0.42317279591802048 0 0.42317279591802048 -0.035732413430920928 0 0 0 0 32.330229830538883 51.478986299924145 0 51.478986299924145 110.56588405986622 0 0 0 0 48.341882914611233 70.413857306300542 0 70.413857306300542 80.463577110407641 0 0 0 0 47.384954300726349 70.159075523505635 0 70.159075523505635 108.21450043575896 0 0 0 0 31.113535519066318 58.369548587555983 0 58.369548587555983 93.041591039047489 0 0 0 0 3.0934786999368953 72.964005531063776 0 72.964005531063776 227.13144594046571 0 0 0 0 -0.07765157044630655 0.28065160178922 0 0.28065160178922 0.015411769335004433 0 0 0 0 11.359891868672094 25.386008762839992 0 25.386008762839992 124.90856741549851 0 0 0 0 38.105520094790336 71.285233825619798 0 71.285233825619798 133.34704208394032 0 0 0 0 10.2016030155728 33.067785124964757 0 33.067785124964757 177.06975644583417 0 0 0 0 37.686209696056721 94.990376634321365 0 94.990376634321365 147.77260883983035 0 0 0 0 44.333557026908238 64.138202212914621 0 64.138202212914621 126.3412118415381 0 0 0 0 44.780930235938285 62.173541893091169 0 62.173541893091169 118.79454063199591 0 0 0 0 2.2268696102373724 0.300662261589423 0 0.300662261589423 9.0358434505196783 0 0 0 0 1.3767759307929737 -8.5411024502445798 0 -8.5411024502445798 10.475103560569096 0 0 0 0 47.170707525827311 71.984888130886247 0 71.984888130886247 121.79856743254459 0 0 0 0 -0.93420722625321773 -0.48278767558311664 0 -0.48278767558311664 2.318294360223021 0 0 0 0 48.093281085230046 73.617424837910221 0 73.617424837910221 107.27392613256234 0 0 0 0 44.591520163678069 71.680326284167677 0 71.680326284167677 115.9702085228455 0 0 0 0 4.7483566086646078 0.56399653492871948 0 0.56399653492871948 -7.196291268161076 0 0 0 0 4.933168991178718 -7.9229030890928698 0 -7.9229030890928698 0.82290135698076483 0 0 0 0 -36.851259811193358 13.813412588603569 0 13.813412588603569 2.6728587147717917 0 0 0 0 78.068005341952357 131.2186569792093 0 131.2186569792093 67.461816921300851 0 0 0 0 0.044279917371010669 -0.08134948638095274 0 -0.08134948638095274 0.34435566446206778 0 0 0 0 -32.41031848288435 54.753189283626511 0 54.753189283626511 -15.95278616061114 0 0 0 0 -29.4540744265787 32.9194219533465 0 32.9194219533465 24.51527379164537 0 0 0 0 -1.4757225893176837 10.530480660661851 0 10.530480660661851 -30.528006699757498 0 0 0 0 -32.050925581937804 -5.6679601814881835 0 -5.6679601814881835 13.119696870584448 0 0 0 0 -25.379652425139739 3.014152365973132 0 3.014152365973132 36.085532839158986 0 0 0 0 10.446056437990592 -0.39297462215790802 0 -0.39297462215790802 -32.625992595207208 0 0 0 0 -23.725322799658898 13.385645165823007 0 13.385645165823007 26.42594180528431 0 0 0 0 -7.0813217176128092 -15.364024560333291 0 -15.364024560333291 1.7588470928885727 0 0 0 0 -2.7575990984340901 2.8050574108823554 0 2.8050574108823554 4.6325650215552656 0 0 0 0 21.063835687726623 10.708574955161566 0 10.708574955161566 -15.86175084914521 0 0 0 0 21.465843322726414 13.74357647185434 0 13.74357647185434 1.6023610786214704 0 0 0 0 19.546976593760064 35.920275599331035 0 35.920275599331035 19.70192173643045 0 0 0 0 -0.60871142763165942 -0.061665690689522989 0 -0.061665690689522989 0.040884819304746856 0 0 0 0 11.10559906598732 4.4139038637258068 0 4.4139038637258068 -123.90540736609182 0 0 0 0 -14.191412867639883 61.339294258275913 0 61.339294258275913 26.115556203085816 0 0 0 0 27.011740546572582 47.93992835461404 0 47.93992835461404 -36.532661031398675 0 0 0 0 -0.83035683759044332 64.944968455874005 0 64.944968455874005 55.83665898531217 0 0 0 0 -3.012290126282096 58.655960471946855 0 58.655960471946855 -39.516320962480677 0 0 0 0 21.635658966846904 27.690715034622372 0 27.690715034622372 -73.260151437729292 0 0 0 0 8.2220429419367065 26.136562532397875 0 26.136562532397875 -67.064836025152545 0 0 0 0 24.50548876030507 82.761707125398061 0 82.761707125398061 -83.674669533826091 0 0 0 0 -10.15919201099814 13.347569590016064 0 13.347569590016064 -97.42551007885595 0 0 0 0 31.88084005410019 42.099337389310676 0 42.099337389310676 -182.67794441193564 0 0 0 0 7.919743828360879 42.544794209480642 0 42.544794209480642 -68.117151233387631 0 0 0 0 -3.2073595773716761 49.735018888596187 0 49.735018888596187 -71.82271725307146 0 0 0 0 36.482206162373586 45.295764002766191 0 45.295764002766191 -61.47683958335756 0 0 0 0 15.875243605023115 49.437795157939945 0 49.437795157939945 -62.274054791783783 0 0 0 0 25.308857114629859 43.782408800393569 0 43.782408800393569 -59.609658783676423 0 0 0 0 23.438579703799405 30.824202317684467 0 30.824202317684467 -75.334106156745293 0 0 0 0 47.854824416060183 8.349895020231088 0 8.349895020231088 -26.575436881924816 0 0 0 0 20.662032637046195 39.179172395243768 0 39.179172395243768 -36.705888639366094 0 0 0 0 55.211911021678588 43.436656170467359 0 43.436656170467359 -62.645315431999677 0 0 0 0 16.41339733965242 66.259132059479271 0 66.259132059479271 -62.099673133698161 0 0 0 0 -32.540480954290615 103.24906741552331 0 103.24906741552331 -57.273233829755554 0 0 0 0 5.7817239119717669 62.261666010166664 0 62.261666010166664 -53.099185376149762 0 0 0 0 1.1128729342844963 74.757746360725832 0 74.757746360725832 -33.157051503560069 0 0 0 0 -3.1102595541738083 56.366685162096474 0 56.366685162096474 -50.852089657013494 0 0 0 0 -5.5033282286112808 55.218243828695449 0 55.218243828695449 -47.327165711987618 0 0 0 0 -2.3055896350761031 33.165295999319824 0 33.165295999319824 -71.170828996258592 0 0 0 0 -5.0549031662553716 27.563711117363709 0 27.563711117363709 -56.820983937372148 0 0 0 0 -6.5772952338407435 18.394449721219416 0 18.394449721219416 -17.715686766776344 0 0 0 0 -16.966438496321643 59.16568609076694 0 59.16568609076694 -41.012234327031365 0 0 0 0 -25.430840050068355 46.980706264415858 0 46.980706264415858 -23.474102607910027 0 0 0 0 -27.07119425280689 45.210766911775863 0 45.210766911775863 -13.152120152248244 0 0 0 0 -17.359124414893813 15.391049266154369 0 15.391049266154369 -2.7070518480013561 0 0 0 0 -48.463558458281568 35.049450624313067 0 35.049450624313067 -14.670141272319597 0 0 0 0 -19.288126235464915 32.889976627389842 0 32.889976627389842 -31.279602354755298 0 0 0 0 -18.339247839233394 11.307406073159655 0 11.307406073159655 -9.2007202041950222 0 0 0 0 2.1556504713689719 -0.99493462702048419 0 -0.99493462702048419 -3.3633966320448963 0 0 0 0 -12.936330042450209 16.643972805817612 0 16.643972805817612 -16.934793465966209 0 0 0 0 -0.25606365048452062 -7.7655577746786548 0 -7.7655577746786548 -1.82059156575815 0 0 0 0 8.5325016639017122 0.79434433797905513 0 0.79434433797905513 -6.7413601664993621 0 0 0 0 -0.33568842822339207 -0.033017424042270704 0 -0.033017424042270704 0.73848557663392356 0 0 0 0 -30.923233722787245 4.2213031849246363 0 4.2213031849246363 3.0446426305734349 0 0 0 0 -62.359543399020367 16.089217547187218 0 16.089217547187218 -1.1418010348343159 0 0 0 0 84.955048671478181 58.099535554067018 0 58.099535554067018 -13.910343920817468 0 0 0 0 -0.62561558957024843 0.67257776341087183 0 0.67257776341087183 -0.61170263353515253 0 0 0 0 -58.648358333244687 54.62007952562908 0 54.62007952562908 -13.686162358717411 0 0 0 0 -109.26126673453905 42.891845017401465 0 42.891845017401465 192.40530929368379 0 0 0 0 -0.74953260583877324 0.72883399303446694 0 0.72883399303446694 -0.26360429572851274 0 0 0 0 -31.464770979317109 87.220716043768334 0 87.220716043768334 11.112549543242494 0 0 0 0 70.756027625606293 75.353571041217947 0 75.353571041217947 -22.519415072967604 0 0 0 0 -18.001880565828287 111.36456494213508 0 111.36456494213508 -47.509659583056418 0 0 0 0 28.445396483821469 49.718082277274334 0 49.718082277274334 3.5923341626476031 0 0 0 0 -37.64165858411252 173.82737305135015 0 173.82737305135015 -83.063161701238187 0 0 0 0 11.019876099804947 107.81785625644579 0 107.81785625644579 -189.85650123103915 0 0 0 0 14.805207141927895 153.46308071307158 0 153.46308071307158 -77.839101435718476 0 0 0 0 -27.264505199484574 171.87906770566224 0 171.87906770566224 -22.416903280751285 0 0 0 0 -65.035227653597076 129.50144506351216 0 129.50144506351216 -33.67463973118538 0 0 0 0 -79.244204074503386 172.04065753266059 0 172.04065753266059 -24.46882550076225 0 0 0 0 -128.45601858750115 112.34872633968916 0 112.34872633968916 -20.198271507346362 0 0 0 0 57.833282968062122 117.39889011821469 0 117.39889011821469 -11.964085351984977 0 0 0 0 -62.516880412439832 182.11389172919235 0 182.11389172919235 -0.048038010763775674 0 0 0 0 -48.869855515932613 139.29598377654202 0 139.29598377654202 -20.123563481055839 0 0 0 0 -13.168485076693287 170.25096356146832 0 170.25096356146832 -1.5022585829192394 0 0 0 0 166.69858817035083 137.39023822640138 0 137.39023822640138 -53.530978492760369 0 0 0 0 153.29623305265795 190.41628945036928 0 190.41628945036928 0.35442357749161602 0 0 0 0 437.31369597818343 -100.32201221507376 0 -100.32201221507376 11.937787330014544 0 0 0 0 92.953252093152855 2.0513325191373042 0 2.0513325191373042 5.9473734742723536 0 0 0 0 -21.240114143346545 107.18419970720606 0 107.18419970720606 -39.687755997993008 0 0 0 0 54.394313923077902 59.771362189757838 0 59.771362189757838 -107.83072965776046 0 0 0 0 -64.488020830324785 126.89584335060772 0 126.89584335060772 -46.837606567173225 0 0 0 0 40.212558588369347 37.431918737631122 0 37.431918737631122 -34.164661579279709 0 0 0 0 102.24880893880936 25.919915824899363 0 25.919915824899363 -48.920482432916742 0 0 0 0 100.92315800778849 -51.429895753554774 0 -51.429895753554774 25.998278581189879 0 0 0 0 41.440591921446867 6.6597334750695154 0 6.6597334750695154 -25.390316316651479 0 0 0 0 -6.0772493617450891 8.0409242758632899 0 8.0409242758632899 -0.012801017641322687 0 0 0 0 1.5389222962394005 0.7969043730972345 0 0.7969043730972345 0.70230918495794015 0 0 0 0 -5.4517542160583616 8.41343332817587 0 8.41343332817587 -5.2498813955262449 0 0 0 0 4.3769680844629324 2.7495839338324721 0 2.7495839338324721 1.6427393173969307 0 0 0 0 -4.8464211640302892 15.283016854867128 0 15.283016854867128 -6.6351289528422512 0 0 0 0 -4.4223641608477919 10.645119871195675 0 10.645119871195675 -1.7108970208055325 0 0 0 0 -4.1134306824019404 11.541110526755347 0 11.541110526755347 0.00022130225988803431 0 0 0 0 2.8540918054700342 9.431270397677963 0 9.431270397677963 -3.8213592094762134 0 0 0 0 5.540879104153646 13.933148418169367 0 13.933148418169367 0.0019482372154016048 0 0 0 0 1.8848244314194744 17.982777429966518 0 17.982777429966518 -9.8073479424474499 0 0 0 0 3.2747733643836909 10.791064809783165 0 10.791064809783165 -4.050656445997447 0 0 0 0 6.8351325489005461 4.6590822246231163 0 4.6590822246231163 3.2289497112489087 0 0 0 0 41.390712152091112 -12.416391529632449 0 -12.416391529632449 4.0013056309944659 0 0 0 0 -4.0716177180163413 13.184309276334716 0 13.184309276334716 9.6934250998638163 0 0 0 0 4.2992988553247891 8.6514635475938828 0 8.6514635475938828 8.0098703364530977 0 0 0 0 -9.7031622757497189 20.504252435289345 0 20.504252435289345 7.229482189151895 0 0 0 0 8.2252468403085004 32.884124116837484 0 32.884124116837484 10.116640834876307 0 0 0 0 34.774333817409115 15.364809224920464 0 15.364809224920464 7.2920795921208992 0 0 0 0 9.6383577974084069 -1.7262910986626991 0 -1.7262910986626991 -7.7290750609531997 0 0 0 0 17.992045830050699 18.098543631811708 0 18.098543631811708 8.6439144829073484 0 0 0 0 0.1913223032543101 10.796023426097236 0 10.796023426097236 12.194149210316027 0 0 0 0 21.182226419296967 7.4678631301685527 0 7.4678631301685527 7.0463631055317819 0 0 0 0 35.947108585820843 21.247215799270634 0 21.247215799270634 4.0508376342040719 0 0 0 0 -1.4668108126502375 13.570294093531174 0 13.570294093531174 11.62299629331028 0 0 0 0 4.7041494498515073 7.644595137516907 0 7.644595137516907 6.0336907867987577 0 0 0 0 13.421992105304525 10.563641617311987 0 10.563641617311987 -0.56717835763402036 0 0 0 0 13.3152308922663 18.796250111678091 0 18.796250111678091 2.5747860661540471 0 0 0 0 13.243818546872717 11.319786758591363 0 11.319786758591363 -2.4525813032723818 0 0 0 0 13.654284026844834 7.6176723343833146 0 7.6176723343833146 -9.0424725274715456 0 0 0 0 20.42848080008298 15.460847971824478 0 15.460847971824478 -9.8665207991530224 0 0 0 0 2.8751619067550109 7.9542095204715224 0 7.9542095204715224 -7.5085396717840922 0 0 0 0 -0.64921785527758402 5.0423181685091549 0 5.0423181685091549 -9.9142975221893721 0 0 0 0 13.807704330189608 6.1824869100200885 0 6.1824869100200885 -13.182377978209843 0 0 0 0 18.88236288619828 6.9893970271532453 0 6.9893970271532453 -19.283940936104045 0 0 0 0 2.8136236000664212 4.8894795306223386 0 4.8894795306223386 -12.324710932563903 0 0 0 0 -10.883695610314135 9.4607074229261343 0 9.4607074229261343 -12.901680034883611 0 0 0 0 4.4257985776649775 9.1817426295629048 0 9.1817426295629048 -15.118101107189432 0 0 0 0 0.35367350591298768 -0.050504178949689837 0 -0.050504178949689837 -0.0072582804532146383 0 0 0 0 -13.909770999530224 17.970448270246131 0 17.970448270246131 -25.23684992665585 0 0 0 0 25.177524604157952 11.673254001210807 0 11.673254001210807 -24.971924687673891 0 0 0 0 4.8654958439196889 1.5499697847353673 0 1.5499697847353673 -20.412295144611562 0 0 0 0 -0.24301485422915281 0.7534941731480238 0 0.7534941731480238 -0.21105132245447322 0 0 0 0 -4.7521346087173697 9.4252652355389728 0 9.4252652355389728 36.06952735390405 0 0 0 0 1.1024803844427638 8.8871134439601747 0 8.8871134439601747 -1.9466892845011898 0 0 0 0 4.166738064780132 4.3235852115855362 0 4.3235852115855362 -2.6599658814707894 0 0 0 0 14.844991812844228 18.748203590761932 0 18.748203590761932 -11.61135884434043 0 0 0 0 39.519952954718065 35.564373510915175 0 35.564373510915175 -7.3034940586335324 0 0 0 0 6.5112403927250853 17.479302358915447 0 17.479302358915447 10.49744798002007 0 0 0 0 7.7112070919156395 33.41310147168042 0 33.41310147168042 24.704850876980345 0 0 0 0 6.2380906413609409 18.521030196163338 0 18.521030196163338 27.389670188395485 0 0 0 0 10.788445092639449 11.446581048551934 0 11.446581048551934 -8.8213559804244142 0 0 0 0 65.823822580031901 22.93637982657674 0 22.93637982657674 -10.593904667108291 0 0 0 0 32.955742355086841 19.870334105529764 0 19.870334105529764 -10.760467700539493 0 0 0 0 42.986388947687146 32.309299197862856 0 32.309299197862856 -11.603280291928968 0 0 0 0 36.522001292922141 17.364528510079253 0 17.364528510079253 -11.849203760786622 0 0 0 0 36.531051662721438 16.489969854301307 0 16.489969854301307 -29.806171922482463 0 0 0 0 16.517437011073071 31.482483096315264 0 31.482483096315264 -18.894949780144088 0 0 0 0 1.2171179952767712 7.4607972982283179 0 7.4607972982283179 0.19597386680120366 0 0 0 0 19.442121633182069 15.44220626537026 0 15.44220626537026 0.14372819116579194 0 0 0 0 -0.47049105137759373 3.5347617022777023 0 3.5347617022777023 0.42119888151536689 0 0 0 0 7.4162364102112406 9.6877127258103428 0 9.6877127258103428 9.8957702038062507 0 0 0 0 17.328072788014651 37.387938046989802 0 37.387938046989802 3.0141576735404669 0 0 0 0 36.691344420674568 47.386416972532061 0 47.386416972532061 8.1289074778687791 0 0 0 0 33.417674767510107 20.694448638865651 0 20.694448638865651 -15.378943431884181 0 0 0 0 25.582206693486455 7.3505283971858262 0 7.3505283971858262 -4.4510100294173753 0 0 0 0 40.074222318413263 -2.0393504442520225 0 -2.0393504442520225 -3.0779151970236853 0 0 0 0 37.071244295652434 20.413461418294219 0 20.413461418294219 -10.008653797602165 0 0 0 0 25.3242151600125 18.220739134238102 0 18.220739134238102 7.7030862016872561 0 0 0 0 40.147409456287278 13.054972222927972 0 13.054972222927972 5.0196977246305323 0 0 0 0 3.9846852166627009 3.8670914719686813 0 3.8670914719686813 -1.3757221555307737 0 0 0 0 13.226080993732467 14.238036077729703 0 14.238036077729703 -1.2675100572378142 0 0 0 0 22.210968781773772 2.777489127813169 0 2.777489127813169 -11.977055584180562 0 0 0 0 30.096041375639743 8.4303987017447071 0 8.4303987017447071 7.5798588921370538 0 0 0 0 29.242429646566052 12.257547024707492 0 12.257547024707492 -1.5025953204603866 0 0 0 0 25.666044542330837 3.1135035985626018 0 3.1135035985626018 12.541136359417578 0 0 0 0 26.952882363355968 9.4599649027195483 0 9.4599649027195483 0.39533144193410408 0 0 0 0 -1.9685433846225351 39.05780715907531 0 39.05780715907531 25.957991133946052 0 0 0 0 19.993495690857799 44.910565150239563 0 44.910565150239563 38.202930590659435 0 0 0 0 -0.030244841596104521 -0.57979534707243019 0 -0.57979534707243019 -0.16203495928666456 0 0 0 0 -6.1217494415636793 -15.380896797436435 0 -15.380896797436435 -42.449602065411455 0 0 0 0 -73.41672402385484 17.659387358666208 0 17.659387358666208 30.978194901917959 0 0 0 0 -29.055635393324337 55.016161331883268 0 55.016161331883268 -56.40355689161197 0 0 0 0 54.067149288933706 38.457078200006436 0 38.457078200006436 -70.046830029266857 0 0 0 0 23.377601554332614 -6.7903391146246577 0 -6.7903391146246577 -45.406976610662241 0 0 0 0 2.6456569193258606 2.3941868561886235 0 2.3941868561886235 0.99649524846913806 0 0 0 0 -43.649804525015838 6.5017513840502943 0 6.5017513840502943 7.7044452101508796 0 0 0 0 -22.981801144920098 4.7421508617592281 0 4.7421508617592281 6.085759625711944 0 0 0 0 -19.359798887761826 37.570735185443482 0 37.570735185443482 -4.6689938373201585 0 0 0 0 35.388043950228621 15.689249023083903 0 15.689249023083903 10.640204984978482 0 0 0 0 33.622955170086243 19.932077779381871 0 19.932077779381871 0.45437651027532411 0 0 0 0 20.235579700630751 11.114982112007056 0 11.114982112007056 -2.9714918925965321 0 0 0 0 26.441166605374747 17.997589878359577 0 17.997589878359577 6.4917760564530909 0 0 0 0 23.094092383651514 16.066817797494878 0 16.066817797494878 5.5750259787164396 0 0 0 0 31.342047447056302 14.171012764145416 0 14.171012764145416 -8.9400996904078056 0 0 0 0 43.877242231811579 49.009160601381154 0 49.009160601381154 -21.25894441732089 0 0 0 0 28.633718444414626 10.379923306609271 0 10.379923306609271 -13.592606473226624 0 0 0 0 28.135989920786358 33.614757696752918 0 33.614757696752918 6.0054961835048744 0 0 0 0 28.423725305393418 36.514029399577339 0 36.514029399577339 18.020676473173808 0 0 0 0 -5.8801504729334706 5.3549018016340035 0 5.3549018016340035 2.0559031554095384 0 0 0 0 23.920939655468828 36.386100664061814 0 36.386100664061814 22.657065123839658 0 0 0 0 -1.0196469717411665 0.051407146237282042 0 0.051407146237282042 0.28150551941345014 0 0 0 0 -5.8548695130167552 5.146403362299349 0 5.146403362299349 3.1325424625300435 0 0 0 0 0.82770499216508142 9.4827606148737686 0 9.4827606148737686 4.7311295182480535 0 0 0 0 -8.614629235126813 -8.6786833424957877 0 -8.6786833424957877 32.809930936569799 0 0 0 0 76.430649980899034 52.794741472086571 0 52.794741472086571 25.698515645100997 0 0 0 0 48.483953370127438 93.155106856984276 0 93.155106856984276 83.507887302930612 0 0 0 0 4.2412937535950732 45.388116756928866 0 45.388116756928866 66.488075310760905 0 0 0 0 26.731401562738938 54.29473747668726 0 54.29473747668726 19.001987714480492 0 0 0 0 0.48033339162560829 0.59928450176672499 0 0.59928450176672499 0.20946256132348395 0 0 0 0 35.347290561107002 5.6908461583425378 0 5.6908461583425378 5.0119382798629886 0 0 0 0 5.2638277660312269 0.84345635342106107 0 0.84345635342106107 2.7233102994141518 0 0 0 0 -8.8984488580755396 45.406979503422463 0 45.406979503422463 -9.6841313913719205 0 0 0 0 -18.586063347234131 2.5562256487123705 0 2.5562256487123705 17.641018596968934 0 0 0 0 -2.69829206796634 4.8739157896433705 0 4.8739157896433705 2.6302309022238646 0 0 0 0 -3.3741896020970614 5.5015171819152329 0 5.5015171819152329 4.4008862826740369 0 0 0 0 43.48479139858091 66.507073489963659 0 66.507073489963659 42.894174866480171 0 0 0 0 5.1339328404351363 6.5279876790145863 0 6.5279876790145863 -0.67174993568562513 0 0 0 0 -1.1765448267459906 1.881142103328509 0 1.881142103328509 -1.4357156694757052 0 0 0 0 42.092324377600477 33.411138028864997 0 33.411138028864997 86.216136356149946 0 0 0 0 16.372944450322393 71.723602598071011 0 71.723602598071011 47.545915648841401 0 0 0 0 0.80157089257500047 46.871334900575675 0 46.871334900575675 36.818736431714569 0 0 0 0 35.7058188433125 60.283008906870236 0 60.283008906870236 -8.4113076123903738 0 0 0 0 5.73720381232215 27.613477271048396 0 27.613477271048396 11.196618554457018 0 0 0 0 35.197545503999208 52.365001081345326 0 52.365001081345326 54.189014706131275 0 0 0 0 82.658196427062194 36.686803954121388 0 36.686803954121388 -3.9286288034709287 0 0 0 0 26.949465248034812 52.113048660972709 0 52.113048660972709 6.6105587361707876 0 0 0 0 5.7581975888529087 8.6815649896516334 0 8.6815649896516334 -4.6814055773069185 0 0 0 0 21.731827853823688 23.107018926227738 0 23.107018926227738 -113.08999037251306 0 0 0 0 -0.59838742189645799 0.49081702485890588 0 0.49081702485890588 -0.14980468246651668 0 0 0 0 -5.7023773113583047 -24.127339639134334 0 -24.127339639134334 88.294189369487867 0 0 0 0 -69.50553205381766 47.045510640380598 0 47.045510640380598 150.01163323978199 0 0 0 0 61.288031816579633 71.803807732218502 0 71.803807732218502 17.901199744752375 0 0 0 0 22.421576569265198 70.029876857974159 0 70.029876857974159 23.862788144024307 0 0 0 0 -1.3044067484883541 1.2971750938369055 0 1.2971750938369055 -0.43533277512334401 0 0 0 0 -28.231639396401079 80.216297904717067 0 80.216297904717067 88.89003295299608 0 0 0 0 1.4033060148326513 6.1123634854020565 0 6.1123634854020565 1.9105040959311737 0 0 0 0 -1.9185113996141046 5.6645208283451414 0 5.6645208283451414 2.2101128241790491 0 0 0 0 33.31269777506941 18.976279637063271 0 18.976279637063271 8.9998767552315257 0 0 0 0 -3.404314540893254 4.7553385373511077 0 4.7553385373511077 2.6637345989948642 0 0 0 0 40.44333518250437 18.373641673649217 0 18.373641673649217 5.1682171075153747 0 0 0 0 -60.504953070595548 22.135063210105727 0 22.135063210105727 13.114706431680588 0 0 0 0 19.86291806420661 -11.17695984468628 0 -11.17695984468628 -54.947554035112262 0 0 0 0 -45.477812839984836 62.158952063182369 0 62.158952063182369 -10.82253158940955 0 0 0 0 0.34396877457658492 4.4077820867479875 0 4.4077820867479875 1.4881011976594465 0 0 0 0 -28.592984181826068 57.197247684794092 0 57.197247684794092 31.389989528856859 0 0 0 0 -53.221570692297973 22.862112208946201 0 22.862112208946201 71.375289819368845 0 0 0 0 10.743426646288981 10.528783237414245 0 10.528783237414245 3.7855088798096403 0 0 0 0 31.377032348309058 17.703338758627979 0 17.703338758627979 8.7874092991226007 0 0 0 0 34.057349589856926 24.913642139878448 0 24.913642139878448 8.4441287911831751 0 0 0 0 10.560580808782193 -2.0833305057180809 0 -2.0833305057180809 -7.5133808845210481 0 0 0 0 -2.0578351274345152 7.5719156787599911 0 7.5719156787599911 4.8309368007702389 0 0 0 0 28.377658339816662 23.94296753315939 0 23.94296753315939 13.252182419637393 0 0 0 0 22.711410401183002 18.979623254135731 0 18.979623254135731 10.691563381253218 0 0 0 0 28.857528994312361 14.545889071845522 0 14.545889071845522 11.425602152719875 0 0 0 0 30.215513657741212 21.09708555718862 0 21.09708555718862 17.957894971029418 0 0 0 0 39.243406703663368 20.236038682605113 0 20.236038682605113 10.134459653669182 0 0 0 0 59.670741173890747 26.194914995052386 0 26.194914995052386 12.132464366828572 0 0 0 0 2.3370864350950518 2.3827862551748433 0 2.3827862551748433 0.37420972940387998 0 0 0 0 33.82471127915187 19.833850852968681 0 19.833850852968681 12.001949764362507 0 0 0 0 14.653843476290604 7.9396826893298567 0 7.9396826893298567 1.9601954918757656 0 0 0 0 -2.9377870704324369 3.2069436034326015 0 3.2069436034326015 1.318513714703883 0 0 0 0 -86.199026075624261 -27.078330789856409 0 -27.078330789856409 9.0454643225166365 0 0 0 0 -37.023739922735786 -20.551650160166901 0 -20.551650160166901 -13.950175366968324 0 0 0 0 3.7937549641739787 2.1802224565839161 0 2.1802224565839161 -2.3912118378518414 0 0 0 0 38.189788206931439 27.515607744257181 0 27.515607744257181 12.38833933245769 0 0 0 0 28.581428100708251 25.889596262028022 0 25.889596262028022 20.534810207249393 0 0 0 0 42.041666860889109 22.93447410410954 0 22.93447410410954 12.065902104130259 0 0 0 0 47.571708118037805 36.761015925101674 0 36.761015925101674 14.592504301344889 0 0 0 0 -124.13846769079555 -37.73803504578791 0 -37.73803504578791 -26.454119122499833 0 0 0 0 1.1083289459475925 0.086922062426651792 0 0.086922062426651792 -0.64881523288099885 0 0 0 0 34.874191058342376 27.702964610156414 0 27.702964610156414 14.420949528961501 0 0 0 0 22.241005540197193 17.476349664645568 0 17.476349664645568 8.5472103121264809 0 0 0 0 22.005334361840596 16.9846857350758 0 16.9846857350758 13.510669070783479 0 0 0 0 -51.390210075651169 66.933289217843765 0 66.933289217843765 -8.8375720920776075 0 0 0 0 -28.737300299586423 41.948574168980485 0 41.948574168980485 18.022291800919902 0 0 0 0 -47.209893530503905 -3.4323520641028153 0 -3.4323520641028153 -9.2958765259536449 0 0 0 0 -49.188421950696466 25.429980626680845 0 25.429980626680845 33.972304744358553 0 0 0 0 -73.728625478381218 -20.230699288580581 0 -20.230699288580581 -20.533806301216828 0 0 0 0 -76.10931289099608 -11.158556476315425 0 -11.158556476315425 19.628823757953796 0 0 0 0 -77.236506767028914 -2.1921235870759119 0 -2.1921235870759119 3.6596064156401553 0 0 0 0 -1.010971223136238 2.1408280725249913 0 2.1408280725249913 -1.3979719044522056 0 0 0 0 -184.10110186034944 -21.684901141248702 0 -21.684901141248702 -4.5688243385266105 0 0 0 0 -154.16153732690236 -56.139542826616889 0 -56.139542826616889 -23.960146049998002 0 0 0 0 -106.59538668363712 -31.120834857483715 0 -31.120834857483715 -29.177690525187472 0 0 0 0 -78.520519207939287 -23.316995394703554 0 -23.316995394703554 -30.15967430548335 0 0 0 0 -90.217667029592121 -23.984492168794532 0 -23.984492168794532 -19.061015334813419 0 0 0 0 -98.201840311647629 39.007974656467923 0 39.007974656467923 -19.735625366396562 0 0 0 0 -140.48704023780556 8.3018276583425177 0 8.3018276583425177 -14.190983751188469 0 0 0 0 -78.171045046702829 14.666549579714683 0 14.666549579714683 -14.033926377385797 0 0 0 0 -58.752800517359901 111.92742521415676 0 111.92742521415676 -4.8995065160227114 0 0 0 0 -121.92486102643625 54.539967421864276 0 54.539967421864276 -10.76080954358622 0 0 0 0 -192.76599332572005 101.30424280252555 0 101.30424280252555 -5.5448870578495644 0 0 0 0 -134.23384147471779 45.772759593332012 0 45.772759593332012 -5.9309240127277008 0 0 0 0 -157.30344797077487 33.602397434602608 0 33.602397434602608 -12.02305239872021 0 0 0 0 70.728139300886937 71.565239645128713 0 71.565239645128713 -19.297776083541976 0 0 0 0 21.100275233893626 46.021607463819237 0 46.021607463819237 0.050986066322366241 0 0 0 0 -0.68596375744786453 0.53193581162768311 0 0.53193581162768311 -0.61076809302348778 0 0 0 0 -202.00167583989241 170.35385145070086 0 170.35385145070086 -0.1196687165320327 0 0 0 0 -446.70284014367326 14.019263994870016 0 14.019263994870016 21.938452419542955 0 0 0 0 17.154760691132537 7.3861802137944323 0 7.3861802137944323 7.6888659837986779 0 0 0 0 -0.18851396338255721 0.64450970910068506 0 0.64450970910068506 -0.83746980507525848 0 0 0 0 32.253308950169412 32.598536378496647 0 32.598536378496647 26.207827352586264 0 0 0 0 12.460105883940855 21.008786991748593 0 21.008786991748593 21.635578175679257 0 0 0 0 0.26100829899839439 0.31481041240653695 0 0.31481041240653695 -0.54817384287906634 0 0 0 0 48.039150976786175 19.889459953757751 0 19.889459953757751 22.667153010155744 0 0 0 0 6.6062488785628375 12.631467061464718 0 12.631467061464718 -24.261745579991839 0 0 0 0 -9.1689215146144534 0.31463859029008745 0 0.31463859029008745 4.7378575647217076 0 0 0 0 3.2148909641384762 8.7128942991016629 0 8.7128942991016629 -0.075258995284457342 0 0 0 0 -2.0290756164181403 -0.6494771433826827 0 -0.6494771433826827 0.0064274176745877125 0 0 0 0 -2.4959093971697257 -4.1904034617527941 0 -4.1904034617527941 -5.3299918439633984 0 0 0 0 0.20879486602711239 0.41434047396884566 0 0.41434047396884566 -0.27957277794175894 0 0 0 0 -1.3318374681550722 -0.14412849236805414 0 -0.14412849236805414 0.36132456370614818 0 0 0 0 0.032812369419023213 0.42236909856037741 0 0.42236909856037741 -0.27713871424212932 0 0 0 0 13.900697432981815 8.4055688821126751 0 8.4055688821126751 4.7529788618066959 0 0 0 0 -1.0651399889363518 -1.2179708215073788 0 -1.2179708215073788 -0.84771708933294576 0 0 0 0 -1.3187704567709488 -0.60961400780524855 0 -0.60961400780524855 1.5695018309725128 0 0 0 0 -0.7523986868375232 -0.022702050478073943 0 -0.022702050478073943 0.13229876568220789 0 0 0 0 -0.11711878532855735 -0.48621706613266724 0 -0.48621706613266724 0.45666686111781019 0 0 0 0 -0.8724545657271392 6.6693021070432223 0 6.6693021070432223 6.5435185211827047 0 0 0 0 3.4616962908235109 3.8089859105562027 0 3.8089859105562027 9.0872847612445184 0 0 0 0 6.8192180514274696 12.995991132605923 0 12.995991132605923 12.752812426278979 0 0 0 0 4.5882227476308799 4.0344129881395929 0 4.0344129881395929 2.8443734454085643 0 0 0 0 -0.41572328093322097 1.2072026674366683 0 1.2072026674366683 -1.238908356549473 0 0 0 0 -0.13944411654653865 0.0603968766417875 0 0.0603968766417875 0.18023622471301337 0 0 0 0 -0.33698801467733119 1.7962547068036656 0 1.7962547068036656 2.1179597288846708 0 0 0 0 -0.83098297951789846 8.3756789792869313 0 8.3756789792869313 3.3039266778796446 0 0 0 0 4.5115100636456562 1.8782747918775318 0 1.8782747918775318 -2.4842165898642534 0 0 0 0 -0.31911056068622656 4.4963081447549484 0 4.4963081447549484 -16.868129455397138 0 0 0 0 0.5634005264213342 0.1435434451149149 0 0.1435434451149149 -0.6620433006008497 0 0 0 0 -1.7480863523715069 2.439447191674212 0 2.439447191674212 1.9368729524992183 0 0 0 0 4.5798066537377053 11.901122070565179 0 11.901122070565179 -2.9579266627006291 0 0 0 0 4.6839701050557778 10.702598594327355 0 10.702598594327355 10.191025818159687 0 0 0 0 16.068297008299169 10.222323347311431 0 10.222323347311431 5.3642825845345214 0 0 0 0 19.276741634404061 18.326689465748132 0 18.326689465748132 10.737895637728798 0 0 0 0 23.153278692244839 15.742550331675375 0 15.742550331675375 7.4705183939104245 0 0 0 0 12.130514649043107 10.531582983454427 0 10.531582983454427 9.629208608958379 0 0 0 0 12.527667343967323 11.001868927606665 0 11.001868927606665 6.2702436192048481 0 0 0 0 10.414295175088569 3.4079200034138921 0 3.4079200034138921 -8.5674603906063567 0 0 0 0 8.9918131078466104 9.2463131807307946 0 9.2463131807307946 -14.448991980869323 0 0 0 0 8.4622795307414744 5.0948833780050862 0 5.0948833780050862 1.9055455535640036 0 0 0 0 7.9891456598559216 2.8264226828669052 0 2.8264226828669052 3.9701979222363661 0 0 0 0 13.677351097740939 6.1732088426251721 0 6.1732088426251721 -16.211893169396717 0 0 0 0 8.4432725441457706 3.2912124257400137 0 3.2912124257400137 3.6093320039835817 0 0 0 0 18.140604582670335 4.1971908005198202 0 4.1971908005198202 -3.6968430598590203 0 0 0 0 14.390502049549923 -0.96995361180779582 0 -0.96995361180779582 -6.8009409371043148 0 0 0 0 7.0337089969419822 -3.0894648788307677 0 -3.0894648788307677 -8.449644111600719 0 0 0 0 13.412729417459673 -1.9438895369285092 0 -1.9438895369285092 5.9834966411945061 0 0 0 0 0.41968847909996265 8.0128370194706804 0 8.0128370194706804 3.0734934784341021 0 0 0 0 4.0353061022908605 14.499624742071319 0 14.499624742071319 3.8163742291180824 0 0 0 0 8.2489549963381705 10.596874720073174 0 10.596874720073174 4.5796183604061298 0 0 0 0 10.454546362738711 11.679995198548568 0 11.679995198548568 4.1871212942496641 0 0 0 0 16.354925128573313 5.5103215434637605 0 5.5103215434637605 5.2010009103942139 0 0 0 0 5.8571145292095252 6.6080294838839109 0 6.6080294838839109 5.1440902025751711 0 0 0 0 9.573180808855426 12.266620891741695 0 12.266620891741695 5.9511381864940631 0 0 0 0 15.351544191334028 9.0986885802303732 0 9.0986885802303732 6.3754642058302124 0 0 0 0 15.300959713564225 8.6231299405772006 0 8.6231299405772006 3.8096169668751827 0 0 0 0 37.53092771962929 -3.0323660927497258 0 -3.0323660927497258 -2.2958075809638103 0 0 0 0 -0.058431538913578218 -0.21536569714158915 0 -0.21536569714158915 0.25314895910760526 0 0 0 0 27.199352711362963 7.4700632405383658 0 7.4700632405383658 2.6315308287630614 0 0 0 0 29.936293946761225 13.190820840786728 0 13.190820840786728 3.6119936716058874 0 0 0 0 22.047797739693578 6.2735805017782695 0 6.2735805017782695 0.0025427909695281414 0 0 0 0 26.171773698750826 3.3893375900424871 0 3.3893375900424871 1.5302348330806126 0 0 0 0 19.321468570786237 8.1348267381617916 0 8.1348267381617916 10.174175694109636 0 0 0 0 21.64132511566595 11.865863669307146 0 11.865863669307146 10.682012231191038 0 0 0 0 21.641325115655491 11.865863669256214 0 11.865863669256214 10.682012231234694 0 0 0 0 21.641325115662084 11.86586366928168 0 11.86586366928168 10.68201223116921 0 0 0 0 21.582106022104838 8.6124764937037526 0 8.6124764937037526 4.7724666209178395 0 0 0 0 10.938212203097205 11.513869141070586 0 11.513869141070586 -2.4627603626795462 0 0 0 0 12.339801805726477 5.1888923393387358 0 5.1888923393387358 -1.1731584431145166 0 0 0 0 16.369559882753492 6.7889499836837786 0 6.7889499836837786 2.060975252330536 0 0 0 0 10.920290760565095 9.5266526985408007 0 9.5266526985408007 5.2072770186277921 0 0 0 0 16.686545135668666 5.0887459844416298 0 5.0887459844416298 7.6497258124090877 0 0 0 0 12.326021175920175 4.9547499148848146 0 4.9547499148848146 4.43687000466889 0 0 0 0 4.5579914203973999 8.6790538572258811 0 8.6790538572258811 -0.0019823146176349837 0 0 0 0 -5.2210030656419804 1.2314783877473019 0 1.2314783877473019 -5.6732567362905684 0 0 0 0 -4.9222760255183857 4.9241188350333687 0 4.9241188350333687 -9.7225443195347907 0 0 0 0 -0.41974218145999354 0.20057802985669326 0 0.20057802985669326 0.58963904583779936 0 0 0 0 -5.8518488861327569 -5.0031169260691968 0 -5.0031169260691968 20.019432479655734 0 0 0 0 -0.68435848351873574 -3.4641222558448135 0 -3.4641222558448135 5.308871492590697 0 0 0 0 5.432665381195136 14.395175501824269 0 14.395175501824269 -7.9443371884826774 0 0 0 0 -0.37399183682375559 0.2765555509144022 0 0.2765555509144022 0.40060537026555565 0 0 0 0 -5.2727108360832062 10.342074586887975 0 10.342074586887975 6.2104544716185046 0 0 0 0 -5.5933891468430375 4.5252074318814266 0 4.5252074318814266 12.238930467125101 0 0 0 0 76.423677832676731 60.852284973143469 0 60.852284973143469 85.832420988286685 0 0 0 0 1.0601319174489086 -0.027366920440009324 0 -0.027366920440009324 -0.37160757738713812 0 0 0 0 -3.1612815948484467 156.77172802327004 0 156.77172802327004 254.31357958381795 0 0 0 0 -0.40854438595570386 0.30070548783799467 0 0.30070548783799467 0.43205399410840784 0 0 0 0 -6.8999155780948058 4.2955967577786396 0 4.2955967577786396 -0.006089289814553922 0 0 0 0 6.737701961193352 10.402770246568252 0 10.402770246568252 8.0872197176140617 0 0 0 0 -0.25750756816530229 0.36296425698457213 0 0.36296425698457213 0.57289390631497383 0 0 0 0 -1.365705406205052 8.4491577523294836 0 8.4491577523294836 -11.769006022361282 0 0 0 0 2.6958854662721023 -0.56159806681807822 0 -0.56159806681807822 1.4248274949823099 0 0 0 0 -1.4851555012905919 -1.9375487154848088 0 -1.9375487154848088 6.9179624561784294 0 0 0 0 0.12829527498346699 0.26129242080004023 0 0.26129242080004023 0.086815839239555714 0 0 0 0 2.2407146009059034 -2.7540853361533664 0 -2.7540853361533664 -4.7960794146965782 0 0 0 0 5.2823746841196737 2.7950089570574335 0 2.7950089570574335 -3.1649109146201226 0 0 0 0 3.0086040330739579 3.3403850928437002 0 3.3403850928437002 0.55394098135462144 0 0 0 0 2.3597540557354932 3.3003143574087517 0 3.3003143574087517 3.2234173282267875 0 0 0 0 1.0868940940526031 0.20934207035899455 0 0.20934207035899455 -0.71284469408732321 0 0 0 0 14.078417561992865 8.3240819190518778 0 8.3240819190518778 0.52414118652814068 0 0 0 0 11.08579741698486 2.4324242446728022 0 2.4324242446728022 -1.4580768632386025 0 0 0 0 0.94478979603207902 2.6009081372022869 0 2.6009081372022869 -1.6880047909733875 0 0 0 0 0.21256728323963259 3.6013819515775367 0 3.6013819515775367 -5.6978587659832556 0 0 0 0 4.6356550847192013 -2.2726422666355148 0 -2.2726422666355148 -3.4458726542363713 0 0 0 0 1.5836400165846953 7.8648866787598308 0 7.8648866787598308 -9.972525500467782 0 0 0 0 6.7267289019255259 8.1137006527060294 0 8.1137006527060294 4.2259176934130664 0 0 0 0 -0.85399720288229553 0.46127858228475205 0 0.46127858228475205 0.26317334904098644 0 0 0 0 60.227748599690131 -41.83932223577176 0 -41.83932223577176 21.805510707479925 0 0 0 0 22.699312101245596 -10.690870958245796 0 -10.690870958245796 19.336777785406412 0 0 0 0 138.77914233359388 -90.367252907755756 0 -90.367252907755756 21.560517069079651 0 0 0 0 62.34854731312862 -38.46305973929293 0 -38.46305973929293 -12.312563491395849 0 0 0 0 -0.18933888070387184 13.81517055076074 0 13.81517055076074 18.047642699879361 0 0 0 0 5.1904767034043289 -68.446331158862449 0 -68.446331158862449 128.3764337012617 0 0 0 0 4.8394152953233656 3.1287593709273303 0 3.1287593709273303 1.5116850438902816 0 0 0 0 14.033143616313851 5.43191229425247 0 5.43191229425247 -17.70743959970423 0 0 0 0 7.8936766613782083 16.304229916258919 0 16.304229916258919 2.641019645761844 0 0 0 0 0.30882548044743707 2.1929785589280257 0 2.1929785589280257 1.5628724516749628 0 0 0 0 -3.2457627251708345 7.7932434042068053 0 7.7932434042068053 4.4127316566473382 0 0 0 0 -11.511918634390213 10.158311054441583 0 10.158311054441583 26.96147501507312 0 0 0 0 -1.8237585913898329 4.9354865273016912 0 4.9354865273016912 2.0259329635227914 0 0 0 0 0.2688150414910524 3.4089776438504487 0 3.4089776438504487 -13.920292725508261 0 0 0 0 2.8920070395648025 8.5729430996224494 0 8.5729430996224494 -7.0286153629349428 0 0 0 0 3.1639532943846902 2.370908401030988 0 2.370908401030988 -9.9756901501878019 0 0 0 0 -0.36192138076512492 4.9901472805304365 0 4.9901472805304365 4.3029410186591122 0 0 0 0 -2.3560649312585156 19.061874022561824 0 19.061874022561824 -23.007709009158134 0 0 0 0 -2.1524091467820199 9.5551691391101485 0 9.5551691391101485 -9.3019559230787081 0 0 0 0 3.7164330224377409 10.472033580371317 0 10.472033580371317 -21.379300869288272 0 0 0 0 6.739694254719085 1.2774527484252012 0 1.2774527484252012 -1.5654588178496525 0 0 0 0 0.326234452468813 13.500793445057877 0 13.500793445057877 -28.422146911494565 0 0 0 0 8.5890748562579748 4.1431607410011431 0 4.1431607410011431 -1.1583727058958262 0 0 0 0 6.3010221544626273 4.661215249938909 0 4.661215249938909 -6.684790910792799 0 0 0 0 6.6115183881220219 6.3704012067296389 0 6.3704012067296389 -3.1411218940211256 0 0 0 0 15.647887630623245 -8.8756490687142104 0 -8.8756490687142104 -27.691693651282549 0 0 0 0 4.9118815327596721 -2.1620377718718164 0 -2.1620377718718164 -7.5848673907166884 0 0 0 0 7.6786998122598984 0.92730437710727998 0 0.92730437710727998 -3.3044412754671271 0 0 0 0 2.3565473047359546 11.360088369740879 0 11.360088369740879 -21.750156307236466 0 0 0 0 15.686140294822053 1.4923175684320995 0 1.4923175684320995 -9.2701544063384063 0 0 0 0 0.37316003388377794 -7.1978205156192416 0 -7.1978205156192416 7.0556727766379481 0 0 0 0 -1.375559546536806 -1.2911098175045481 0 -1.2911098175045481 2.8113961611907143 0 0 0 0 0.68915075589959562 -1.6080402378593028 0 -1.6080402378593028 2.7563907699711763 0 0 0 0 48.72559692651231 -30.115555081085688 0 -30.115555081085688 10.2643087854849 0 0 0 0 69.526976044909134 -23.59663942075349 0 -23.59663942075349 10.381972542916628 0 0 0 0 56.506261100586926 -10.388776949161183 0 -10.388776949161183 -11.006251423652429 0 0 0 0 70.226999576382241 -25.290782559916806 0 -25.290782559916806 -17.001878458497231 0 0 0 0 47.429120549129038 -29.325590350788843 0 -29.325590350788843 -13.474095709461835 0 0 0 0 21.251916591175689 1.2106164593043403 0 1.2106164593043403 0.0013834465343931512 0 0 0 0 81.465987401223174 37.970360207569684 0 37.970360207569684 -140.52204108099068 0 0 0 0 50.61106955010473 12.813701926679641 0 12.813701926679641 -39.556266025821969 0 0 0 0 82.124962418057976 -41.640175226052634 0 -41.640175226052634 -15.745558926548256 0 0 0 0 133.2028087578924 -12.467353069137971 0 -12.467353069137971 -32.974108340607927 0 0 0 0 -179.96269619216946 97.505491130261362 0 97.505491130261362 81.732813689057366 0 0 0 0 31.278983472910443 3.3772584316317378 0 3.3772584316317378 -2.3410252441347001 0 0 0 0 88.533600059294258 -86.091917927806207 0 -86.091917927806207 -70.337062457033426 0 0 0 0 9.8037895184702393 -17.831135503824953 0 -17.831135503824953 -39.89039428131764 0 0 0 0 -19.726080413257478 -20.647129176115413 0 -20.647129176115413 -15.768178703097874 0 0 0 0 0.091615559822378401 -0.29581663551965942 0 -0.29581663551965942 0.8899153449538133 0 0 0 0 231.49511539383093 114.58713690771765 0 114.58713690771765 -200.42747569965923 0 0 0 0 -46.248920599175108 -32.080821999321415 0 -32.080821999321415 74.710850729730737 0 0 0 0 1.6279410210476684 -1.4222946467341906 0 -1.4222946467341906 0.42425139714844207 0 0 0 0 -77.608544148319197 -11.031135301142058 0 -11.031135301142058 -38.576342650305378 0 0 0 0 46.607367255375721 -21.850602424618955 0 -21.850602424618955 -207.5082254587378 0 0 0 0 100.19780532998084 116.6612117656714 0 116.6612117656714 107.75501179463026 0 0 0 0 98.421812344970022 123.49724993242398 0 123.49724993242398 55.353352059077224 0 0 0 0 132.68368494638344 17.82603737604768 0 17.82603737604768 -41.093736411718055 0 0 0 0 94.047232666936907 139.41587625835837 0 139.41587625835837 70.796138899757352 0 0 0 0 13.569170856859273 45.162025431812253 0 45.162025431812253 34.522203335767699 0 0 0 0 3.576149453875523 11.624148154290719 0 11.624148154290719 -0.11129857685560296 0 0 0 0 -90.15751637646099 -0.29598871803318616 0 -0.29598871803318616 22.907907852375502 0 0 0 0 13.478835592673931 12.385079635524562 0 12.385079635524562 2.6199266915209591 0 0 0 0 -28.368096243586479 -36.435845147900181 0 -36.435845147900181 8.4322450512845535 0 0 0 0 6.4780048334114539 6.8787335040280091 0 6.8787335040280091 -2.6249934298606625 0 0 0 0 12.820121612849107 10.851759059640244 0 10.851759059640244 -0.91698558814186981 0 0 0 0 11.140824206382604 9.6979267871865886 0 9.6979267871865886 -4.5467339118216614 0 0 0 0 8.599847847992649 8.6408898629298783 0 8.6408898629298783 -1.9371879168720625 0 0 0 0 10.059174467322666 10.200543686717541 0 10.200543686717541 -5.5566284412996225 0 0 0 0 -120.18858424458267 64.19512388500516 0 64.19512388500516 18.392332386505586 0 0 0 0 -14.324989280330556 -12.860083821362423 0 -12.860083821362423 5.6507440750756359 0 0 0 0 -17.117133169187582 6.7881515045701235 0 6.7881515045701235 22.918634059252327 0 0 0 0 29.556105529269189 -37.842074173017863 0 -37.842074173017863 -54.302364172406669 0 0 0 0 22.571330947310344 28.857550741926389 0 28.857550741926389 24.69963563734018 0 0 0 0 -12.771275432804032 -5.6489818660238598 0 -5.6489818660238598 32.756656806023784 0 0 0 0 5.7483410968573168 2.1145716106535879 0 2.1145716106535879 -0.9641461302859442 0 0 0 0 15.544357060320181 9.3024744102667682 0 9.3024744102667682 -48.176475799507898 0 0 0 0 4.5179025302995797 11.332363242438532 0 11.332363242438532 -8.6252990321481775 0 0 0 0 7.2097390703819357 2.4697915047124326 0 2.4697915047124326 -0.28814463512216459 0 0 0 0 1.7039143546028299 14.209678828201618 0 14.209678828201618 5.8646952760500426 0 0 0 0 12.262091182872609 16.852373406831248 0 16.852373406831248 -11.105178529854129 0 0 0 0 145.88610891381904 39.447571531973153 0 39.447571531973153 17.881296122712229 0 0 0 0 15.378884884054514 -12.206655340506131 0 -12.206655340506131 -2.0985883056855528 0 0 0 0 3.290416088872604 1.197700996484083 0 1.197700996484083 0.49940165823401017 0 0 0 0 1.1047999096281274 12.855053651505386 0 12.855053651505386 115.44042214838009 0 0 0 0 5.8490592554778296 -1.2536582479483123 0 -1.2536582479483123 0.66143604586734028 0 0 0 0 -15.094108773208063 2.3131326607681331 0 2.3131326607681331 -69.748477636788266 0 0 0 0 328.40301224583527 296.70566440100083 0 296.70566440100083 -7.698551113018766 0 0 0 0 8.283646706396965 4.2922825012773149 0 4.2922825012773149 1.5547404256705804 0 0 0 0 -17.82884229751653 2.7671395876004681 0 2.7671395876004681 0.20185567258977244 0 0 0 0 -21.592498809740619 29.162046370830694 0 29.162046370830694 -169.85479300673978 0 0 0 0 -12.339750118448137 -9.407255289578643 0 -9.407255289578643 -10.058557723727063 0 0 0 0 93.382762866738631 212.61328459011202 0 212.61328459011202 149.14928911905372 0 0 0 0 7.3645167197418626 0.35829469632064104 0 0.35829469632064104 -0.08724601195039039 0 0 0 0 61.2197875986094 132.96279241293632 0 132.96279241293632 101.6250107646174 0 0 0 0 37.747905663507481 72.912621423129167 0 72.912621423129167 24.300007654979709 0 0 0 0 202.88363700427726 130.59195661437479 0 130.59195661437479 -115.71389068178837 0 0 0 0 83.467498999962118 50.36075288590655 0 50.36075288590655 -113.00974227066104 0 0 0 0 114.63066950731081 37.172753764505615 0 37.172753764505615 -214.59921523643425 0 0 0 0 37.978296996279823 -31.545197697658296 0 -31.545197697658296 -60.960556553098286 0 0 0 0 3.5708462517695807 25.990571001953867 0 25.990571001953867 -0.69215159525629133 0 0 0 0 67.829096857158675 -13.241315445025975 0 -13.241315445025975 -112.93522342580218 0 0 0 0 38.102636542385426 -8.6149661311251293 0 -8.6149661311251293 -9.4264567822938261 0 0 0 0 97.810835813368612 40.984013394712747 0 40.984013394712747 -33.016303961097947 0 0 0 0 130.07156418588056 33.973036758385206 0 33.973036758385206 -42.67487105885084 0 0 0 0 117.45108066101966 43.327058084092641 0 43.327058084092641 -37.954163009875629 0 0 0 0 89.091043417036644 -1.9806646479109986 0 -1.9806646479109986 -25.962422349079134 0 0 0 0 100.5650052968258 -24.476895573776346 0 -24.476895573776346 -8.641724396018617 0 0 0 0 62.906559337779981 62.465880140782247 0 62.465880140782247 -71.224967791764357 0 0 0 0 135.40912789681352 70.815903326587431 0 70.815903326587431 -105.9323318236784 0 0 0 0 131.12524678202317 114.53958551556207 0 114.53958551556207 -27.488845721862162 0 0 0 0 102.42393623432508 75.47756341215063 0 75.47756341215063 -61.427062950984691 0 0 0 0 113.37407785514006 61.985846840245358 0 61.985846840245358 -48.593774411150662 0 0 0 0 126.34972710510192 59.602076010612109 0 59.602076010612109 -53.659182595452876 0 0 0 0 51.03866071306129 41.039747508526489 0 41.039747508526489 -32.691072809753678 0 0 0 0 113.31985038134462 59.820829343824187 0 59.820829343824187 -83.300204729537654 0 0 0 0 -273.89606641615018 160.57906507481732 0 160.57906507481732 -44.832475578870799 0 0 0 0 42.578024272025687 82.820566900698395 0 82.820566900698395 -40.667951287776305 0 0 0 0 -68.64149828546897 158.36884159119791 0 158.36884159119791 -94.693108622734144 0 0 0 0 -106.48121129605533 47.028023807766658 0 47.028023807766658 -34.184108100687808 0 0 0 0 58.650846906195397 25.939749253825084 0 25.939749253825084 -107.35727131734166 0 0 0 0 82.117223933090827 49.154335756030378 0 49.154335756030378 -100.27430539622583 0 0 0 0 512.38065367214222 370.53431042255033 0 370.53431042255033 -90.021189047152802 0 0 0 0 51.247083788221062 29.872821816163196 0 29.872821816163196 -111.53614420963277 0 0 0 0 -247.50278264311237 -310.81022143551127 0 -310.81022143551127 -160.54081165273237 0 0 0 0 -1.4406511218194282 1.9650641574917245 0 1.9650641574917245 -3.6388057337244391 0 0 0 0 1047.0599060642662 -477.02718501213349 0 -477.02718501213349 -1151.6418871954083 0 0 0 0 37.843678332521904 10.105615519546063 0 10.105615519546063 15.263755936630332 0 0 0 0 19.184569718092462 42.477780144266035 0 42.477780144266035 0.73931574611697215 0 0 0 0 14.570824312458626 39.252426343122124 0 39.252426343122124 38.189096430936843 0 0 0 0 6.3840698083706044 6.5491408321474172 0 6.5491408321474172 5.7926151201993221 0 0 0 0 -122.04018482756017 22.922083088522058 0 22.922083088522058 76.266094516840894 0 0 0 0 -24.164944241259036 75.291698139066284 0 75.291698139066284 -89.605492062357257 0 0 0 0 -38.214780226193056 33.992514279859279 0 33.992514279859279 43.222563552928477 0 0 0 0 7.9299004099949215 4.0735808773437157 0 4.0735808773437157 0.86768172024296941 0 0 0 0 -53.951611101330855 65.352259265985595 0 65.352259265985595 155.88501320479554 0 0 0 0 -49.811762113026816 40.308910960839057 0 40.308910960839057 80.09452114914302 0 0 0 0 182.90037885546099 -28.508650522362586 0 -28.508650522362586 -117.05800146112961 0 0 0 0 312.9185537508356 139.72016856708797 0 139.72016856708797 -92.264262058309214 0 0 0 0 126.78669728230216 -44.213391420660628 0 -44.213391420660628 -64.465126967261313 0 0 0 0 151.60426931615439 -13.883098208483716 0 -13.883098208483716 -27.67973176641317 0 0 0 0 207.11819754429598 1.2363910998974461 0 1.2363910998974461 -80.772716248706274 0 0 0 0 184.36115810901765 74.842148562332568 0 74.842148562332568 -11.516740892533562 0 0 0 0 168.45603323461819 154.82243014200867 0 154.82243014200867 142.62025205687314 0 0 0 0 28.205038996400617 102.54110107421366 0 102.54110107421366 107.53685640501135 0 0 0 0 153.49322233121802 45.583686754001974 0 45.583686754001974 31.114323564634105 0 0 0 0 149.0303065144314 84.286630335747873 0 84.286630335747873 0.3467669066558301 0 0 0 0 130.45903454415929 36.005828209657921 0 36.005828209657921 -34.480900326254414 0 0 0 0 142.25319057261368 50.323472098825732 0 50.323472098825732 -48.505426329516922 0 0 0 0 100.09356677173309 83.4095632556091 0 83.4095632556091 1.9756063581662602 0 0 0 0 3.0203570328511447 1.7199488307006803 0 1.7199488307006803 0.47870535298780936 0 0 0 0 38.80528507120107 0.096245721952072927 0 0.096245721952072927 130.71061554084531 0 0 0 0 20.377096862074268 121.1635795685761 0 121.1635795685761 475.21220076814097 0 0 0 0 328.28757416597455 -274.88603592058644 0 -274.88603592058644 328.58565558311238 0 0 0 0 105.18151874157138 -39.769542809376617 0 -39.769542809376617 220.6760413572847 0 0 0 0 276.43764594010918 269.97352327917179 0 269.97352327917179 83.332190030705533 0 0 0 0 426.91731192515681 63.883560370406485 0 63.883560370406485 -289.92406455849141 0 0 0 0 367.27757734322063 -4.4715862685070533 0 -4.4715862685070533 -292.25249737518061 0 0 0 0 1.6208716119197906 0.93722833027861441 0 0.93722833027861441 0.0237820858894775 0 0 0 0 117.49990976606398 136.72912456055928 0 136.72912456055928 118.34700997078471 0 0 0 0 -62.339370705672536 -22.200628185785718 0 -22.200628185785718 13.425705515996015 0 0 0 0 214.96955541536022 -66.962799265245394 0 -66.962799265245394 -18.601722162684382 0 0 0 0 325.89934106835744 104.68419406298472 0 104.68419406298472 -4.0169829004098574 0 0 0 0 205.25437163496122 54.559665061141459 0 54.559665061141459 -21.124846021344638 0 0 0 0 -17.381407960143406 31.87827619017753 0 31.87827619017753 -33.731634935519651 0 0 0 0 -20.113941213391627 118.8160542911246 0 118.8160542911246 -132.39615014835886 0 0 0 0 0.0063090434293826547 56.408713678687946 0 56.408713678687946 0.076788931304690777 0 0 0 0 -24.437887854089468 41.476719374800723 0 41.476719374800723 -16.574580040898582 0 0 0 0 -14.627411348374608 31.08679576540726 0 31.08679576540726 -16.102582992589305 0 0 0 0 -20.424358663603925 28.934890873018958 0 28.934890873018958 -0.042013444497570163 0 0 0 0 -5.4463372047539451 38.329829121202238 0 38.329829121202238 -53.273861556815973 0 0 0 0 11.497842535366766 4.8077235193049681 0 4.8077235193049681 0.8111255798493211 0 0 0 0 3.8070531525136175 12.517276277452765 0 12.517276277452765 -10.953777681741485 0 0 0 0 12.938423325627005 4.2245205937131978 0 4.2245205937131978 0.73022602208191945 0 0 0 0 8.7584691907900378 12.731716645381312 0 12.731716645381312 -19.712062264563428 0 0 0 0 -0.16827988044042286 15.425401861665705 0 15.425401861665705 -0.0098266744425927754 0 0 0 0 4.8348427946946231 8.1309158387746265 0 8.1309158387746265 -6.4125686880252033 0 0 0 0 3.5606451062458291 13.193460417582173 0 13.193460417582173 -9.2808420478831977 0 0 0 0 -2.5820701448146792 6.7860865243228545 0 6.7860865243228545 -0.010785174305055989 0 0 0 0 -0.23804006431362623 0.18895674379296068 0 0.18895674379296068 0.74917652407359725 0 0 0 0 2.9194093729779524 58.271744544995272 0 58.271744544995272 26.020347914389276 0 0 0 0 -27.523120492533053 -4.1357117143679716 0 -4.1357117143679716 0.61428867268955401 0 0 0 0 5.822849221647294 0.52779314142676537 0 0.52779314142676537 -3.1411097580559613 0 0 0 0 36.609066920075747 -13.211013422741416 0 -13.211013422741416 -16.308177260227239 0 0 0 0 9.5142448024580517 4.9271219617257884 0 4.9271219617257884 -6.573380388092346 0 0 0 0 10.423517179010567 4.3252626713170415 0 4.3252626713170415 2.6838746585646369 0 0 0 0 3.1428273708897105 0.21167284780383966 0 0.21167284780383966 -0.35342823723679828 0 0 0 0 16.310618125131441 -27.300706235117104 0 -27.300706235117104 -174.65436842450617 0 0 0 0 8.2598049374355469 10.120766406098483 0 10.120766406098483 -9.7665012102806941 0 0 0 0 4.0465680280764822 -0.93490783498512187 0 -0.93490783498512187 -2.5698343944931636 0 0 0 0 -26.873658275235357 -59.069345823148069 0 -59.069345823148069 -34.804288457022267 0 0 0 0 -38.826873215983142 -73.915188028412558 0 -73.915188028412558 86.648175181180704 0 0 0 0 4.8411406037438667 4.0722331871020474 0 4.0722331871020474 5.0666259951456638 0 0 0 0 -19.271134677125701 30.86834634870138 0 30.86834634870138 -36.079330584107083 0 0 0 0 -61.232701878294392 57.031850426968049 0 57.031850426968049 -26.997509986058503 0 0 0 0 1.8058344842637073 3.2383594549188803 0 3.2383594549188803 4.3829417933475199 0 0 0 0 -10.90439748908102 107.97518939143174 0 107.97518939143174 78.855959166255161 0 0 0 0 24.590508146420689 42.238327359920731 0 42.238327359920731 3.7692379584877926 0 0 0 0 -62.374901825175584 65.471509674311164 0 65.471509674311164 -39.386798608734352 0 0 0 0 80.440959298978669 164.45242905709074 0 164.45242905709074 240.34533666043717 0 0 0 0 326.7879247013534 -10.812037192652497 0 -10.812037192652497 -29.93987364100758 0 0 0 0 2.2477623859438225 2.4023002148255435 0 2.4023002148255435 2.6261918591777871 0 0 0 0 -119.9384241294561 90.86888435498237 0 90.86888435498237 98.044070405378079 0 0 0 0 178.59608857483909 209.0032524488588 0 209.0032524488588 -109.38214925291209 0 0 0 0 -69.605279443153108 104.88886928780062 0 104.88886928780062 101.47028764643619 0 0 0 0 40.441025704544472 -187.61720413781177 0 -187.61720413781177 147.18195869127521 0 0 0 0 51.409101763434592 -100.0912997180294 0 -100.0912997180294 -145.45127465108999 0 0 0 0 -2.0777710948841559 36.771149496104726 0 36.771149496104726 -96.435421748316003 0 0 0 0 15.578921894499899 10.427440644808485 0 10.427440644808485 -0.037093348573762341 0 0 0 0 12.831728279293202 23.146854348451598 0 23.146854348451598 -17.107523505473182 0 0 0 0 19.817147434317953 7.5257563247519847 0 7.5257563247519847 1.3505269271042986 0 0 0 0 28.059404023568277 71.866743259653049 0 71.866743259653049 -150.44152068134076 0 0 0 0 19.755450208482216 71.071025885892595 0 71.071025885892595 -62.778606532328922 0 0 0 0 43.353148046376191 35.545219368832477 0 35.545219368832477 0.068511682096868753 0 0 0 0 1.9657851457923243 12.165832854953351 0 12.165832854953351 -13.058899884952552 0 0 0 0 13.78763438614078 -5.8250742030395486 0 -5.8250742030395486 -47.782751875296526 0 0 0 0 17.468074774589695 -107.59371978197305 0 -107.59371978197305 0.7069530639819277 0 0 0 0 109.93829674471363 14.948250085311884 0 14.948250085311884 -44.076236731565587 0 0 0 0 52.945830778793606 9.341881401684077 0 9.341881401684077 -44.870807097510351 0 0 0 0 18.835850761076756 7.692640447047058 0 7.692640447047058 1.6563445401506378 0 0 0 0 -2.8188692839903524 62.20142288666284 0 62.20142288666284 -60.663982522148217 0 0 0 0 -35.857950619760231 60.007073979968482 0 60.007073979968482 -45.880180807540455 0 0 0 0 -14.294021596961102 77.530911706626284 0 77.530911706626284 -43.094174075660703 0 0 0 0 -119.01828379091421 94.510926146400379 0 94.510926146400379 -29.525049821816992 0 0 0 0 -73.331975937127936 47.022487454745715 0 47.022487454745715 -24.142559976460689 0 0 0 0 -0.059290782169965084 -0.011597416688585938 0 -0.011597416688585938 0.32294837268672438 0 0 0 0 129.02301444465502 33.949715080735587 0 33.949715080735587 -39.541597441389968 0 0 0 0 5.3432329251822921 42.244799967015979 0 42.244799967015979 -52.19976270681218 0 0 0 0 68.023244157267982 89.040910342108873 0 89.040910342108873 -58.338196021346448 0 0 0 0 -7.6716960349840519 79.472571671488367 0 79.472571671488367 -1.969474663528672 0 0 0 0 -6.7833129751085721 67.223011611863143 0 67.223011611863143 4.5940521426464329 0 0 0 0 4.637806289951186 100.04328174233979 0 100.04328174233979 -49.787618071795805 0 0 0 0 -13.868287063800381 51.561551657644486 0 51.561551657644486 42.257525714565418 0 0 0 0 -4.4204725481986316 70.609350661912003 0 70.609350661912003 5.2631358484504744 0 0 0 0 -1.1945442741061925 63.953363830901708 0 63.953363830901708 12.299499506169013 0 0 0 0 18.777194275906368 68.414998493857183 0 68.414998493857183 1.8294432576039981 0 0 0 0 -8.3651247177076584 44.721584140134837 0 44.721584140134837 13.110391766797079 0 0 0 0 -21.601374070085512 44.116879376212637 0 44.116879376212637 2.7766137519065524 0 0 0 0 -17.483901864226937 25.890554284653263 0 25.890554284653263 -19.651785756223035 0 0 0 0 11.805713595259704 24.734096282727364 0 24.734096282727364 2.717272405681797 0 0 0 0 -55.680058977037334 38.145488085597208 0 38.145488085597208 -19.679048372122452 0 0 0 0 22.083323382592425 73.921064077797155 0 73.921064077797155 -4.4657475674684974 0 0 0 0 0.086788297982263174 0.3757252408111782 0 0.3757252408111782 0.67405802246540247 0 0 0 0 147.50219911145587 23.827414301586941 0 23.827414301586941 -9.790582413195807 0 0 0 0 -93.722087867118717 31.540306605746537 0 31.540306605746537 36.340402887522941 0 0 0 0 -0.0045626216794509844 0.0035559278479837531 0 0.0035559278479837531 0.52002866006058923 0 0 0 0 -48.569275392646887 51.378871195487591 0 51.378871195487591 32.08076003881979 0 0 0 0 -39.841259258339505 10.369451180179794 0 10.369451180179794 21.678672351888963 0 0 0 0 -29.619045601896687 20.589382306058269 0 20.589382306058269 29.906529416051853 0 0 0 0 -28.81897731998211 20.660804707524115 0 20.660804707524115 22.186051791806676 0 0 0 0 -61.940929296198192 -0.092729020124352246 0 -0.092729020124352246 2.4535777802229859 0 0 0 0 -28.78472041643181 23.619826328244017 0 23.619826328244017 15.117669384207147 0 0 0 0 -11.152051741402829 19.172977357191485 0 19.172977357191485 11.885610225782557 0 0 0 0 -10.936955837690221 44.556690755580121 0 44.556690755580121 16.039843709892011 0 0 0 0 -11.150244244179703 23.381092249474477 0 23.381092249474477 29.764507197152852 0 0 0 0 -9.6260342519381084 6.0910158432870958 0 6.0910158432870958 35.393905729724793 0 0 0 0 -9.1422623614889744 14.641287595042741 0 14.641287595042741 20.590741409769862 0 0 0 0 5.6472082914542625 4.2316201257208377 0 4.2316201257208377 24.305278420953982 0 0 0 0 12.921072567920419 -8.1228926198955378 0 -8.1228926198955378 43.373493769597189 0 0 0 0 -13.082636508745054 49.692437885724303 0 49.692437885724303 46.246951781409734 0 0 0 0 -3.1673226723323751 8.1469831186595911 0 8.1469831186595911 57.877085404534228 0 0 0 0 1.0371107799697779 1.3034518312434846 0 1.3034518312434846 1.6210851924500389 0 0 0 0 273.36967186516631 -12.248500234300082 0 -12.248500234300082 -54.091619950955192 0 0 0 0 -89.941389629290768 102.36347795368999 0 102.36347795368999 38.311162639525719 0 0 0 0 149.08286217057685 119.73243094607642 0 119.73243094607642 99.713551939083118 0 0 0 0 165.66458301054627 -21.686686820754403 0 -21.686686820754403 -24.392257367864204 0 0 0 0 152.43987864015162 -44.2985224106842 0 -44.2985224106842 -62.013452364119075 0 0 0 0 -49.513604602658233 54.282087904572109 0 54.282087904572109 -54.387940944137881 0 0 0 0 -215.00477424871951 -19.808131184920057 0 -19.808131184920057 29.284259904798091 0 0 0 0 0.0039479475878856363 -0.050944826866299309 0 -0.050944826866299309 -0.20785740258031637 0 0 0 0 -160.92226304442374 68.087123655592222 0 68.087123655592222 3.6432493589672958 0 0 0 0 159.59863319220494 4.2658778258964958 0 4.2658778258964958 -42.100953367469629 0 0 0 0 -86.156281686728221 42.686665887455661 0 42.686665887455661 -18.93930686431122 0 0 0 0 -96.118106841147892 62.48879935021705 0 62.48879935021705 -55.490514242116433 0 0 0 0 -67.19629548924604 97.959834371793477 0 97.959834371793477 30.720446155255559 0 0 0 0 -41.574740272784766 78.267315322649665 0 78.267315322649665 44.136577619457967 0 0 0 0 -88.498121044041454 22.704468322027878 0 22.704468322027878 -1.2254358005920949 0 0 0 0 -36.31749980517634 95.345021076653211 0 95.345021076653211 33.470757806569964 0 0 0 0 -30.223858922137879 122.69061700447037 0 122.69061700447037 76.186612553126906 0 0 0 0 -51.722070576255646 85.235892394420262 0 85.235892394420262 111.71346244585948 0 0 0 0 14.284636772423255 96.00505948333921 0 96.00505948333921 91.913603699078521 0 0 0 0 -23.757902278162874 38.106149470717355 0 38.106149470717355 -63.554315950457749 0 0 0 0 -63.751607872412023 73.574431507877307 0 73.574431507877307 93.271413029586256 0 0 0 0 -0.57433031468901063 1.8207721721964987 0 1.8207721721964987 -0.70302167641999347 0 0 0 0 41.388425119633439 -20.421387395534339 0 -20.421387395534339 -113.7839792188206 0 0 0 0 -65.540379799574112 36.935332625698265 0 36.935332625698265 50.557701549798367 0 0 0 0 94.763286198334754 84.090922255652004 0 84.090922255652004 81.035079778404906 0 0 0 0 -11.270925609693222 97.295472504138161 0 97.295472504138161 69.891150304843904 0 0 0 0 21.3244562003797 168.2289002878241 0 168.2289002878241 124.39427046645142 0 0 0 0 -74.577641254934861 113.32589328113136 0 113.32589328113136 260.18606322502819 0 0 0 0 34.165828304925526 -315.96740977888112 0 -315.96740977888112 -817.60001743744033 0 0 0 0 -0.26535924737802929 1.0149076718875243 0 1.0149076718875243 -1.0982001392360523 0 0 0 0 0.97445507528598085 1.543782750950065 0 1.543782750950065 -0.93418028418266008 0 0 0 0 188.92077663534292 -314.93401522669956 0 -314.93401522669956 -843.22785245730302 0 0 0 0 -14.182208598907891 19.981046624689043 0 19.981046624689043 183.10191099627809 0 0 0 0 -36.763025169784669 95.74555919555678 0 95.74555919555678 132.98296794605994 0 0 0 0 -28.363690434625823 92.283695886244459 0 92.283695886244459 109.32060679655842 0 0 0 0 -53.043265612366667 101.18087476268011 0 101.18087476268011 186.0347077325896 0 0 0 0 -30.994158243796846 171.84578192803383 0 171.84578192803383 183.59160624074138 0 0 0 0 3.4646242657213762 2.6797744403438024 0 2.6797744403438024 -1.1415126197654182 0 0 0 0 140.5548956263101 53.169752268666343 0 53.169752268666343 -67.94195161926109 0 0 0 0 -151.32555534382846 212.77569827285424 0 212.77569827285424 -195.7396599321828 0 0 0 0 16.587732955265892 56.196106502764451 0 56.196106502764451 -139.51576785764792 0 0 0 0 12.990192158420541 96.603580238619543 0 96.603580238619543 6.270595351062866 0 0 0 0 13.412269870983437 103.5868045116913 0 103.5868045116913 59.551344496424917 0 0 0 0 9.863930268871627 36.990551515558764 0 36.990551515558764 10.041695605275891 0 0 0 0 9.1194151833351498 26.981619418470473 0 26.981619418470473 79.400618319683417 0 0 0 0 149.95286945808766 157.16795141294915 0 157.16795141294915 25.589775228385406 0 0 0 0 -15.398061528916514 161.11786841139656 0 161.11786841139656 68.092471514133649 0 0 0 0 179.44239916543006 80.561753494007007 0 80.561753494007007 -55.557639232625661 0 0 0 0 -9.2378070499271416 -40.611335932870134 0 -40.611335932870134 80.398227906873331 0 0 0 0 -5.7782489211731445 -15.644130261577629 0 -15.644130261577629 -76.585257339538657 0 0 0 0 -37.02976409616349 36.494147335820344 0 36.494147335820344 -60.167732204547065 0 0 0 0 -19.967292081059213 -115.89636791929581 0 -115.89636791929581 42.594211687835923 0 0 0 0 97.705272038503153 170.35128848122486 0 170.35128848122486 25.867960801035224 0 0 0 0 -1.2629364738011439 0.77916249476065147 0 0.77916249476065147 -0.43416230800869826 0 0 0 0 -12.134695181352981 -3.6682122888405502 0 -3.6682122888405502 5.9135260715920595 0 0 0 0 -4.7473435567608249 -4.5340841935339995 0 -4.5340841935339995 -81.280501214238029 0 0 0 0 43.145983450336644 117.4223883316572 0 117.4223883316572 0.306266039791808 0 0 0 0 32.233389879786046 133.83568354297222 0 133.83568354297222 37.409363725040748 0 0 0 0 40.743663317785831 43.640192317569017 0 43.640192317569017 -58.949269468472266 0 0 0 0 1.2286281841134041 100.82924830625416 0 100.82924830625416 142.58810221336898 0 0 0 0 24.129762316555571 42.76960326963308 0 42.76960326963308 65.386850691221298 0 0 0 0 27.122242288565758 29.312623866620925 0 29.312623866620925 81.478099412912343 0 0 0 0 34.3715562213456 37.904909808911725 0 37.904909808911725 31.826984289338725 0 0 0 0 37.322942220920595 49.722319636202883 0 49.722319636202883 25.283204345723789 0 0 0 0 -0.34506130732580687 2.8941777317040653 0 2.8941777317040653 -2.2277894589726017 0 0 0 0 -33.309528931427849 215.92945599701488 0 215.92945599701488 -477.29991241498101 0 0 0 0 35.376121956884163 37.562846040229488 0 37.562846040229488 30.139197327021975 0 0 0 0 35.584708559372302 38.780677224982355 0 38.780677224982355 30.745822510399194 0 0 0 0 35.42830382891043 39.641405825092079 0 39.641405825092079 32.553257952708918 0 0 0 0 56.731457431023046 46.306657501827431 0 46.306657501827431 17.678019712178866 0 0 0 0 4.703008643143221 26.053681172053984 0 26.053681172053984 14.469224196149298 0 0 0 0 -0.64724034356004267 2.4813869429326587 0 2.4813869429326587 15.912387175088952 0 0 0 0 11.654437631505061 18.546009106625206 0 18.546009106625206 20.398706759311381 0 0 0 0 27.395725222300825 45.482733151835419 0 45.482733151835419 29.122433539276244 0 0 0 0 9.2242686739282362 -8.3873512386912807 0 -8.3873512386912807 -21.539891713940506 0 0 0 0 -3.4403201188628287 2.8070351131775588 0 2.8070351131775588 -2.5614647245048374 0 0 0 0 8.4280863115009197 30.40122030127668 0 30.40122030127668 53.740938599730725 0 0 0 0 22.43876474006629 -0.07381362471551256 0 -0.07381362471551256 -12.31630050279864 0 0 0 0 -5.5446946291833115 6.4054629428882954 0 6.4054629428882954 -4.0928873648282078 0 0 0 0 -1.6072689760057983 4.8255720032539102 0 4.8255720032539102 -12.660694967856216 0 0 0 0 14.473698412279191 4.9672505991511571 0 4.9672505991511571 -2.8804694343143638 0 0 0 0 12.068682960446495 38.806254577496475 0 38.806254577496475 12.271200402652539 0 0 0 0 27.36436691615927 53.14385146859604 0 53.14385146859604 24.95382379975058 0 0 0 0 36.317208128959464 48.764289429067503 0 48.764289429067503 -11.507408785761072 0 0 0 0 134.25689445075386 80.25295047932741 0 80.25295047932741 -2.0185142451846332 0 0 0 0 -34.241425046053337 19.984005468299529 0 19.984005468299529 17.960081955025998 0 0 0 0 20.165451174391819 113.83923761718052 0 113.83923761718052 93.246933891485241 0 0 0 0 -5.7287214280885337 34.33069272444996 0 34.33069272444996 18.198909060436563 0 0 0 0 -44.705497883838689 123.07265471651863 0 123.07265471651863 -15.700835474976884 0 0 0 0 -5.7395461926594393 5.8174829311018748 0 5.8174829311018748 3.9264021834281237 0 0 0 0 8.9237101163023098 12.828756747122306 0 12.828756747122306 10.838700640818601 0 0 0 0 -3.106440741622464 18.335558769811996 0 18.335558769811996 28.707345622809953 0 0 0 0 5.3654835255583748 7.6956033111973738 0 7.6956033111973738 23.116995462308296 0 0 0 0 -4.4264141471588232 8.1135013873050887 0 8.1135013873050887 0.88656237245911207 0 0 0 0 -8.1150464490547165 17.962248530869147 0 17.962248530869147 11.628418495809456 0 0 0 0 -25.311987935907382 32.5895770359366 0 32.5895770359366 20.365501282663445 0 0 0 0 -12.982569710628013 9.4550684687869762 0 9.4550684687869762 20.138491194589733 0 0 0 0 -0.84309695128831663 20.006831129636339 0 20.006831129636339 29.869091677139068 0 0 0 0 -2.3862389220066689 28.610247846541824 0 28.610247846541824 -3.7693588768697737 0 0 0 0 96.832571821272722 79.348740594061383 0 79.348740594061383 22.024614944119548 0 0 0 0 -4.2548698896685835 5.2757679536054134 0 5.2757679536054134 -3.0735131794315418 0 0 0 0 -1.9995516186681925 -1.6503940388811316 0 -1.6503940388811316 13.681216940018203 0 0 0 0 -0.75256881942836262 1.1079440690553071 0 1.1079440690553071 0.97576570582431543 0 0 0 0 -5.4608219603142061 -2.7427415101292354 0 -2.7427415101292354 21.073771457062321 0 0 0 0 -10.066469169980337 -2.7695656276864611 0 -2.7695656276864611 42.509227506519892 0 0 0 0 45.54492934164864 35.842755211692747 0 35.842755211692747 -13.260983095369738 0 0 0 0 22.090027296032986 58.968673459619026 0 58.968673459619026 -12.992546605019015 0 0 0 0 6.8310725547944458 52.450893021376032 0 52.450893021376032 57.756716687089465 0 0 0 0 11.458351830799792 14.459856437708586 0 14.459856437708586 12.102247269082547 0 0 0 0 53.263423135143967 -41.558350101277028 0 -41.558350101277028 22.809358360787883 0 0 0 0 -0.24295863042971177 53.356738221717023 0 53.356738221717023 -13.461463007129169 0 0 0 0 14.970259879399237 24.261564972533961 0 24.261564972533961 -12.055060173126549 0 0 0 0 -19.822174566112153 20.373660208733781 0 20.373660208733781 -12.207013739619015 0 0 0 0 -7.6744372404609749 12.287426952632813 0 12.287426952632813 -13.209373513243918 0 0 0 0 103.57769834228918 2.5254644451965191 0 2.5254644451965191 -80.064475928709726 0 0 0 0 98.63900771374233 78.574613778274568 0 78.574613778274568 -150.54532188997837 0 0 0 0 -66.47479991880391 92.506257745806579 0 92.506257745806579 -33.628961780069403 0 0 0 0 -9.984768823417653 17.905829750439807 0 17.905829750439807 -7.3317727478897723 0 0 0 0 -0.33741354911944654 -50.09654205489278 0 -50.09654205489278 33.322579817372571 0 0 0 0 10.151271383279546 11.878653639074457 0 11.878653639074457 10.724124216593015 0 0 0 0 -261.43194566670354 -36.583062756850268 0 -36.583062756850268 55.065075865327799 0 0 0 0 -325.93399253255848 13.308669402208125 0 13.308669402208125 21.069736344349622 0 0 0 0 22.910362438467928 137.51003539480917 0 137.51003539480917 -155.62563985907036 0 0 0 0 -148.92862533801599 195.82011669141411 0 195.82011669141411 -92.845771081583734 0 0 0 0 62.009747671818332 30.715236362111227 0 30.715236362111227 -17.327461366196985 0 0 0 0 -2.2242606258712918 1.8523051654858342 0 1.8523051654858342 -1.8194064361187117 0 0 0 0 31.024547700395487 154.60764989757809 0 154.60764989757809 -98.639434237776186 0 0 0 0 16.712582916205065 138.22468245723985 0 138.22468245723985 -26.949599946014132 0 0 0 0 -95.663192365556824 201.58093404149099 0 201.58093404149099 -62.616161146798731 0 0 0 0 -25.257658342899958 21.561760162624523 0 21.561760162624523 -8.9237268664128351 0 0 0 0 -35.560375321492756 17.299788210906854 0 17.299788210906854 -4.0629151862158324 0 0 0 0 -22.976779470860492 23.50959207797132 0 23.50959207797132 -3.3547034688326676 0 0 0 0 -43.55211921667069 35.435021684069397 0 35.435021684069397 8.0271962134156638 0 0 0 0 -40.784238977055793 9.8030180297591869 0 9.8030180297591869 -2.5008783967432464 0 0 0 0 -111.22571179904116 -0.76405129348540868 0 -0.76405129348540868 -2.791851077362935 0 0 0 0 -175.42621200625217 51.490330866960448 0 51.490330866960448 24.595796168006927 0 0 0 0 -101.07205540253926 64.330742872147312 0 64.330742872147312 19.371576704168547 0 0 0 0 -87.163409013661294 52.522827233960015 0 52.522827233960015 24.338230321403387 0 0 0 0 -100.64048712295335 27.845255022376932 0 27.845255022376932 9.5313750179002454 0 0 0 0 -79.910202485978516 64.814537305977865 0 64.814537305977865 18.670078670745852 0 0 0 0 -80.163682712096488 71.432750776044486 0 71.432750776044486 14.904934150329609 0 0 0 0 -60.775407171164261 69.924804259771008 0 69.924804259771008 11.531820694435737 0 0 0 0 -23.369539831968723 60.397741079043044 0 60.397741079043044 1.4662019853276433 0 0 0 0 -62.683486442547292 65.969551361953108 0 65.969551361953108 7.7981871722913638 0 0 0 0 -85.596135768208114 84.091027223287483 0 84.091027223287483 9.6201438134012278 0 0 0 0 -52.210394334237208 78.477226393065393 0 78.477226393065393 2.8017081677735405 0 0 0 0 -29.828255320222524 98.464149153133803 0 98.464149153133803 -43.414391719299601 0 0 0 0 -127.84577687111232 117.80895424330561 0 117.80895424330561 -3.4055735107031069 0 0 0 0 -4.8916376403358299 70.17856330257564 0 70.17856330257564 -17.495585942981961 0 0 0 0 -34.492509622064972 61.560791406629733 0 61.560791406629733 9.4391757558369136 0 0 0 0 -52.408825326322585 77.577199899730203 0 77.577199899730203 -1.2796903111575375 0 0 0 0 -21.917074274042534 64.490816962196732 0 64.490816962196732 -0.75832159598598992 0 0 0 0 -29.374228530942673 16.759028431104525 0 16.759028431104525 10.029559369434537 0 0 0 0 9.0422739864116011 54.085010806510127 0 54.085010806510127 -10.149543799421735 0 0 0 0 -5.5819140929088462 58.913951410235313 0 58.913951410235313 25.49263688364772 0 0 0 0 -6.1315947792827501 49.148139632177845 0 49.148139632177845 -5.353705776775314 0 0 0 0 -20.832450865100142 2.1950207752943003 0 2.1950207752943003 17.224986364288977 0 0 0 0 0.39190564101024195 16.454670192687558 0 16.454670192687558 9.8457418937373724 0 0 0 0 -28.778314535360551 11.730779911492618 0 11.730779911492618 51.880640296491038 0 0 0 0 3.7278492418754468 43.917060577602115 0 43.917060577602115 -8.8884596948855688 0 0 0 0 -25.752585788588476 34.750374021671632 0 34.750374021671632 10.53413624728455 0 0 0 0 -135.46197582468199 53.487331192623166 0 53.487331192623166 23.833602929797053 0 0 0 0 -0.81743064637363283 15.842999191638896 0 15.842999191638896 10.55977322395101 0 0 0 0 -86.996986442234629 36.042272899461295 0 36.042272899461295 14.215823396548103 0 0 0 0 -103.43746845851274 73.688098771709974 0 73.688098771709974 8.9999894119171131 0 0 0 0 -83.140169735750533 61.861638300523282 0 61.861638300523282 3.8543296663310684 0 0 0 0 -76.223689179663324 71.410784148037237 0 71.410784148037237 11.675046822237164 0 0 0 0 -56.207759844834868 40.551206278851311 0 40.551206278851311 6.0676712948006752 0 0 0 0 -59.168981579132378 67.294135769552668 0 67.294135769552668 7.7554425403591267 0 0 0 0 -81.052547084289017 73.247637870956851 0 73.247637870956851 7.2294211015832843 0 0 0 0 -32.229358637530822 79.951934077920214 0 79.951934077920214 -20.941545770626817 0 0 0 0 1.2845796748897556 55.277438456065511 0 55.277438456065511 -19.616980407891788 0 0 0 0 -25.070934892293735 40.549009334955599 0 40.549009334955599 -0.44034526232826465 0 0 0 0 63.019448934905085 -0.98643332909728088 0 -0.98643332909728088 -16.832638145380315 0 0 0 0 19.023288192860491 47.290557310798704 0 47.290557310798704 -14.306430014734815 0 0 0 0 13.246746640877973 7.7088405670967006 0 7.7088405670967006 10.754120390516618 0 0 0 0 3.328643438346262 23.811636391501452 0 23.811636391501452 -2.6199583904590327 0 0 0 0 -16.724866183366885 18.145967850197138 0 18.145967850197138 0.52843441810273362 0 0 0 0 -14.160920427846577 45.519769389995417 0 45.519769389995417 -5.7451859836783115 0 0 0 0 -8.253404826609767 18.784531530695858 0 18.784531530695858 -3.8292780635445069 0 0 0 0 21.224229703448145 31.495350081775541 0 31.495350081775541 12.437527752110327 0 0 0 0 27.414716517394481 26.879101974242076 0 26.879101974242076 13.653278212401347 0 0 0 0 26.350184659594561 20.095493136419918 0 20.095493136419918 -3.1181392877751932 0 0 0 0 5.0798549333612755 12.928052597541864 0 12.928052597541864 -3.3901324275720981 0 0 0 0 22.395760609796866 21.03328850943808 0 21.03328850943808 -11.757364226268692 0 0 0 0 54.376811068468669 28.856471739280551 0 28.856471739280551 -14.823601947568022 0 0 0 0 34.796180689031644 50.109269325701462 0 50.109269325701462 5.5096609820648155 0 0 0 0 29.205758275933476 37.818980447308604 0 37.818980447308604 -1.6198604722194432 0 0 0 0 45.7924660049257 53.933557061864121 0 53.933557061864121 14.278546161444524 0 0 0 0 49.992507819629282 19.202350254999146 0 19.202350254999146 -2.746259054583831 0 0 0 0 -28.778314535359186 11.730779911488753 0 11.730779911488753 51.880640296489219 0 0 0 0 -1.085899323873516 1.7248523254192616 0 1.7248523254192616 -0.95410972478751432 0 0 0 0 54.809731077747529 44.220756157509186 0 44.220756157509186 2.4532406947014351 0 0 0 0 -28.778314535358277 11.730779911491481 0 11.730779911491481 51.880640296489219 0 0 0 0 30.114443117671726 46.644853602299577 0 46.644853602299577 38.221549791795951 0 0 0 0 59.757194610961051 12.417478681934881 0 12.417478681934881 5.5325718346830399 0 0 0 0 33.804823696505991 12.129516685633462 0 12.129516685633462 34.960142181961942 0 0 0 0 31.845261267510068 10.408399297754158 0 10.408399297754158 3.8321588985218114 0 0 0 0 41.538054426840517 25.911272773838391 0 25.911272773838391 -4.4039963359482499 0 0 0 0 13.589648246367105 37.374133266029858 0 37.374133266029858 5.4131058150305762 0 0 0 0 34.03644260535566 27.609753530617581 0 27.609753530617581 1.3999848659186682 0 0 0 0 32.597768126905066 21.174489979096506 0 21.174489979096506 -6.8358384253374425 0 0 0 0 26.293718276359868 21.436931326309605 0 21.436931326309605 -2.8130255151390884 0 0 0 0 18.079795744026342 1.4340017622885171 0 1.4340017622885171 -23.654167339580226 0 0 0 0 12.599200790809846 5.8596976354565413 0 5.8596976354565413 -6.526039086201763 0 0 0 0 17.260675912063562 13.688723593034865 0 13.688723593034865 -17.467908512555368 0 0 0 0 17.750685845507178 10.773558432683785 0 10.773558432683785 -7.1574997880861702 0 0 0 0 28.26351484348038 13.062163501267719 0 13.062163501267719 -13.566127011499702 0 0 0 0 28.316968154071219 17.210774001349819 0 17.210774001349819 -8.4408865006091673 0 0 0 0 16.758047602207625 13.019647484753477 0 13.019647484753477 1.6031310217676946 0 0 0 0 11.926270428863063 7.5770590055190041 0 7.5770590055190041 -9.3522876116176121 0 0 0 0 18.428294327777621 14.728132256578192 0 14.728132256578192 -11.658969445039475 0 0 0 0 10.162047572492156 12.338422807640654 0 12.338422807640654 -19.295570910557217 0 0 0 0 5.2008715043066331 6.6675352039910649 0 6.6675352039910649 -9.1595239157913966 0 0 0 0 5.1841946618231347 6.9289201326582344 0 6.9289201326582344 -12.759013588121091 0 0 0 0 7.5700377730877335 0.19186609271832822 0 0.19186609271832822 -20.112555539324603 0 0 0 0 0.068684377311456046 -0.9481471864064428 0 -0.9481471864064428 -2.7150380834464158 0 0 0 0 70.028261308732908 108.39918654128394 0 108.39918654128394 124.07947470789611 0 0 0 0 92.367699668317073 89.074369100650074 0 89.074369100650074 76.134702622002521 0 0 0 0 51.749917375709629 16.421907335420428 0 16.421907335420428 -27.980082553113334 0 0 0 0 33.32257351122098 60.477537958096491 0 60.477537958096491 81.424201055308515 0 0 0 0 43.92004938419359 75.878693409951552 0 75.878693409951552 70.521848588361081 0 0 0 0 37.048188042324909 74.81176051118473 0 74.81176051118473 49.383846877973099 0 0 0 0 25.564312955688365 64.461770125844737 0 64.461770125844737 63.923754876507132 0 0 0 0 56.871885866257799 53.264805258091229 0 53.264805258091229 64.089868253147642 0 0 0 0 22.619814502759255 64.857325315974094 0 64.857325315974094 65.388784347954299 0 0 0 0 16.785999200381411 74.619120369922086 0 74.619120369922086 61.851490666386781 0 0 0 0 29.481429893628956 68.998346710820101 0 68.998346710820101 64.536549968395434 0 0 0 0 19.428193458850728 68.340170020351025 0 68.340170020351025 72.108771321584754 0 0 0 0 24.772749571798158 72.866063228481167 0 72.866063228481167 65.809105411393602 0 0 0 0 15.92119331656545 56.625366308113861 0 56.625366308113861 59.638698851626827 0 0 0 0 32.734758247434002 61.812351140171643 0 61.812351140171643 38.534091957138003 0 0 0 0 14.605631716645803 48.238030470522517 0 48.238030470522517 43.825054416175931 0 0 0 0 13.251664064314355 61.242032671124718 0 61.242032671124718 57.539149912042944 0 0 0 0 14.228166302127647 63.359247820409223 0 63.359247820409223 61.427941582632684 0 0 0 0 1.4945327004438944 7.8773934619031039 0 7.8773934619031039 -17.284972623350242 0 0 0 0 4.7188392238349479 15.201698462316926 0 15.201698462316926 -9.7161958345868698 0 0 0 0 2.1998512506668249 2.7982832540201343 0 2.7982832540201343 -17.470816975446724 0 0 0 0 -0.047763897029266644 12.210773200241952 0 12.210773200241952 -17.919935424909607 0 0 0 0 -3.1007273792927208 6.5159281179809341 0 6.5159281179809341 -17.560691284501445 0 0 0 0 -0.56851100937637966 14.737796105214329 0 14.737796105214329 -13.948259708125306 0 0 0 0 -6.9904262068321259 19.238216665286927 0 19.238216665286927 -18.142872876988804 0 0 0 0 -4.0723755109320336 12.305636595280703 0 12.305636595280703 -5.4173310912365196 0 0 0 0 17.262920978999318 8.7965336671441037 0 8.7965336671441037 -15.815175085091141 0 0 0 0 14.495729500657035 20.357162743198842 0 20.357162743198842 -6.0856646658185127 0 0 0 0 -26.424231789860642 -26.886112627784541 0 -26.886112627784541 -14.323834861975499 0 0 0 0 -0.57449138396138721 11.849523183328724 0 11.849523183328724 -17.825928995385432 0 0 0 0 5.1331094601492566 7.7252617125811689 0 7.7252617125811689 -1.6862541659287231 0 0 0 0 4.2559352583944126 7.7750240640950103 0 7.7750240640950103 -1.2402298514597225 0 0 0 0 9.901239834343869 16.622457820330112 0 16.622457820330112 18.128586084209815 0 0 0 0 10.07879872900412 34.564389162068608 0 34.564389162068608 -1.4655656906063541 0 0 0 0 -34.264136846911242 -11.65755956837279 0 -11.65755956837279 39.070722455357554 0 0 0 0 -67.457969851886446 42.124433523108564 0 42.124433523108564 -12.378197196090007 0 0 0 0 6.8448209224261518 110.52911954102626 0 110.52911954102626 155.64927403915792 0 0 0 0 1.3233365392597385 1.6181431240052522 0 1.6181431240052522 2.5095247574301633 0 0 0 0 -17.737182261455473 4.9784593664081171 0 4.9784593664081171 342.05283931080567 0 0 0 0 -25.258497665502091 -35.407285663060399 0 -35.407285663060399 127.54488421206963 0 0 0 0 7.2691657426221354 119.39736197592151 0 119.39736197592151 107.58937165522138 0 0 0 0 43.938992507193689 253.35338503374851 0 253.35338503374851 409.63169110187141 0 0 0 0 -1.862711690243259 83.334279922041702 0 83.334279922041702 114.42762594874284 0 0 0 0 -4.9902189138192625 65.17086020236485 0 65.17086020236485 75.058017832896212 0 0 0 0 29.306837109716071 85.136680849729601 0 85.136680849729601 42.779045028036762 0 0 0 0 26.208486999993511 82.002621350231152 0 82.002621350231152 46.881023298923765 0 0 0 0 19.713176831552119 81.430505659091523 0 81.430505659091523 76.420211818276641 0 0 0 0 57.393526606519856 96.793871079309639 0 96.793871079309639 11.749011708024454 0 0 0 0 127.03512431149284 171.728028312643 0 171.728028312643 91.769875875953147 0 0 0 0 58.10671586618264 124.50516522244538 0 124.50516522244538 74.125484178890702 0 0 0 0 53.919719944899043 81.967271704950349 0 81.967271704950349 33.030256522203672 0 0 0 0 47.520860086075118 68.491563249436808 0 68.491563249436808 14.1662177199957 0 0 0 0 37.823077577188087 23.528394428185265 0 23.528394428185265 -18.379812754821671 0 0 0 0 25.996033472561976 19.255438484398837 0 19.255438484398837 -19.102784773814392 0 0 0 0 131.53901992771233 52.538189384508293 0 52.538189384508293 -151.99166792493202 0 0 0 0 26.916261554903031 23.09228441879155 0 23.09228441879155 -21.5755243952417 0 0 0 0 13.303404079380925 17.030656343227861 0 17.030656343227861 -15.161107168793137 0 0 0 0 27.016789827619505 30.918539715160932 0 30.918539715160932 -1.7897089149539624 0 0 0 0 3.9547008580766487 20.165416305936617 0 20.165416305936617 1.6215376042744083 0 0 0 0 4.1470446513358183 16.194292450369858 0 16.194292450369858 -8.8880976421767741 0 0 0 0 9.1619067433348391 -0.49407044776717157 0 -0.49407044776717157 -35.660615291268385 0 0 0 0 0.17614501130174176 8.8862865290153934 0 8.8862865290153934 -2.9631015288307481 0 0 0 0 -2.9862440819033509 -23.411966666128137 0 -23.411966666128137 1.702505284778681 0 0 0 0 79.639240496107959 194.25869086681109 0 194.25869086681109 119.61740736370894 0 0 0 0 106.50437866288485 216.51299341070273 0 216.51299341070273 137.49995925101348 0 0 0 0 -1.6492057384360734 0.62633759065927919 0 0.62633759065927919 -0.31004369875346072 0 0 0 0 144.43586292021791 221.94708144908464 0 221.94708144908464 100.30826375969218 0 0 0 0 64.025135772288195 -121.08758935855974 0 -121.08758935855974 165.32021152621837 0 0 0 0 287.75453605014627 315.45176381571116 0 315.45176381571116 13.839601552346608 0 0 0 0 2.1242683625278005 15.23257966043127 0 15.23257966043127 5.919266369028179 0 0 0 0 4.6251988317739894 9.79874441303906 0 9.79874441303906 7.2137551647286031 0 0 0 0 2.3820984133881211 15.515210722057361 0 15.515210722057361 3.7787922238862848 0 0 0 0 4.0832403187314412 14.030840857048702 0 14.030840857048702 -1.0641042865175905 0 0 0 0 -3.7111663636376804 4.2738090041399648 0 4.2738090041399648 0.40764361039005048 0 0 0 0 0.88516540147793421 11.389278630863259 0 11.389278630863259 0.83890179494468953 0 0 0 0 1.9258695077369339 9.7564689818311194 0 9.7564689818311194 -2.6011795183526374 0 0 0 0 5.558493996714251 7.7122193971471331 0 7.7122193971471331 5.3882726039077395 0 0 0 0 -10.937284419096613 74.328911123461921 0 74.328911123461921 98.849146955069955 0 0 0 0 -1.9388122759214639 20.120110739625261 0 20.120110739625261 9.3031346283764833 0 0 0 0 -6.7303417741957361 5.3606786807460409 0 5.3606786807460409 -1.6983620641944093 0 0 0 0 -11.457283993922118 38.442176658365128 0 38.442176658365128 382.05659224291549 0 0 0 0 1.3066937882708487 3.6390771003894811 0 3.6390771003894811 1.6026997961120113 0 0 0 0 30.113033805260784 80.289408786473132 0 80.289408786473132 97.837776795622403 0 0 0 0 174.48983287520787 151.27772846231403 0 151.27772846231403 -29.831023101338815 0 0 0 0 132.41955201884412 206.42282563495564 0 206.42282563495564 81.89654514348149 0 0 0 0 212.65711991892385 73.24629295506179 0 73.24629295506179 16.315204812074057 0 0 0 0 169.44010694262579 254.01489824467262 0 254.01489824467262 110.45703855496845 0 0 0 0 115.22807616846694 376.50750463667418 0 376.50750463667418 56.036345199146581 0 0 0 0 114.62672471442966 -268.81509031174346 0 -268.81509031174346 36.642971986661451 0 0 0 0 13.687758177824435 71.222631093199197 0 71.222631093199197 386.81091791228164 0 0 0 0 20.199524865654894 -3.8342196510600388 0 -3.8342196510600388 11.561673400147356 0 0 0 0 -26.806695530291108 -36.903730228721315 0 -36.903730228721315 48.86397842920087 0 0 0 0 24.346735267365034 42.693923929048538 0 42.693923929048538 -81.529143370643396 0 0 0 0 99.746522745223047 -33.396459944938556 0 -33.396459944938556 -69.832325040529668 0 0 0 0 -0.11232137549443166 8.9880714631667438 0 8.9880714631667438 -18.058394175684732 0 0 0 0 72.417539157901956 38.398476818907625 0 38.398476818907625 -249.56667736556574 0 0 0 0 27.085274730014135 23.618075190636318 0 23.618075190636318 -18.670814016409622 0 0 0 0 -32.039950875501745 103.04359977498143 0 103.04359977498143 -92.766611485093563 0 0 0 0 -1.8968741416194135 1.4859832038218457 0 1.4859832038218457 -1.3423520723617219 0 0 0 0 -25.232998639318225 44.311728109447927 0 44.311728109447927 12.855816906088876 0 0 0 0 14.195366177791584 24.541758296890748 0 24.541758296890748 14.888581719583613 0 0 0 0 -10.97839070304326 18.67119221077769 0 18.67119221077769 16.938578000752841 0 0 0 0 13.125426998228249 21.152722144048312 0 21.152722144048312 -26.232255642482414 0 0 0 0 29.729716705171086 36.797804554032609 0 36.797804554032609 -5.1179186517958897 0 0 0 0 41.707643211237155 76.040838912851541 0 76.040838912851541 63.285379731132707 0 0 0 0 64.312651587604705 104.48065578167439 0 104.48065578167439 43.378582229850281 0 0 0 0 45.507553010702395 16.854934797845317 0 16.854934797845317 -192.51698315097667 0 0 0 0 19.536060760757664 17.981832702131896 0 17.981832702131896 5.5412949607161863 0 0 0 0 15.606178287382136 7.2610364047209259 0 7.2610364047209259 7.8384516482785784 0 0 0 0 -3.4389846719041977 5.964458805033356 0 5.964458805033356 -3.2405304460305135 0 0 0 0 23.641130354997586 22.261713504309228 0 22.261713504309228 4.0667464047437534 0 0 0 0 14.862853438055026 26.138518801823011 0 26.138518801823011 18.732116655508435 0 0 0 0 0.56883114680428726 2.0761852837476233 0 2.0761852837476233 -0.81554600619718354 0 0 0 0 7.4247235437092627 6.6914732111346567 0 6.6914732111346567 -8.877551525296262 0 0 0 0 9.6699942063248159 13.824199372059836 0 13.824199372059836 1.2563860846448733 0 0 0 0 8.4794646281206951 16.845381314471979 0 16.845381314471979 2.2011636832803561 0 0 0 0 9.3541449451986409 14.062021477599046 0 14.062021477599046 2.9458144532641199 0 0 0 0 3.9060352249713741 11.200519046517744 0 11.200519046517744 3.2368453721267301 0 0 0 0 4.7867604894205407 10.677672795456598 0 10.677672795456598 2.2532710413551222 0 0 0 0 8.746752104598599 8.5215332389155218 0 8.5215332389155218 -4.5461412003831088 0 0 0 0 13.121768134689773 19.131595472712434 0 19.131595472712434 0.86640374133639853 0 0 0 0 4.9473891043235199 8.3923227958603093 0 8.3923227958603093 -3.3899071044200753 0 0 0 0 10.260686431151044 18.569274494021101 0 18.569274494021101 5.6468134599016935 0 0 0 0 -33.616411162054646 -26.910138113839821 0 -26.910138113839821 -31.865070133200788 0 0 0 0 5.2124408190575195 9.918644304807458 0 9.918644304807458 1.9650509928069368 0 0 0 0 -4.2356940209963057 5.4144499268624777 0 5.4144499268624777 -0.95137469399861629 0 0 0 0 4.5280660313194403 7.9651941218328375 0 7.9651941218328375 3.3178096673254913 0 0 0 0 -1.6042501582230351 10.365805774324761 0 10.365805774324761 0.59481940716697324 0 0 0 0 1.5506258694096999 4.5594704010332627 0 4.5594704010332627 -2.0012362338564671 0 0 0 0 9.3296024719784327 14.526106130669177 0 14.526106130669177 4.8738191309239483 0 0 0 0 8.6306961532200148 14.71055703744014 0 14.71055703744014 2.4520267236584914 0 0 0 0 3.5804009334948894 9.2843291979364615 0 9.2843291979364615 0.83607791687357746 0 0 0 0 12.105042661762944 3.8949290357198869 0 3.8949290357198869 -7.1143459637883417 0 0 0 0 7.6900353722121508 8.7615253323810975 0 8.7615253323810975 0.89654903353221016 0 0 0 0 1.6760351893275818 7.076950931117107 0 7.076950931117107 -2.45427012327157 0 0 0 0 8.3264231006523914 12.228203902661335 0 12.228203902661335 -0.26794853171486466 0 0 0 0 -8.0905272753952886 -14.460921998283084 0 -14.460921998283084 -27.486530129483469 0 0 0 0 -0.46331519210262684 -0.11726054150974363 0 -0.11726054150974363 -0.10903189476317365 0 0 0 0 -9.109818224526407 63.982618326902411 0 63.982618326902411 -44.687247620533526 0 0 0 0 3.1946714392979061 -12.415064741985191 0 -12.415064741985191 -46.227578308822558 0 0 0 0 33.892248751053557 -0.8139959091131459 0 -0.8139959091131459 -286.31813018706094 0 0 0 0 -0.075625493138993249 -0.026199168242147408 0 -0.026199168242147408 -0.13227888362059326 0 0 0 0 2.2287114858318411 8.5427182599241256 0 8.5427182599241256 -14.862401884793156 0 0 0 0 -0.12208459391635529 -0.64011499342027633 0 -0.64011499342027633 -3.6347131640102246 0 0 0 0 -1.8143385303120567 0.80412703275987951 0 0.80412703275987951 -0.94775258945935192 0 0 0 0 -1.822024132576189 1.9140783243401529 0 1.9140783243401529 0.032122582842248448 0 0 0 0 5.2508901073033485 6.181701935667661 0 6.181701935667661 -25.097438347287607 0 0 0 0 -44.177492670467473 -18.008412053380198 0 -18.008412053380198 30.006734114760548 0 0 0 0 -1.1380894770154555 -135.17368229243948 0 -135.17368229243948 -35.171710946759049 0 0 0 0 9.9118385792053232 9.8549505381383824 0 9.8549505381383824 -25.847821613584529 0 0 0 0 259.81274598106938 11.351040271351849 0 11.351040271351849 -38.182361212471733 0 0 0 0 -55.300927710737596 11.746822576398699 0 11.746822576398699 202.41735169618732 0 0 0 0 53.272616427957473 129.32204945970943 0 129.32204945970943 85.420821153609722 0 0 0 0 24.22809972713867 78.467637531658056 0 78.467637531658056 7.6621368490887107 0 0 0 0 92.529491754270566 4.496977997772774 0 4.496977997772774 -76.844702421257807 0 0 0 0 12.072245731143994 61.927310557629426 0 61.927310557629426 17.234227586004636 0 0 0 0 2.5340408197357647 75.030305075593333 0 75.030305075593333 30.639101146563917 0 0 0 0 13.965345506112499 47.493427527780113 0 47.493427527780113 -25.510290162553247 0 0 0 0 6.9520795702628675 55.889887011971041 0 55.889887011971041 48.497791617521216 0 0 0 0 16.060724171475158 53.866027783051322 0 53.866027783051322 -37.857955759255674 0 0 0 0 42.969919616069092 63.90201916897604 0 63.90201916897604 -105.45979159155422 0 0 0 0 37.250165946536526 93.070547712395523 0 93.070547712395523 17.442483617263861 0 0 0 0 -7.2828873367998312 53.238646086625522 0 53.238646086625522 17.521762338155895 0 0 0 0 -3.7082995770433627 65.108914630804065 0 65.108914630804065 56.936692291952568 0 0 0 0 -24.743422365005245 26.51897584953258 0 26.51897584953258 14.753570053733711 0 0 0 0 -25.182102852202661 34.250972650048425 0 34.250972650048425 164.27840487481262 0 0 0 0 123.1137815439007 -14.953378536960599 0 -14.953378536960599 -17.722091938472659 0 0 0 0 1.8152836369854946 1.0826728651559154 0 1.0826728651559154 0.42339267224128818 0 0 0 0 14.841405103778925 8.6130759528987255 0 8.6130759528987255 -0.28379514320295129 0 0 0 0 11.725147928118076 20.200063368097858 0 20.200063368097858 -14.723993526176855 0 0 0 0 -13.075143776790355 35.964892503985538 0 35.964892503985538 5.8319463704665395 0 0 0 0 3.4029539803719082 2.933661438681515 0 2.933661438681515 3.0334292480030456 0 0 0 0 4.8838519554747108 25.67220830121596 0 25.67220830121596 -19.529315011960534 0 0 0 0 -3.3010635566893143 18.828667731915857 0 18.828667731915857 -10.870105845491707 0 0 0 0 4.7326499258307422 26.098314978936685 0 26.098314978936685 -8.8650594892824301 0 0 0 0 11.991141581018383 19.132358646727425 0 19.132358646727425 -13.030276754650913 0 0 0 0 5.2345623328983493 24.278423658016436 0 24.278423658016436 -11.118912297160477 0 0 0 0 60.702908621697134 226.98944492274995 0 226.98944492274995 93.599037614456165 0 0 0 0 0.2839675693121535 265.20843479368773 0 265.20843479368773 98.649502430454959 0 0 0 0 83.932859106816977 213.12217808757941 0 213.12217808757941 63.42802821344111 0 0 0 0 174.263497702932 219.1044032073014 0 219.1044032073014 62.72750417750558 0 0 0 0 122.70503315126393 253.60643957794474 0 253.60643957794474 48.232662340265961 0 0 0 0 121.77598343084173 261.18849696740335 0 261.18849696740335 33.240613965692319 0 0 0 0 91.576205197185573 280.83710349046896 0 280.83710349046896 39.97576736265728 0 0 0 0 197.94019151288813 248.23179178925687 0 248.23179178925687 -17.844313293620871 0 0 0 0 198.50763277214537 260.7692279362418 0 260.7692279362418 8.7313203124695065 0 0 0 0 212.9635623265367 144.93199412732247 0 144.93199412732247 -197.33686859285399 0 0 0 0 128.04079418051515 323.66049316186763 0 323.66049316186763 -47.380585554950812 0 0 0 0 61.712732724581656 297.78028326353888 0 297.78028326353888 92.105922463359889 0 0 0 0 -0.14210321917471447 363.13319702746207 0 363.13319702746207 214.34909970244416 0 0 0 0 131.40515506577322 364.29988433224298 0 364.29988433224298 87.8853799276568 0 0 0 0 118.22369782139958 418.49632097870017 0 418.49632097870017 91.89957524966303 0 0 0 0 282.23736316490067 372.00225052148562 0 372.00225052148562 -0.21574043546795693 0 0 0 0 302.88828824113534 355.57428081057151 0 355.57428081057151 -11.808709466999062 0 0 0 0 312.32015571178545 367.72254075621868 0 367.72254075621868 198.6365718895504 0 0 0 0 272.58671766247244 269.87114383040353 0 269.87114383040353 233.08676335015389 0 0 0 0 169.23664894778676 477.22944339737455 0 477.22944339737455 393.24528222452318 0 0 0 0 0.32833836128775573 1.1661602347417315 0 1.1661602347417315 -0.9073806858458191 0 0 0 0 393.23952335375907 212.74132396419736 0 212.74132396419736 89.631219260750299 0 0 0 0 403.47479411007043 243.87758875664258 0 243.87758875664258 86.672393701320061 0 0 0 0 348.29149479939133 274.44139087347321 0 274.44139087347321 233.95955052322279 0 0 0 0 0.86485745570908534 2.2780526952848099 0 2.2780526952848099 -2.3902013195386367 0 0 0 0 275.32021951094976 220.05855240960045 0 220.05855240960045 71.935933963050047 0 0 0 0 339.29409056592067 380.80622964209033 0 380.80622964209033 0.22634935405039869 0 0 0 0 296.16598036660048 174.34710817033965 0 174.34710817033965 -247.37534367696389 0 0 0 0 576.17576714896677 614.16586538950924 0 614.16586538950924 221.82862311106965 0 0 0 0 0.68388609795263733 1.3337653232126172 0 1.3337653232126172 -1.1572807913854035 0 0 0 0 537.6444041374416 442.08402386572561 0 442.08402386572561 -128.83227570157806 0 0 0 0 415.96562522438398 193.05458208782056 0 193.05458208782056 0.39896705379760533 0 0 0 0 908.98402045155308 601.9185470492414 0 601.9185470492414 282.32455308274075 0 0 0 0 3.0635462722045403 -0.34600017184001075 0 -0.34600017184001075 -0.31414254181908419 0 0 0 0 790.97019066855046 195.673469334316 0 195.673469334316 -3.2852678347626352 0 0 0 0 450.38836509143948 425.36878986021475 0 425.36878986021475 -48.872471562902774 0 0 0 0 53.278211252982146 -241.34171993344808 0 -241.34171993344808 -491.29532965400722 0 0 0 0 707.15761644266422 158.54935223512166 0 158.54935223512166 -252.19845807367074 0 0 0 0 140.06126127467996 1.9748880719848785 0 1.9748880719848785 -67.97873803906441 0 0 0 0 404.51202512326563 325.15760831803527 0 325.15760831803527 94.646880490867261 0 0 0 0 255.18253030938467 34.670033834037895 0 34.670033834037895 -65.459079539211416 0 0 0 0 66.45253380856775 144.7960348367269 0 144.7960348367269 57.401462422902341 0 0 0 0 84.235554915172543 30.049514075508341 0 30.049514075508341 37.28467448362062 0 0 0 0 71.100296202551135 -37.403145780119075 0 -37.403145780119075 -52.872508692436895 0 0 0 0 -9.7611687377097951 148.1960131189478 0 148.1960131189478 -72.162856295973143 0 0 0 0 83.553864988663918 -37.620842922809061 0 -37.620842922809061 -47.533684134938085 0 0 0 0 67.05046922985639 18.301848038563094 0 18.301848038563094 -147.50184288638684 0 0 0 0 4.2358528827274782 1.303702632418803 0 1.303702632418803 0.12151618338929815 0 0 0 0 164.04575635886795 -47.537846199970772 0 -47.537846199970772 -178.17950980824526 0 0 0 0 2.3340619958090585 0.71910875732700852 0 0.71910875732700852 0.0084510561451018873 0 0 0 0 328.47093638398837 313.25872814280865 0 313.25872814280865 49.732830483877478 0 0 0 0 213.75041988201303 162.70443261395377 0 162.70443261395377 96.9669669675568 0 0 0 0 330.09094674980042 298.69238972806852 0 298.69238972806852 -9.1459015631749025 0 0 0 0 410.63469492577588 154.7372606186666 0 154.7372606186666 -82.526767167100843 0 0 0 0 53.795153823186411 90.684510713404052 0 90.684510713404052 -4.8116497302607968 0 0 0 0 218.50430208997295 102.21955558352829 0 102.21955558352829 -96.36459128797469 0 0 0 0 162.51226033800776 183.14841347642323 0 183.14841347642323 -28.189085412987879 0 0 0 0 298.03304435891732 220.790835393218 0 220.790835393218 -17.849286112750633 0 0 0 0 218.5105124544607 113.76485805094353 0 113.76485805094353 41.634461842247219 0 0 0 0 234.82150538478891 165.64083443777054 0 165.64083443777054 13.899654103630382 0 0 0 0 0.63906882529227005 44.723721568383553 0 44.723721568383553 -15.434595111168164 0 0 0 0 -105.11822754779132 126.37761202071306 0 126.37761202071306 108.32673038687426 0 0 0 0 -65.372819117255858 68.529061946664569 0 68.529061946664569 114.8539124718709 0 0 0 0 47.854003565484163 121.45626209188868 0 121.45626209188868 82.508714357773897 0 0 0 0 130.9444271696766 149.79464834748069 0 149.79464834748069 93.104577671069819 0 0 0 0 -63.655842166886941 45.187750903013693 0 45.187750903013693 114.81112306350269 0 0 0 0 51.057194775692551 121.37539024059788 0 121.37539024059788 100.57743838493116 0 0 0 0 22.724712377710603 92.737408587800928 0 92.737408587800928 105.82751595660193 0 0 0 0 30.996927309235616 90.347573761083368 0 90.347573761083368 90.150615763385304 0 0 0 0 114.1024153078215 156.90231523772491 0 156.90231523772491 61.738131324251299 0 0 0 0 243.32571432127952 13.021126100537003 0 13.021126100537003 88.442142130902312 0 0 0 0 268.66067517534066 15.690976562010292 0 15.690976562010292 82.50541115795204 0 0 0 0 397.85725127878686 108.93369073252688 0 108.93369073252688 24.04455204758051 0 0 0 0 430.0761780512039 108.47243250795327 0 108.47243250795327 22.087607710884186 0 0 0 0 2.1640841647976075 0.56043637249793932 0 0.56043637249793932 -0.3881775265794829 0 0 0 0 -0.96832421699818383 0.67711806422761356 0 0.67711806422761356 0.3037966144936135 0 0 0 0 -4.992988507149704 2.7752895902785397 0 2.7752895902785397 1.061129411663444 0 0 0 0 69.30972381231868 64.68962396184952 0 64.68962396184952 139.79465682437876 0 0 0 0 17.393897828651461 154.8821051031573 0 154.8821051031573 246.31936481043886 0 0 0 0 224.9391691369965 89.453835850014002 0 89.453835850014002 128.99156661518828 0 0 0 0 117.34658295323607 103.7950231709583 0 103.7950231709583 147.05029580705468 0 0 0 0 203.12267381579841 26.016682044216395 0 26.016682044216395 153.62348184270741 0 0 0 0 205.50607617709102 69.607957822809112 0 69.607957822809112 224.24915686500572 0 0 0 0 0.037107818995835373 0.16946004947462256 0 0.16946004947462256 0.25330836315222172 0 0 0 0 268.90456761669338 73.605343311625802 0 73.605343311625802 1.7034119774871215 0 0 0 0 153.79748402955011 72.372740539073448 0 72.372740539073448 188.21383683957902 0 0 0 0 158.5666714478391 115.42267770878459 0 115.42267770878459 98.075781577310408 0 0 0 0 128.67260276507295 84.408538551630954 0 84.408538551630954 66.90122497800985 0 0 0 0 120.32211513055472 114.23645985792541 0 114.23645985792541 122.15306595317088 0 0 0 0 74.517410624301192 106.04558292602087 0 106.04558292602087 121.00774126504621 0 0 0 0 87.988219296500574 85.135699737209961 0 85.135699737209961 67.50181679481102 0 0 0 0 86.784768491877912 46.651940249521431 0 46.651940249521431 0.59149243995852885 0 0 0 0 167.23797676484082 21.239242313280101 0 21.239242313280101 -24.514567889760656 0 0 0 0 103.74572590124444 -3.3061608806092408 0 -3.3061608806092408 -11.858000885274123 0 0 0 0 133.02133404859069 -31.300030213879381 0 -31.300030213879381 -47.406646196668589 0 0 0 0 1.9426857863308769 0.51616266113323306 0 0.51616266113323306 0.13976774491508337 0 0 0 0 147.22069114404621 -60.797327877257885 0 -60.797327877257885 -37.353313523923134 0 0 0 0 0.86063110119539488 141.99734741649536 0 141.99734741649536 136.65478453253854 0 0 0 0 31.920182618696344 -72.857380910185384 0 -72.857380910185384 -9.0269031225352592 0 0 0 0 -0.30980941275811347 -19.855462078812252 0 -19.855462078812252 -26.629849164273764 0 0 0 0 57.844606032482261 -38.651992161749149 0 -38.651992161749149 -33.355920300402431 0 0 0 0 62.139537644536176 -32.4260459694151 0 -32.4260459694151 -70.708790923099514 0 0 0 0 80.504477979615331 -51.36190270735915 0 -51.36190270735915 -51.193183506935384 0 0 0 0 26.404879643989261 -18.968495654546132 0 -18.968495654546132 -69.605376328740022 0 0 0 0 88.875544924281712 -22.175514678992386 0 -22.175514678992386 -160.17220701032238 0 0 0 0 112.41879956956836 29.952831017546941 0 29.952831017546941 -45.948371531296289 0 0 0 0 36.430274943940049 18.341362796010969 0 18.341362796010969 -268.24409587917035 0 0 0 0 4.3784428481922077 -24.481705072757904 0 -24.481705072757904 -160.1679511261874 0 0 0 0 66.953845949434253 -0.84251663333179749 0 -0.84251663333179749 -252.74901797338862 0 0 0 0 -6.0066427070269128 -19.27473014046609 0 -19.27473014046609 -253.01539052174303 0 0 0 0 51.887060222542459 4.5030586811958528 0 4.5030586811958528 -279.58820864666086 0 0 0 0 35.873488885534904 -23.452108181419689 0 -23.452108181419689 -9.4305555787606625 0 0 0 0 133.81583762253285 165.07777908608841 0 165.07777908608841 209.87327661409654 0 0 0 0 31.178176761735813 -74.893348777022766 0 -74.893348777022766 -338.26866930914366 0 0 0 0 9.5072166077110118 0.22801005121825924 0 0.22801005121825924 -1.5739393385393932 0 0 0 0 16.735030979959014 4.6339169598762204 0 4.6339169598762204 0.5549839726734751 0 0 0 0 38.787985147572272 57.607352641058085 0 57.607352641058085 -301.24736161358942 0 0 0 0 14.458037683720477 2.6835706895473095 0 2.6835706895473095 0.0044902276058564894 0 0 0 0 13.371338112009788 2.1399208788362181 0 2.1399208788362181 0.22182601112674583 0 0 0 0 33.558926541063556 -24.700273118774021 0 -24.700273118774021 -236.50571946889613 0 0 0 0 14.395106769472477 4.5922388889739523 0 4.5922388889739523 18.890496796959269 0 0 0 0 27.081556817845922 16.532257843856314 0 16.532257843856314 -174.62148659041668 0 0 0 0 56.410345077470993 2.2197884997199253 0 2.2197884997199253 -87.326744576072997 0 0 0 0 60.334693025192792 55.215439683757495 0 55.215439683757495 -173.84007023590311 0 0 0 0 72.618546260488984 2.501531977641207 0 2.501531977641207 -173.4881760133394 0 0 0 0 38.084846064142766 -13.397100129957835 0 -13.397100129957835 -95.954017114396265 0 0 0 0 65.947695227478107 2.2158792771624576 0 2.2158792771624576 -24.020239180977285 0 0 0 0 89.276506615702601 9.5527415922497312 0 9.5527415922497312 -92.137417817533787 0 0 0 0 84.686467438757973 -8.7612358572296216 0 -8.7612358572296216 -61.752740503396126 0 0 0 0 71.732363652204413 15.929734560888733 0 15.929734560888733 -55.349742462280119 0 0 0 0 76.707105924320103 67.866203067994718 0 67.866203067994718 -18.186468222094845 0 0 0 0 68.089791188862364 37.661161948811241 0 37.661161948811241 -17.915402543238997 0 0 0 0 41.824442292128879 95.659490557037316 0 95.659490557037316 70.204841195711197 0 0 0 0 56.506382672414475 37.411696746750749 0 37.411696746750749 -46.241006602682319 0 0 0 0 46.504975649027983 18.996388802253477 0 18.996388802253477 -159.79382148527475 0 0 0 0 19.44736730987006 82.971206372095367 0 82.971206372095367 -84.212335132477165 0 0 0 0 38.126179905622848 61.609492930384476 0 61.609492930384476 -32.969848073007597 0 0 0 0 -11.990647113392697 74.822585030043228 0 74.822585030043228 -196.27527825235211 0 0 0 0 28.746953586416566 -10.680962746040677 0 -10.680962746040677 -200.96466284827397 0 0 0 0 18.679360074947908 6.5157003983895265 0 6.5157003983895265 -0.78559165810429477 0 0 0 0 17.642096745009439 5.4548016936437307 0 5.4548016936437307 -0.004540688501947443 0 0 0 0 19.116487411036147 5.7580405000100932 0 5.7580405000100932 0.79809091022958789 0 0 0 0 54.224599286064404 75.086633156784046 0 75.086633156784046 -328.26032649696026 0 0 0 0 17.470307452502311 5.0687783355824649 0 5.0687783355824649 -0.82437530741390219 0 0 0 0 19.983708495618227 6.9134207289648018 0 6.9134207289648018 1.1365792326522408 0 0 0 0 16.144557931206691 10.430582401415904 0 10.430582401415904 -2.9467752338332502 0 0 0 0 18.811722011378151 6.8392661627221969 0 6.8392661627221969 0.0053180718387011439 0 0 0 0 21.380022863131671 22.040909686076702 0 22.040909686076702 -222.51595442707185 0 0 0 0 2.9622682222507137 95.076639224832434 0 95.076639224832434 -118.32562176216197 0 0 0 0 35.371432014473612 68.173508180233512 0 68.173508180233512 -254.31797963543636 0 0 0 0 29.630462432720378 50.432353180586233 0 50.432353180586233 -89.811097896642877 0 0 0 0 12.277289534068586 83.88303647077305 0 83.88303647077305 95.123178119572913 0 0 0 0 -44.62728523493297 31.548725218699019 0 31.548725218699019 12.072067397919454 0 0 0 0 -22.063212494149411 75.764887415817611 0 75.764887415817611 29.261748080116377 0 0 0 0 11.962984024787147 96.00931780857718 0 96.00931780857718 40.29286344184311 0 0 0 0 173.79434795798807 191.2906183854393 0 191.2906183854393 -65.623355402984089 0 0 0 0 -12.884036641531566 128.46554013016885 0 128.46554013016885 303.34390519352928 0 0 0 0 -0.15059552827997891 -0.14554544427659266 0 -0.14554544427659266 0.55038263580103575 0 0 0 0 88.3680925820845 171.28136570350307 0 171.28136570350307 117.58393550890014 0 0 0 0 40.614927597189308 -78.251809917034734 0 -78.251809917034734 -200.90111547274864 0 0 0 0 108.05545560354949 76.258755325313359 0 76.258755325313359 73.188949690998925 0 0 0 0 56.221128414686518 95.847377184498555 0 95.847377184498555 164.98121511597856 0 0 0 0 63.969713243488513 90.449668311169717 0 90.449668311169717 73.380052016091213 0 0 0 0 69.373660654902778 78.37492740061316 0 78.37492740061316 83.792504613643359 0 0 0 0 82.963501938880654 117.89870785852872 0 117.89870785852872 128.84681484068096 0 0 0 0 82.262150542050222 122.41230218478995 0 122.41230218478995 123.83143824204672 0 0 0 0 71.648082762219929 138.14756999553902 0 138.14756999553902 155.63771545238365 0 0 0 0 -99.389088749067014 -204.69376589869626 0 -204.69376589869626 383.91413766486221 0 0 0 0 -2.8784229714003047 0.27579705381257469 0 0.27579705381257469 1.6911022444443731 0 0 0 0 -126.16417854416522 -83.721081821302505 0 -83.721081821302505 -37.788723992111045 0 0 0 0 167.68580633950842 199.34181585173155 0 199.34181585173155 -107.13251136980034 0 0 0 0 88.098490633052279 124.74988980912258 0 124.74988980912258 137.73584364515773 0 0 0 0 4.6982754646342073 54.209412479649473 0 54.209412479649473 32.628594643879296 0 0 0 0 16.802085080795223 21.16010839136834 0 21.16010839136834 0.91843804497011661 0 0 0 0 26.214699943437154 16.105167476403949 0 16.105167476403949 -1.1311860533228355 0 0 0 0 38.182986269001049 -4.402291560434378 0 -4.402291560434378 2.9529491776811483 0 0 0 0 -22.297362157574753 -7.0266696532080459 0 -7.0266696532080459 15.789896961638078 0 0 0 0 -169.83603078998749 141.06266832293204 0 141.06266832293204 13.923878930414503 0 0 0 0 0.49363342353139572 0.99236237284078754 0 0.99236237284078754 -1.9924208416868225 0 0 0 0 107.53558048072773 29.231581716671826 0 29.231581716671826 -8.4733695737922972 0 0 0 0 16.184181546210311 46.99914482485292 0 46.99914482485292 -35.033565353294989 0 0 0 0 6.8436752942734387 6.728694372957599 0 6.728694372957599 7.2091445388331081 0 0 0 0 2.051527668277231 6.6693668388720653 0 6.6693668388720653 44.508537057574358 0 0 0 0 22.376176609326649 -31.879986817159988 0 -31.879986817159988 95.572789518006175 0 0 0 0 -25.661777599219931 62.43716390440386 0 62.43716390440386 155.56516993674086 0 0 0 0 2.5238227883693298 2.2083086370114993 0 2.2083086370114993 2.2735926402209046 0 0 0 0 21.179732038121244 -84.318583049460798 0 -84.318583049460798 273.90922321326252 0 0 0 0 137.25086163758533 -64.174950636068388 0 -64.174950636068388 -3.6154098030135629 0 0 0 0 -40.422843386406385 157.75330059086173 0 157.75330059086173 -20.639394476693269 0 0 0 0 -2.9875974674132664 0.19271218500426102 0 0.19271218500426102 0.047053884021988068 0 0 0 0 -64.998126799557213 28.505420516944469 0 28.505420516944469 55.638905417537899 0 0 0 0 21.480941665844512 30.441975259081573 0 30.441975259081573 -7.5455560730888465 0 0 0 0 -4.5676838620586295 22.999873999726731 0 22.999873999726731 -1.5855569479736005 0 0 0 0 8.5194019282807858 34.488348052817855 0 34.488348052817855 -54.852891309814368 0 0 0 0 91.184938340140434 75.031381497263737 0 75.031381497263737 -36.739961062016846 0 0 0 0 23.333345982939136 10.895664607660365 0 10.895664607660365 -1.3285199882720917 0 0 0 0 0.59783512310831632 0.66274642183741861 0 0.66274642183741861 -5.2107815508129498 0 0 0 0 17.644046067085583 -1.5708023956894976 0 -1.5708023956894976 7.4579256167298809 0 0 0 0 4.9291093311094301 13.197351344996605 0 13.197351344996605 -3.2393065651476718 0 0 0 0 24.549976396671809 10.708251254975039 0 10.708251254975039 -7.8730826188639185 0 0 0 0 37.577535134554182 1.0805137321763141 0 1.0805137321763141 -8.2466177879687166 0 0 0 0 16.600962220500151 1.8135060960503324 0 1.8135060960503324 -6.0080451287271899 0 0 0 0 15.862628405337091 2.56311858467825 0 2.56311858467825 -6.6892866114849312 0 0 0 0 18.559281608822857 4.6706104736940688 0 4.6706104736940688 -6.4794215263755177 0 0 0 0 13.432209274251363 4.0343994201880378 0 4.0343994201880378 -6.4725445001809021 0 0 0 0 40.037014382819507 17.460838682899293 0 17.460838682899293 -3.601729752132087 0 0 0 0 5.3690255703358538 5.6911225404243488 0 5.6911225404243488 -3.5232769303437976 0 0 0 0 1.9736408943936112 7.7616767393801638 0 7.7616767393801638 -4.5641911884349611 0 0 0 0 15.464956389835606 2.2455097667452719 0 2.2455097667452719 -6.9280657077988508 0 0 0 0 8.4809711873778255 1.4682165209050062 0 1.4682165209050062 -2.8688457982581852 0 0 0 0 159.64348278420584 -157.57662917385369 0 -157.57662917385369 298.54660990432649 0 0 0 0 1.0558719665975929 -0.46392810317190225 0 -0.46392810317190225 -0.6293785518124384 0 0 0 0 359.18922761950307 50.879866531739026 0 50.879866531739026 7.4199962858051549 0 0 0 0 230.3883231271102 -125.65680102851684 0 -125.65680102851684 -85.80657094423259 0 0 0 0 1.3136987902791386 -0.098288631934110526 0 -0.098288631934110526 -6.8577403089874451 0 0 0 0 139.62642320148007 -233.84742306587304 0 -233.84742306587304 -213.12828131924834 0 0 0 0 15.335024486072825 112.89686752954441 0 112.89686752954441 -134.389935325853 0 0 0 0 98.576242968803854 167.20983264725692 0 167.20983264725692 -452.75472953242479 0 0 0 0 -151.80286501549563 118.72194592059213 0 118.72194592059213 -40.982663326723923 0 0 0 0 293.99124282950652 74.163211748845697 0 74.163211748845697 -42.976787542482271 0 0 0 0 66.711708203620219 208.11635031018068 0 208.11635031018068 -66.800554575382193 0 0 0 0 69.498409837276995 58.43471427651366 0 58.43471427651366 112.20087377097389 0 0 0 0 284.7335923615683 -90.516064924515376 0 -90.516064924515376 161.99728705306927 0 0 0 0 40.742629718879471 135.44532715167952 0 135.44532715167952 203.1419211948687 0 0 0 0 140.88858488257938 69.611536251078178 0 69.611536251078178 35.688159401230223 0 0 0 0 59.276338051604398 39.324244908123546 0 39.324244908123546 61.792178669265013 0 0 0 0 251.85756380029488 75.058964765630208 0 75.058964765630208 20.941312959339484 0 0 0 0 193.43010734415293 61.366261154258609 0 61.366261154258609 24.90925504187453 0 0 0 0 1.1955911974287297 0.57608534751073037 0 0.57608534751073037 0.49496489607812322 0 0 0 0 304.86770752630946 18.497659939797359 0 18.497659939797359 -10.10729829153297 0 0 0 0 -4.9078692524026337 23.721112331445966 0 23.721112331445966 -38.329479717995127 0 0 0 0 80.194915171461616 85.091973127220626 0 85.091973127220626 3.018387315196378 0 0 0 0 210.83807865658764 118.17695939441251 0 118.17695939441251 -85.682967364029537 0 0 0 0 226.13978099400811 76.352888463827867 0 76.352888463827867 -7.6123012398966239 0 0 0 0 205.93551531883713 95.221573118062224 0 95.221573118062224 -16.050324697765063 0 0 0 0 147.46130751773671 147.7741218875708 0 147.7741218875708 116.98131878973982 0 0 0 0 147.48847200813179 147.41099697888239 0 147.41099697888239 27.84272600526856 0 0 0 0 82.650869524699374 191.20381185988299 0 191.20381185988299 0.96013744673837209 0 0 0 0 -23.056090115863299 16.222834150166591 0 16.222834150166591 -4.2152651810138195 0 0 0 0 161.40979893882104 70.388282986320519 0 70.388282986320519 28.575067379708344 0 0 0 0 -4.4860218207245275 6.6301284524885595 0 6.6301284524885595 -5.1879286042782695 0 0 0 0 146.03443695389433 264.40178505994481 0 264.40178505994481 100.33748977068171 0 0 0 0 -15.681583654293718 8.3518518350783779 0 8.3518518350783779 1.8793452695144879 0 0 0 0 -9.3322832156119375 4.0702540719924798 0 4.0702540719924798 1.8058121056610617 0 0 0 0 8.4289143490314018 3.6149358893867429 0 3.6149358893867429 -4.2552623100768869 0 0 0 0 7.0794247248704778 -24.641736905174866 0 -24.641736905174866 -46.589832629500052 0 0 0 0 2.5210921761330987 6.6513007576855205 0 6.6513007576855205 2.8489520377798456 0 0 0 0 0.74262728346162632 1.9830428377685472 0 1.9830428377685472 -2.0980109260356699 0 0 0 0 -1.2545828345083656 7.1123483063432751 0 7.1123483063432751 -13.571410332988521 0 0 0 0 5.5205261855026038 54.462895156579862 0 54.462895156579862 -30.446796698145135 0 0 0 0 163.65770647864883 182.49619113839026 0 182.49619113839026 48.59056878919364 0 0 0 0 350.91565678123516 93.350480674933351 0 93.350480674933351 106.93022558399025 0 0 0 0 154.74470678573925 189.43447919479013 0 189.43447919479013 66.571651018834928 0 0 0 0 79.001964652587048 163.24997573626206 0 163.24997573626206 82.290474477304087 0 0 0 0 35.859818784982053 12.826970789687493 0 12.826970789687493 -18.226300348840425 0 0 0 0 -62.586996871581505 107.95866770729276 0 107.95866770729276 -23.920897645531227 0 0 0 0 33.122698797633348 113.15584882234907 0 113.15584882234907 109.21391601677351 0 0 0 0 28.789622140768188 87.811479477026296 0 87.811479477026296 80.009922840473337 0 0 0 0 55.417154009970545 91.763375921293118 0 91.763375921293118 107.45707168939521 0 0 0 0 37.114860928944836 109.70620766887532 0 109.70620766887532 93.027095231856947 0 0 0 0 -8.6306955706395456 77.19458020017646 0 77.19458020017646 87.910436856329397 0 0 0 0 18.628269539985922 151.89673923635928 0 151.89673923635928 69.71619171207476 0 0 0 0 146.29676719298732 109.62853620524675 0 109.62853620524675 64.633064833231401 0 0 0 0 91.934437173757033 152.02315962578109 0 152.02315962578109 30.116108208309015 0 0 0 0 31.671330475404829 62.939817733598375 0 62.939817733598375 32.215577852235583 0 0 0 0 53.73522088748723 96.184280610129463 0 96.184280610129463 65.603552948925426 0 0 0 0 -104.93380690609411 -14.652457322694318 0 -14.652457322694318 -9.868317760003265 0 0 0 0 92.843085473672545 67.899754913666584 0 67.899754913666584 24.100875781200557 0 0 0 0 33.694296049568948 205.44726741401155 0 205.44726741401155 -193.2672532425504 0 0 0 0 47.125601821313467 125.66579461242873 0 125.66579461242873 35.192044075947479 0 0 0 0 -55.382260769423738 228.33003076540558 0 228.33003076540558 -67.434797837144288 0 0 0 0 -5.0221624731320844 -31.087920243998724 0 -31.087920243998724 -35.772422577476391 0 0 0 0 61.15707838583694 3.1413074475130998 0 3.1413074475130998 -200.12031448706921 0 0 0 0 1.4373399907262865 57.847663779164122 0 57.847663779164122 -262.02489681362385 0 0 0 0 0.62636080151937534 1.8842912949268324 0 1.8842912949268324 -1.5704376830201614 0 0 0 0 -111.023670441793 172.54638132725222 0 172.54638132725222 -187.34690516326009 0 0 0 0 1.9616307356700595 0.097589301973094678 0 0.097589301973094678 -2.808545793163276 0 0 0 0 140.48504587640036 81.617270420792238 0 81.617270420792238 -268.36387354209 0 0 0 0 36.81116945568192 -52.007764304772991 0 -52.007764304772991 -391.44839357501769 0 0 0 0 -0.23804853570117501 -0.041820521611693806 0 -0.041820521611693806 -0.1344716394177059 0 0 0 0 41.062499588777428 183.28499699616168 0 183.28499699616168 99.779482305399142 0 0 0 0 11.03002344113338 75.981727764377865 0 75.981727764377865 -540.29891880579362 0 0 0 0 23.462558214525416 142.14463497951192 0 142.14463497951192 -207.36420308068409 0 0 0 0 -0.032119521547429031 15.451477267944938 0 15.451477267944938 -101.43407708759696 0 0 0 0 2.2716837840780499 152.97396548522647 0 152.97396548522647 -55.074114396458299 0 0 0 0 24.715491494436719 75.480945432952467 0 75.480945432952467 11.685342281731209 0 0 0 0 63.531458575256693 127.35751750501004 0 127.35751750501004 -9.6193304082962641 0 0 0 0 2.2014300570985839 0.71547908189471165 0 0.71547908189471165 -0.065059563501834283 0 0 0 0 87.675903473344533 107.49593338590876 0 107.49593338590876 6.6232077540244063 0 0 0 0 56.635500020965992 106.84548795538694 0 106.84548795538694 59.798754261386421 0 0 0 0 43.899598363186669 133.62558312902183 0 133.62558312902183 32.501311620986598 0 0 0 0 45.94734408342083 123.13889242824524 0 123.13889242824524 14.344296050765479 0 0 0 0 14.233789767149574 121.14916502134702 0 121.14916502134702 20.543142238843757 0 0 0 0 15.74441965979895 152.7526621713705 0 152.7526621713705 64.166050495891795 0 0 0 0 18.351615687553931 117.64104969152913 0 117.64104969152913 113.71273430887322 0 0 0 0 33.017444614910346 121.40018342254552 0 121.40018342254552 70.223810485371359 0 0 0 0 43.850748085194937 106.0019566833812 0 106.0019566833812 75.915521510556403 0 0 0 0 -1.5251538983215625 1.2506507825506041 0 1.2506507825506041 -0.12930494447587648 0 0 0 0 30.023632432157683 79.066985235532229 0 79.066985235532229 95.349158736856225 0 0 0 0 43.238510856932407 10.584973799343004 0 10.584973799343004 49.742048301293835 0 0 0 0 -0.70842262346181428 0.60381382254204397 0 0.60381382254204397 -0.11907402292413138 0 0 0 0 -105.83828460354107 35.158322658079896 0 35.158322658079896 54.284806514272532 0 0 0 0 121.45205466803964 105.04721842032905 0 105.04721842032905 -67.844801795075909 0 0 0 0 -21.493195420706797 -0.69700369325187239 0 -0.69700369325187239 91.424819124898931 0 0 0 0 61.473928096953387 48.797334409980522 0 48.797334409980522 -188.50397128354052 0 0 0 0 -67.281672135235567 136.77870617140798 0 136.77870617140798 -208.79750136695861 0 0 0 0 -65.535532392557798 106.18392153700188 0 106.18392153700188 -54.030209730102342 0 0 0 0 -6.4470876980240064 30.598678634985845 0 30.598678634985845 -111.7539599959573 0 0 0 0 35.032514753951546 138.64161101890295 0 138.64161101890295 -223.00760430936043 0 0 0 0 5.7667803952437282 2.9395755980295588 0 2.9395755980295588 0.58847997915740535 0 0 0 0 6.5720241168273787 -9.6758475556571284 0 -9.6758475556571284 -98.370493811446295 0 0 0 0 40.889336501655634 167.56424334428721 0 167.56424334428721 -189.32990612752292 0 0 0 0 -34.575886906146479 75.415852293172065 0 75.415852293172065 -211.42295954963834 0 0 0 0 -4.449703883337861 45.821920752482583 0 45.821920752482583 -147.94873743718563 0 0 0 0 1.3995961131082169 0.087842189461264653 0 0.087842189461264653 -1.7704259541334793 0 0 0 0 -125.16089849694436 86.841970387699803 0 86.841970387699803 -135.50534129475272 0 0 0 0 -118.6510250057496 164.00003882183145 0 164.00003882183145 -122.29458625089865 0 0 0 0 -77.28349566554607 124.36882018887445 0 124.36882018887445 -107.5311306782296 0 0 0 0 -13.598329990390994 88.564201909277017 0 88.564201909277017 -115.67818508477467 0 0 0 0 -71.087166724104463 147.59788538608018 0 147.59788538608018 -112.10701058965242 0 0 0 0 -0.16806680173613131 100.53185198893743 0 100.53185198893743 -59.861580410888564 0 0 0 0 -5.1071051596481993 75.08557933497832 0 75.08557933497832 -121.11163560172099 0 0 0 0 47.43200011337467 29.200554927476333 0 29.200554927476333 -43.08781758996156 0 0 0 0 62.371969918563991 52.58582712214411 0 52.58582712214411 -94.186095550604023 0 0 0 0 59.213277806256883 62.238926642965453 0 62.238926642965453 -80.858168650196603 0 0 0 0 19.868521974965915 45.531635452663977 0 45.531635452663977 -72.771714107073421 0 0 0 0 -0.3618390076153446 103.58154132295749 0 103.58154132295749 -100.63315669764313 0 0 0 0 16.455882383725111 106.32033205938569 0 106.32033205938569 -192.72146850264289 0 0 0 0 56.174761437763664 73.425108884287511 0 73.425108884287511 -121.29491623569174 0 0 0 0 11.144236064120378 119.85757562626441 0 119.85757562626441 -80.129710928031272 0 0 0 0 58.036369501085574 50.251401476863066 0 50.251401476863066 24.602152224763813 0 0 0 0 54.638443828104755 82.459429096405984 0 82.459429096405984 -56.990850883043095 0 0 0 0 57.490843599982327 31.983035966584794 0 31.983035966584794 6.9188960667661377 0 0 0 0 57.720645061446703 32.146815886446348 0 32.146815886446348 -22.382538326317444 0 0 0 0 97.919890834957187 -10.448231908321759 0 -10.448231908321759 -13.695220749806367 0 0 0 0 65.679916014074479 7.6091043362011987 0 7.6091043362011987 -15.747890685821403 0 0 0 0 87.567571852534456 24.347631377475409 0 24.347631377475409 -22.714700357074946 0 0 0 0 81.056678234224819 25.856585514419749 0 25.856585514419749 -62.529653655429115 0 0 0 0 82.310688190609653 33.292181563382201 0 33.292181563382201 -37.834726539420444 0 0 0 0 102.73946362870629 14.092345002224647 0 14.092345002224647 -47.241260526035603 0 0 0 0 94.392873287935117 3.3187504212332328 0 3.3187504212332328 -25.226922311705493 0 0 0 0 158.9784857114355 26.154769762721116 0 26.154769762721116 -17.167341636741185 0 0 0 0 90.912775921893626 -12.223907440878065 0 -12.223907440878065 -12.96081487403535 0 0 0 0 4.3884767779437617 5.7766983329966539 0 5.7766983329966539 -1.960098750340606 0 0 0 0 118.7725422574058 -27.856555881174245 0 -27.856555881174245 -8.0932408081735048 0 0 0 0 85.47446486273293 -64.149835792414251 0 -64.149835792414251 56.64036251055677 0 0 0 0 3.5868953016549483 6.009055498338908 0 6.009055498338908 -0.75657318197902867 0 0 0 0 210.72060253505697 -20.932383636763916 0 -20.932383636763916 -8.6663574434114707 0 0 0 0 -13.97133711591232 10.708301441261028 0 10.708301441261028 3.2309264559062285 0 0 0 0 97.244707878671761 44.046924213158491 0 44.046924213158491 16.171078327084615 0 0 0 0 196.76608457831162 84.833790922514311 0 84.833790922514311 31.354271545962547 0 0 0 0 35.720350952141416 69.806351150602495 0 69.806351150602495 95.048308324262507 0 0 0 0 50.561635933216166 72.413052290105043 0 72.413052290105043 92.857298912470469 0 0 0 0 103.54706334838465 56.189491814916892 0 56.189491814916892 30.056283777597855 0 0 0 0 -0.67066026701645853 0.62482205311408379 0 0.62482205311408379 0.12047854280029213 0 0 0 0 78.317569632330333 12.027278393239044 0 12.027278393239044 -41.383621030066934 0 0 0 0 40.475763455408014 41.934655176028173 0 41.934655176028173 76.517638021721723 0 0 0 0 91.762855355492093 43.720522298774398 0 43.720522298774398 -39.262473921044148 0 0 0 0 62.332904804497957 7.5900604688213207 0 7.5900604688213207 1.6169183492438606 0 0 0 0 -141.31793679725888 77.177647203484412 0 77.177647203484412 -24.238500814592044 0 0 0 0 -183.3231751282583 200.59348973008673 0 200.59348973008673 -198.86923296284294 0 0 0 0 -0.69011212251581355 0.52048353456401486 0 0.52048353456401486 -0.023954695957410621 0 0 0 0 51.428551917294499 146.50723531597305 0 146.50723531597305 -98.846307207944847 0 0 0 0 -182.45671880589362 111.9845220651996 0 111.9845220651996 48.007928830160381 0 0 0 0 37.155443132580785 48.767867487714909 0 48.767867487714909 103.8554519360714 0 0 0 0 -185.68238050320724 27.872525878938177 0 27.872525878938177 107.6465916457737 0 0 0 0 -231.29597245903415 207.78849323548684 0 207.78849323548684 118.96160628022699 0 0 0 0 46.475439729872051 239.07451856336684 0 239.07451856336684 119.49689558754471 0 0 0 0 206.61035496265094 281.58532335223765 0 281.58532335223765 69.834431808620138 0 0 0 0 117.7061031117828 131.39108608773222 0 131.39108608773222 137.32336736284196 0 0 0 0 37.362142804562609 181.29532042719438 0 181.29532042719438 37.222543100649091 0 0 0 0 317.1152939292424 46.687373782826853 0 46.687373782826853 -37.156794564852134 0 0 0 0 1.8154412111737024 1.715812980189682 0 1.715812980189682 0.85748655919883632 0 0 0 0 61.090193162863216 83.371763922911668 0 83.371763922911668 -21.101809304507697 0 0 0 0 127.56163012842808 55.558379800838338 0 55.558379800838338 -52.199482657935732 0 0 0 0 52.569066948151885 28.025308779397164 0 28.025308779397164 -34.431816348297502 0 0 0 0 117.56922127723556 146.80870347427981 0 146.80870347427981 48.681600779932523 0 0 0 0 62.691593691522257 84.4877791952389 0 84.4877791952389 3.4228316921617079 0 0 0 0 99.929525814592125 98.348742749271878 0 98.348742749271878 -21.725676734893568 0 0 0 0 8.4067568750506325 56.818278400645795 0 56.818278400645795 -11.610742024675574 0 0 0 0 63.456844331440152 61.97097486635721 0 61.97097486635721 -60.039893081830996 0 0 0 0 -64.459402194625 48.818572364400097 0 48.818572364400097 -10.60469745821581 0 0 0 0 8.1829992224429589 62.980625847115789 0 62.980625847115789 -78.141973202500594 0 0 0 0 4.0354812789555439 3.9911225097427927 0 3.9911225097427927 2.1662792921273208 0 0 0 0 -17.07269971914593 52.871084910661125 0 52.871084910661125 -10.267675721316664 0 0 0 0 -229.76036695112634 210.82537611107546 0 210.82537611107546 -178.65506799676677 0 0 0 0 -10.843999068034464 38.838922094558257 0 38.838922094558257 -6.1450759835061035 0 0 0 0 -89.682514100299159 211.17426757153953 0 211.17426757153953 -110.37894949155725 0 0 0 0 -266.61786812628634 173.41630708436151 0 173.41630708436151 -77.535521651614545 0 0 0 0 5.8522443120937169 4.8858305932323063 0 4.8858305932323063 1.8416998705943506 0 0 0 0 -32.883617657051218 4.5726791145762036 0 4.5726791145762036 7.7265140438648814 0 0 0 0 -72.261990667866485 136.75462860714515 0 136.75462860714515 -147.30543432683771 0 0 0 0 -1.0744825885626454 0.4732113481914233 0 0.4732113481914233 0.25125849083457741 0 0 0 0 -30.997196837965021 96.549591852442063 0 96.549591852442063 -189.47089115606786 0 0 0 0 -97.741736394165855 71.123449911679927 0 71.123449911679927 -94.358642760389557 0 0 0 0 3.6223828186666651 27.577294983070715 0 27.577294983070715 -83.676030094129601 0 0 0 0 -46.890029305582175 10.078325087738449 0 10.078325087738449 -73.335140962204605 0 0 0 0 -20.242806921658484 9.7492439157340414 0 9.7492439157340414 -46.842281355877731 0 0 0 0 -39.287904862746473 0.13905370467955436 0 0.13905370467955436 -51.578329091494197 0 0 0 0 -12.620872669962409 13.755229602090367 0 13.755229602090367 -101.17863045769207 0 0 0 0 -11.024835734932822 -12.420774024833463 0 -12.420774024833463 -51.457207539443516 0 0 0 0 -35.817959309046273 52.833724114552297 0 52.833724114552297 -124.12238189169057 0 0 0 0 4.3121853641823691 31.563750945460924 0 31.563750945460924 -38.532821706185132 0 0 0 0 -27.396578738376775 -7.261934622184981 0 -7.261934622184981 25.411640972563873 0 0 0 0 -26.637306223930864 11.855845198668021 0 11.855845198668021 -47.527788812729341 0 0 0 0 37.324258634160287 36.030924767610941 0 36.030924767610941 11.763208813209985 0 0 0 0 66.268566955281131 59.347087205308071 0 59.347087205308071 0.45951861456524057 0 0 0 0 -60.538032878370359 50.055158875484267 0 50.055158875484267 3.4742499773155089 0 0 0 0 -76.097808008507855 13.505949726092695 0 13.505949726092695 1.5628241470387252 0 0 0 0 0.18590140239276209 0.82791692635333547 0 0.82791692635333547 -0.22459960435438475 0 0 0 0 -158.58610866704475 59.876004675897548 0 59.876004675897548 -12.464427046688797 0 0 0 0 202.34325436491258 55.138915503611258 0 55.138915503611258 -40.535873512710168 0 0 0 0 -45.445047590797913 60.924644987864667 0 60.924644987864667 -52.934373022299951 0 0 0 0 63.317099930636687 58.239658629973746 0 58.239658629973746 -63.866119149895894 0 0 0 0 0.19185515142862641 37.500165062824749 0 37.500165062824749 -40.015787910393556 0 0 0 0 76.419092471846852 38.459720186940103 0 38.459720186940103 -43.366037467199931 0 0 0 0 104.05833555023673 75.279992687126196 0 75.279992687126196 -49.007877647220994 0 0 0 0 114.09458238380194 42.506325584777187 0 42.506325584777187 25.656444083696442 0 0 0 0 141.17341404424769 37.219369586239736 0 37.219369586239736 -57.372154055916781 0 0 0 0 132.40894212464787 89.439861443396751 0 89.439861443396751 -93.904320475701752 0 0 0 0 131.10172602916828 81.630063860631253 0 81.630063860631253 -48.724773121008184 0 0 0 0 146.02427591561627 123.04139267858773 0 123.04139267858773 -65.239450110141661 0 0 0 0 32.039413275240804 44.09158497100816 0 44.09158497100816 -79.087643503484969 0 0 0 0 94.185622172793046 121.82395401264489 0 121.82395401264489 39.458703085734669 0 0 0 0 55.07572632073061 61.1688484827514 0 61.1688484827514 1.8281447581584871 0 0 0 0 -81.844190938165411 117.26618101877011 0 117.26618101877011 -13.72786272658689 0 0 0 0 -166.30111385025521 134.76200019326552 0 134.76200019326552 21.884275156483227 0 0 0 0 -67.639227992134693 182.72945478642259 0 182.72945478642259 35.922394211339906 0 0 0 0 -103.12116525251349 66.486601217866564 0 66.486601217866564 -81.163730396699975 0 0 0 0 0.67161252302365426 0.75821043981756375 0 0.75821043981756375 0.046897010262501482 0 0 0 0 0.054868887287739199 103.75994321250027 0 103.75994321250027 -92.785315467537657 0 0 0 0 -67.770615188008378 117.63639091056939 0 117.63639091056939 -13.727162224994379 0 0 0 0 -208.56922152827065 158.81537130832885 0 158.81537130832885 136.45292042099663 0 0 0 0 -73.487550330645945 75.394433510657336 0 75.394433510657336 -74.885263879563354 0 0 0 0 0.92638333550409513 1.2194336050915577 0 1.2194336050915577 0.2894655580007921 0 0 0 0 -127.73698911536849 135.50470781297372 0 135.50470781297372 -81.953345872079808 0 0 0 0 -78.764973724068113 123.40957377708946 0 123.40957377708946 -85.945523132871131 0 0 0 0 -105.0120535281294 172.54902120596171 0 172.54902120596171 -40.283694397809086 0 0 0 0 -0.68950765058022867 0.84015569623793596 0 0.84015569623793596 -0.16015772209484425 0 0 0 0 139.73915910156575 163.14041108529955 0 163.14041108529955 -70.64759324865895 0 0 0 0 -181.16132478499821 82.852652241650048 0 82.852652241650048 -46.621815591710401 0 0 0 0 -0.13875837506020616 43.855831079599284 0 43.855831079599284 -63.935262783806593 0 0 0 0 0.4868214150375394 0.65019524623757263 0 0.65019524623757263 -0.10898069412573363 0 0 0 0 -0.16427775350476434 144.85655404194245 0 144.85655404194245 133.55220386186375 0 0 0 0 156.50250109166154 132.33166808551277 0 132.33166808551277 49.216454664131334 0 0 0 0 104.97521623433477 78.108930039208417 0 78.108930039208417 59.461443561176566 0 0 0 0 -1.1793255972612187 1.5972099111614426 0 1.5972099111614426 -0.48557255934161958 0 0 0 0 151.79671981013644 250.53721751902162 0 250.53721751902162 79.296329385020726 0 0 0 0 -0.65184636942027652 0.95990833489480565 0 0.95990833489480565 0.006809864841812896 0 0 0 0 26.58705832733358 131.34107859192727 0 131.34107859192727 89.881118627131855 0 0 0 0 39.524311827372912 185.52807779439195 0 185.52807779439195 140.32934822603511 0 0 0 0 131.35163972721602 198.14538505831752 0 198.14538505831752 97.874157701414049 0 0 0 0 19.50288218246078 124.64555616064149 0 124.64555616064149 15.428181111665936 0 0 0 0 17.293138821913089 101.88148074483115 0 101.88148074483115 -20.212472014065952 0 0 0 0 0.1577348678256385 152.34020233134765 0 152.34020233134765 -24.10810489420146 0 0 0 0 31.920489341810026 105.28055893084388 0 105.28055893084388 29.507187459002125 0 0 0 0 12.780230319454859 117.96044079569401 0 117.96044079569401 13.087852204862429 0 0 0 0 19.741689084929021 126.26343308982837 0 126.26343308982837 22.195892066363967 0 0 0 0 9.3006808248383095 132.05887782545818 0 132.05887782545818 7.9568926676920455 0 0 0 0 -11.427282074519098 130.1443855327891 0 130.1443855327891 24.549205281882905 0 0 0 0 3.7369517944425752 132.74833962856133 0 132.74833962856133 0.20744913094631556 0 0 0 0 -5.3274923746976128 129.93638606814739 0 129.93638606814739 9.0620480065222182 0 0 0 0 1.7822924262418383 127.55071847496538 0 127.55071847496538 9.4365065641679848 0 0 0 0 18.558859695560386 109.61795479946591 0 109.61795479946591 26.363840188075301 0 0 0 0 -54.65094284998122 146.13600845648443 0 146.13600845648443 22.012365577118089 0 0 0 0 -3.8757497546721424 129.03237160478784 0 129.03237160478784 -1.2773393803613544 0 0 0 0 7.649209061176407 140.81812519682524 0 140.81812519682524 -6.0083613919268828 0 0 0 0 -2.7134885468458378 162.33974761793479 0 162.33974761793479 -17.073924581178744 0 0 0 0 -42.80151018050401 80.079141696697775 0 80.079141696697775 92.456225753485342 0 0 0 0 28.810054991141442 127.36461660197938 0 127.36461660197938 -59.143988153892224 0 0 0 0 -0.51956644667359342 0.321552876654561 0 0.321552876654561 0.15234476671533592 0 0 0 0 67.984904084372829 56.40743287991927 0 56.40743287991927 20.497425956968982 0 0 0 0 0.036921542450727429 69.167485969782774 0 69.167485969782774 70.548656104456313 0 0 0 0 75.748116187876803 98.816423103532543 0 98.816423103532543 -51.178892959953146 0 0 0 0 -0.51714821697594004 0.35069689705112239 0 0.35069689705112239 0.20894033196057649 0 0 0 0 26.677236195644582 32.707570769591712 0 32.707570769591712 -4.0887302795676987 0 0 0 0 0.042346745602117153 91.391515114469485 0 91.391515114469485 -86.636993239024378 0 0 0 0 -69.670935490486954 82.734992035244204 0 82.734992035244204 -73.385102217348503 0 0 0 0 -45.651006331776671 123.27898154801471 0 123.27898154801471 -114.59204792480614 0 0 0 0 -58.976919953052857 141.24922099778769 0 141.24922099778769 -92.638421205353382 0 0 0 0 1.1410023061096624 0.98006318617178412 0 0.98006318617178412 0.16841881508934264 0 0 0 0 -30.665438276913846 65.738614778201054 0 65.738614778201054 -107.97247992521807 0 0 0 0 -0.10347903132969805 68.287268192201736 0 68.287268192201736 -123.10641910722461 0 0 0 0 -87.602771039859363 124.14513709980946 0 124.14513709980946 89.410897471815588 0 0 0 0 0.64595215496155589 0.49915562966509963 0 0.49915562966509963 -0.063080752644218308 0 0 0 0 -71.733128647566446 73.782144057759808 0 73.782144057759808 -82.665931733299658 0 0 0 0 -0.29809137145457498 184.34155001778163 0 184.34155001778163 40.942464313063283 0 0 0 0 42.519058906225837 37.194212972049172 0 37.194212972049172 -19.452342027765553 0 0 0 0 -7.5757705180549237 77.925757509066898 0 77.925757509066898 22.519520534632875 0 0 0 0 47.694758610248755 137.24545302669571 0 137.24545302669571 9.3296032207813369 0 0 0 0 -77.459420022287304 94.715415709334593 0 94.715415709334593 -4.9565054499371399 0 0 0 0 18.746962746376084 88.7378633482233 0 88.7378633482233 -94.19865287311768 0 0 0 0 -17.097263988794111 62.373890874013796 0 62.373890874013796 -24.471131361420703 0 0 0 0 -1.2796458309021546 100.97025848972999 0 100.97025848972999 -126.8583647617229 0 0 0 0 -75.612976697768318 67.946975444624513 0 67.946975444624513 -95.007509523473345 0 0 0 0 -96.204409473824398 116.91713741493345 0 116.91713741493345 7.9180429772186471 0 0 0 0 0.69659931867089142 0.49688164505583288 0 0.49688164505583288 -0.096546648931534307 0 0 0 0 0.18154554082571028 0.92842100216739354 0 0.92842100216739354 -0.42749375158155445 0 0 0 0 -18.948360034261896 193.06028053961347 0 193.06028053961347 -24.109581005435757 0 0 0 0 16.625227526263188 142.54041245896042 0 142.54041245896042 -0.81018072498045512 0 0 0 0 223.10375419689717 103.12244205845894 0 103.12244205845894 -6.5951022573763112 0 0 0 0 9.1128321070318634 55.994128471188105 0 55.994128471188105 19.538471500170772 0 0 0 0 -203.51240886141204 104.77143913662894 0 104.77143913662894 -25.14960207803415 0 0 0 0 0.31032919003677328 1.5794958846640661 0 1.5794958846640661 -0.65084157985218383 0 0 0 0 -35.642389381247995 73.959978037659312 0 73.959978037659312 -21.955973674069355 0 0 0 0 33.046017138585739 58.478624118953292 0 58.478624118953292 -0.48201365588920453 0 0 0 0 -44.157489793868081 113.17701983723236 0 113.17701983723236 -3.3760670338006094 0 0 0 0 -74.984892067724331 42.971052517212854 0 42.971052517212854 2.9215372751350515 0 0 0 0 0.29796567592344303 1.4985536166881914 0 1.4985536166881914 -0.45189996537530419 0 0 0 0 -48.746077469091688 20.492344566924658 0 20.492344566924658 61.472783782994156 0 0 0 0 -81.216495547907471 59.390508282790051 0 59.390508282790051 53.790321835029999 0 0 0 0 -0.96985572671682974 0.7023216811398143 0 0.7023216811398143 0.19297052129635617 0 0 0 0 112.07991567662611 134.31896687662129 0 134.31896687662129 25.349545822934488 0 0 0 0 41.279654049403689 151.00174983014813 0 151.00174983014813 23.163173163575721 0 0 0 0 -1.574955997045322 140.29916978907954 0 140.29916978907954 33.325286432896064 0 0 0 0 17.167845581610891 110.25209311748722 0 110.25209311748722 4.6773119606923501 0 0 0 0 21.783308672396743 133.82039067349751 0 133.82039067349751 34.740280754207106 0 0 0 0 -4.9419021396415701 121.36264781132786 0 121.36264781132786 1.9098013757957233 0 0 0 0 10.712165168781212 114.7020603393546 0 114.7020603393546 -16.908578255914108 0 0 0 0 4.958214730329928 126.26677090920339 0 126.26677090920339 -10.162988302608028 0 0 0 0 -13.310524248321599 136.70926068325616 0 136.70926068325616 0.91886830902467409 0 0 0 0 -15.909978539662006 133.29735324415253 0 133.29735324415253 0.97052648499720817 0 0 0 0 -8.2700773978867801 137.71970082415601 0 137.71970082415601 -0.37188226551984371 0 0 0 0 -4.7662335425302444 124.4949620136224 0 124.4949620136224 -27.436993358291431 0 0 0 0 -11.951468876389299 133.88443201960263 0 133.88443201960263 3.4633776761870649 0 0 0 0 -13.749892634075877 130.0818594258767 0 130.0818594258767 -3.5010939025535208 0 0 0 0 -10.942149964675991 134.07236855681367 0 134.07236855681367 -0.58058327275875854 0 0 0 0 -10.369835240135217 128.58164721498497 0 128.58164721498497 -5.2329413498841859 0 0 0 0 -4.9135110441275174 131.58441882499574 0 131.58441882499574 -0.37381993999315455 0 0 0 0 -19.62438106872105 119.34819124246701 0 119.34819124246701 11.230026858954716 0 0 0 0 -17.602214232925689 117.12393219131468 0 117.12393219131468 -8.7137652619926484 0 0 0 0 -26.12728690592121 112.79716694173567 0 112.79716694173567 -6.6454494586546389 0 0 0 0 -22.240023432421367 111.72014761355922 0 111.72014761355922 -17.212738213616831 0 0 0 0 -29.536998914787546 89.267624759565138 0 89.267624759565138 -36.822018714300157 0 0 0 0 -35.93221921706936 98.695626631613322 0 98.695626631613322 -23.110347160052697 0 0 0 0 -22.738539559584751 99.903459799000643 0 99.903459799000643 -18.274693494809981 0 0 0 0 -18.822956337971846 120.90369613840403 0 120.90369613840403 -9.0867789502625556 0 0 0 0 -11.879309364856454 116.49514702305203 0 116.49514702305203 -16.740222872094819 0 0 0 0 -42.486192144357119 51.12015990240684 0 51.12015990240684 -30.546007933862256 0 0 0 0 -46.21392870231648 81.807604266431554 0 81.807604266431554 -29.545015295244411 0 0 0 0 -13.785675752336829 96.700537131499004 0 96.700537131499004 -32.801798701621919 0 0 0 0 -32.75947338016158 74.378764779959056 0 74.378764779959056 -26.82782210864525 0 0 0 0 -35.510923694836492 73.316034147596042 0 73.316034147596042 -43.418181512080992 0 0 0 0 -45.076873606445588 89.759741182022935 0 89.759741182022935 -27.054685593350086 0 0 0 0 -62.357911326618705 73.870183006781872 0 73.870183006781872 -39.020427859244592 0 0 0 0 -59.619843465072336 59.874680609967299 0 59.874680609967299 -61.433113504206403 0 0 0 0 -87.923914235763732 70.884734684376099 0 70.884734684376099 -36.210701167886327 0 0 0 0 -96.013918650651249 40.626310068167868 0 40.626310068167868 -22.260500059333481 0 0 0 0 -128.01940742973056 66.992367476896447 0 66.992367476896447 -38.655057675788157 0 0 0 0 0.59940865830450463 1.1682232903304879 0 1.1682232903304879 -1.8197634928902087 0 0 0 0 -78.939714126319814 47.393026285721135 0 47.393026285721135 -19.772091814845226 0 0 0 0 -16.704783014620261 37.325141351634329 0 37.325141351634329 -21.978693797846972 0 0 0 0 -78.616004688571593 46.518982127138088 0 46.518982127138088 -17.447658730413423 0 0 0 0 -61.696119983809695 44.370048926024765 0 44.370048926024765 -17.004026844253531 0 0 0 0 -115.11701961728886 51.304755237513177 0 51.304755237513177 -4.0439137560588279 0 0 0 0 0.665028912042402 1.2289759968268115 0 1.2289759968268115 -1.6114017055685856 0 0 0 0 -153.95908699828692 81.72343892087288 0 81.72343892087288 -19.597724750204179 0 0 0 0 0.62699117667454374 1.0781870175660657 0 1.0781870175660657 -1.6382082254417742 0 0 0 0 -25.25455104043067 44.21934282373013 0 44.21934282373013 -11.024336939331533 0 0 0 0 -154.53215864472554 -30.15628874863657 0 -30.15628874863657 -72.360640342818442 0 0 0 0 32.683999794619012 65.205128329667332 0 65.205128329667332 -18.305739532062603 0 0 0 0 -29.392417132472474 57.656772263090261 0 57.656772263090261 -15.754475943835928 0 0 0 0 -1.9619923245463724 88.905730916757193 0 88.905730916757193 -23.872731605750232 0 0 0 0 -3.6887183303424536 86.015655242873208 0 86.015655242873208 -14.191352929279674 0 0 0 0 33.508814889919449 104.65485465932306 0 104.65485465932306 -5.9746148665785768 0 0 0 0 42.866626778726641 119.69475890352078 0 119.69475890352078 14.887000514253486 0 0 0 0 18.149069088749684 102.24469366464109 0 102.24469366464109 3.0465875344661981 0 0 0 0 13.504733314272926 82.27659382398042 0 82.27659382398042 -3.0115787384611394 0 0 0 0 0.64214694524252991 22.117209515123477 0 22.117209515123477 -15.655011230505806 0 0 0 0 63.297021147682244 77.917168115880031 0 77.917168115880031 -3.6014396954622043 0 0 0 0 106.33890061432248 104.15794351476529 0 104.15794351476529 6.1383995892156236 0 0 0 0 73.276427491487084 107.361676704621 0 107.361676704621 25.409352865374785 0 0 0 0 78.957266484754655 111.03811999320578 0 111.03811999320578 16.571212721223901 0 0 0 0 41.076228008538237 144.73364138325451 0 144.73364138325451 30.977835180152226 0 0 0 0 27.925868898500994 168.52837132583636 0 168.52837132583636 189.32297718221253 0 0 0 0 55.442719250927439 102.65777053907914 0 102.65777053907914 115.79495621345995 0 0 0 0 26.534859293073168 75.465148205967353 0 75.465148205967353 114.37147350991927 0 0 0 0 -35.152600776698819 30.380182623252495 0 30.380182623252495 271.37267569341839 0 0 0 0 52.310849985318782 11.177483471765299 0 11.177483471765299 209.19231241745729 0 0 0 0 143.00738807372181 181.41512792234698 0 181.41512792234698 143.96547282017809 0 0 0 0 0.65557878427935634 0.81064913938690886 0 0.81064913938690886 1.1852695268056479 0 0 0 0 -62.219401699803711 115.18340455125417 0 115.18340455125417 -29.051161313172997 0 0 0 0 146.56230445857091 73.48790551466027 0 73.48790551466027 -29.630941622837781 0 0 0 0 27.31956007615554 -17.994146269308203 0 -17.994146269308203 -14.555583848848073 0 0 0 0 1.3501753375857461 4.1105142443992673 0 4.1105142443992673 0.74281426347962665 0 0 0 0 -0.15653447381089336 0.91184532511303473 0 0.91184532511303473 -1.2302383372989318 0 0 0 0 -211.34579919838507 37.089568859789324 0 37.089568859789324 -3.5481611459044871 0 0 0 0 -97.884924447491358 14.544506298420856 0 14.544506298420856 -2.2487160220453006 0 0 0 0 0.46412941234322957 0.76798271456947731 0 0.76798271456947731 -1.0423944087919672 0 0 0 0 -157.29380165136899 143.15681570157813 0 143.15681570157813 -8.7378622817486757 0 0 0 0 -180.54108475327303 131.60460409971256 0 131.60460409971256 -11.025314776894447 0 0 0 0 147.61483801045506 25.929139602015084 0 25.929139602015084 -15.810838908368169 0 0 0 0 -188.38952608199679 141.25030475649032 0 141.25030475649032 -17.443856493962812 0 0 0 0 5.1840743367065443 12.239448862332665 0 12.239448862332665 -64.653837175217632 0 0 0 0 -33.800880116865301 73.080039919384944 0 73.080039919384944 -84.723139755712737 0 0 0 0 5.2945775575248462 -30.389742848886637 0 -30.389742848886637 -17.963278414599699 0 0 0 0 -43.866678802191018 29.165766737364265 0 29.165766737364265 -8.3626137728779781 0 0 0 0 12.347622771281749 13.520881194117464 0 13.520881194117464 -18.492517956490246 0 0 0 0 -4.4408998233957391 7.1485335733312354 0 7.1485335733312354 -11.076524502039774 0 0 0 0 20.607615213017198 13.269405665753766 0 13.269405665753766 -13.976221039275742 0 0 0 0 -10.055258750284338 15.657222123315591 0 15.657222123315591 -14.208891191636667 0 0 0 0 3.7358244694447258 1.2510117655549102 0 1.2510117655549102 -8.7571983252041754 0 0 0 0 -2.3332877099387161 7.4917698826607761 0 7.4917698826607761 -13.288799575277427 0 0 0 0 5.8647754759158488 30.480776946398919 0 30.480776946398919 37.423520986128551 0 0 0 0 -10.375249868515311 1.4112202377186804 0 1.4112202377186804 -13.698030171034134 0 0 0 0 -7.6624940346364383 9.8848080581453246 0 9.8848080581453246 -3.2346765654792762 0 0 0 0 25.339291817179401 6.1047298122043685 0 6.1047298122043685 -20.89413153480416 0 0 0 0 37.307045523173656 98.933289785842135 0 98.933289785842135 105.95203835707684 0 0 0 0 18.409774884379658 -13.82741061152592 0 -13.82741061152592 -7.0300747207520544 0 0 0 0 -3.0811949010827249 7.0250711534577164 0 7.0250711534577164 -13.322619342270295 0 0 0 0 3.4361686192532943 21.386020270244444 0 21.386020270244444 42.604008694797812 0 0 0 0 36.03607507084962 91.514364056232353 0 91.514364056232353 123.97914192368853 0 0 0 0 -81.97565984762241 56.501827451503289 0 56.501827451503289 -27.144330302032358 0 0 0 0 -99.612337591968753 86.291339568800026 0 86.291339568800026 -14.839811691633713 0 0 0 0 0.12321817927110423 0.31493506973601981 0 0.31493506973601981 -1.0197136641922793 0 0 0 0 -51.341399555499265 63.809265312270412 0 63.809265312270412 -33.974508406015957 0 0 0 0 73.312246723102362 -15.614328487262583 0 -15.614328487262583 -16.510863753437434 0 0 0 0 25.810323860381516 -5.6312548634750073 0 -5.6312548634750073 8.8906306805183704 0 0 0 0 33.412767584266476 7.494673539835162 0 7.494673539835162 -59.830173132694654 0 0 0 0 0.28705975019079588 0.37022277500113177 0 0.37022277500113177 -2.2635351787504678 0 0 0 0 57.259853440866209 1.0044886152472827 0 1.0044886152472827 -11.836665394796796 0 0 0 0 22.727740722077215 -3.4642310865003765 0 -3.4642310865003765 -0.21789798787062864 0 0 0 0 11.918525700467512 5.532179556150183 0 5.532179556150183 -13.261065986480389 0 0 0 0 36.756878743731249 8.2820942934349659 0 8.2820942934349659 -18.2310725793659 0 0 0 0 0.2890364244398782 0.28936702505411205 0 0.28936702505411205 -2.0739333189081108 0 0 0 0 20.739223614378716 14.420453585853465 0 14.420453585853465 -4.7574183790434859 0 0 0 0 27.827225676755006 -4.1799982712449832 0 -4.1799982712449832 -14.909596598640292 0 0 0 0 20.259287742574088 3.8859608113176023 0 3.8859608113176023 -12.881284317042628 0 0 0 0 50.047160283425455 40.645637310602154 0 40.645637310602154 -34.268258523276245 0 0 0 0 3.4466062692215473 -7.8503724356646671 0 -7.8503724356646671 -16.361488768086474 0 0 0 0 3.0232450272342248 -11.176639930168676 0 -11.176639930168676 -22.135755862947008 0 0 0 0 4.5779761463585018 1.8179548171069655 0 1.8179548171069655 -7.0559678972841642 0 0 0 0 1.056371725306505 -0.16758232430887432 0 -0.16758232430887432 -0.35205546639011942 0 0 0 0 10.373196232241753 -1.2331506373254797 0 -1.2331506373254797 -33.750111489668598 0 0 0 0 25.771725315924414 14.793226716729123 0 14.793226716729123 -23.323854278005001 0 0 0 0 13.453969589220833 6.9916516712034991 0 6.9916516712034991 -13.872476456312143 0 0 0 0 2.2283156118210172 15.052462431153117 0 15.052462431153117 -16.455968697350841 0 0 0 0 4.8990371883691139 0.47073971223091249 0 0.47073971223091249 -7.0349353729549886 0 0 0 0 -63.802617541108702 36.166546982586624 0 36.166546982586624 -15.483120214401424 0 0 0 0 9.9887727429195365 11.898199290061712 0 11.898199290061712 -30.214481479786627 0 0 0 0 -10.610488151374739 5.4236577650278832 0 5.4236577650278832 -12.406406567171416 0 0 0 0 -21.52099208141226 28.69368367965626 0 28.69368367965626 -21.967938123557815 0 0 0 0 -39.263597046981886 10.607716586397373 0 10.607716586397373 0.77946550666320036 0 0 0 0 -69.433922699077812 39.514575197517388 0 39.514575197517388 -7.0484367997507889 0 0 0 0 -76.513157508956283 26.490534643426372 0 26.490534643426372 -22.002914191751643 0 0 0 0 -78.28713428527044 51.826125794753807 0 51.826125794753807 -4.6894845443009672 0 0 0 0 -81.349309631394135 45.074323623462533 0 45.074323623462533 24.143674685060887 0 0 0 0 -103.13051603758868 20.885936078241457 0 20.885936078241457 -0.51499843429402858 0 0 0 0 -1.7961360615744937 2.7207292470459734 0 2.7207292470459734 -4.0666430837488647 0 0 0 0 12.406397255594129 11.451216621130925 0 11.451216621130925 0.99608435598463529 0 0 0 0 14.17703570262529 21.30078940747444 0 21.30078940747444 25.475709952068655 0 0 0 0 -10.08229519091401 34.661065581197931 0 34.661065581197931 66.204078197364197 0 0 0 0 0.16871810421059408 0.30903236547191781 0 0.30903236547191781 0.59216311787741205 0 0 0 0 161.12583560548137 -49.45260605475886 0 -49.45260605475886 -0.85939798167419212 0 0 0 0 82.978721612578738 -17.443525578560866 0 -17.443525578560866 12.057381897202504 0 0 0 0 50.181170727451899 49.813604719928037 0 49.813604719928037 -65.127481158311866 0 0 0 0 -20.758096198460407 19.479516618850994 0 19.479516618850994 -15.95184459753699 0 0 0 0 -0.70435001178556078 4.1525377858419965 0 4.1525377858419965 -7.1095342221715043 0 0 0 0 0.67274444014053358 1.9560255788672798 0 1.9560255788672798 0.14070386571361215 0 0 0 0 3.9023238763511472 12.083744730381341 0 12.083744730381341 1.5077705990008781 0 0 0 0 11.988082202948135 90.848369283099146 0 90.848369283099146 -93.133362305458149 0 0 0 0 23.702754049561918 9.7628916328496871 0 9.7628916328496871 -46.261185396785777 0 0 0 0 81.449494448512269 26.616553957241194 0 26.616553957241194 -45.24046217144496 0 0 0 0 38.503371031443749 36.920445239910805 0 36.920445239910805 -21.456191823563131 0 0 0 0 122.97581646130402 -2.0597890178164846 0 -2.0597890178164846 -7.2631502685044325 0 0 0 0 101.24547765096304 55.572803298527532 0 55.572803298527532 11.274500952576545 0 0 0 0 32.871673556986934 42.336519082392442 0 42.336519082392442 14.290406893450609 0 0 0 0 30.220098149546175 32.583845109594677 0 32.583845109594677 -21.316865969562059 0 0 0 0 8.7883325119564688 39.183014368409204 0 39.183014368409204 20.036756066228008 0 0 0 0 6.1592551820976951 19.857340351806215 0 19.857340351806215 -3.3754289860755762 0 0 0 0 -0.63256008563180899 0.90570757877735275 0 0.90570757877735275 -1.4543357958587153 0 0 0 0 -244.03957535327208 -12.797795488082102 0 -12.797795488082102 34.406935400136717 0 0 0 0 -275.44628828077839 205.17620291215781 0 205.17620291215781 -124.0504433049332 0 0 0 0 82.688603850586333 18.232299456226656 0 18.232299456226656 -302.0605087404831 0 0 0 0 0.18918503501491557 0.60694929120204222 0 0.60694929120204222 -1.0347736492109316 0 0 0 0 -200.95331307344168 105.91420510319483 0 105.91420510319483 -92.647028754376606 0 0 0 0 -124.7140604070446 184.91900479440415 0 184.91900479440415 -125.25857319005644 0 0 0 0 53.880279670320306 56.599729728487659 0 56.599729728487659 -160.64023153729477 0 0 0 0 -31.242384628188347 144.60648724749248 0 144.60648724749248 -124.92302974035829 0 0 0 0 -127.00118972883502 125.46839755145515 0 125.46839755145515 -78.923414636979487 0 0 0 0 -77.810998211170954 68.673022083060005 0 68.673022083060005 -248.08991194079681 0 0 0 0 -134.43806894531372 132.82402911913164 0 132.82402911913164 -83.652764060033064 0 0 0 0 -183.31553228758548 50.913879770560698 0 50.913879770560698 -86.938973721320963 0 0 0 0 -2.3928651608022733 0.011617948958782875 0 0.011617948958782875 0.20333934145082155 0 0 0 0 -60.500263341909886 93.704359992755826 0 93.704359992755826 -72.104858350832728 0 0 0 0 -105.2307041863005 82.900671729592261 0 82.900671729592261 -41.415327692344363 0 0 0 0 -86.232777265671757 117.11332294487079 0 117.11332294487079 -77.312568255184374 0 0 0 0 -59.990358710178043 107.99943706547799 0 107.99943706547799 -118.31177155465434 0 0 0 0 -20.302595239460061 132.58579525212554 0 132.58579525212554 -107.41667069558162 0 0 0 0 -26.571106441449274 94.926833185452168 0 94.926833185452168 -59.200363630548964 0 0 0 0 38.279967270347697 83.224763414108565 0 83.224763414108565 -64.675408346460699 0 0 0 0 -20.55421483024012 92.025460756825183 0 92.025460756825183 -37.820939282830295 0 0 0 0 50.409944298262417 87.266089976905505 0 87.266089976905505 -92.709676048392794 0 0 0 0 8.3755098621095385 116.70209981036805 0 116.70209981036805 -75.364075926794158 0 0 0 0 -81.665174455363285 202.50889890161545 0 202.50889890161545 -177.760137132409 0 0 0 0 -28.372011130450119 96.5997728593278 0 96.5997728593278 -63.644203387629659 0 0 0 0 -61.386667363014567 102.49178966172894 0 102.49178966172894 25.568719428722261 0 0 0 0 -10.775862086598863 127.07386713776418 0 127.07386713776418 15.83027356955381 0 0 0 0 -11.902792749366199 152.39858598861429 0 152.39858598861429 -49.066909877418254 0 0 0 0 -1.8813726854514243 144.62821132765123 0 144.62821132765123 39.724365085506633 0 0 0 0 10.975144397045369 137.6553172302456 0 137.6553172302456 15.98553940405845 0 0 0 0 16.650362810465595 96.100212982729659 0 96.100212982729659 34.617913891145278 0 0 0 0 22.307016529402517 94.114565164850944 0 94.114565164850944 22.227966244804747 0 0 0 0 32.18636114885885 98.965671525008247 0 98.965671525008247 59.893366137221392 0 0 0 0 67.761883807255799 93.626345863422671 0 93.626345863422671 34.687248022172298 0 0 0 0 87.016609345442703 124.33160272153168 0 124.33160272153168 71.394199593824851 0 0 0 0 27.489986924352706 125.04065404572361 0 125.04065404572361 43.156659634508088 0 0 0 0 68.759637450184528 109.37877086425738 0 109.37877086425738 62.359159473081412 0 0 0 0 46.159114788210445 143.41340619784057 0 143.41340619784057 60.544831785955012 0 0 0 0 -0.56984398424748406 77.595704112041787 0 77.595704112041787 70.045629074279077 0 0 0 0 11.59486141843081 59.698726424334382 0 59.698726424334382 48.307520684334577 0 0 0 0 -0.3160937504143817 69.259910570784285 0 69.259910570784285 43.291658255775928 0 0 0 0 -14.747011620249395 88.469228300654322 0 88.469228300654322 68.372748185519413 0 0 0 0 23.231104974849586 66.217801541964036 0 66.217801541964036 75.019793951159841 0 0 0 0 23.383225996045894 63.878619499599495 0 63.878619499599495 110.85788783096405 0 0 0 0 87.467040366758738 64.439927914303553 0 64.439927914303553 61.348472620247662 0 0 0 0 24.168371410520194 73.664352879273338 0 73.664352879273338 60.568969957760402 0 0 0 0 17.236434650858428 63.645458104587419 0 63.645458104587419 26.554525411909481 0 0 0 0 24.863353070204539 80.084935665624926 0 80.084935665624926 42.186214532127224 0 0 0 0 -11.871944385868119 52.878337232585409 0 52.878337232585409 20.971957231190231 0 0 0 0 4.7261593672283198 72.909101076151956 0 72.909101076151956 26.041798880102306 0 0 0 0 -14.703664942971955 65.394684039828689 0 65.394684039828689 45.896689413662898 0 0 0 0 -7.801252400420708 42.226155164721376 0 42.226155164721376 9.7464423317800311 0 0 0 0 10.340449680965321 71.399061789784696 0 71.399061789784696 18.053231815892786 0 0 0 0 -0.84453581938927158 0.14176649642444961 0 0.14176649642444961 0.020808401854197189 0 0 0 0 -15.524595358892839 48.760581930010119 0 48.760581930010119 78.740007648022129 0 0 0 0 -12.148056567137246 24.112970279570845 0 24.112970279570845 -9.3084885907921944 0 0 0 0 -3.2285887334192012 42.541981297329528 0 42.541981297329528 -25.664500707211573 0 0 0 0 -5.7115480943575676 36.534634620870065 0 36.534634620870065 -69.661105832100247 0 0 0 0 -52.13399429110541 65.419696690444653 0 65.419696690444653 -32.179367385689147 0 0 0 0 -86.291375803099982 27.722360711946919 0 27.722360711946919 -25.216865345367296 0 0 0 0 -122.54186964601286 9.9803370149824104 0 9.9803370149824104 1.5300984533853352 0 0 0 0 -80.514126701300484 47.635202098190803 0 47.635202098190803 -6.5579169640047894 0 0 0 0 -21.765393177754959 35.407729458325662 0 35.407729458325662 -8.7052808509281476 0 0 0 0 -11.032385515587521 59.09220519855478 0 59.09220519855478 -3.6962477607926303 0 0 0 0 -39.897049974912079 51.624719476576956 0 51.624719476576956 15.015908389636024 0 0 0 0 -10.531056693362189 67.498332369501782 0 67.498332369501782 11.434545018551717 0 0 0 0 -28.46902024269184 51.81752255504739 0 51.81752255504739 19.533219924235027 0 0 0 0 -40.916176779065609 30.221251634186139 0 30.221251634186139 -13.014144793451578 0 0 0 0 -43.25079281748549 37.905979133377173 0 37.905979133377173 -10.179468459917643 0 0 0 0 -47.387445458474758 36.861308251322555 0 36.861308251322555 12.696359288099757 0 0 0 0 -28.813248727114114 58.889745427294429 0 58.889745427294429 4.6822470362967579 0 0 0 0 -18.476972230448155 46.219471018171589 0 46.219471018171589 7.6004223572244882 0 0 0 0 -13.683461385400733 43.355712100557184 0 43.355712100557184 6.6239342462222339 0 0 0 0 -32.8595492351742 37.653692205577499 0 37.653692205577499 8.9086619784789036 0 0 0 0 -43.660770545438027 -0.60151043156230344 0 -0.60151043156230344 4.755714886766782 0 0 0 0 10.967857356874447 36.738356989742215 0 36.738356989742215 -10.185317850898173 0 0 0 0 0.98972131957998499 30.586096217711656 0 30.586096217711656 -12.270351401070911 0 0 0 0 14.403165861687739 -17.596802378699067 0 -17.596802378699067 -25.833852340286285 0 0 0 0 11.764101749166002 75.802518299052736 0 75.802518299052736 11.700109006298135 0 0 0 0 2.5316562432381033 66.302372644670129 0 66.302372644670129 24.380753885016929 0 0 0 0 3.6557034682482481 97.503089711771509 0 97.503089711771509 52.428712432953944 0 0 0 0 -7.0270837447278609 78.415122218514398 0 78.415122218514398 28.634586147860546 0 0 0 0 -18.226288139523604 82.828302204125976 0 82.828302204125976 63.923462677210409 0 0 0 0 -17.437490246699554 73.445865521510385 0 73.445865521510385 34.799347658826946 0 0 0 0 -76.63004556998203 43.257229796438196 0 43.257229796438196 6.2116799001079812 0 0 0 0 -164.63983678462137 71.98772379201796 0 71.98772379201796 0.053837304756143567 0 0 0 0 -100.03651349676329 70.18243044269434 0 70.18243044269434 -17.122625491646431 0 0 0 0 0.077926709984962983 1.667148692346796 0 1.667148692346796 -2.9812759471622687 0 0 0 0 -98.560341401469486 75.853878123355116 0 75.853878123355116 -68.020095819256994 0 0 0 0 -105.55895586369661 108.08120801317318 0 108.08120801317318 -38.929017339930738 0 0 0 0 -58.458018976307358 22.504479605622691 0 22.504479605622691 17.14283358715511 0 0 0 0 -1.1326938494835446 0.3903935831862988 0 0.3903935831862988 1.8680362420692598 0 0 0 0 -85.432277666917798 87.799146236343176 0 87.799146236343176 -57.399198634569984 0 0 0 0 -8.1017611741353903 -3.2652223422039697 0 -3.2652223422039697 -1.774517113817069 0 0 0 0 -1.5788028330445059 9.386198528444794 0 9.386198528444794 -7.0336140123408768 0 0 0 0 -104.14933299654786 100.51366954344113 0 100.51366954344113 1.6969786532690705 0 0 0 0 -254.73714815730636 150.4894530424101 0 150.4894530424101 -14.742402435865188 0 0 0 0 -240.7843821144379 0.33008022302010431 0 0.33008022302010431 -204.73625046216512 0 0 0 0 -22.403229116567672 5.197513727976002 0 5.197513727976002 19.900678140074888 0 0 0 0 -1.0952244571238268 -0.27408037453959366 0 -0.27408037453959366 0.71824198245266935 0 0 0 0 -9.6952908983677162 10.916497295140232 0 10.916497295140232 22.145280574890421 0 0 0 0 -0.032499065399619775 1.210925190855086 0 1.210925190855086 -1.8587259150402247 0 0 0 0 17.995612542879826 16.636704779076354 0 16.636704779076354 12.171557695197862 0 0 0 0 -9.5554125195121742 18.388223674207211 0 18.388223674207211 27.469819295135039 0 0 0 0 -21.998676097780844 -5.3984838117005438 0 -5.3984838117005438 1.33213533722801 0 0 0 0 -28.825546115134784 13.645147345302803 0 13.645147345302803 27.51044218337535 0 0 0 0 4.4530381245895114 2.4851965113275583 0 2.4851965113275583 14.55258358973515 0 0 0 0 -24.144991440012518 -17.729416336436771 0 -17.729416336436771 2.1474290117125747 0 0 0 0 -65.26468808111531 9.6814689948701016 0 9.6814689948701016 -3.8612776052577829 0 0 0 0 -24.561045650618325 23.357536541786203 0 23.357536541786203 -69.693568859301649 0 0 0 0 -161.65975899504338 12.273323531308506 0 12.273323531308506 -64.461271144082275 0 0 0 0 -52.634271847819036 59.031290971452108 0 59.031290971452108 -161.91637802938499 0 0 0 0 -1.3292876642185831 -0.21683476758219378 0 -0.21683476758219378 -0.17283687608623621 0 0 0 0 -27.639539690690071 -43.335468385329477 0 -43.335468385329477 -23.344364518280372 0 0 0 0 -108.03323109334087 1.0655227643617309 0 1.0655227643617309 -46.692693057107363 0 0 0 0 -153.49544978328777 119.11161925491069 0 119.11161925491069 -204.73048269621449 0 0 0 0 104.89021370004889 73.167950301306107 0 73.167950301306107 -104.3356631588972 0 0 0 0 -0.089847847897533306 0.55919981250097095 0 0.55919981250097095 -0.69648290526518863 0 0 0 0 -114.49395424426621 174.69828185930078 0 174.69828185930078 -149.50454523509461 0 0 0 0 -2.8837298265125924 -0.34826234561276248 0 -0.34826234561276248 0.057443801745459488 0 0 0 0 18.477029382142064 153.50422635667928 0 153.50422635667928 -205.15035217475724 0 0 0 0 -94.971363695404762 43.508726254567421 0 43.508726254567421 -55.532410578452073 0 0 0 0 -267.7345080589439 88.688085781420227 0 88.688085781420227 -24.645007842362929 0 0 0 0 -56.998282298212871 -21.191179798419853 0 -21.191179798419853 39.73620029780318 0 0 0 0 -16.181285154753823 -24.448260001877316 0 -24.448260001877316 -61.976406755043172 0 0 0 0 -52.391140824885952 60.743375251054204 0 60.743375251054204 -93.296216082149613 0 0 0 0 -88.118485435225011 23.557126199131289 0 23.557126199131289 -129.79773779477273 0 0 0 0 40.185130104597192 15.538691100757205 0 15.538691100757205 -91.710024925685502 0 0 0 0 -11.888446754852339 55.563624396086198 0 55.563624396086198 -19.946603537791134 0 0 0 0 -36.529995273907844 7.9270920781685845 0 7.9270920781685845 -79.884838457845945 0 0 0 0 -37.054934585474257 73.106435035301274 0 73.106435035301274 -131.01316060409636 0 0 0 0 -16.586205228315521 12.898658116575916 0 12.898658116575916 -87.316504738809044 0 0 0 0 -46.770067820190889 47.098812695306378 0 47.098812695306378 -115.55426833142747 0 0 0 0 -62.344865009245041 55.862701626728722 0 55.862701626728722 -86.51672735031616 0 0 0 0 -102.19937950995518 162.56129863182332 0 162.56129863182332 -265.02327579232218 0 0 0 0 -127.09526823609849 126.57965002430001 0 126.57965002430001 -164.34545542337048 0 0 0 0 -65.545574387058878 60.692424186963535 0 60.692424186963535 -126.69720153809249 0 0 0 0 -89.500045181397581 110.13843250394802 0 110.13843250394802 -152.9236068906057 0 0 0 0 -209.29968950456896 94.174251065286285 0 94.174251065286285 -64.368345819511887 0 0 0 0 -121.22556690605415 56.287481670728539 0 56.287481670728539 -48.072469411330303 0 0 0 0 -73.375001892281034 57.45859603536087 0 57.45859603536087 -57.869738886776304 0 0 0 0 -86.680800376379921 83.695611784597645 0 83.695611784597645 -102.86989290941347 0 0 0 0 -65.563961648946133 45.82755414104804 0 45.82755414104804 -90.584516482915205 0 0 0 0 -70.939280812528523 57.749517695668146 0 57.749517695668146 -48.961397292881884 0 0 0 0 -52.347629811682054 64.767067226921426 0 64.767067226921426 -56.954366149384896 0 0 0 0 -137.70358653286348 70.585505116400327 0 70.585505116400327 -57.861193030150389 0 0 0 0 -68.981659927830151 55.287841226040712 0 55.287841226040712 -55.839013926952248 0 0 0 0 -35.359107741901425 19.318909780742786 0 19.318909780742786 -74.475401340625467 0 0 0 0 -49.03369765088064 63.420185476575853 0 63.420185476575853 -36.429222177072234 0 0 0 0 -40.532057093893854 66.602625207830101 0 66.602625207830101 -41.190510340682522 0 0 0 0 -74.687326201035376 75.271529421385537 0 75.271529421385537 -42.598116726048829 0 0 0 0 -48.752248423386845 68.554904782926997 0 68.554904782926997 -80.289711939466088 0 0 0 0 -49.923095362071763 73.042198793089938 0 73.042198793089938 -45.920470410609141 0 0 0 0 -53.101642768178863 83.069366318934499 0 83.069366318934499 -31.381703160022766 0 0 0 0 -42.171221827280078 93.882134223120374 0 93.882134223120374 -30.538635480269022 0 0 0 0 -37.470558843166145 88.775856897837457 0 88.775856897837457 -24.995929988246303 0 0 0 0 -30.181466241161615 88.988576480471465 0 88.988576480471465 -16.223078161309104 0 0 0 0 -32.311448406695945 104.50100936008471 0 104.50100936008471 2.3906812927389183 0 0 0 0 -24.988187743193521 106.34801143282351 0 106.34801143282351 27.958536888595063 0 0 0 0 -35.125926076194446 65.323704435976765 0 65.323704435976765 11.348552877171187 0 0 0 0 -45.116259016593176 70.849586216271746 0 70.849586216271746 1.3757897516734374 0 0 0 0 -47.546751771373238 47.207119762872708 0 47.207119762872708 -8.1242037945171433 0 0 0 0 -32.913904732842639 70.498020743146412 0 70.498020743146412 -14.471401211491411 0 0 0 0 -24.740180480802792 37.650070467141916 0 37.650070467141916 -15.661970673949781 0 0 0 0 -24.78148392836556 35.095617563733413 0 35.095617563733413 -35.995993219594311 0 0 0 0 -58.321967655381741 18.471047386166674 0 18.471047386166674 -53.634197060362794 0 0 0 0 -46.749783154639317 46.360533752431479 0 46.360533752431479 -47.335843814466898 0 0 0 0 -64.554915830447499 41.536894288620715 0 41.536894288620715 -30.121597566019773 0 0 0 0 -58.526164188629991 30.933542522421703 0 30.933542522421703 -53.001596356661594 0 0 0 0 -48.579824048452792 33.306281013480657 0 33.306281013480657 -58.520577369589773 0 0 0 0 -41.839245625989861 -41.585925295130892 0 -41.585925295130892 12.341887929529776 0 0 0 0 -0.53715550533739176 -0.18189998738973046 0 -0.18189998738973046 0.035323639853484856 0 0 0 0 -142.13182651431998 143.41008855206738 0 143.41008855206738 -33.153590906167665 0 0 0 0 3.3271376522861829 -50.286444003840188 0 -50.286444003840188 0.62588399378694248 0 0 0 0 -152.60496231676154 48.891842415732768 0 48.891842415732768 -22.663303299088057 0 0 0 0 -37.06974543866454 59.396169075611397 0 59.396169075611397 -48.089586111053677 0 0 0 0 -30.844299769653844 35.473714757059525 0 35.473714757059525 -23.633941486026288 0 0 0 0 -48.265225633513182 95.277195502392942 0 95.277195502392942 -83.351430837586122 0 0 0 0 -4.4070945134626527 122.01153872935538 0 122.01153872935538 -141.6472373066963 0 0 0 0 -124.52203352643119 179.57066763652665 0 179.57066763652665 -38.091087259943549 0 0 0 0 -17.728573174958001 59.036107917574554 0 59.036107917574554 -47.400124191040959 0 0 0 0 42.931113690297934 80.593504264159037 0 80.593504264159037 -122.24398879525393 0 0 0 0 -33.257659258353669 220.00394646084442 0 220.00394646084442 -349.70081702868174 0 0 0 0 -171.85059484109024 249.34396064734449 0 249.34396064734449 -130.06371998376562 0 0 0 0 -1.0095369925613582 0.86544696086758854 0 0.86544696086758854 0.11237567348564381 0 0 0 0 -9.4504976226889994 -43.201983767851743 0 -43.201983767851743 -253.65417318283562 0 0 0 0 -301.25805658547506 -60.306079297217934 0 -60.306079297217934 28.221918622391513 0 0 0 0 -80.069050889769642 -5.9077422936836683 0 -5.9077422936836683 -6.2136488306111914 0 0 0 0 -1.8094670996375797 1.5260716893774209 0 1.5260716893774209 1.3003773069840046 0 0 0 0 94.31929697504529 -5.9818902692168194 0 -5.9818902692168194 -65.142235214183529 0 0 0 0 -0.52420841077069369 0.55708724557049294 0 0.55708724557049294 0.72830342830844508 0 0 0 0 -0.45283721011377764 1.4800779679822575 0 1.4800779679822575 -1.3062587891803412 0 0 0 0 -0.097059450707092765 3.4731119991358241 0 3.4731119991358241 3.3476501619370538 0 0 0 0 -24.315065916678577 39.866808210247314 0 39.866808210247314 22.604561715117939 0 0 0 0 -1.6788153358484124 45.651694081690039 0 45.651694081690039 -20.087661421777284 0 0 0 0 -0.87823434218444163 1.7577354126088949 0 1.7577354126088949 1.6810030644811604 0 0 0 0 -38.997515822087735 -15.642784307463444 0 -15.642784307463444 1.5029702740004822 0 0 0 0 -66.9512541707727 18.968426281559857 0 18.968426281559857 4.2965707286332417 0 0 0 0 -1.2226448112160142 9.0724097934946712 0 9.0724097934946712 32.331838918775247 0 0 0 0 -5.6709918529545575 -4.3986407249443005 0 -4.3986407249443005 22.450516630524817 0 0 0 0 -0.95080773362231952 3.6280607520501054 0 3.6280607520501054 1.2552831210299935 0 0 0 0 -1.5663671268921462 4.6751330481986315 0 4.6751330481986315 1.8739317461466953 0 0 0 0 -0.072747520195662219 3.338997156920783 0 3.338997156920783 -0.097644103247375824 0 0 0 0 -1.7830488280161276 2.0717165629751495 0 2.0717165629751495 -0.63874664775200918 0 0 0 0 4.8183211489595124 -2.4715345411900671 0 -2.4715345411900671 0.76496125110111279 0 0 0 0 -20.728756125521613 5.2084014230226785 0 5.2084014230226785 31.73880189839997 0 0 0 0 0.67434978799428791 1.0651693500451529 0 1.0651693500451529 10.035699576960269 0 0 0 0 0.12601743771082852 -0.076821203819223527 0 -0.076821203819223527 -0.20888043043177618 0 0 0 0 -12.133872697453626 5.9145150228125658 0 5.9145150228125658 -16.015176087218606 0 0 0 0 -22.160069264919912 26.670102098598022 0 26.670102098598022 -18.458501889625495 0 0 0 0 -42.429740768089687 16.555343554427964 0 16.555343554427964 -23.499002791840667 0 0 0 0 -50.800600918105374 41.387250697068794 0 41.387250697068794 -31.997680917231264 0 0 0 0 -17.97973258701677 23.070520619642139 0 23.070520619642139 -47.204573362621204 0 0 0 0 -21.33361745115235 21.882672656738862 0 21.882672656738862 -19.950198925484756 0 0 0 0 -10.444483107969063 9.8010407920739908 0 9.8010407920739908 -4.705719229890974 0 0 0 0 -8.5239765767182689 19.929696661587741 0 19.929696661587741 -28.632389335859443 0 0 0 0 -0.19372909367665869 -0.089073852052093727 0 -0.089073852052093727 0.65069933166906413 0 0 0 0 -20.999286741467586 -20.336430725979994 0 -20.336430725979994 5.5921752694839597 0 0 0 0 -4.3789637109030082 1.3790344833753352 0 1.3790344833753352 -5.2411788953650102 0 0 0 0 -0.0083087681042037786 1.4117513525949015 0 1.4117513525949015 4.7961972084261237 0 0 0 0 7.287491103510547 -6.2055580037697382 0 -6.2055580037697382 -0.31334192906979297 0 0 0 0 6.1302799571894866 -5.3335699207552807 0 -5.3335699207552807 21.307654751819882 0 0 0 0 -1.7418357703954825 3.3868522804800705 0 3.3868522804800705 29.394232265747632 0 0 0 0 0.90747353696133359 -10.34783968579336 0 -10.34783968579336 63.922572944016906 0 0 0 0 11.70018108460863 70.038019410750621 0 70.038019410750621 83.683870115385162 0 0 0 0 15.22623859331361 22.7278061933971 0 22.7278061933971 48.033416526733618 0 0 0 0 84.751045299170073 -22.448652978538121 0 -22.448652978538121 -105.10534871260643 0 0 0 0 0.67098152117937104 0.14227051557880444 0 0.14227051557880444 0.0037030008512775048 0 0 0 0 -0.073371159672185104 1.6977390673914954 0 1.6977390673914954 5.7353280514426581 0 0 0 0 -8.3255830221496581 11.113667972972394 0 11.113667972972394 -12.224360047931441 0 0 0 0 -20.513910752682932 12.796607936577175 0 12.796607936577175 9.5221667094601798 0 0 0 0 -1.0452478996849095 8.2491268666500446 0 8.2491268666500446 -6.4191578439722434 0 0 0 0 -3.6022501836050651 6.5403968483178687 0 6.5403968483178687 -2.8545507496250355 0 0 0 0 -3.2049446414675913 8.9187287950954897 0 8.9187287950954897 -2.8444074587925208 0 0 0 0 1.0530997702983029 1.5844195773856846 0 1.5844195773856846 -1.0367859480596384 0 0 0 0 -2.8190650575743348 5.0001101555565128 0 5.0001101555565128 -8.4521804556206916 0 0 0 0 -18.653537353082356 28.172169746537548 0 28.172169746537548 -19.401875061300586 0 0 0 0 -1.4556066721252137 -1.2624230205252616 0 -1.2624230205252616 18.999751937542158 0 0 0 0 0.34617417221759439 -0.35032910586945754 0 -0.35032910586945754 -0.4018763051399139 0 0 0 0 -3.4686752633169817 0.63331368302492663 0 0.63331368302492663 8.5247121224581122 0 0 0 0 -0.79171070900156337 -0.31711175201127162 0 -0.31711175201127162 7.0922962456983214 0 0 0 0 -0.7650972301762522 4.3647412681787046 0 4.3647412681787046 6.1068378038846305 0 0 0 0 0.14602552230098809 1.8543698650579472 0 1.8543698650579472 6.0882546826337602 0 0 0 0 0.006583892116395873 4.0829609332295718 0 4.0829609332295718 9.1574855333130927 0 0 0 0 -0.0019475010485621169 4.1895509634746304 0 4.1895509634746304 3.6103570470688737 0 0 0 0 -1.7678790768958379 2.8918167302781441 0 2.8918167302781441 4.2404080726416851 0 0 0 0 -0.62494617920128803 3.5365370376368901 0 3.5365370376368901 2.9621514142170327 0 0 0 0 0.9262446645595972 0.45798602777556674 0 0.45798602777556674 0.90207990705758112 0 0 0 0 -0.50588638398278363 1.7613320281057021 0 1.7613320281057021 0.5949604425616144 0 0 0 0 -0.00040124246334016789 3.8654543735810876 0 3.8654543735810876 -2.0592987732504753 0 0 0 0 3.8407040945512563 59.982173972109308 0 59.982173972109308 189.80743285888298 0 0 0 0 0.70257196600206839 0.037606465928774924 0 0.037606465928774924 -0.11316648325759759 0 0 0 0 -0.0097934397217613878 109.4200227261299 0 109.4200227261299 126.02190745571829 0 0 0 0 118.60282177153022 116.42060514357559 0 116.42060514357559 95.636432041650323 0 0 0 0 7.5127014289253111 21.672708391836643 0 21.672708391836643 22.310163398353779 0 0 0 0 9.442810069918778 15.98879525489383 0 15.98879525489383 28.941577754852688 0 0 0 0 -29.244699434731956 19.027963334309334 0 19.027963334309334 -7.1334675390291977 0 0 0 0 0.046707257672206071 0.81117684109699795 0 0.81117684109699795 2.3194395282910518 0 0 0 0 -19.022523978251343 17.326999524699573 0 17.326999524699573 -11.218125030209194 0 0 0 0 -29.339018063406911 77.988135598306599 0 77.988135598306599 37.733512787407335 0 0 0 0 -26.602014092884929 29.081830263234338 0 29.081830263234338 8.490062491259323 0 0 0 0 -0.012641672676799942 0.46718218810931589 0 0.46718218810931589 0.91289131762825626 0 0 0 0 -81.8406677864823 23.023096256663166 0 23.023096256663166 52.228782923795734 0 0 0 0 68.500153017213051 64.959068048159452 0 64.959068048159452 98.616168997958994 0 0 0 0 -4.9431553739796072 138.79658030782298 0 138.79658030782298 151.66889380942189 0 0 0 0 -31.174133610516947 79.868687117711374 0 79.868687117711374 36.334819692750443 0 0 0 0 3.7522354966931744 137.93949537371554 0 137.93949537371554 65.492903788449439 0 0 0 0 -16.365698253899609 105.86977222655082 0 105.86977222655082 15.410878259814922 0 0 0 0 24.625927067430439 103.69333957301296 0 103.69333957301296 38.641581033866714 0 0 0 0 17.262068793741491 124.3643504847189 0 124.3643504847189 58.83340704114039 0 0 0 0 -0.0090583846194931539 128.55767050145914 0 128.55767050145914 55.266431118913033 0 0 0 0 27.330305800740462 86.562409899941031 0 86.562409899941031 103.49259922911688 0 0 0 0 19.907816146800542 104.08682364962192 0 104.08682364962192 101.86720736637335 0 0 0 0 15.210040410762304 115.75343850197714 0 115.75343850197714 140.28534775036451 0 0 0 0 -16.674369347530956 48.617775308497812 0 48.617775308497812 -11.716664809529107 0 0 0 0 -9.1494205668313953 51.314022760900571 0 51.314022760900571 -10.843063560257519 0 0 0 0 -28.290228872583612 37.76919625249252 0 37.76919625249252 -12.326674133562847 0 0 0 0 -18.99053711720444 44.202574773368951 0 44.202574773368951 -8.0761210289081191 0 0 0 0 -20.654300439529834 40.064952118375345 0 40.064952118375345 -0.56372501504188222 0 0 0 0 -16.621967107155797 24.979458960357988 0 24.979458960357988 13.680336562975072 0 0 0 0 -1.6839260717206344 38.576609020602746 0 38.576609020602746 -2.7495597598883137 0 0 0 0 -7.8140083245452843 45.088451637288699 0 45.088451637288699 -3.389665932617504 0 0 0 0 -1.0770563632468111 44.950448623397165 0 44.950448623397165 -6.077740825910837 0 0 0 0 9.3013795653205307 56.553911397190859 0 56.553911397190859 -11.512794166255844 0 0 0 0 4.0034567607008285 61.790597106224425 0 61.790597106224425 -16.658187960149462 0 0 0 0 13.127230569260064 69.348686454716926 0 69.348686454716926 -17.597307419612662 0 0 0 0 19.597400690370705 67.761523108701738 0 67.761523108701738 -21.869651875685577 0 0 0 0 14.690697468048711 78.504818327653084 0 78.504818327653084 -32.633572787892035 0 0 0 0 17.74362899895641 82.510652463615429 0 82.510652463615429 -31.30043382886879 0 0 0 0 0.81141645696334308 72.208821422197389 0 72.208821422197389 -21.366628133627742 0 0 0 0 -11.045941844602567 69.184237180472905 0 69.184237180472905 -20.066927470792962 0 0 0 0 6.3870926203144336 61.71632988649344 0 61.71632988649344 -17.045302864774953 0 0 0 0 -22.984971562307692 63.128365971491746 0 63.128365971491746 -22.824871068714174 0 0 0 0 -21.448326328612893 66.5730176622626 0 66.5730176622626 -31.157714840368811 0 0 0 0 -12.158908210059963 91.733085136056729 0 91.733085136056729 -28.082477370956894 0 0 0 0 -59.357006477752293 90.595071780798207 0 90.595071780798207 -18.926194456890016 0 0 0 0 21.640679224516134 102.07038160223567 0 102.07038160223567 -28.520183926802702 0 0 0 0 -37.125236708363445 58.661344333565921 0 58.661344333565921 -32.399880539457428 0 0 0 0 -24.253484310658678 56.369292908667148 0 56.369292908667148 -19.454183455444081 0 0 0 0 -33.548131241199371 52.035277629601126 0 52.035277629601126 -21.189614076814905 0 0 0 0 -45.99082748145338 46.620206879865407 0 46.620206879865407 -16.475510540139567 0 0 0 0 -37.724975307504792 45.278830671049491 0 45.278830671049491 -17.677497625573324 0 0 0 0 -30.682431789777183 62.735152424642365 0 62.735152424642365 -35.023031096144962 0 0 0 0 -36.844266547226653 59.745224869211711 0 59.745224869211711 -36.035525136345314 0 0 0 0 -57.548140012055228 56.443624028671593 0 56.443624028671593 -18.949063476570814 0 0 0 0 -62.160342199578736 62.345159393400763 0 62.345159393400763 -15.892571862202203 0 0 0 0 -68.748010372910358 35.61740211410995 0 35.61740211410995 -1.7218185667406942 0 0 0 0 -70.677018998510903 36.145609057922229 0 36.145609057922229 1.6031465430451135 0 0 0 0 -74.011978092290519 28.153241262871006 0 28.153241262871006 -0.091588956204759597 0 0 0 0 -82.386930780951843 28.40557168839814 0 28.40557168839814 4.2146517575756661 0 0 0 0 -78.704906763181498 34.990181062195006 0 34.990181062195006 4.4320819193203533 0 0 0 0 2.705901078953179 10.096369131906233 0 10.096369131906233 -3.4579273957835683 0 0 0 0 -2.2479330340947854 17.954294460568008 0 17.954294460568008 -3.9904712678526266 0 0 0 0 -61.784649536461075 2.4045025476880255 0 2.4045025476880255 -9.4395981084485356 0 0 0 0 -17.864308005011935 15.812355787524638 0 15.812355787524638 1.0337872706688813 0 0 0 0 -6.4929129022353838 10.784508964286074 0 10.784508964286074 -3.8963694126306256 0 0 0 0 -9.2875057137393924 16.059013659306629 0 16.059013659306629 -0.095778464181933032 0 0 0 0 -61.86941560467676 32.205416906811365 0 32.205416906811365 -5.9001254310616105 0 0 0 0 -61.047105133906371 26.905044266256141 0 26.905044266256141 -3.0554986959217558 0 0 0 0 -3.0639670675898341 0.76697809284179286 0 0.76697809284179286 0.73411846165061245 0 0 0 0 -46.915842679121397 23.615845240357373 0 23.615845240357373 -7.4746486508506678 0 0 0 0 3.848683384972901 17.794622729204775 0 17.794622729204775 -4.6169634774421979 0 0 0 0 10.251385553778164 20.720341428354345 0 20.720341428354345 -5.8319161813707296 0 0 0 0 3.5512051099385644 18.88222077698606 0 18.88222077698606 -4.450031960639194 0 0 0 0 17.250982787865723 18.712111452110037 0 18.712111452110037 -8.1839324848861565 0 0 0 0 17.468627061485677 21.228988561640108 0 21.228988561640108 -6.7975383378179686 0 0 0 0 3.6988447562075635 26.850824736804555 0 26.850824736804555 0.12703020716855917 0 0 0 0 -39.037073567224525 20.546650088406494 0 20.546650088406494 2.2331575084234387 0 0 0 0 -7.9657431087153219 9.8416632454677693 0 9.8416632454677693 -3.1206273166409835 0 0 0 0 43.875701108721273 82.731468355891565 0 82.731468355891565 -8.0929631699966649 0 0 0 0 -26.430423558732855 23.074347913859668 0 23.074347913859668 -7.5413443137822469 0 0 0 0 0.11834850975701983 -0.22140519921796908 0 -0.22140519921796908 0.46686465334702021 0 0 0 0 -11.89614929686104 32.10268972256722 0 32.10268972256722 -2.0574778719130791 0 0 0 0 -26.694973558551283 -0.76894098641696473 0 -0.76894098641696473 9.175179128108482 0 0 0 0 -46.551299712141528 58.552264537222499 0 58.552264537222499 -6.5157779545440917 0 0 0 0 14.183903975023441 35.995687786461644 0 35.995687786461644 -3.9857605140077794 0 0 0 0 -47.340261770059442 -2.8039023046111424 0 -2.8039023046111424 17.644660339205643 0 0 0 0 -29.026452860303834 -0.83406663029694528 0 -0.83406663029694528 17.181108477946054 0 0 0 0 8.5336311637656763 16.631929115011928 0 16.631929115011928 -5.6297360450162159 0 0 0 0 5.4797307581152381 29.575997981687436 0 29.575997981687436 -47.1224410255777 0 0 0 0 11.565315755808115 25.041332299935675 0 25.041332299935675 -16.613238056193836 0 0 0 0 -39.924839311886899 47.521908869828849 0 47.521908869828849 -5.8545269898154402 0 0 0 0 -45.06154035405666 5.6801397225709422 0 5.6801397225709422 11.57018695769284 0 0 0 0 -0.61175960295731358 0.24005026316766198 0 0.24005026316766198 -0.15759375309263213 0 0 0 0 -4.4292758944484376 6.5324246379212809 0 6.5324246379212809 9.5944273208215236 0 0 0 0 -17.81766561231052 9.4612915343872146 0 9.4612915343872146 11.048986633755476 0 0 0 0 -17.313631478395109 28.580918053503069 0 28.580918053503069 9.2823832951168015 0 0 0 0 10.054367698008718 30.039162826857932 0 30.039162826857932 3.0151186893538124 0 0 0 0 -4.9880820487360324 39.705988377293345 0 39.705988377293345 -3.1334664991545651 0 0 0 0 -6.7675942595942615 27.96833071886681 0 27.96833071886681 5.3997479008071423 0 0 0 0 -76.952553227717999 -81.633466492563841 0 -81.633466492563841 86.233175478318103 0 0 0 0 14.943473181705485 -23.246517070147547 0 -23.246517070147547 -27.441980201522597 0 0 0 0 5.0363574408720524 12.276335121465195 0 12.276335121465195 4.7449236749354213 0 0 0 0 -7.9807450136192006 9.4555394173857792 0 9.4555394173857792 -2.362719902166404 0 0 0 0 37.137067571027728 22.884447016869544 0 22.884447016869544 -11.679670558416092 0 0 0 0 2.6120400670959505 2.9860065735300232 0 2.9860065735300232 -1.6139682631460963 0 0 0 0 88.703258440681111 53.19830135991198 0 53.19830135991198 -47.296492179475059 0 0 0 0 -7.0655785376735505 6.8275474746659874 0 6.8275474746659874 1.3977656462964894 0 0 0 0 -1.4240686813338588 6.1984061769150607 0 6.1984061769150607 -5.2346995789802682 0 0 0 0 12.652887192075468 17.124540724176541 0 17.124540724176541 6.3605031855563539 0 0 0 0 2.2747386106002523 16.188443295629014 0 16.188443295629014 5.792296055460497 0 0 0 0 -1.4719447468560247 12.803902281017258 0 12.803902281017258 4.7100756629231171 0 0 0 0 -1.9289122564223362 16.433986653695342 0 16.433986653695342 8.8018262456596403 0 0 0 0 1.0044999341862422 15.050578001476822 0 15.050578001476822 6.2447846027106948 0 0 0 0 1.8875214113759284 17.025288902789214 0 17.025288902789214 3.0431770599902848 0 0 0 0 9.5095876593386492 18.056928507304633 0 18.056928507304633 3.967390536464336 0 0 0 0 3.2411071259875825 15.024923826627855 0 15.024923826627855 5.6602521944734008 0 0 0 0 4.0707779540271076 29.049125661325235 0 29.049125661325235 12.003294092979786 0 0 0 0 18.139489240382318 32.601044036163898 0 32.601044036163898 9.0471752951538065 0 0 0 0 -1.3986181126135762 33.766793041630521 0 33.766793041630521 11.033201074582394 0 0 0 0 1.0461702438474276 23.480408437566368 0 23.480408437566368 10.259069075707203 0 0 0 0 -1.9088816467947254 14.330417397877511 0 14.330417397877511 10.279743967797231 0 0 0 0 -3.2469221581777674 15.951724642578938 0 15.951724642578938 9.1161877010721355 0 0 0 0 -6.376230993468198 22.772249544098258 0 22.772249544098258 12.186163291388425 0 0 0 0 7.2410443126973405 23.022870534397498 0 23.022870534397498 9.4168120407701963 0 0 0 0 -0.86455371361626021 20.292294936149972 0 20.292294936149972 8.9933845025918799 0 0 0 0 0.017912663934112061 19.095003762045167 0 19.095003762045167 7.052092737995622 0 0 0 0 9.0776121542621695 23.736119470682752 0 23.736119470682752 2.7337284250053244 0 0 0 0 9.0283795996649587 23.879439667289276 0 23.879439667289276 5.9888516655571493 0 0 0 0 27.154128188805771 30.990201196203316 0 30.990201196203316 6.9001112676473895 0 0 0 0 67.24808903484336 54.479262538011994 0 54.479262538011994 2.6182420002162416 0 0 0 0 33.23457604183568 64.396368377572003 0 64.396368377572003 20.619167432195468 0 0 0 0 29.761049000757339 57.692307995028614 0 57.692307995028614 26.914408399932995 0 0 0 0 36.781494880564424 46.692301067783205 0 46.692301067783205 11.258028165927726 0 0 0 0 23.686512039299487 36.831545877411628 0 36.831545877411628 6.8677290800787887 0 0 0 0 27.446827199017036 69.251477593715634 0 69.251477593715634 51.296776261042851 0 0 0 0 27.53019582953857 64.765366782687693 0 64.765366782687693 36.441412705518815 0 0 0 0 31.578053703407932 73.640833613795508 0 73.640833613795508 48.985738384444716 0 0 0 0 24.941524338722957 59.157771950139704 0 59.157771950139704 38.585303599367762 0 0 0 0 30.536848655932772 54.70238986116351 0 54.70238986116351 20.566935547802359 0 0 0 0 28.795016876516456 58.365407204704979 0 58.365407204704979 31.316286977246591 0 0 0 0 23.030600478367887 51.035295872165221 0 51.035295872165221 31.925052189598091 0 0 0 0 19.934108631605341 45.611177248892773 0 45.611177248892773 16.986577270432008 0 0 0 0 25.79415088820133 45.8270159662612 0 45.8270159662612 16.042012997435904 0 0 0 0 25.782664337022652 44.80735636153679 0 44.80735636153679 18.354346310181654 0 0 0 0 14.629077639619936 37.11918875950596 0 37.11918875950596 14.091639260619729 0 0 0 0 25.014271941633524 44.463313004551253 0 44.463313004551253 12.341270582379366 0 0 0 0 20.771232987408439 47.012164263852583 0 47.012164263852583 23.361393123660662 0 0 0 0 17.705966138870281 35.868388846141443 0 35.868388846141443 9.0368924853605677 0 0 0 0 8.9129257175870862 38.118133939479051 0 38.118133939479051 9.8130600643662547 0 0 0 0 17.955280293472242 39.924508696502016 0 39.924508696502016 2.6300018301940327 0 0 0 0 19.655648704618216 38.714071882232588 0 38.714071882232588 4.3626201184753199 0 0 0 0 17.031305872218581 37.888691589434302 0 37.888691589434302 9.5268234418147131 0 0 0 0 21.117522257147357 47.781982308809802 0 47.781982308809802 16.475878311232918 0 0 0 0 11.805034763128788 38.86233375457914 0 38.86233375457914 -1.499526567187047 0 0 0 0 14.424240353719142 42.627621687881913 0 42.627621687881913 1.4396229014346318 0 0 0 0 9.8049182619251951 25.663713119970112 0 25.663713119970112 -2.8317892461277552 0 0 0 0 5.9068477530527161 17.224281272803637 0 17.224281272803637 4.4578582622129943 0 0 0 0 3.4228004258420697 31.245527555743479 0 31.245527555743479 1.7610305325444102 0 0 0 0 34.43519848926735 64.886766949229241 0 64.886766949229241 -18.359663007639938 0 0 0 0 19.640505350937019 58.139827112675789 0 58.139827112675789 -2.4422213376637956 0 0 0 0 21.938730914571352 53.878796500026738 0 53.878796500026738 -11.998880858625853 0 0 0 0 9.4814292153257611 53.052257120542137 0 53.052257120542137 -1.9399650987606947 0 0 0 0 27.945024472363002 48.449258641998767 0 48.449258641998767 -1.3622748671407408 0 0 0 0 22.064251282043188 51.058963227449567 0 51.058963227449567 7.7677977019711761 0 0 0 0 28.292345839072368 45.558087100247462 0 45.558087100247462 6.3485590975942614 0 0 0 0 22.534951969706526 47.881631596072566 0 47.881631596072566 15.497947975404031 0 0 0 0 35.262704567412584 48.320914833870802 0 48.320914833870802 15.166941360058047 0 0 0 0 32.140022573643364 59.256030386881662 0 59.256030386881662 -3.0780000233154965 0 0 0 0 37.007288035725651 49.787399498602667 0 49.787399498602667 12.242480532057243 0 0 0 0 44.321548621774127 46.631658704384108 0 46.631658704384108 32.051164748359952 0 0 0 0 31.954983053764408 46.925061588382277 0 46.925061588382277 30.385679136998533 0 0 0 0 38.899644563669426 57.394212579997202 0 57.394212579997202 16.699277780728835 0 0 0 0 38.445431521486171 46.926295409521686 0 46.926295409521686 43.74688625972567 0 0 0 0 41.361126738236635 57.822982347768516 0 57.822982347768516 42.118066553818835 0 0 0 0 47.703844502693073 49.059403241098522 0 49.059403241098522 52.226224469430235 0 0 0 0 27.203967893834488 53.754752265594334 0 53.754752265594334 30.053001840158686 0 0 0 0 32.783706419279042 55.890337882116228 0 55.890337882116228 39.539825747996574 0 0 0 0 30.185958786475567 47.574955706061019 0 47.574955706061019 38.74657007032215 0 0 0 0 34.407768027347629 54.59474620680021 0 54.59474620680021 32.660817086790587 0 0 0 0 25.914533905673864 59.236764730266103 0 59.236764730266103 54.498522654777162 0 0 0 0 25.808580394175806 55.943717289882784 0 55.943717289882784 40.728749567744899 0 0 0 0 30.789838698483436 58.09010556053201 0 58.09010556053201 55.247497506367154 0 0 0 0 25.697016286267171 59.417497960383116 0 59.417497960383116 70.429988501715798 0 0 0 0 24.943037653174542 64.541861329847393 0 64.541861329847393 52.189046715980226 0 0 0 0 23.769260424654931 65.925030298783895 0 65.925030298783895 61.642399411008455 0 0 0 0 49.315678652696079 61.733161173562394 0 61.733161173562394 81.600993895486226 0 0 0 0 51.283456296514487 63.527672492564193 0 63.527672492564193 60.360936155906018 0 0 0 0 39.095197766793717 54.425405277095592 0 54.425405277095592 72.70355660070004 0 0 0 0 39.432843405389576 57.156732607877302 0 57.156732607877302 54.205779127823007 0 0 0 0 50.140330313026425 69.078598437905441 0 69.078598437905441 69.639199093569232 0 0 0 0 50.782228930467681 63.915782226261967 0 63.915782226261967 89.036022781437282 0 0 0 0 70.563955397916288 75.504836375544585 0 75.504836375544585 78.929253394620673 0 0 0 0 60.313225363577658 73.629261344383508 0 73.629261344383508 112.45891302951719 0 0 0 0 76.740979892616451 76.736558246511947 0 76.736558246511947 88.391195381342413 0 0 0 0 67.30943489246738 99.165846552132066 0 99.165846552132066 110.8547950186794 0 0 0 0 60.004789125439856 59.005897690346501 0 59.005897690346501 62.308930438029847 0 0 0 0 62.98402817187889 61.765732506911831 0 61.765732506911831 62.20829238378542 0 0 0 0 54.216159532472375 71.515319519413538 0 71.515319519413538 94.237244938065487 0 0 0 0 54.707181564193888 49.827414249927642 0 49.827414249927642 41.251733538745611 0 0 0 0 48.502521399987131 62.324501753441346 0 62.324501753441346 62.971703202375693 0 0 0 0 52.876106896812416 63.70274714191487 0 63.70274714191487 60.003341620828564 0 0 0 0 63.096535943379422 52.114439481916747 0 52.114439481916747 27.20769920912926 0 0 0 0 47.037164532590396 65.422578527163068 0 65.422578527163068 23.955433932989393 0 0 0 0 45.884700864615297 61.117734653935408 0 61.117734653935408 31.743661954599247 0 0 0 0 43.290850099308955 49.587802789060021 0 49.587802789060021 50.473265674289223 0 0 0 0 47.32190571929641 71.712820724653795 0 71.712820724653795 30.146983791564253 0 0 0 0 57.787002528017183 55.665132636123076 0 55.665132636123076 20.4315475583644 0 0 0 0 58.764782423339057 38.881236932342063 0 38.881236932342063 61.929514461383633 0 0 0 0 52.964302350902472 67.605334424193444 0 67.605334424193444 52.438606008369106 0 0 0 0 49.973844646819998 68.162690081724335 0 68.162690081724335 101.27551981835245 0 0 0 0 9.6610088013313629 4.9455686697587051 0 4.9455686697587051 -11.279210344462829 0 0 0 0 9.55829036463183 15.488360855776477 0 15.488360855776477 50.331492118370079 0 0 0 0 46.537559736013463 68.386656116455498 0 68.386656116455498 120.36795450689556 0 0 0 0 1.1042152399938274 1.420662781647783 0 1.420662781647783 2.30300570862947 0 0 0 0 23.784509724161126 14.884417651089962 0 14.884417651089962 -7.9889266953509832 0 0 0 0 27.871527948924268 11.553563758223845 0 11.553563758223845 -7.2433884356083809 0 0 0 0 14.772704789950083 3.6670230166446096 0 3.6670230166446096 -7.7558257085439379 0 0 0 0 27.289619184768526 14.6879292889098 0 14.6879292889098 5.7171350204721421 0 0 0 0 33.995846720558802 17.84870010278155 0 17.84870010278155 5.1154669615139028 0 0 0 0 20.858087874269174 2.1015717054758678 0 2.1015717054758678 -6.9937356720691799 0 0 0 0 14.533312067119368 86.592715051447954 0 86.592715051447954 -21.113153257223985 0 0 0 0 56.39386098515206 9.1685881472311621 0 9.1685881472311621 6.9868078542475587 0 0 0 0 26.780593152408983 60.026994769518637 0 60.026994769518637 85.014197479051859 0 0 0 0 56.063125198332273 53.244430958789962 0 53.244430958789962 -0.0018114790285608251 0 0 0 0 47.988988463986971 85.905166676449028 0 85.905166676449028 -67.608413734381202 0 0 0 0 -182.6432739485972 275.74909426559907 0 275.74909426559907 -132.21521690204054 0 0 0 0 18.763428781267976 190.48309555687797 0 190.48309555687797 -282.51575701133584 0 0 0 0 47.528971228668524 81.401725753101687 0 81.401725753101687 -73.298043516884036 0 0 0 0 -11.67876519517813 171.72587065500807 0 171.72587065500807 -106.77520849810776 0 0 0 0 -109.28486570427049 172.36364693838937 0 172.36364693838937 -4.6999924827581481 0 0 0 0 -40.245516859110467 152.02135016240243 0 152.02135016240243 -25.978781718612936 0 0 0 0 28.787050114127851 117.42599658365589 0 117.42599658365589 -38.059074774914507 0 0 0 0 25.969675612494029 113.15312327505876 0 113.15312327505876 -44.306998850258196 0 0 0 0 39.03706970989515 84.032448981503194 0 84.032448981503194 -19.756386242378085 0 0 0 0 21.369426961584395 95.874255937316207 0 95.874255937316207 -27.533413766300328 0 0 0 0 22.58832410229661 71.271194594339931 0 71.271194594339931 -20.326116418263609 0 0 0 0 22.851368419374921 74.688901496107974 0 74.688901496107974 -13.921254322205073 0 0 0 0 33.870414296899071 82.768464902442702 0 82.768464902442702 -14.037250908357009 0 0 0 0 46.920671802963625 62.854908487870944 0 62.854908487870944 -9.3086888333783691 0 0 0 0 39.402539657515717 66.760715135059456 0 66.760715135059456 0.99850327228364222 0 0 0 0 52.076740019059798 50.041257469673724 0 50.041257469673724 14.077600885650554 0 0 0 0 63.272681510175971 71.047049847912717 0 71.047049847912717 -40.941434201759421 0 0 0 0 46.345788233978965 70.39971798312888 0 70.39971798312888 12.682868376573879 0 0 0 0 58.653815175834097 59.241413808512789 0 59.241413808512789 -7.3912634114226421 0 0 0 0 -107.32379671679428 86.049634358565868 0 86.049634358565868 -27.008781246824356 0 0 0 0 -71.459778101170741 11.082676263316671 0 11.082676263316671 3.8142699211443869 0 0 0 0 2.3365513428330686 2.4242172117332146 0 2.4242172117332146 0.4094316369764881 0 0 0 0 3.2980758322823789 3.5450471070776857 0 3.5450471070776857 2.0348927206283189 0 0 0 0 41.884702205690701 52.222457842270416 0 52.222457842270416 -21.762230682832978 0 0 0 0 -8.2692809669006238 41.771782757900837 0 41.771782757900837 -4.2340214270967635 0 0 0 0 79.913664734945996 48.057553559282042 0 48.057553559282042 25.185631242294221 0 0 0 0 162.25256190739128 -31.941931918969431 0 -31.941931918969431 -30.197802058760942 0 0 0 0 -62.551108763564116 74.620630642599508 0 74.620630642599508 -36.372326786641224 0 0 0 0 104.32510594542146 87.990898803815981 0 87.990898803815981 -150.13875134346699 0 0 0 0 -58.923408284996185 137.17695503215316 0 137.17695503215316 -105.91329894206046 0 0 0 0 13.826803632706287 145.11784111578118 0 145.11784111578118 -279.88863714986769 0 0 0 0 -244.2832478569162 261.30388483482199 0 261.30388483482199 -139.91761351984201 0 0 0 0 -182.85584775783354 30.490089394033703 0 30.490089394033703 -6.3563524237910656 0 0 0 0 -86.245095571944148 136.7860343927764 0 136.7860343927764 -20.452687055829756 0 0 0 0 -302.31727278703875 99.342496573218227 0 99.342496573218227 21.319992498515376 0 0 0 0 0.31404207072972523 15.508849974630554 0 15.508849974630554 10.827449038767996 0 0 0 0 -582.63945178923677 -27.393830520381925 0 -27.393830520381925 86.759529467127322 0 0 0 0 -926.71781359962552 272.68313164728443 0 272.68313164728443 -273.5655251026069 0 0 0 0 -453.28439507094299 357.73344075080331 0 357.73344075080331 -360.61613737547214 0 0 0 0 3.7645764762415936 4.201395664483849 0 4.201395664483849 -0.70613104211335642 0 0 0 0 -25.677160372439175 -24.438541126009113 0 -24.438541126009113 -81.53286783443491 0 0 0 0 -0.36939957802887946 0.24302339222388625 0 0.24302339222388625 -0.11953699515830873 0 0 0 0 -414.28874927768356 263.6892675244406 0 263.6892675244406 -270.39705305521238 0 0 0 0 -431.01276031642556 267.0299333079904 0 267.0299333079904 -126.8026462175394 0 0 0 0 85.12351226017563 -71.8716952200175 0 -71.8716952200175 -132.36287196175761 0 0 0 0 5.5464887153689277 3.2079654823212778 0 3.2079654823212778 -0.91362712200900997 0 0 0 0 -4.618455359723157 4.9019239229978666 0 4.9019239229978666 38.429358990283788 0 0 0 0 -302.97071451838292 84.08412045461256 0 84.08412045461256 19.384579510451431 0 0 0 0 -0.82204072295462538 31.22967950826586 0 31.22967950826586 33.681509878043244 0 0 0 0 239.96719156524341 6.1776486556964301 0 6.1776486556964301 -92.013883001893191 0 0 0 0 -81.91009568208392 123.67719957694453 0 123.67719957694453 -250.62239865843367 0 0 0 0 64.907132686284967 -65.650836173310722 0 -65.650836173310722 -96.554756834529144 0 0 0 0 0.93885362578658516 0.77616483635301492 0 0.77616483635301492 -0.03958172126304671 0 0 0 0 -104.52784184527445 123.86912805347384 0 123.86912805347384 -51.156906621296002 0 0 0 0 294.78277155035175 -185.36065310840502 0 -185.36065310840502 -31.448219330185822 0 0 0 0 51.709568313948694 28.565144992186788 0 28.565144992186788 -25.054009616068527 0 0 0 0 78.89144527222561 -12.2566069041427 0 -12.2566069041427 9.98610924699409 0 0 0 0 79.537014724968685 -3.090236383955812 0 -3.090236383955812 -41.98336922372232 0 0 0 0 -40.035600280270955 -4.085792108440728 0 -4.085792108440728 20.208047766449226 0 0 0 0 -8.4193024780752239 60.567903207177153 0 60.567903207177153 -64.305996763743451 0 0 0 0 140.01191690604901 -0.26909880599760072 0 -0.26909880599760072 -23.736712089660614 0 0 0 0 -34.41865800960295 50.208551479049106 0 50.208551479049106 0.42422760118097358 0 0 0 0 0.14965134855981965 0.13542041958706719 0 0.13542041958706719 -0.79445702452322919 0 0 0 0 105.96492259857041 39.457025784823372 0 39.457025784823372 -28.462192630861409 0 0 0 0 25.846866632691672 22.979352357837399 0 22.979352357837399 14.01998003421545 0 0 0 0 80.245750885633242 -10.253271308086937 0 -10.253271308086937 19.42339032757377 0 0 0 0 55.664826225188335 16.430074313160731 0 16.430074313160731 -0.86788834122421576 0 0 0 0 1.8668682032985089 13.218196511749284 0 13.218196511749284 6.266988450000099 0 0 0 0 42.925006305838906 0.89204750727986948 0 0.89204750727986948 1.7387453642563742 0 0 0 0 0.056322810167081627 0.084125480864983615 0 0.084125480864983615 0.04256298524471358 0 0 0 0 84.231113910819658 75.230531523898321 0 75.230531523898321 48.357655291258084 0 0 0 0 50.609054025028854 27.507203169017544 0 27.507203169017544 27.527177365458328 0 0 0 0 -0.1787406335752344 0.32311203560092494 0 0.32311203560092494 -0.10024012324526854 0 0 0 0 12.81948941367591 6.2871121479461181 0 6.2871121479461181 8.3012369426439818 0 0 0 0 18.447370651394522 15.50814707318284 0 15.50814707318284 55.069277994632557 0 0 0 0 93.317445392818627 87.994092694224264 0 87.994092694224264 64.304222483422478 0 0 0 0 238.4772287316473 81.203289813693232 0 81.203289813693232 -0.42389183980185408 0 0 0 0 149.63082087843304 33.282272415324485 0 33.282272415324485 -21.246852679619906 0 0 0 0 80.360387583821648 35.740400698867916 0 35.740400698867916 -20.216221336345257 0 0 0 0 0.27067595524445309 0.080869857829931391 0 0.080869857829931391 -0.48189001743266413 0 0 0 0 69.929601473755611 32.849522815099931 0 32.849522815099931 -13.563845908160204 0 0 0 0 125.36345401123981 76.862723363568648 0 76.862723363568648 -13.883778764760564 0 0 0 0 90.620126773415905 109.02216192847499 0 109.02216192847499 3.1680732743900535 0 0 0 0 69.157462237310938 54.227407887915433 0 54.227407887915433 -22.018714009391942 0 0 0 0 52.196681357783746 45.055684000661699 0 45.055684000661699 -26.481516732597584 0 0 0 0 69.572914296759336 33.544853935048877 0 33.544853935048877 35.357562721136446 0 0 0 0 90.564060139104186 -8.4022210869597984 0 -8.4022210869597984 48.342559222065404 0 0 0 0 52.669888368072861 52.111682374437805 0 52.111682374437805 66.560307679650094 0 0 0 0 9.3197005788460956 78.019259068084239 0 78.019259068084239 -29.84112027679825 0 0 0 0 6.5195406580533017 76.093817450182769 0 76.093817450182769 -29.975504751770174 0 0 0 0 26.077054204070009 75.59801538482418 0 75.59801538482418 -29.921588319104558 0 0 0 0 9.6854984499532293 78.802909156041437 0 78.802909156041437 -28.163233905547486 0 0 0 0 -16.579722100211029 87.36575119668808 0 87.36575119668808 -19.731223431363105 0 0 0 0 -38.323255519255326 145.72444049654302 0 145.72444049654302 -25.378893984225613 0 0 0 0 -14.535777041692768 110.81313401611804 0 110.81313401611804 12.229657778313367 0 0 0 0 91.721230316779383 140.66251629912119 0 140.66251629912119 21.012731241617757 0 0 0 0 -44.481339392630616 124.87220316317575 0 124.87220316317575 26.991516408330995 0 0 0 0 -74.328083868251269 141.91763606371035 0 141.91763606371035 49.54271974613016 0 0 0 0 -92.873678426780316 72.634421861014516 0 72.634421861014516 -5.9947964084556133 0 0 0 0 -27.685717086385921 78.821080623109879 0 78.821080623109879 -20.241237670591545 0 0 0 0 -89.411265286506932 33.485369065906355 0 33.485369065906355 -35.792006036177099 0 0 0 0 0.36035526540158003 0.77804784699879548 0 0.77804784699879548 0.96775640747244651 0 0 0 0 -189.63990507181006 98.256007657887494 0 98.256007657887494 36.084844841587369 0 0 0 0 0.97536947266296536 2.0050005386392051 0 2.0050005386392051 2.217983756844454 0 0 0 0 17.456137421106632 70.458502245618774 0 70.458502245618774 -17.119364663851911 0 0 0 0 -81.999546430741248 87.744538563230776 0 87.744538563230776 -28.696597989345634 0 0 0 0 8.7483335710348911 92.489210829230274 0 92.489210829230274 -10.551429311994184 0 0 0 0 21.422247535290808 52.940514901846882 0 52.940514901846882 -41.635234292988798 0 0 0 0 -22.976110948606674 59.846429979687457 0 59.846429979687457 -28.359501331918182 0 0 0 0 43.66476590687671 81.051580381564463 0 81.051580381564463 -44.433359195093743 0 0 0 0 13.633422849063209 74.892499487331179 0 74.892499487331179 -45.362697529230445 0 0 0 0 41.906297992997679 39.378168685646756 0 39.378168685646756 -72.223364307648353 0 0 0 0 67.536968538768633 67.714876339491298 0 67.714876339491298 -74.672264909302839 0 0 0 0 25.854442821543671 42.735448979183047 0 42.735448979183047 -22.651294579453406 0 0 0 0 31.555036295807895 4.0495309606209275 0 4.0495309606209275 -5.595218218325499 0 0 0 0 -28.498703790238778 40.087852573444422 0 40.087852573444422 -29.128440838144797 0 0 0 0 -55.438975515617585 126.69689962414373 0 126.69689962414373 -49.008146343534008 0 0 0 0 14.019414205446083 54.191470773350716 0 54.191470773350716 -27.407163157073626 0 0 0 0 0.96638277771355341 2.0697851769009858 0 2.0697851769009858 2.6278847237103911 0 0 0 0 -99.727723587737273 -36.075917951279962 0 -36.075917951279962 35.586579791539862 0 0 0 0 62.516000544563212 129.33759362320734 0 129.33759362320734 196.28164726634054 0 0 0 0 -223.20569836426512 98.965993742507237 0 98.965993742507237 198.85407481092307 0 0 0 0 0.23853551626875102 0.73429054778841163 0 0.73429054778841163 1.4698070744185188 0 0 0 0 209.17662094126717 74.636137173029056 0 74.636137173029056 3.9673251558308493 0 0 0 0 -8.442829933496796 38.978212277188845 0 38.978212277188845 57.965093671215072 0 0 0 0 -28.52362689146139 36.815213313980394 0 36.815213313980394 61.519765310710227 0 0 0 0 26.28167683276024 115.22045974855877 0 115.22045974855877 173.38060504204714 0 0 0 0 35.514509905153318 87.78361792666567 0 87.78361792666567 17.797135098582658 0 0 0 0 77.280678071500006 20.32982814771367 0 20.32982814771367 -15.052604094385288 0 0 0 0 101.59259117171041 5.2018251365045671 0 5.2018251365045671 -14.167931928566986 0 0 0 0 74.69363136292759 21.23288863993514 0 21.23288863993514 5.0710449140756282 0 0 0 0 74.014169814133311 19.943312668963358 0 19.943312668963358 6.0270223806112426 0 0 0 0 0.33826810647505567 0.18828173976165274 0 0.18828173976165274 -1.0355546391044532 0 0 0 0 114.31218445896775 27.282082052081023 0 27.282082052081023 3.4459635871721161 0 0 0 0 108.44888583896864 26.473410765102869 0 26.473410765102869 -7.9009200329124951 0 0 0 0 80.025766356282475 23.12480812221861 0 23.12480812221861 13.690673391936912 0 0 0 0 79.377762975973383 31.100822447473433 0 31.100822447473433 -49.562674450897816 0 0 0 0 98.772577119174457 16.418100077529544 0 16.418100077529544 -2.8777855189277943 0 0 0 0 84.842147429584656 36.074444732633424 0 36.074444732633424 10.616276144904418 0 0 0 0 169.0351547778464 -28.722686046746048 0 -28.722686046746048 49.827264311806857 0 0 0 0 66.387102682372642 31.056015389948925 0 31.056015389948925 -72.953223562218227 0 0 0 0 64.635265616640027 24.028012784360499 0 24.028012784360499 32.592280536960288 0 0 0 0 0.18620314331288412 0.14800136307120582 0 0.14800136307120582 -0.54176388210116677 0 0 0 0 63.898270858844626 116.45623608615813 0 116.45623608615813 -29.561719658000129 0 0 0 0 54.824574490727628 38.218924112874362 0 38.218924112874362 27.48762257798785 0 0 0 0 -4.212206140260605 147.35469332058963 0 147.35469332058963 20.49244143129954 0 0 0 0 28.080803933726202 129.53377682076109 0 129.53377682076109 -27.201069286232268 0 0 0 0 -10.336296500372555 112.19339192575762 0 112.19339192575762 -9.1415524449021177 0 0 0 0 45.662544968519796 118.2061948570954 0 118.2061948570954 16.860288381742976 0 0 0 0 27.770577465857059 133.25717606526541 0 133.25717606526541 11.285643029167659 0 0 0 0 34.840399416474611 109.83513101333517 0 109.83513101333517 28.340017136319148 0 0 0 0 40.07491001424296 112.10522287728401 0 112.10522287728401 46.221179300647236 0 0 0 0 38.417125076669436 106.05860868773738 0 106.05860868773738 52.766357973776394 0 0 0 0 69.015838726043512 115.28782937781727 0 115.28782937781727 31.965039685826468 0 0 0 0 64.822739130613627 101.69429096058752 0 101.69429096058752 29.428447054419394 0 0 0 0 87.177429037463298 96.239973947934232 0 96.239973947934232 45.373789064838718 0 0 0 0 88.523878857692125 107.25866799316017 0 107.25866799316017 42.738283993191544 0 0 0 0 72.2880286816835 62.38234914031932 0 62.38234914031932 -15.249770631420915 0 0 0 0 69.691826289395067 54.67465335963584 0 54.67465335963584 56.570039928738424 0 0 0 0 85.963097312538594 125.25611446650328 0 125.25611446650328 47.970047489640365 0 0 0 0 64.186348935210845 69.751741605365623 0 69.751741605365623 156.88634226208865 0 0 0 0 130.89225735041055 116.47185478407141 0 116.47185478407141 -15.031625799267204 0 0 0 0 105.67139616696295 137.74976781675082 0 137.74976781675082 82.246853853835773 0 0 0 0 102.38435371031483 113.54312829135915 0 113.54312829135915 18.923614934079524 0 0 0 0 96.989624586880382 94.466074108019257 0 94.466074108019257 39.148391606648147 0 0 0 0 94.518214970878034 102.3125273362657 0 102.3125273362657 20.253713641139598 0 0 0 0 92.382678806618969 71.059718071942939 0 71.059718071942939 14.231536679259079 0 0 0 0 50.523130044268328 51.168407476332277 0 51.168407476332277 38.432883202220182 0 0 0 0 -5.7753995802781759 13.96240887194684 0 13.96240887194684 -5.9741375977087783 0 0 0 0 57.641666234785589 64.67737733388708 0 64.67737733388708 34.405938648957545 0 0 0 0 32.66604857243874 47.28936663262516 0 47.28936663262516 64.606069830600745 0 0 0 0 65.826016214057745 69.170166380511773 0 69.170166380511773 59.602067002831063 0 0 0 0 70.01139733459695 98.898293437626421 0 98.898293437626421 75.052484751409793 0 0 0 0 26.195254829413898 44.905248582752847 0 44.905248582752847 69.926863022958059 0 0 0 0 59.20064745828131 79.947975633127498 0 79.947975633127498 43.024145569597408 0 0 0 0 71.042729437062462 109.37065749207895 0 109.37065749207895 84.716148812252868 0 0 0 0 96.057483356038574 104.92848301021832 0 104.92848301021832 77.150365683269229 0 0 0 0 -19.118476059593377 49.546168914987447 0 49.546168914987447 123.13927954108794 0 0 0 0 -130.08514104281494 161.49293577119352 0 161.49293577119352 331.21105413549958 0 0 0 0 0.58567525944573795 3.9333502292709142 0 3.9333502292709142 -1.6121406423649134 0 0 0 0 89.483112177333169 47.240861885784625 0 47.240861885784625 -8.2354682723434962 0 0 0 0 -31.371588627481287 25.531194563242167 0 25.531194563242167 -8.0007467528112102 0 0 0 0 1.5902730175123843 0.15984279995981865 0 0.15984279995981865 -22.960575764483885 0 0 0 0 88.03456247021586 49.745135644677362 0 49.745135644677362 -7.1107969262538973 0 0 0 0 -32.524046929553833 21.19556772651314 0 21.19556772651314 -22.539661463266384 0 0 0 0 86.292029913708575 44.595553618789609 0 44.595553618789609 -15.086533311168751 0 0 0 0 24.713189047964988 49.172362463776153 0 49.172362463776153 -12.0647768505969 0 0 0 0 46.46395531034068 56.467973274993255 0 56.467973274993255 -14.650728575092899 0 0 0 0 -21.269386488333112 60.3578827587653 0 60.3578827587653 -14.204844226707564 0 0 0 0 -141.13375498408277 106.73371474257056 0 106.73371474257056 -29.51851204404511 0 0 0 0 13.99667108002177 69.985088370829772 0 69.985088370829772 -26.777315130678289 0 0 0 0 -8.8550736781653541 77.353312406913005 0 77.353312406913005 -26.559169411458242 0 0 0 0 -30.25815597107794 65.731691785267572 0 65.731691785267572 -9.4492441604179476 0 0 0 0 -34.588055801603332 104.92065579689302 0 104.92065579689302 10.59265876970494 0 0 0 0 32.213472531271691 139.73884739746563 0 139.73884739746563 28.685755738316857 0 0 0 0 1.4883189659431082 166.28316694515235 0 166.28316694515235 9.2697975638066055 0 0 0 0 54.903837875048339 120.40665268696193 0 120.40665268696193 32.618208448683617 0 0 0 0 6.4167301951201807 135.32080425047775 0 135.32080425047775 87.050845340941578 0 0 0 0 74.888855969802535 123.61796503150526 0 123.61796503150526 141.91947022070781 0 0 0 0 80.885897220301558 158.17982870676224 0 158.17982870676224 80.915269774350236 0 0 0 0 -18.545714420233708 -21.486713805954196 0 -21.486713805954196 -19.081251991159661 0 0 0 0 199.36003742936009 111.51507041293098 0 111.51507041293098 -32.295379818502852 0 0 0 0 1.2824786383331954 2.0718829430872701 0 2.0718829430872701 -4.7003463148920339 0 0 0 0 84.331835869415954 -41.940050325360517 0 -41.940050325360517 -149.86508301400863 0 0 0 0 187.17167962284293 221.90700761461358 0 221.90700761461358 206.71640382564146 0 0 0 0 174.52704603851998 218.27806653819073 0 218.27806653819073 221.95729485560878 0 0 0 0 74.213611090752238 89.731840892409309 0 89.731840892409309 101.97782617713347 0 0 0 0 165.30717527853085 107.82565648949128 0 107.82565648949128 92.853743817340728 0 0 0 0 82.13515520774672 117.65421332494225 0 117.65421332494225 138.81312016235279 0 0 0 0 130.50932646307774 99.82278688462975 0 99.82278688462975 67.807236249267589 0 0 0 0 93.125837058592879 115.58949108111483 0 115.58949108111483 155.94249536270399 0 0 0 0 103.67717396241642 102.74783442202261 0 102.74783442202261 42.893692320110233 0 0 0 0 91.585873730055027 98.755831104501567 0 98.755831104501567 69.333685381943724 0 0 0 0 91.534353200571786 103.9336790338948 0 103.9336790338948 44.444875302317257 0 0 0 0 56.967262874859443 93.877913726366842 0 93.877913726366842 85.132269866633578 0 0 0 0 55.19523566302496 104.85932662756028 0 104.85932662756028 61.52343867075524 0 0 0 0 49.108341299934182 128.36253459813759 0 128.36253459813759 57.907487280406713 0 0 0 0 44.749751151954115 121.20771277693393 0 121.20771277693393 82.603334499052835 0 0 0 0 35.183117764126109 123.66883473314596 0 123.66883473314596 35.074393675139163 0 0 0 0 32.05481522448099 117.24132917341012 0 117.24132917341012 58.582393361736422 0 0 0 0 2.7631223667376617 140.48940101347807 0 140.48940101347807 57.210924272162856 0 0 0 0 5.7034067509716806 150.02025402054983 0 150.02025402054983 36.584311687737227 0 0 0 0 20.737653142214185 145.24542167272693 0 145.24542167272693 38.250847542054998 0 0 0 0 -13.040390302507149 136.41771311686625 0 136.41771311686625 36.199825793483569 0 0 0 0 7.8916147501004161 137.98837678591258 0 137.98837678591258 -36.738767523160277 0 0 0 0 8.0686943315595272 156.56206388108137 0 156.56206388108137 28.457596837370602 0 0 0 0 -7.1891633951663607 149.5170143195121 0 149.5170143195121 28.203761671355096 0 0 0 0 5.2197271411896509 136.98793332003481 0 136.98793332003481 51.750955845416229 0 0 0 0 19.137862125914125 155.09788900847542 0 155.09788900847542 35.484487608896643 0 0 0 0 4.3336719822582381 129.40426744643742 0 129.40426744643742 -10.083685763433095 0 0 0 0 4.1555781098286388 152.24765954784516 0 152.24765954784516 36.616423309592619 0 0 0 0 3.9514403609573492 151.61774375089431 0 151.61774375089431 38.357620133937189 0 0 0 0 7.6053139837531489 143.93752337747742 0 143.93752337747742 42.890086524376329 0 0 0 0 7.5930715166177833 144.65905790108195 0 144.65905790108195 20.786352122038807 0 0 0 0 7.8838648001706133 154.43899753154795 0 154.43899753154795 34.50182220823126 0 0 0 0 2.9250540393550182 52.971399237502965 0 52.971399237502965 -82.725647535125177 0 0 0 0 17.901580385507259 2.8332066654504615 0 2.8332066654504615 -55.966688853441951 0 0 0 0 -20.024627890354168 2.9101962421202643 0 2.9101962421202643 17.49149138929215 0 0 0 0 5.3152951226114737 4.6579961709295423 0 4.6579961709295423 -1.1779624866277105 0 0 0 0 5.3974292370658077 12.918321875262791 0 12.918321875262791 -16.427916549721658 0 0 0 0 -10.373946046045603 35.643805424003943 0 35.643805424003943 -7.8165728452081567 0 0 0 0 -9.231052399031185 14.741061104072996 0 14.741061104072996 -1.8731577931405834 0 0 0 0 -13.561542179581011 21.229716274525799 0 21.229716274525799 86.751807747393514 0 0 0 0 -0.317327870594454 -20.339709900891194 0 -20.339709900891194 -4.4345970342584451 0 0 0 0 -16.023370900611553 -7.6293692305282548 0 -7.6293692305282548 57.354610707403481 0 0 0 0 -42.965387892360923 -30.698124363256852 0 -30.698124363256852 133.97575213292885 0 0 0 0 4.1104501787199936 2.984104449775943 0 2.984104449775943 1.8848054136013928 0 0 0 0 114.57504176262682 77.51483633202929 0 77.51483633202929 60.046726018676964 0 0 0 0 -62.03851958398991 67.22562495057241 0 67.22562495057241 112.05861270694163 0 0 0 0 -90.076514919330293 -35.677917304758012 0 -35.677917304758012 345.09435299028951 0 0 0 0 1.4266122390917388 1.2877413986874866 0 1.2877413986874866 0.7995865116858103 0 0 0 0 94.36587958904056 50.795901833025255 0 50.795901833025255 -114.96562063240492 0 0 0 0 -16.26339855970582 3.7603981902359465 0 3.7603981902359465 -16.050098224388194 0 0 0 0 69.948522393009625 47.635517175509449 0 47.635517175509449 -9.8179356002201246 0 0 0 0 42.220889853950212 40.235525402981693 0 40.235525402981693 6.1287338267798077 0 0 0 0 -2.2339665183062607 10.25797457706085 0 10.25797457706085 28.889040368395627 0 0 0 0 42.878122724804825 48.536732836325868 0 48.536732836325868 25.860334587850048 0 0 0 0 51.343137540599855 50.952883811297397 0 50.952883811297397 26.54039104548383 0 0 0 0 -41.999788301622175 55.37108754096198 0 55.37108754096198 -32.912045309714358 0 0 0 0 -37.89156595086024 23.73771199113537 0 23.73771199113537 35.698491303419814 0 0 0 0 -50.983538636244703 37.346036706290647 0 37.346036706290647 10.541474239858417 0 0 0 0 -6.1727026677872345 21.834750275509577 0 21.834750275509577 12.420228539872824 0 0 0 0 -8.5907447756938069 14.470890944004751 0 14.470890944004751 -5.6805783775387955 0 0 0 0 -133.8388086102641 13.760007969593062 0 13.760007969593062 172.7702646470002 0 0 0 0 48.390380476907012 99.997750199256188 0 99.997750199256188 -11.065881254540727 0 0 0 0 19.139991578307672 36.65027507277955 0 36.65027507277955 61.46554487214712 0 0 0 0 82.91815753422452 65.410596148442892 0 65.410596148442892 -89.84231255945997 0 0 0 0 65.798496762523428 44.295169930583143 0 44.295169930583143 -5.6168826060679748 0 0 0 0 19.963429529272616 66.549540870222245 0 66.549540870222245 -6.7911891910953273 0 0 0 0 -40.195412826378742 -2.9648451034345271 0 -2.9648451034345271 -55.1519492953812 0 0 0 0 67.703604998445371 54.630494861468833 0 54.630494861468833 -13.528156761480204 0 0 0 0 69.192331467882468 40.660755478216743 0 40.660755478216743 -2.398473089797335 0 0 0 0 -106.12434968065463 67.762138393097985 0 67.762138393097985 -6.5533985827578363 0 0 0 0 -141.55478388471965 40.286331595033516 0 40.286331595033516 33.233198043541051 0 0 0 0 -118.2890629571084 44.241290736470546 0 44.241290736470546 32.689756824194887 0 0 0 0 -114.60904315134758 34.192236221791063 0 34.192236221791063 60.030773929008319 0 0 0 0 -48.874303540422261 33.567283531611793 0 33.567283531611793 13.742090124380866 0 0 0 0 -49.131314975129499 30.427487809025479 0 30.427487809025479 9.6439472153110728 0 0 0 0 7.9494951787783066 2.2598692629944708 0 2.2598692629944708 -10.028423620240119 0 0 0 0 18.154332747322769 40.694220619171574 0 40.694220619171574 50.033698109719353 0 0 0 0 -32.323356269536816 38.524041607724939 0 38.524041607724939 -38.419450414575294 0 0 0 0 -1.1922891509882447 0.91321226269069111 0 0.91321226269069111 -0.27664376828662363 0 0 0 0 6.2216286936582037 6.9062035128863499 0 6.9062035128863499 20.332743668773674 0 0 0 0 -4.0425452994322271 2.012860400591566 0 2.012860400591566 -1.2290286366290006 0 0 0 0 8.6377517449627703 -15.491642903751284 0 -15.491642903751284 69.174813210544016 0 0 0 0 -0.87383145415151375 11.904996082163052 0 11.904996082163052 19.38295036511613 0 0 0 0 17.340367839853116 18.460341665933583 0 18.460341665933583 20.860905658274532 0 0 0 0 13.325018596275186 8.708741123190066 0 8.708741123190066 6.3777460311612231 0 0 0 0 7.0888430266927571 3.5206615348292871 0 3.5206615348292871 16.883603707884504 0 0 0 0 16.680383139284459 32.24442360713465 0 32.24442360713465 22.28456124477907 0 0 0 0 -2.4128105992222117 20.091991642854055 0 20.091991642854055 40.997103953614896 0 0 0 0 -11.009173518770694 20.102576792707623 0 20.102576792707623 26.741002433864651 0 0 0 0 -5.8213297758502449 12.201476066552914 0 12.201476066552914 23.289724195726649 0 0 0 0 -23.85901293137249 -5.233514319641472 0 -5.233514319641472 -4.8185215932762731 0 0 0 0 -29.765126586356018 20.666944126762701 0 20.666944126762701 15.401344889455231 0 0 0 0 -18.442829661958967 12.305353085018965 0 12.305353085018965 45.943905217330212 0 0 0 0 -16.329362393566043 10.676341780516623 0 10.676341780516623 22.82383298073637 0 0 0 0 -8.9575086882359756 20.103807011039862 0 20.103807011039862 24.831048669996676 0 0 0 0 -11.573724526113438 19.223972516108006 0 19.223972516108006 32.697482938653593 0 0 0 0 -7.7676532518247896 2.7968239707192488 0 2.7968239707192488 6.6254530271110745 0 0 0 0 0.65757099513757566 16.02701696253871 0 16.02701696253871 27.168232006958533 0 0 0 0 -34.565979845596303 54.883642474787621 0 54.883642474787621 65.740358416727986 0 0 0 0 -1.557856352277657 -1.278684643853607 0 -1.278684643853607 11.216603670653978 0 0 0 0 64.070582482350801 23.145617255124307 0 23.145617255124307 48.689458275476682 0 0 0 0 20.599422496514308 42.134351103812605 0 42.134351103812605 40.515340876836376 0 0 0 0 -24.752284383159349 1.6855652212630048 0 1.6855652212630048 28.609162440674936 0 0 0 0 -12.639926183665292 14.884104579423205 0 14.884104579423205 10.792895338740241 0 0 0 0 -45.771780087326533 4.7718255715819851 0 4.7718255715819851 30.298518856176997 0 0 0 0 -42.507046157681543 17.018449484089615 0 17.018449484089615 49.021861500106752 0 0 0 0 10.765979785683612 32.182813591134732 0 32.182813591134732 74.503473338435015 0 0 0 0 -31.660819656037347 12.811638411136641 0 12.811638411136641 -4.9568334339332978 0 0 0 0 0.51071152655718421 1.6442479628736901 0 1.6442479628736901 -0.46262225677089286 0 0 0 0 -29.129546815373942 21.975955061383779 0 21.975955061383779 -15.101160040257504 0 0 0 0 -53.996858213800806 3.344407900272401 0 3.344407900272401 -0.97388231283918003 0 0 0 0 -4.595175808222594 9.7467007026507062 0 9.7467007026507062 -12.513248441178215 0 0 0 0 32.85033469006521 32.513367494117347 0 32.513367494117347 -28.850366847781061 0 0 0 0 -13.486638138133685 31.440856853549349 0 31.440856853549349 13.166564842433672 0 0 0 0 -19.182624399192719 57.823936156009154 0 57.823936156009154 -2.2135629221811541 0 0 0 0 -1.826630958395981 57.755786710788016 0 57.755786710788016 34.476021642037722 0 0 0 0 34.363423875611261 24.048909683041529 0 24.048909683041529 13.436400581729245 0 0 0 0 -117.10788172347384 3.1943408319048814 0 3.1943408319048814 -6.848609359547595 0 0 0 0 -1.2115919574280269 16.014972728507018 0 16.014972728507018 59.376670236620157 0 0 0 0 -15.405798445757682 30.089583745797427 0 30.089583745797427 -3.068002231104856 0 0 0 0 -3.6659939389386551 17.156358106493656 0 17.156358106493656 6.0775945491344201 0 0 0 0 -18.806927435360194 27.196807615429407 0 27.196807615429407 9.6812271190538013 0 0 0 0 -6.8127646251973601 19.997903143907365 0 19.997903143907365 -32.574628365680837 0 0 0 0 -6.1321442661064793 14.051616852331335 0 14.051616852331335 7.1550322817215601 0 0 0 0 0.03023402091888272 0.58547092099921727 0 0.58547092099921727 4.5147898384716676 0 0 0 0 -6.651944939760142 30.394202220728403 0 30.394202220728403 -6.114346620213837 0 0 0 0 -6.5043335168884369 34.764483297283732 0 34.764483297283732 -57.133637908151286 0 0 0 0 -1.444246471795303 -1.1159139862735596 0 -1.1159139862735596 10.893279644732583 0 0 0 0 -18.288790687282017 27.493720162618047 0 27.493720162618047 -2.0204998624017207 0 0 0 0 -27.41324197985341 43.279501485406854 0 43.279501485406854 22.332414205231998 0 0 0 0 -26.280769188555496 39.710835421567481 0 39.710835421567481 21.545041351600503 0 0 0 0 -33.45928499897127 33.530286388578361 0 33.530286388578361 37.045466155912891 0 0 0 0 -32.25771171299948 26.394374199835795 0 26.394374199835795 50.243342731865596 0 0 0 0 -33.514563208573236 32.482716169389278 0 32.482716169389278 39.209276915016744 0 0 0 0 -18.343329024402919 15.985014591558866 0 15.985014591558866 23.314276785611128 0 0 0 0 -17.104471948216087 16.324273495387843 0 16.324273495387843 9.6409531845056335 0 0 0 0 -30.754635754205083 33.084741270979066 0 33.084741270979066 79.996728435547539 0 0 0 0 -37.14612895576829 47.916984264067878 0 47.916984264067878 57.01184819584654 0 0 0 0 -51.943636197052911 23.178587208966405 0 23.178587208966405 19.07079150787024 0 0 0 0 -36.08562387122538 46.744380641354098 0 46.744380641354098 36.352943856886213 0 0 0 0 -35.417301476019929 40.51228523726013 0 40.51228523726013 44.524055288884711 0 0 0 0 -38.549104425520227 53.535148200732237 0 53.535148200732237 44.018687453370148 0 0 0 0 31.377496676353985 71.4909278862267 0 71.4909278862267 32.734569048115418 0 0 0 0 76.011163543754265 58.632841738958859 0 58.632841738958859 18.544230090618157 0 0 0 0 -2.8076944002147499 5.1358770459845164 0 5.1358770459845164 -8.6538648161424661 0 0 0 0 67.655810329604719 28.742457970375654 0 28.742457970375654 58.865221380323874 0 0 0 0 99.470658276535687 79.634672732728291 0 79.634672732728291 -72.52932309606922 0 0 0 0 99.167907362570986 41.490629138643271 0 41.490629138643271 63.748136655046892 0 0 0 0 80.604354836768835 20.169671539933461 0 20.169671539933461 -71.277886016957837 0 0 0 0 0.13317426224518059 0.43962141902003715 0 0.43962141902003715 0.49640539939789896 0 0 0 0 -58.674280564169749 74.647915888680814 0 74.647915888680814 35.929630099857718 0 0 0 0 11.574421967554372 36.35289578504603 0 36.35289578504603 -71.601274616544188 0 0 0 0 24.778090211093513 105.86337081586998 0 105.86337081586998 -130.08988398550127 0 0 0 0 74.432786717365161 59.567218373564174 0 59.567218373564174 -87.531249902970558 0 0 0 0 -44.442703924675698 79.87998809633234 0 79.87998809633234 -44.619866978948721 0 0 0 0 -53.790852458544805 110.61601255552335 0 110.61601255552335 -63.752395173766672 0 0 0 0 -27.356171452340732 63.567473517658016 0 63.567473517658016 -67.713563194653489 0 0 0 0 -32.25497431509757 61.892179806807803 0 61.892179806807803 -68.263030378888743 0 0 0 0 -30.683374238602482 72.342015065229674 0 72.342015065229674 -82.822195666617972 0 0 0 0 -32.690092403759991 50.562337085338186 0 50.562337085338186 -68.641440359380795 0 0 0 0 0.18474027309038377 0.48621987232368724 0 0.48621987232368724 0.41155057627849789 0 0 0 0 -25.710781653487174 45.440197247327887 0 45.440197247327887 -10.98650648012358 0 0 0 0 -29.597871515180486 78.125314331730351 0 78.125314331730351 -59.002800163985285 0 0 0 0 0.5767884912449901 0.88189317783428756 0 0.88189317783428756 0.67852327548629088 0 0 0 0 10.151999386681837 19.283214071493376 0 19.283214071493376 -11.304607943486189 0 0 0 0 10.007338576362145 18.978108928200186 0 18.978108928200186 -6.2548161426931586 0 0 0 0 14.902474483252945 16.437985035505505 0 16.437985035505505 -8.0210816012117903 0 0 0 0 5.332898272617058 16.055185312222306 0 16.055185312222306 -6.5184561815726738 0 0 0 0 8.4608984137466905 16.74885151995602 0 16.74885151995602 -6.3760519345967168 0 0 0 0 -19.069403314771989 -0.87942964711237437 0 -0.87942964711237437 -6.0042000745488622 0 0 0 0 8.1375616504962647 8.9778593035419973 0 8.9778593035419973 -3.4695999565957738 0 0 0 0 -111.23461137779304 -6.8797778209693661 0 -6.8797778209693661 11.838874952768947 0 0 0 0 -103.22320574964397 93.730614110897704 0 93.730614110897704 -17.951826031434393 0 0 0 0 -146.60404338251283 40.93405782806326 0 40.93405782806326 11.943536874382403 0 0 0 0 -56.366948603426408 122.92757712857369 0 122.92757712857369 -2.5942179259027398 0 0 0 0 -214.70977730012345 -89.821074141537366 0 -89.821074141537366 -119.04968622510023 0 0 0 0 -236.00581719242109 248.54126859863459 0 248.54126859863459 -90.405816646364656 0 0 0 0 65.263166095989504 172.87143682943451 0 172.87143682943451 -165.37508702456489 0 0 0 0 -238.10442559890544 259.53716610228753 0 259.53716610228753 -142.48550812099313 0 0 0 0 -1.688209348702749 1.4489853030271211 0 1.4489853030271211 0.27788413808475099 0 0 0 0 3.6006633381257789 0.31815935091875502 0 0.31815935091875502 -0.3012660316293152 0 0 0 0 -92.109042244435841 155.03577783433047 0 155.03577783433047 -120.83776225069221 0 0 0 0 -4.1481438249011262 79.48116346264618 0 79.48116346264618 -110.5396738611646 0 0 0 0 25.731245200081503 83.949433025010478 0 83.949433025010478 -109.24103438276188 0 0 0 0 -219.37449527345052 138.21537070214697 0 138.21537070214697 -46.059732385634334 0 0 0 0 -229.75637425859713 60.751239044829504 0 60.751239044829504 -48.726719387107551 0 0 0 0 -471.64545371193526 151.99827134907116 0 151.99827134907116 23.945530777755266 0 0 0 0 -1.4610442263332377 2.1475277764953518 0 2.1475277764953518 -2.6428580368108552 0 0 0 0 -502.26914181347547 -39.232311103816528 0 -39.232311103816528 26.964266925716856 0 0 0 0 141.21890845643702 96.57585613305281 0 96.57585613305281 -95.063925965350336 0 0 0 0 -249.79134533433535 -59.559106592408853 0 -59.559106592408853 -39.658146265645883 0 0 0 0 -283.82098628322865 51.065201021912827 0 51.065201021912827 -10.091245442568834 0 0 0 0 -159.41528649033535 54.890035124476924 0 54.890035124476924 -14.44530652122836 0 0 0 0 -154.77143994166545 -34.052667933598002 0 -34.052667933598002 -32.85665800181863 0 0 0 0 -154.35203539641498 43.516625577229973 0 43.516625577229973 7.245150584858834 0 0 0 0 -118.57038307654693 78.544251821983494 0 78.544251821983494 -43.780164165795668 0 0 0 0 -96.522747274631911 90.922552946271054 0 90.922552946271054 -44.554275796379628 0 0 0 0 -7.0782472823520948 52.77577000512207 0 52.77577000512207 -63.763413055485046 0 0 0 0 -65.040080402170133 53.669455358116011 0 53.669455358116011 -12.54420777689279 0 0 0 0 -48.061361638614471 69.818495403760494 0 69.818495403760494 -45.537747172497234 0 0 0 0 -25.708790072665124 51.319343365077884 0 51.319343365077884 -53.272107887263473 0 0 0 0 13.061716475488538 26.463156364483012 0 26.463156364483012 -70.503050047504075 0 0 0 0 17.559139366571607 7.3137702170767902 0 7.3137702170767902 -1.8365212232184129 0 0 0 0 -5.3590421741391765 57.568318557065368 0 57.568318557065368 -63.689046789172835 0 0 0 0 22.488847660703339 8.1664212983084283 0 8.1664212983084283 0.45281860402950791 0 0 0 0 15.46516752062962 42.47224322826014 0 42.47224322826014 -63.584378816752725 0 0 0 0 -16.525755768683666 46.774997549285558 0 46.774997549285558 -21.546915105125436 0 0 0 0 2.5993399687499732 22.593689714904475 0 22.593689714904475 -4.6955051401074854 0 0 0 0 -31.846572851471137 48.339380507995031 0 48.339380507995031 41.593234766062722 0 0 0 0 -33.359549582750333 37.359018051597445 0 37.359018051597445 21.209427417537199 0 0 0 0 -15.160375258584736 41.904023611372615 0 41.904023611372615 -24.764447045443148 0 0 0 0 -59.054481815675217 56.889500566106591 0 56.889500566106591 -13.800269001813547 0 0 0 0 -59.22663977317643 56.60858048716625 0 56.60858048716625 7.9427256824279766 0 0 0 0 -63.206823184262248 62.855424601220193 0 62.855424601220193 16.457768041530244 0 0 0 0 -60.167308980673624 80.133869629465096 0 80.133869629465096 51.403814113713167 0 0 0 0 7.4056023802768323 19.993908854026216 0 19.993908854026216 59.990441403193017 0 0 0 0 -48.457157543203721 53.401783259895637 0 53.401783259895637 96.991395441426789 0 0 0 0 0.16086292691645809 0.30439680688210791 0 0.30439680688210791 -1.7976607099974597 0 0 0 0 -110.59050455165197 -3.6056471344051602 0 -3.6056471344051602 -1.168372653533396 0 0 0 0 -133.02454904231581 36.350335296419743 0 36.350335296419743 18.211692807259965 0 0 0 0 -111.96730531632511 53.553732552892825 0 53.553732552892825 9.3227532651401361 0 0 0 0 -98.923007465813498 46.711560850531072 0 46.711560850531072 11.421063469407898 0 0 0 0 -99.480299736720553 62.939118627450853 0 62.939118627450853 25.253192518129822 0 0 0 0 -85.784573697122369 61.28315919516254 0 61.28315919516254 26.181009530999063 0 0 0 0 -84.625760625711337 57.872989313298149 0 57.872989313298149 16.850344742921948 0 0 0 0 -105.16137464215353 50.791831340749923 0 50.791831340749923 21.541930473063189 0 0 0 0 -98.057784284466834 35.099815788339406 0 35.099815788339406 16.337983633848239 0 0 0 0 -80.996433109590726 44.105080735236697 0 44.105080735236697 4.0251996664765102 0 0 0 0 -90.928811456535186 35.796788385338829 0 35.796788385338829 9.3404210485522015 0 0 0 0 -60.01131737576361 85.402666030829778 0 85.402666030829778 -70.19781187868989 0 0 0 0 0.76892537344568979 -0.37325027434156688 0 -0.37325027434156688 -0.30312686171796654 0 0 0 0 -37.695639998580191 41.824713589940728 0 41.824713589940728 -26.952345071238597 0 0 0 0 -87.227169252779277 53.034577168429848 0 53.034577168429848 9.3122381845275868 0 0 0 0 -70.598166131720063 85.997320402431342 0 85.997320402431342 8.0748698606508995 0 0 0 0 -98.585666126657088 77.497240969899963 0 77.497240969899963 79.983501830189198 0 0 0 0 -82.146166219508814 7.8663702496191945 0 7.8663702496191945 60.305364711232642 0 0 0 0 -43.01052930248261 0.21616185504649366 0 0.21616185504649366 186.75929565723038 0 0 0 0 -38.652543500293632 73.830355467627726 0 73.830355467627726 44.009149724994131 0 0 0 0 -7.84135231359088 9.2699169244555346 0 9.2699169244555346 -10.027519917312901 0 0 0 0 -27.35654076967694 40.201598916588637 0 40.201598916588637 -46.510065253082757 0 0 0 0 -108.90170845186367 54.831991474725555 0 54.831991474725555 30.863222700552342 0 0 0 0 -80.720873035484146 25.274034615239259 0 25.274034615239259 24.281243014347638 0 0 0 0 -177.46865381009229 -20.393299048001836 0 -20.393299048001836 28.620179059867382 0 0 0 0 85.834088413516838 49.194286932565092 0 49.194286932565092 19.846250473152793 0 0 0 0 86.734565186239251 51.391627142617494 0 51.391627142617494 12.835684081248473 0 0 0 0 -442.55149124283889 167.57400847663212 0 167.57400847663212 13.192237340350403 0 0 0 0 -132.39726820027863 -260.83414458556126 0 -260.83414458556126 73.572508832716267 0 0 0 0 -4.0930632455807157 5.2332138502932199 0 5.2332138502932199 -5.9787212216031982 0 0 0 0 93.335345959417282 57.822908487041104 0 57.822908487041104 11.236404766666396 0 0 0 0 73.057420460920184 14.816322235452617 0 14.816322235452617 1.3468235647701476 0 0 0 0 -4.9445586035668683 8.0476863981708 0 8.0476863981708 -11.169204020463713 0 0 0 0 -50.518483184690922 116.85449832188624 0 116.85449832188624 141.16666565973355 0 0 0 0 195.88986877244793 85.287512028695119 0 85.287512028695119 30.785348568208974 0 0 0 0 -98.010281609907906 36.046383195484736 0 36.046383195484736 41.36257105033701 0 0 0 0 -139.02265147353637 48.567196295584097 0 48.567196295584097 35.299769494291922 0 0 0 0 -78.446072743769037 25.627753591978262 0 25.627753591978262 -11.118982599575475 0 0 0 0 -393.99260738981502 -110.45660312084487 0 -110.45660312084487 62.967692187863918 0 0 0 0 -1.7183407036841984 1.6525057223566897 0 1.6525057223566897 -1.5921018454838389 0 0 0 0 -112.56195955321346 65.3385395796588 0 65.3385395796588 261.55470456460671 0 0 0 0 -51.175897128961878 120.80128106032157 0 120.80128106032157 -30.312174005315683 0 0 0 0 -62.484897854571102 -28.145998976114974 0 -28.145998976114974 -121.99891315647073 0 0 0 0 -194.4167392182444 -66.635929491050774 0 -66.635929491050774 -68.90107497502504 0 0 0 0 -199.2084803164189 -76.612077501518002 0 -76.612077501518002 -16.59562808697865 0 0 0 0 -226.58623797256951 -47.150491323691767 0 -47.150491323691767 27.83863009829156 0 0 0 0 -223.44883377859514 -23.212898914770449 0 -23.212898914770449 -31.541814114948238 0 0 0 0 -118.91401152315711 125.6790457022305 0 125.6790457022305 -158.65689786094936 0 0 0 0 -215.26724978224865 -6.8044086311970204 0 -6.8044086311970204 167.80329393803004 0 0 0 0 -55.643867906873311 143.82790561871059 0 143.82790561871059 -26.333154538560848 0 0 0 0 -4.1529635169851069 7.4650103895550561 0 7.4650103895550561 -11.606693242650483 0 0 0 0 235.12328892347523 263.65892053297148 0 263.65892053297148 -27.289229403648278 0 0 0 0 -136.26295121885687 109.93721643826575 0 109.93721643826575 -218.25696823201724 0 0 0 0 -656.21582633278649 277.25345554449905 0 277.25345554449905 -252.959240508726 0 0 0 0 -222.39555656674929 302.82006105970231 0 302.82006105970231 -289.53774082870768 0 0 0 0 -111.7504162633245 42.217574829022851 0 42.217574829022851 -499.16340029895764 0 0 0 0 350.15332511963061 244.29546190356564 0 244.29546190356564 -974.04825012001584 0 0 0 0 -5.5425925053136886 2.6356572162318308 0 2.6356572162318308 -0.9417786706662632 0 0 0 0 -141.94117354898754 -6.5488797608304594 0 -6.5488797608304594 143.22032221736936 0 0 0 0 -204.72493453603875 48.472897820915477 0 48.472897820915477 98.203599953680168 0 0 0 0 -117.35498142955294 -67.318896582623893 0 -67.318896582623893 182.01822318488144 0 0 0 0 -647.33561067400842 235.2690642213438 0 235.2690642213438 -95.672560775316015 0 0 0 0 597.52564265834189 -304.71608589740617 0 -304.71608589740617 -687.97582006409175 0 0 0 0 378.10966104402178 108.45153284286857 0 108.45153284286857 -780.16205001654544 0 0 0 0 -1.5355830513603888 2.8616394034398063 0 2.8616394034398063 -5.9659906318108682 0 0 0 0 -360.36050546341903 55.925114957974984 0 55.925114957974984 16.197020475014881 0 0 0 0 144.09620257477218 134.97424040572423 0 134.97424040572423 -430.46940101415566 0 0 0 0 -275.78869586925839 315.65109451609152 0 315.65109451609152 -319.38070930677713 0 0 0 0 -12.80988811085162 5.1464924070457414 0 5.1464924070457414 -1.0424999846398659 0 0 0 0 -66.771707028602577 359.19621574796929 0 359.19621574796929 -668.68725266845377 0 0 0 0 -75.697255635442616 35.042120061057176 0 35.042120061057176 94.796605283987446 0 0 0 0 -1297.4360264899515 112.44860174996393 0 112.44860174996393 -598.07296566567106 0 0 0 0 65.643155903089792 -40.049947206123306 0 -40.049947206123306 -4.1622464098672936 0 0 0 0 16.757626526246895 -65.769764841508731 0 -65.769764841508731 50.442283526035681 0 0 0 0 59.265151509376267 12.375235705609896 0 12.375235705609896 -66.565389088949814 0 0 0 0 20.780747496827644 18.055881566099742 0 18.055881566099742 -67.909540462953373 0 0 0 0 23.230927476884972 41.518998754776476 0 41.518998754776476 -81.374704527280755 0 0 0 0 28.445866763125423 4.7967651734474543 0 4.7967651734474543 -81.413029529141568 0 0 0 0 20.428185381246294 35.710923895381711 0 35.710923895381711 -56.569309202934619 0 0 0 0 -58.123880341952599 -5.7829227142742639 0 -5.7829227142742639 -18.124098654760019 0 0 0 0 -0.29206900061683072 0.51909795323946017 0 0.51909795323946017 -1.0266241522090382 0 0 0 0 -7.3617228446041736 18.373717907425316 0 18.373717907425316 -41.078552753047006 0 0 0 0 -26.351499219557354 42.912175813329213 0 42.912175813329213 -64.730197242428403 0 0 0 0 3.1079323211615701 5.2700589837427287 0 5.2700589837427287 -69.626800228913453 0 0 0 0 -63.721204588772707 41.046707293434338 0 41.046707293434338 -46.925272819886914 0 0 0 0 -176.21052489600834 247.93274213423069 0 247.93274213423069 -208.10673736182798 0 0 0 0 1.3665169543356797 110.2105314861434 0 110.2105314861434 -124.10821791979379 0 0 0 0 -1.1684167722719376 1.2002845261922488 0 1.2002845261922488 -1.1907328168117921 0 0 0 0 -41.340567495229607 62.512173923542832 0 62.512173923542832 -63.662706352297391 0 0 0 0 -299.22594820411859 271.28752409452022 0 271.28752409452022 -150.34394093752053 0 0 0 0 2.8545547070644943 3.5818203974000653 0 3.5818203974000653 -80.805671308597084 0 0 0 0 -16.106923861272662 -20.795646295870029 0 -20.795646295870029 29.056533543004207 0 0 0 0 -81.724144917711328 71.241500783030915 0 71.241500783030915 -79.497245120597654 0 0 0 0 -2.8917472587329378 8.1391942461015461 0 8.1391942461015461 -11.869940030432444 0 0 0 0 3.7275187986265337 18.785141595369907 0 18.785141595369907 -23.727268516784534 0 0 0 0 3.9819946140887623 16.841920792361179 0 16.841920792361179 -24.521053254627077 0 0 0 0 -12.881715704599628 12.762772722563568 0 12.762772722563568 -8.9064669304270865 0 0 0 0 -2.0325918692706182 16.959895249535066 0 16.959895249535066 -25.781050742558364 0 0 0 0 -13.48414164264932 16.150824432309207 0 16.150824432309207 -17.905231461260882 0 0 0 0 0.003387600963058901 -0.20565127064219002 0 -0.20565127064219002 1.5682140542205378 0 0 0 0 2.4153545202625537 8.8207334187163724 0 8.8207334187163724 -12.677638229730292 0 0 0 0 -18.631364278255205 17.075810910688233 0 17.075810910688233 -30.951735231754355 0 0 0 0 -1.7775614834354201 24.702092750821521 0 24.702092750821521 -34.347454557573656 0 0 0 0 -8.051965301099699 19.346467740083426 0 19.346467740083426 -42.128867111425279 0 0 0 0 -7.8547064072190551 8.5399055711759502 0 8.5399055711759502 -54.614309528228659 0 0 0 0 -10.867297517077532 18.940524504740551 0 18.940524504740551 -24.656689045367784 0 0 0 0 -12.633087391503068 20.675370152418509 0 20.675370152418509 -26.929912478130063 0 0 0 0 -11.730934053122382 10.630336190272487 0 10.630336190272487 -39.129834279864099 0 0 0 0 -0.32407826486583957 1.4826747597484289 0 1.4826747597484289 0.14938756771590977 0 0 0 0 -7.273098037242562 16.021154634414756 0 16.021154634414756 -53.287991740916368 0 0 0 0 -6.7164718296653518 8.004273165223367 0 8.004273165223367 3.3961442513273141 0 0 0 0 -3.8070097316940519 5.7661973553513235 0 5.7661973553513235 4.9857556222432322 0 0 0 0 -11.603536826407435 8.1416123406243059 0 8.1416123406243059 6.416694590495581 0 0 0 0 -4.8381935942416021 4.5739429764184933 0 4.5739429764184933 5.0558695603886008 0 0 0 0 -3.4751987439738059 4.2159324554772297 0 4.2159324554772297 5.106845568888275 0 0 0 0 -12.259775026497664 5.3575897420892034 0 5.3575897420892034 9.4272307639766666 0 0 0 0 -5.080317444777144 5.981036578820083 0 5.981036578820083 2.742592173761488 0 0 0 0 -2.229170920800243 4.7860513850450843 0 4.7860513850450843 -4.3947288101637696 0 0 0 0 -5.6836569737351965 8.9659531428724222 0 8.9659531428724222 -13.13213112865742 0 0 0 0 -3.0136475330027679 2.2591045714830287 0 2.2591045714830287 0.40711947887543687 0 0 0 0 -7.6133018157161132 6.4649119238501953 0 6.4649119238501953 -12.496449399897756 0 0 0 0 -6.2130170702221221 11.22443752592153 0 11.22443752592153 -11.761593968278703 0 0 0 0 4.399866308673154 6.0995700387602483 0 6.0995700387602483 -14.232712585618629 0 0 0 0 4.0247523055354577 6.2747619624628896 0 6.2747619624628896 -14.313244388169551 0 0 0 0 13.045176821198766 6.3663981344188869 0 6.3663981344188869 -17.057207178877434 0 0 0 0 -1.3394104768758552 7.7819816708006329 0 7.7819816708006329 -12.809474894290361 0 0 0 0 3.2582880228119393 8.0970852733325955 0 8.0970852733325955 -14.089531356872612 0 0 0 0 -1.336462910490809 7.7361594373223852 0 7.7361594373223852 -13.194295318753575 0 0 0 0 0.13375530092525878 5.7728574843076785 0 5.7728574843076785 -14.427646351237854 0 0 0 0 10.482279858699258 -0.95180761771098332 0 -0.95180761771098332 -16.058480767639594 0 0 0 0 9.544867084404359 -8.2249491368206691 0 -8.2249491368206691 -45.702496349107605 0 0 0 0 3.8644384082626857 3.9337607078737165 0 3.9337607078737165 2.4133284597010061 0 0 0 0 17.181065909551307 36.91573842031994 0 36.91573842031994 -6.2160828429241519 0 0 0 0 13.071840907567093 5.4838799048875444 0 5.4838799048875444 -36.290071291601635 0 0 0 0 15.199654246755017 27.821484820900878 0 27.821484820900878 -32.089114004391377 0 0 0 0 -4.3148389465131913 17.910735837216635 0 17.910735837216635 5.5331700770725547 0 0 0 0 -6.9342103919161673 10.31709119767811 0 10.31709119767811 -6.1261325261966704 0 0 0 0 4.6270435169071789 10.675660891101415 0 10.675660891101415 -16.874993190525856 0 0 0 0 3.9318665734972456 19.775720555348016 0 19.775720555348016 -15.099940644078742 0 0 0 0 8.8137889432473457 28.469467708864158 0 28.469467708864158 -0.5249206753087492 0 0 0 0 -6.2697640505675736 14.057903863363208 0 14.057903863363208 -0.42047904735136399 0 0 0 0 3.0614980896170891 8.9235172405469712 0 8.9235172405469712 -168.10517726718899 0 0 0 0 -13.682091388682565 6.3360702906987152 0 6.3360702906987152 -1.6421415442656244 0 0 0 0 50.551495455671102 -32.934896987017055 0 -32.934896987017055 35.538306058610033 0 0 0 0 -14.658317611421808 30.071925444446606 0 30.071925444446606 46.540175893148671 0 0 0 0 0.33913396275647045 2.0579551378463576 0 2.0579551378463576 -1.1229344300786324 0 0 0 0 -29.447328366040892 82.876558676313834 0 82.876558676313834 -267.65472034814775 0 0 0 0 20.728408489689173 -57.837787197513535 0 -57.837787197513535 -323.95636504379036 0 0 0 0 -3.7442183416256958 2.2989082003852097 0 2.2989082003852097 0.67369844044293714 0 0 0 0 -77.398906106291179 -88.361603874510365 0 -88.361603874510365 -160.78991017603767 0 0 0 0 -0.87198051208633842 32.194052126253155 0 32.194052126253155 16.341918318821172 0 0 0 0 149.41327293851919 -4.1249990845618925 0 -4.1249990845618925 -296.85860391712777 0 0 0 0 95.464657338598045 -31.79970604961818 0 -31.79970604961818 -238.44045895762611 0 0 0 0 40.360801492901373 7.8888648686684064 0 7.8888648686684064 -256.20007094154698 0 0 0 0 102.82626128780248 41.563523321311095 0 41.563523321311095 -340.62407411228196 0 0 0 0 12.517328494897811 71.751527206581386 0 71.751527206581386 -193.09554042236778 0 0 0 0 -23.904386464308118 134.96545311008003 0 134.96545311008003 -301.5572144968437 0 0 0 0 -50.078532371535402 122.10645002710908 0 122.10645002710908 -160.82391152291893 0 0 0 0 -88.816138048074208 61.069350103187162 0 61.069350103187162 -196.78956235756232 0 0 0 0 25.325050429621115 19.306939287950172 0 19.306939287950172 -237.1653956921491 0 0 0 0 -26.683961089711374 -12.610393021109758 0 -12.610393021109758 -228.03686628901323 0 0 0 0 12.462117519420644 55.174152112036609 0 55.174152112036609 -246.99324462181914 0 0 0 0 -1.9490704829568131 58.254096415739696 0 58.254096415739696 -202.17854602982993 0 0 0 0 -9.0024075625415207 66.651260402023809 0 66.651260402023809 -170.0963869191728 0 0 0 0 -13.467287593652145 83.883802826459032 0 83.883802826459032 -158.0426832921421 0 0 0 0 15.549025856980734 61.456897521600467 0 61.456897521600467 -143.40660078589735 0 0 0 0 18.479489265813754 59.69221744061042 0 59.69221744061042 -204.41636922618136 0 0 0 0 -1.1635468465719896 84.261871255493588 0 84.261871255493588 -305.79078787794606 0 0 0 0 9.362529890062433 -11.822015312030999 0 -11.822015312030999 -152.31330572847946 0 0 0 0 25.947429846757586 -6.2022496945155581 0 -6.2022496945155581 -226.30476762728767 0 0 0 0 2.3564952484284731 53.175243549778031 0 53.175243549778031 -183.3650485468952 0 0 0 0 17.531268013704903 22.491402407562646 0 22.491402407562646 -168.58285155525846 0 0 0 0 14.117515077383359 7.1642743107568094 0 7.1642743107568094 -107.76620426036789 0 0 0 0 -10.167407773504237 -19.636812970828032 0 -19.636812970828032 -108.65613339537686 0 0 0 0 -13.323369890191316 6.3152496657245365 0 6.3152496657245365 -53.691989738074881 0 0 0 0 -12.538229276353377 -3.426052065589829 0 -3.426052065589829 -23.528212280653861 0 0 0 0 -1.0136073349422077 25.279265117336763 0 25.279265117336763 -29.49175040083901 0 0 0 0 5.9424505837087054 7.8416187524235283 0 7.8416187524235283 1.3559214572160272 0 0 0 0 -1.968789239290345 14.313034241986315 0 14.313034241986315 0.50300999508726818 0 0 0 0 -4.2224019998786844 -99.123466428617775 0 -99.123466428617775 -111.15833604368891 0 0 0 0 -20.175784732069587 -4.8776095593239006 0 -4.8776095593239006 5.1650759322751583 0 0 0 0 -22.039171694865217 -9.744935027025349 0 -9.744935027025349 -7.4732357339071314 0 0 0 0 2.5736757174904596 27.017006336518648 0 27.017006336518648 -81.829122007769456 0 0 0 0 -9.5855353962197114 -4.0290938464406736 0 -4.0290938464406736 -65.883395641273637 0 0 0 0 1.5354342200698738 31.347102219818225 0 31.347102219818225 -99.668744171967774 0 0 0 0 6.8212384514672522 66.75760006516964 0 66.75760006516964 -107.43815770692072 0 0 0 0 13.268124156877093 68.990866828753951 0 68.990866828753951 -156.4195925632348 0 0 0 0 -6.2445701237138564 87.794976519313423 0 87.794976519313423 -122.16850115886427 0 0 0 0 11.576695034545992 90.673311048705841 0 90.673311048705841 -129.6115592442593 0 0 0 0 -1.2484636574481556 90.618030431831357 0 90.618030431831357 -129.0310597687876 0 0 0 0 11.676645531615577 92.621209202703085 0 92.621209202703085 -142.25998064998498 0 0 0 0 8.7485963405042639 92.324981860300113 0 92.324981860300113 -134.86264954100261 0 0 0 0 0.95387692692384007 91.686600443901852 0 91.686600443901852 -125.02361374241173 0 0 0 0 14.770369685866171 87.462645148478941 0 87.462645148478941 -167.66434676884091 0 0 0 0 20.824011224283822 85.006954800874155 0 85.006954800874155 -122.89683491933192 0 0 0 0 17.763831657535775 90.721977693042845 0 90.721977693042845 -134.58768923757293 0 0 0 0 9.0403294802727032 96.575526700283945 0 96.575526700283945 -100.2750902520429 0 0 0 0 16.271443926143547 81.046852558959472 0 81.046852558959472 -78.090534936154654 0 0 0 0 14.406816596081626 72.663965274842667 0 72.663965274842667 -86.711870538464154 0 0 0 0 4.1683989254652261 78.633789581347855 0 78.633789581347855 -75.569045918934535 0 0 0 0 6.8898150478671596 61.347617568006171 0 61.347617568006171 -83.925773555478827 0 0 0 0 12.6375076178565 71.607860622327735 0 71.607860622327735 -126.95292375970894 0 0 0 0 7.8374312543719498 97.586994932470134 0 97.586994932470134 -124.53637570467481 0 0 0 0 -67.020961782775885 67.846804139025608 0 67.846804139025608 -101.74929164508649 0 0 0 0 3.8562164758859581 89.703936186143892 0 89.703936186143892 -192.95631910611337 0 0 0 0 -4.1461013127736805 84.474011877222665 0 84.474011877222665 -122.11416757451025 0 0 0 0 15.298279540447766 81.093383583086506 0 81.093383583086506 -177.0768798608774 0 0 0 0 1.5750089136163297 89.810133582232083 0 89.810133582232083 -63.705311978703321 0 0 0 0 23.849837082563681 82.031439643988961 0 82.031439643988961 -64.951755288181175 0 0 0 0 6.2055924189899088 76.755878559669327 0 76.755878559669327 -6.5981339054424097 0 0 0 0 3.0019788731315202 52.397855634010739 0 52.397855634010739 -7.2391253368245998 0 0 0 0 17.164499174505181 84.286613151588426 0 84.286613151588426 -122.16694835538561 0 0 0 0 -10.426092354538923 100.47989775167343 0 100.47989775167343 -51.897525364807734 0 0 0 0 8.1098846919012431 54.046955066622559 0 54.046955066622559 -99.494384938282337 0 0 0 0 -63.572180612562562 88.369592884556894 0 88.369592884556894 6.3196689304204483 0 0 0 0 1.207371749826045 0.1640462342038056 0 0.1640462342038056 0.12427439866956766 0 0 0 0 31.007910562073448 -6.3579122881146759 0 -6.3579122881146759 45.760331051047729 0 0 0 0 -22.730491162716135 50.708467167341041 0 50.708467167341041 112.1508783323975 0 0 0 0 42.835888622354787 91.323182765493584 0 91.323182765493584 22.11388145050114 0 0 0 0 234.01204591816349 -226.79135307787874 0 -226.79135307787874 -4.6714996669834363 0 0 0 0 3.9709329735928556 0.99512305247310984 0 0.99512305247310984 0.11139416054151725 0 0 0 0 125.32281498917837 117.34866023212453 0 117.34866023212453 20.305188021069625 0 0 0 0 71.947202046461825 101.39155486978621 0 101.39155486978621 58.925732796048578 0 0 0 0 -6.7993701950399554 55.629704113928256 0 55.629704113928256 -92.295436136440401 0 0 0 0 -58.301818461500261 46.207940606105694 0 46.207940606105694 64.731001926934823 0 0 0 0 30.681356823763508 64.691543241504974 0 64.691543241504974 37.161099408015161 0 0 0 0 -68.313590435773222 78.635259219089676 0 78.635259219089676 54.296287205372536 0 0 0 0 3.9569645828117004 1.7098708722023126 0 1.7098708722023126 0.0070390290525983654 0 0 0 0 1.594994855888217 50.340563562844864 0 50.340563562844864 -88.593977119262945 0 0 0 0 -6.3275287614414992 54.813491484686438 0 54.813491484686438 -61.593580050228411 0 0 0 0 8.2321850072366942 46.029454871609687 0 46.029454871609687 -72.989254263359726 0 0 0 0 4.7221847116488789 66.857010102350159 0 66.857010102350159 -36.875604389988439 0 0 0 0 10.284747396508465 30.561619584605069 0 30.561619584605069 15.629023603429232 0 0 0 0 24.047833641412581 1.7910566453801948 0 1.7910566453801948 1.3916076132991293 0 0 0 0 28.668108022022352 20.37037772496933 0 20.37037772496933 -40.927402405072826 0 0 0 0 12.24531215740717 53.107593034712409 0 53.107593034712409 -51.570185467535339 0 0 0 0 -412.89048575177367 170.88150744298173 0 170.88150744298173 513.59894579732554 0 0 0 0 -62.046011568585527 -36.009785525010102 0 -36.009785525010102 156.86941536526729 0 0 0 0 -58.158650748683613 -52.864360003338334 0 -52.864360003338334 48.123653652191933 0 0 0 0 0.96835014704271138 -1.579633078309671 0 -1.579633078309671 2.6973645991434001 0 0 0 0 -66.403014990455631 -7.2653565745602009 0 -7.2653565745602009 41.805143872235931 0 0 0 0 -10.382697854503931 42.788251210341969 0 42.788251210341969 75.195225333658527 0 0 0 0 21.323265762462597 16.429754215560251 0 16.429754215560251 36.833835505390198 0 0 0 0 10.656890066233245 3.6206393790373568 0 3.6206393790373568 79.682779967020906 0 0 0 0 -22.237610950118324 41.975583434610826 0 41.975583434610826 165.10766297345299 0 0 0 0 1.192271335196402 1.0389992735195381 0 1.0389992735195381 -0.0042503442761367277 0 0 0 0 7.7512979733273824 48.926994544835452 0 48.926994544835452 -176.4274597204257 0 0 0 0 1.9401844035887734 51.251399880408798 0 51.251399880408798 -175.67804130521017 0 0 0 0 -8.2388075762337394 140.74152381182944 0 140.74152381182944 -358.62015183057815 0 0 0 0 21.133407105987317 59.945535932708822 0 59.945535932708822 -178.0828419095169 0 0 0 0 -1.3091296306520235 61.675398522592104 0 61.675398522592104 46.811114949350667 0 0 0 0 -50.196355463845975 -12.980463089923774 0 -12.980463089923774 1.7649691710275874 0 0 0 0 3.3660651687405334 4.3437307559210012 0 4.3437307559210012 15.433588248754859 0 0 0 0 -173.19228662783644 28.389267443469635 0 28.389267443469635 61.687486177442111 0 0 0 0 -34.732909275953716 80.632324104002691 0 80.632324104002691 28.512128648924772 0 0 0 0 -154.06330934048219 106.10581717218133 0 106.10581717218133 43.857986321963836 0 0 0 0 -32.829258577023211 63.771625155393394 0 63.771625155393394 17.743330850063558 0 0 0 0 -31.729275897898333 106.37262488088891 0 106.37262488088891 11.677067271027227 0 0 0 0 -32.321994422558419 107.40771782573438 0 107.40771782573438 20.180501036094029 0 0 0 0 114.96335282031941 97.165813354309648 0 97.165813354309648 -5.5003474713821561 0 0 0 0 161.35897307836967 70.752092753543366 0 70.752092753543366 -504.02250125050864 0 0 0 0 215.12208001730869 -126.57875769110069 0 -126.57875769110069 133.334285196157 0 0 0 0 251.0224367833398 194.84647195650382 0 194.84647195650382 -158.19971552499692 0 0 0 0 -368.81993384551606 222.99551876370833 0 222.99551876370833 8.2252630593939102 0 0 0 0 -257.49495163042047 -82.055059190900238 0 -82.055059190900238 -20.117055326613581 0 0 0 0 -0.12736245270338831 -0.25747761732552021 0 -0.25747761732552021 -4.5770072097355285 0 0 0 0 -311.70141989916101 197.81567971354139 0 197.81567971354139 -121.76021917365915 0 0 0 0 502.04943129054845 -199.28460799484913 0 -199.28460799484913 -249.61761958468924 0 0 0 0 -5.990185107153593 -187.25518549594074 0 -187.25518549594074 -87.573028324703444 0 0 0 0 267.67904783324866 -46.470789961517994 0 -46.470789961517994 -56.928092676913593 0 0 0 0 -42.233328621081455 -60.828712976817997 0 -60.828712976817997 7.0267317345428921 0 0 0 0 130.98580435981967 61.673458365886518 0 61.673458365886518 -117.82967125496816 0 0 0 0 5.188465556882889 5.3967350918330723 0 5.3967350918330723 0.50482264637117402 0 0 0 0 295.50073012555913 15.051275196723907 0 15.051275196723907 -102.72244319509787 0 0 0 0 214.95630891701876 73.105792537002515 0 73.105792537002515 -138.82053029993344 0 0 0 0 223.31505069632294 -13.134284466177206 0 -13.134284466177206 -57.998425099183805 0 0 0 0 -963.89938662920031 50.849292055031412 0 50.849292055031412 16.922443063773585 0 0 0 0 -59.674935853984607 34.29071764272669 0 34.29071764272669 -30.455887877634268 0 0 0 0 2.4678902275109618 1.6855586873312234 0 1.6855586873312234 -12.431753289848769 0 0 0 0 -83.015236222334352 54.883856250289227 0 54.883856250289227 -34.665819623252219 0 0 0 0 -44.096470924549067 50.727108445897557 0 50.727108445897557 -56.858104916264892 0 0 0 0 -110.41342248422006 126.45450725962928 0 126.45450725962928 -87.22672206330958 0 0 0 0 -38.431276398892805 70.182054709833437 0 70.182054709833437 -60.857429542937098 0 0 0 0 -13.062915863865783 97.046185488094125 0 97.046185488094125 -126.71258223667962 0 0 0 0 -1.3735073681486938 91.45100044269725 0 91.45100044269725 -129.51866166164018 0 0 0 0 -8.4097827628211235 89.711896366616202 0 89.711896366616202 -122.61173530984024 0 0 0 0 -12.262656939278941 115.54631870530307 0 115.54631870530307 -228.02155282756212 0 0 0 0 6.4874873045796448 20.882996848047789 0 20.882996848047789 5.3017684890769488 0 0 0 0 4.0372362059551961 30.14062729753266 0 30.14062729753266 36.67986620806812 0 0 0 0 -4.5995529498332033 2.4235892343929599 0 2.4235892343929599 -0.20591669747392705 0 0 0 0 12.462795254248704 102.62706020401185 0 102.62706020401185 20.387358142350877 0 0 0 0 -3.2330135737647652 66.413620299364425 0 66.413620299364425 70.898910218100809 0 0 0 0 -13.582113794480392 21.977329914017901 0 21.977329914017901 -83.675347844518797 0 0 0 0 2.0135797475850268 136.38770282336134 0 136.38770282336134 -18.26859629807268 0 0 0 0 -33.511660541611491 100.25286785820276 0 100.25286785820276 -41.478444437536268 0 0 0 0 57.366699639151193 8.5073887489600111 0 8.5073887489600111 -10.026026620754465 0 0 0 0 27.963441516411876 -15.285490558318557 0 -15.285490558318557 -13.202150696006441 0 0 0 0 -94.223221367774386 85.913808171541973 0 85.913808171541973 70.681107425156199 0 0 0 0 -91.42557721463163 66.479865902668763 0 66.479865902668763 8.7118017472099041 0 0 0 0 -133.49288567178883 166.99140597860452 0 166.99140597860452 -94.379749431728669 0 0 0 0 -67.828464033871569 207.55937703891846 0 207.55937703891846 -186.22613656471981 0 0 0 0 -1.7849518914096407 0.53079781224684552 0 0.53079781224684552 -0.33886289855448237 0 0 0 0 32.731185530235962 59.555758295706937 0 59.555758295706937 -252.18639922109617 0 0 0 0 2.5357031176645251 123.83043669027268 0 123.83043669027268 -149.37327355381831 0 0 0 0 -159.95006762873891 90.237041087655598 0 90.237041087655598 -207.76194243046734 0 0 0 0 -47.01053592923563 21.987555671217592 0 21.987555671217592 3.0667761826157403 0 0 0 0 -327.9607249732544 114.70260069676704 0 114.70260069676704 25.991238931760108 0 0 0 0 113.5207279130201 1.3444200988469142 0 1.3444200988469142 26.084631055265163 0 0 0 0 78.190131761424709 50.028909560775446 0 50.028909560775446 7.3488421249394378 0 0 0 0 -179.64565847570066 141.48484783657355 0 141.48484783657355 -77.4760993657992 0 0 0 0 0.87464573750937369 0.20506085618139025 0 0.20506085618139025 -15.933321802315765 0 0 0 0 403.41786516945103 7.3085539639243962 0 7.3085539639243962 -125.48643572699598 0 0 0 0 -123.55748534120175 135.78090515710821 0 135.78090515710821 -140.61265912942437 0 0 0 0 -605.80666938804097 370.65969646331877 0 370.65969646331877 -56.205728377921162 0 0 0 0 0.02198303756239639 -0.31905652110044613 0 -0.31905652110044613 -5.6394432139502157 0 0 0 0 -340.76630813386328 63.792659011580753 0 63.792659011580753 -19.072873813645799 0 0 0 0 84.434735920749517 -135.45427450021737 0 -135.45427450021737 45.525077525939196 0 0 0 0 446.62856722222205 519.94419920060966 0 519.94419920060966 -575.96219930273048 0 0 0 0 -119.27043921875429 -13.595020868346403 0 -13.595020868346403 -88.264157320466779 0 0 0 0 1.6882134285314265 0.34655420794556591 0 0.34655420794556591 0.27988017801340276 0 0 0 0 83.506751855675247 -76.978770160957765 0 -76.978770160957765 40.246733839946458 0 0 0 0 -96.367143597315589 143.01665982244197 0 143.01665982244197 -74.227772063857685 0 0 0 0 -81.256404253996152 82.030107956045526 0 82.030107956045526 -45.75162189175262 0 0 0 0 198.09242502629604 24.024790757289622 0 24.024790757289622 -104.33268622763336 0 0 0 0 53.403286308826864 -35.215422057659822 0 -35.215422057659822 1.9317985467074834 0 0 0 0 70.63163175222121 17.233977749478726 0 17.233977749478726 8.8947521396783031 0 0 0 0 -16.828187922139477 76.406560312596724 0 76.406560312596724 -96.440298587746156 0 0 0 0 4.3565929752804067 1.6000116698179525 0 1.6000116698179525 0.084693148581241773 0 0 0 0 -20.544047338991504 44.333817113998222 0 44.333817113998222 -77.007296946686097 0 0 0 0 5.219968497706887 2.8011931417440401 0 2.8011931417440401 -0.068372204763781058 0 0 0 0 12.607240735245796 73.457689196223839 0 73.457689196223839 35.033162628146897 0 0 0 0 -0.064644991809824859 0.22457602952012223 0 0.22457602952012223 0.44691426004691603 0 0 0 0 205.40636317221743 138.34312677594156 0 138.34312677594156 18.0175716416461 0 0 0 0 18.700048328657431 63.818965451042288 0 63.818965451042288 -67.364898542849033 0 0 0 0 -12.966071420600201 76.903956180308796 0 76.903956180308796 -16.459468299365767 0 0 0 0 7.7360510965290814 38.827697082383139 0 38.827697082383139 -40.202046061697956 0 0 0 0 -26.496992501834029 54.73791079115199 0 54.73791079115199 -50.285815258668833 0 0 0 0 -38.297051593683136 35.394497823746804 0 35.394497823746804 -64.694178665370913 0 0 0 0 -45.550868173981144 52.548820745649948 0 52.548820745649948 -4.5517106048532696 0 0 0 0 -51.309496538275198 54.16985992428306 0 54.16985992428306 3.1818218329738954 0 0 0 0 -53.223961912559389 45.586773799833168 0 45.586773799833168 -8.0897640010802263 0 0 0 0 -40.149324962007086 35.833162840489081 0 35.833162840489081 -8.4724568858450766 0 0 0 0 -25.309008494963564 47.892992294778651 0 47.892992294778651 -20.358754501191243 0 0 0 0 -21.766760869570135 47.83106157245453 0 47.83106157245453 -20.394379875000197 0 0 0 0 -31.753226184252526 89.67985112282966 0 89.67985112282966 -58.642573867908141 0 0 0 0 1.8071851641796286 0.55259971842769318 0 0.55259971842769318 -0.11004051659017422 0 0 0 0 -36.978916151441808 59.508166150599664 0 59.508166150599664 -30.996876704045008 0 0 0 0 -61.94036999248965 52.541469584008922 0 52.541469584008922 -32.933997878900755 0 0 0 0 52.050339050674665 74.285697180200543 0 74.285697180200543 -56.818683013215761 0 0 0 0 127.37116691640949 -11.493835039776911 0 -11.493835039776911 -41.680537811390195 0 0 0 0 35.231561718614103 11.406309471048246 0 11.406309471048246 -47.315935870806243 0 0 0 0 30.920969293129019 23.837712570695757 0 23.837712570695757 -26.172681851608218 0 0 0 0 29.951298034662614 21.016735564683017 0 21.016735564683017 -33.767899483397628 0 0 0 0 27.391515005645942 36.133069713541005 0 36.133069713541005 -10.485300433354951 0 0 0 0 30.635520918008751 26.156108094213984 0 26.156108094213984 -34.359506107659513 0 0 0 0 -0.02424024378691314 0.28097393564531714 0 0.28097393564531714 -0.27256323634408863 0 0 0 0 -67.696137765604362 57.306412627295288 0 57.306412627295288 40.781385882715369 0 0 0 0 -27.919620490338275 17.590684955346433 0 17.590684955346433 -19.053403115005835 0 0 0 0 -35.791652491991044 41.755235291590047 0 41.755235291590047 -9.7547029746631324 0 0 0 0 -25.164883089768068 16.585720597827049 0 16.585720597827049 -10.616178678401639 0 0 0 0 -107.86682853307138 30.602624929801834 0 30.602624929801834 6.6708377902715483 0 0 0 0 -22.559042412805866 57.246270508344026 0 57.246270508344026 7.1264829629155884 0 0 0 0 52.930019372492097 61.332911223941096 0 61.332911223941096 -6.0732182784862516 0 0 0 0 28.732285176345613 -0.47690765038134941 0 -0.47690765038134941 10.584999634845417 0 0 0 0 4.4984757149341021 21.481453873841076 0 21.481453873841076 6.8532377040287429 0 0 0 0 -48.388146817269444 17.991890711765734 0 17.991890711765734 10.683056300839183 0 0 0 0 -49.778896271629492 -8.9584128451575111 0 -8.9584128451575111 5.3981123726496207 0 0 0 0 -78.585596666343008 -20.038971290637704 0 -20.038971290637704 9.6460941046000244 0 0 0 0 -33.699217096491338 2.7877258113554717 0 2.7877258113554717 8.5873530624206751 0 0 0 0 -34.657508981697902 12.815602647153582 0 12.815602647153582 31.791187246036088 0 0 0 0 -56.755259493478661 2.4216745971356204 0 2.4216745971356204 19.907112041133018 0 0 0 0 -55.532159028796741 -10.196780841293865 0 -10.196780841293865 -4.3779503537100481 0 0 0 0 -67.425158735240984 -0.94937200118914689 0 -0.94937200118914689 8.5746704040332133 0 0 0 0 -132.53817610013721 -36.289661424448113 0 -36.289661424448113 -7.4949650988705798 0 0 0 0 9.6192169151640883 8.5688334702248312 0 8.5688334702248312 -6.1480674307849768 0 0 0 0 -20.155595013620314 3.934764528941173 0 3.934764528941173 2.1467081353416688 0 0 0 0 -0.91354514480657656 1.6239625792942896 0 1.6239625792942896 0.32836703333733475 0 0 0 0 -32.569171829345578 -7.4487270268350585 0 -7.4487270268350585 -5.8366079477805215 0 0 0 0 -8.7043972526516882 37.857666065102421 0 37.857666065102421 3.7664327336848373 0 0 0 0 -14.912674973713365 27.763883308345612 0 27.763883308345612 -56.091075981704705 0 0 0 0 -0.31849734148986641 0.81555716528672839 0 0.81555716528672839 1.2668784666256148 0 0 0 0 -9.1918306632833264 41.396472457002346 0 41.396472457002346 -65.62369293196366 0 0 0 0 -12.633140057963828 41.923832404984751 0 41.923832404984751 -58.857873553290005 0 0 0 0 -46.636042048335185 80.449399029670985 0 80.449399029670985 -70.957295681369942 0 0 0 0 -12.317470173644324 62.266553954359551 0 62.266553954359551 -108.41392895329773 0 0 0 0 -28.838534181320483 28.363590711191705 0 28.363590711191705 -33.96795998592097 0 0 0 0 -17.342448632785818 49.211840493519503 0 49.211840493519503 -68.556551739835413 0 0 0 0 -60.685817973087978 55.539885062848043 0 55.539885062848043 -29.937408481870989 0 0 0 0 2.6521234181891487 5.0343818584700557 0 5.0343818584700557 -5.4809277090864725 0 0 0 0 -49.965382347189006 38.089661513405645 0 38.089661513405645 -42.472502238982997 0 0 0 0 -0.62439531007839832 26.248523532380204 0 26.248523532380204 -32.018063733031568 0 0 0 0 -35.311443651211448 48.049926398701245 0 48.049926398701245 -35.756816249014264 0 0 0 0 -15.493780519675056 -9.9452977933906368 0 -9.9452977933906368 0.25714431388223602 0 0 0 0 -33.427800450706854 8.276660796984288 0 8.276660796984288 -5.1609994709142484 0 0 0 0 1.8625480061737889 3.8167953043327394 0 3.8167953043327394 -6.6643545729591116 0 0 0 0 6.1430148781073513 -3.1081073810764792 0 -3.1081073810764792 2.2038046979159844 0 0 0 0 -36.937089511247905 47.911740408397691 0 47.911740408397691 -41.195785782737403 0 0 0 0 -8.7161745873745531 16.321262649922573 0 16.321262649922573 -5.9642338109551929 0 0 0 0 0.3501340139391349 -0.37890940119836003 0 -0.37890940119836003 -0.11567760495505475 0 0 0 0 -1.6504789983628143 -43.599361793558728 0 -43.599361793558728 39.281773667910073 0 0 0 0 94.026285610132447 83.448739438714114 0 83.448739438714114 -7.2786359388863957 0 0 0 0 0.98179776315918765 5.5994673831897899 0 5.5994673831897899 -4.8119056311846462 0 0 0 0 -59.312479530384735 -3.7914509522419735 0 -3.7914509522419735 17.412171703720219 0 0 0 0 36.356481584938592 -17.136511644194968 0 -17.136511644194968 -22.689552093070688 0 0 0 0 4.9633272303863123 2.83863004403986 0 2.83863004403986 -12.31379152772638 0 0 0 0 0.80243998642457015 0.42490383018040578 0 0.42490383018040578 -0.89694820182877599 0 0 0 0 -0.83707892397717565 3.4142493548972794 0 3.4142493548972794 -4.4084159374925225 0 0 0 0 1.8600198100120906 5.0175488978453586 0 5.0175488978453586 -4.1798786932849907 0 0 0 0 0.8710141878846116 3.7794325804267146 0 3.7794325804267146 0.58577853059887275 0 0 0 0 -4.2302798007367528 4.2981003387012606 0 4.2981003387012606 0.70441511481521957 0 0 0 0 -3.3497081848090771 3.1657381420942663 0 3.1657381420942663 0.16573095997168075 0 0 0 0 0.96239689179674315 7.2509035963709039 0 7.2509035963709039 -2.5639024449656063 0 0 0 0 8.5500755923021643 19.48588652967419 0 19.48588652967419 -2.5741003195570329 0 0 0 0 -20.986505901983037 -4.5776231144806729 0 -4.5776231144806729 -14.010221583201087 0 0 0 0 -0.20158830736765054 3.1796320619233751 0 3.1796320619233751 -2.6349981973897458 0 0 0 0 3.0576631379371975 6.0883656893603302 0 6.0883656893603302 -4.2372503551418959 0 0 0 0 -3.1036189819111399 6.0924459113687242 0 6.0924459113687242 -4.5872979860825183 0 0 0 0 1.0369020664960971 3.5856671182531699 0 3.5856671182531699 -3.6500301676516003 0 0 0 0 -12.294501298085379 6.1524595582050097 0 6.1524595582050097 -10.582143172154247 0 0 0 0 -3.6834508283084517 6.5740998185477206 0 6.5740998185477206 -7.2501503385352795 0 0 0 0 -3.4157295131995706 2.7477856526478384 0 2.7477856526478384 0.76674311417339247 0 0 0 0 -12.701767261920068 8.8130971900552026 0 8.8130971900552026 -5.7364820659217246 0 0 0 0 -17.23648928959301 2.0607367405909827 0 2.0607367405909827 -5.9130713269755688 0 0 0 0 -28.99741240356343 7.3566349677323615 0 7.3566349677323615 2.1374327637386159 0 0 0 0 -10.496786027440976 17.20105382226302 0 17.20105382226302 2.3096500241390459 0 0 0 0 -25.968322231383354 17.597241045677947 0 17.597241045677947 7.9067700158020671 0 0 0 0 0.55780434828193393 5.9833239257793593 0 5.9833239257793593 -5.4436674851694988 0 0 0 0 2.2863360846163232 8.332358651900563 0 8.332358651900563 -7.2263464212337567 0 0 0 0 -0.43957950177480232 1.6322305915336095 0 1.6322305915336095 -5.14993762626235 0 0 0 0 -3.500089023019882 10.652017860475723 0 10.652017860475723 -0.14295478916483262 0 0 0 0 1.5078745922110102 7.5611696747778296 0 7.5611696747778296 -6.0512564723208015 0 0 0 0 -2.1468765682360953 4.7543453088765535 0 4.7543453088765535 -0.47868677246797786 0 0 0 0 -4.0618925433809636 4.6702819099737098 0 4.6702819099737098 0.56806804993379956 0 0 0 0 -5.4267435710826248 4.9042288018708859 0 4.9042288018708859 1.0825024124328593 0 0 0 0 -3.215233577908009 4.3176547495719024 0 4.3176547495719024 1.5819458831460176 0 0 0 0 -0.32321662688627839 5.9255166033085516 0 5.9255166033085516 -6.7315354403297079 0 0 0 0 -3.7009687224108347 5.2224339551260073 0 5.2224339551260073 -2.879986623624518 0 0 0 0 -4.2023974078783795 8.9706402026290561 0 8.9706402026290561 3.1994969258134915 0 0 0 0 -9.8820720393377997 12.931442491508278 0 12.931442491508278 0.44128506102788378 0 0 0 0 -4.1440559183779442 12.166290228043067 0 12.166290228043067 -1.3395288926067224 0 0 0 0 -4.9596880315293674 15.188195621334671 0 15.188195621334671 -6.0034996887561647 0 0 0 0 -4.4119293615899551 11.463071125984357 0 11.463071125984357 -0.9776959901146256 0 0 0 0 -1.4030040689922316 3.5028607323097276 0 3.5028607323097276 -2.9133320645988192 0 0 0 0 -1.3289510960084954 3.8485549774886749 0 3.8485549774886749 -11.271918502830886 0 0 0 0 -1.6125800950077043 0.99351010967185749 0 0.99351010967185749 -0.019647510707953231 0 0 0 0 -3.117237765889513 2.3973358276580257 0 2.3973358276580257 -4.7439077088401973 0 0 0 0 -0.25896382614078561 1.1417233752164027 0 1.1417233752164027 -0.17416414921479362 0 0 0 0 -0.88857898181413475 4.8465205119425718 0 4.8465205119425718 0.18090018486873305 0 0 0 0 -0.90208180384433945 3.2645939800365795 0 3.2645939800365795 4.2730398480944132 0 0 0 0 0.48747010077204322 14.374759444555366 0 14.374759444555366 8.3116736608417341 0 0 0 0 -1.6017347235538182 10.165791767954488 0 10.165791767954488 -0.15187254601187306 0 0 0 0 5.1934138639844605 10.677765910237213 0 10.677765910237213 -3.5568859261120451 0 0 0 0 12.326642081276077 14.380240978185611 0 14.380240978185611 -4.9660082050645542 0 0 0 0 3.265681818358189 4.4198625834416134 0 4.4198625834416134 -6.5582734651616192 0 0 0 0 9.1417305266022595 7.3674241097882032 0 7.3674241097882032 -9.3762442424704204 0 0 0 0 33.467928776273766 31.236578186365477 0 31.236578186365477 2.3277596377911323 0 0 0 0 -29.146013216863139 7.5266132982474119 0 7.5266132982474119 7.4521652901462119 0 0 0 0 -25.04392962743168 6.4117213612685191 0 6.4117213612685191 -15.003188590018908 0 0 0 0 -69.393296531925444 -11.391473678353577 0 -11.391473678353577 -7.6465855292404967 0 0 0 0 -108.15412635077882 15.134606222216689 0 15.134606222216689 13.60682250514219 0 0 0 0 27.475538671730192 10.255402606134567 0 10.255402606134567 18.467079223304609 0 0 0 0 -0.068718507852063127 0.1948660477186408 0 0.1948660477186408 -1.7215139309016063 0 0 0 0 -39.414267112497328 25.30595824775628 0 25.30595824775628 -5.9081595324396403 0 0 0 0 -53.68423747226916 14.451915011499068 0 14.451915011499068 -3.2137963643708645 0 0 0 0 -86.339546660754422 56.258127574012178 0 56.258127574012178 -12.285553849239477 0 0 0 0 -1.1654515280897613 10.225883861590091 0 10.225883861590091 32.869618583623378 0 0 0 0 -0.044068454216159125 0.3107055969192789 0 0.3107055969192789 0.28747276533624166 0 0 0 0 29.624023235686764 12.096987312758301 0 12.096987312758301 -19.459745910503443 0 0 0 0 22.216155865826295 4.2084721055175578 0 4.2084721055175578 -16.601415096722121 0 0 0 0 10.795948454373502 3.6254115010146961 0 3.6254115010146961 -14.366815392332228 0 0 0 0 17.496265436215253 13.691549155245866 0 13.691549155245866 -16.099502336812293 0 0 0 0 -8.5944881306849013 6.060499434829028 0 6.060499434829028 -2.4028627304185148 0 0 0 0 -6.8603623537237581 4.4976370567910635 0 4.4976370567910635 16.714716277720072 0 0 0 0 -9.2858717005936739 2.3430606410100996 0 2.3430606410100996 2.388192580156014 0 0 0 0 -35.977740504847134 18.323837291021164 0 18.323837291021164 -10.672665147691077 0 0 0 0 -17.316686519273389 60.583616906041243 0 60.583616906041243 -61.479713165241265 0 0 0 0 -41.568135468583932 110.25614668383969 0 110.25614668383969 57.579757391868043 0 0 0 0 -2.8718699193268549 -81.668887565438126 0 -81.668887565438126 -96.530026917109808 0 0 0 0 -14.844402793023619 10.451606360954429 0 10.451606360954429 14.451378474604098 0 0 0 0 -10.178935241958079 4.0683690915328672 0 4.0683690915328672 1.0733057319673298 0 0 0 0 -42.379163970770605 -2.6403894899667648 0 -2.6403894899667648 110.22662975228423 0 0 0 0 -37.96924263524852 -50.645804856759696 0 -50.645804856759696 68.72581525633359 0 0 0 0 -8.7930918542016627 6.9961045830562689 0 6.9961045830562689 2.832676825379993 0 0 0 0 -15.720046659593208 15.162754485643745 0 15.162754485643745 -5.6175979313384232 0 0 0 0 -10.817271679203259 6.3955633899249733 0 6.3955633899249733 8.5694040490388943 0 0 0 0 -10.821607297461327 6.543578339190887 0 6.543578339190887 5.2496508264539443 0 0 0 0 -9.9298489026412184 4.7527381273699234 0 4.7527381273699234 4.9429275105130461 0 0 0 0 -8.2008368424712899 9.5114477959054966 0 9.5114477959054966 0.67125791359285358 0 0 0 0 -12.881648329743257 6.2734145179774714 0 6.2734145179774714 5.4195967704242776 0 0 0 0 -7.6645847076351856 3.3885173299327107 0 3.3885173299327107 1.0025901024673658 0 0 0 0 -11.630216850770012 5.6617143633875457 0 5.6617143633875457 10.970467390703561 0 0 0 0 -6.1070853660412467 4.8094686533299864 0 4.8094686533299864 5.5386817299031463 0 0 0 0 -5.5602729895565268 2.8871600165400562 0 2.8871600165400562 0.73777254567720929 0 0 0 0 -4.8157484603416378 0.20321358426326697 0 0.20321358426326697 3.5101577314044334 0 0 0 0 -4.5045315930555745 3.9922447909989938 0 3.9922447909989938 -1.2975183378607893 0 0 0 0 -6.764014770596372 4.8147501787446929 0 4.8147501787446929 -2.3912508313317202 0 0 0 0 -5.662680701501813 4.0168545239721425 0 4.0168545239721425 6.8049254241432209 0 0 0 0 -2.2933486840975092 4.2341931299597491 0 4.2341931299597491 5.8121837095754927 0 0 0 0 -11.649157337130418 9.0671158125669535 0 9.0671158125669535 8.9364495249037645 0 0 0 0 -7.125205331097181 3.6967467794728734 0 3.6967467794728734 -0.59502636964632583 0 0 0 0 -3.5136777480811361 14.090430540993111 0 14.090430540993111 1.3359321185971567 0 0 0 0 -39.298714897351601 15.335649959149578 0 15.335649959149578 15.872099237769362 0 0 0 0 -5.6940004344413868 -5.3991934386365443 0 -5.3991934386365443 10.503464191511226 0 0 0 0 -11.146992259952334 5.8310071369667149 0 5.8310071369667149 -0.21837847282370504 0 0 0 0 -11.807674139037772 11.726679145537673 0 11.726679145537673 -2.2548591570923691 0 0 0 0 -57.214370838071773 -0.1989283389862635 0 -0.1989283389862635 23.991268513586874 0 0 0 0 -4.2243158518303972 34.341763323488635 0 34.341763323488635 24.080434333143899 0 0 0 0 -48.693608137404226 9.6036331255720597 0 9.6036331255720597 46.64573271434756 0 0 0 0 -3.5704292963581779 1.0320237892495854 0 1.0320237892495854 0.59791543708261941 0 0 0 0 -8.2893644281793968 -0.12562473008074448 0 -0.12562473008074448 30.298344110377684 0 0 0 0 -12.098866709351057 8.56651293106842 0 8.56651293106842 -5.5344954397800796 0 0 0 0 -1.2248452612384426 -13.169805223947151 0 -13.169805223947151 0.14118483951398275 0 0 0 0 -14.884212640123224 24.785062981793544 0 24.785062981793544 9.8569903898966231 0 0 0 0 7.3105338676339215 27.15396087898489 0 27.15396087898489 -8.4708701723720878 0 0 0 0 -5.9629029763127619 -3.2195986259202982 0 -3.2195986259202982 20.783304202752674 0 0 0 0 -9.6452189589836053 19.939206936316623 0 19.939206936316623 18.239089310253803 0 0 0 0 -37.556963255939991 -47.273181041827456 0 -47.273181041827456 -27.270486034749183 0 0 0 0 -13.434984197616963 8.631695775770778 0 8.631695775770778 -5.2364090591107235 0 0 0 0 -5.2275737868076249 21.768870758550975 0 21.768870758550975 -10.729498186206001 0 0 0 0 -4.4983400725714091 20.194785888304523 0 20.194785888304523 -14.133644900174659 0 0 0 0 -32.011809441661171 15.143907752606083 0 15.143907752606083 -7.1393773344057081 0 0 0 0 -9.52470836430075 21.909887381314547 0 21.909887381314547 -11.336848334210117 0 0 0 0 -16.223225503166759 4.6842985411681184 0 4.6842985411681184 3.3701193179622351 0 0 0 0 -22.167808090527615 27.882969556719218 0 27.882969556719218 -22.709262727948953 0 0 0 0 2.4386783317968366 -8.7627307460279553 0 -8.7627307460279553 -29.827508431300885 0 0 0 0 -3.6465951712234528 -14.982430373163879 0 -14.982430373163879 20.033712859170919 0 0 0 0 -11.984975263861998 -0.22758495193284034 0 -0.22758495193284034 32.178474455542528 0 0 0 0 -2.534728280872514 -7.3730639360155692 0 -7.3730639360155692 4.766322020775192 0 0 0 0 -11.20372267887069 6.8156222174911818 0 6.8156222174911818 2.715104718645307 0 0 0 0 -8.473460605557193 0.31429038861733716 0 0.31429038861733716 25.722322406943931 0 0 0 0 -7.3941819352057792 -0.70479484774978118 0 -0.70479484774978118 17.071929614381588 0 0 0 0 -13.487321700380562 14.365623252062505 0 14.365623252062505 10.156007465453513 0 0 0 0 -3.587414400308262 -3.0058834758037847 0 -3.0058834758037847 17.916630638351307 0 0 0 0 -1.2115601936657185 1.8063714665492405 0 1.8063714665492405 -0.92515414932591611 0 0 0 0 12.110825593001209 -27.910074315735073 0 -27.910074315735073 59.79875727023591 0 0 0 0 12.42712273663912 5.6287512064351368 0 5.6287512064351368 29.402134711219333 0 0 0 0 -9.345697330090843 10.472676016585865 0 10.472676016585865 1.4273502248606746 0 0 0 0 -6.213620120263851 8.523812386899376 0 8.523812386899376 -4.6152732169716622 0 0 0 0 -15.475581783626694 15.431300865424419 0 15.431300865424419 -10.752629725727274 0 0 0 0 -12.055324614019845 11.069362993818967 0 11.069362993818967 -3.0396961298858756 0 0 0 0 -9.9349557389766545 8.4655243932045554 0 8.4655243932045554 -1.4888226160697666 0 0 0 0 -6.8392970659260754 10.871060415205648 0 10.871060415205648 -3.6737992745165684 0 0 0 0 -6.0129531535061247 9.350774211883623 0 9.350774211883623 -1.113448621501993 0 0 0 0 -9.0577231675324583 15.224707793142443 0 15.224707793142443 -0.68754146729588683 0 0 0 0 -7.5063946814812432 8.81501426669743 0 8.81501426669743 0.35959520475259055 0 0 0 0 -13.73030723872489 21.808010647658648 0 21.808010647658648 -9.4621730815051706 0 0 0 0 -8.2134563684567183 8.7930478713178672 0 8.7930478713178672 -2.0359563136880752 0 0 0 0 2.903564410042776 3.0029743160336722 0 3.0029743160336722 -3.7635227253706063 0 0 0 0 -1.4427706023816427 11.356849814651468 0 11.356849814651468 -20.123143136244835 0 0 0 0 11.925527657682323 15.372810796125805 0 15.372810796125805 -5.7769692865604156 0 0 0 0 -1.5936877507974714 -6.1559933479861684 0 -6.1559933479861684 14.225320094624294 0 0 0 0 -1.8487127497273228 2.6853975878727212 0 2.6853975878727212 -1.1056296225518043 0 0 0 0 5.641729018652768 11.169367082160079 0 11.169367082160079 -8.5885775150718473 0 0 0 0 -12.661376502728672 13.046757592959466 0 13.046757592959466 8.4194889156578938 0 0 0 0 6.3595105655604129 22.723042373631529 0 22.723042373631529 2.2133766610913881 0 0 0 0 -6.1146936859586276 17.885084879129863 0 17.885084879129863 0.85070551787657678 0 0 0 0 -3.7145482653969708 8.3013214237864208 0 8.3013214237864208 -1.6972393662437084 0 0 0 0 5.4132500990126573 5.6180863210238385 0 5.6180863210238385 -12.748211222235113 0 0 0 0 0.69639161814848194 7.3673223105215584 0 7.3673223105215584 -10.538929072588871 0 0 0 0 -0.43402256951048912 13.950356180530434 0 13.950356180530434 -13.684425611540064 0 0 0 0 -46.679576521590207 50.617918055670998 0 50.617918055670998 -53.223387041018213 0 0 0 0 9.6864503193046403 6.8262283926951568 0 6.8262283926951568 -13.114290510116916 0 0 0 0 -13.232416157021362 -31.662448570248671 0 -31.662448570248671 -22.68418274017904 0 0 0 0 -0.37153919692525506 0.35779643336956113 0 0.35779643336956113 -5.8949356488537745 0 0 0 0 -2.1043147555149986 -0.14041279281144625 0 -0.14041279281144625 -0.03127470015060041 0 0 0 0 -43.848419870869293 82.59396226173385 0 82.59396226173385 -137.54902508676969 0 0 0 0 -2.3631463449710282 5.5494460725694807 0 5.5494460725694807 -19.62730161089388 0 0 0 0 -48.659978756391865 7.5480820307116119 0 7.5480820307116119 5.996190406885944 0 0 0 0 -2.0868660125600229 1.1268711300512511 0 1.1268711300512511 2.228667776400254 0 0 0 0 -8.0971801600862818 4.2868339533133817 0 4.2868339533133817 2.0512789341797415 0 0 0 0 -7.8181612132502778 0.89652793409459264 0 0.89652793409459264 3.0120638136977504 0 0 0 0 -27.538416645898906 7.8308971248904982 0 7.8308971248904982 8.4817847078447812 0 0 0 0 -2.697175690606862 4.0220983313412191 0 4.0220983313412191 5.5355405093567231 0 0 0 0 -8.1996613389474078 10.746239062135828 0 10.746239062135828 7.2074185149622281 0 0 0 0 -4.7542547879427062 -1.1843805567858512 0 -1.1843805567858512 4.3263411255914832 0 0 0 0 -12.572180806345841 5.6802432199799568 0 5.6802432199799568 6.0673016347791418 0 0 0 0 -6.5693237585513415 1.512327265403286 0 1.512327265403286 2.7426100537679901 0 0 0 0 -15.859377354105678 5.0381026193348397 0 5.0381026193348397 5.2693689058250257 0 0 0 0 -62.0374715970338 -47.426931692481503 0 -47.426931692481503 105.70334850372546 0 0 0 0 -173.07964997807358 121.93905425943694 0 121.93905425943694 -12.721655992489104 0 0 0 0 -11.723279468953478 47.538910605965611 0 47.538910605965611 12.306393111415673 0 0 0 0 -83.819910506515953 16.865546484144943 0 16.865546484144943 6.3052005052068125 0 0 0 0 -62.560254317391809 74.174746610750844 0 74.174746610750844 -27.875370530973669 0 0 0 0 25.997217081396229 -9.9304678695343682 0 -9.9304678695343682 -12.185355254544902 0 0 0 0 7.1140824495514607 10.126507871201738 0 10.126507871201738 -10.214112643669068 0 0 0 0 7.9246373561290966 1.9898824299380067 0 1.9898824299380067 0.79301375546128838 0 0 0 0 5.3672194880550705 9.6991718350009251 0 9.6991718350009251 -13.392993311721511 0 0 0 0 19.757132784669011 -1.4046820010521515 0 -1.4046820010521515 -14.76846051816392 0 0 0 0 2.2105527481726313 6.3068616680338891 0 6.3068616680338891 -8.341927960042085 0 0 0 0 18.5810261626375 2.2550383449279252 0 2.2550383449279252 -19.901113032601643 0 0 0 0 -45.124460657647433 36.410417372157553 0 36.410417372157553 68.80085716206213 0 0 0 0 -0.22323012229656136 -0.45345005636894697 0 -0.45345005636894697 -1.5963702953742214 0 0 0 0 22.071807921626714 0.78256756693463103 0 0.78256756693463103 -22.688470174191025 0 0 0 0 -146.74942229445151 218.67660829689521 0 218.67660829689521 -113.4014325591761 0 0 0 0 170.89024508476723 -45.584354247750525 0 -45.584354247750525 -247.20529869979873 0 0 0 0 22.357735318295454 2.6204623118901509 0 2.6204623118901509 -27.429383049868193 0 0 0 0 -4.4013327790216863 19.518079567141285 0 19.518079567141285 -23.156703680268492 0 0 0 0 -4.2525985348165705 12.961267121371748 0 12.961267121371748 -17.729131825280319 0 0 0 0 -5.7994882892558053 15.841560106500765 0 15.841560106500765 -18.648932194120789 0 0 0 0 11.442002691215748 13.068968840192611 0 13.068968840192611 -20.534259486683368 0 0 0 0 0.67067949521970149 12.360687571737571 0 12.360687571737571 -14.554196219633013 0 0 0 0 -3.9906568215301377 11.17768825181065 0 11.17768825181065 -11.582594271088965 0 0 0 0 -1.4429170457297005 11.340020463722794 0 11.340020463722794 -9.878045575294891 0 0 0 0 -11.390283082559108 13.160228907303463 0 13.160228907303463 -11.497098832351185 0 0 0 0 -9.6577379198188282 17.377403292372037 0 17.377403292372037 -23.639788559926274 0 0 0 0 3.8549278205195829 6.5627787650308562 0 6.5627787650308562 -10.811890581218961 0 0 0 0 -10.240098758454224 16.746798284377746 0 16.746798284377746 -14.475019457551753 0 0 0 0 -16.909921493174124 15.666515151729072 0 15.666515151729072 -10.307558915803384 0 0 0 0 -6.083047833272758 14.433753878167863 0 14.433753878167863 -19.937230266092229 0 0 0 0 3.6619899123068098 6.5809649522283244 0 6.5809649522283244 -12.42788358687579 0 0 0 0 -17.157562630084648 7.5640821910714884 0 7.5640821910714884 2.645592374115628 0 0 0 0 -19.839794750989313 22.576034926993088 0 22.576034926993088 21.23197179894305 0 0 0 0 -14.746867482704602 13.335814228390518 0 13.335814228390518 5.320215060526607 0 0 0 0 -18.575564376282273 19.569870050466079 0 19.569870050466079 -11.976952258874007 0 0 0 0 -20.599006947456473 -6.3292380721122754 0 -6.3292380721122754 41.344454850324837 0 0 0 0 -16.743222899733155 32.547966332655051 0 32.547966332655051 46.114547360506549 0 0 0 0 -23.966429448318195 43.883445940999536 0 43.883445940999536 28.293471026063344 0 0 0 0 -28.218680733047222 43.989574861969231 0 43.989574861969231 34.699746746829533 0 0 0 0 -22.620718965613378 20.38908675904986 0 20.38908675904986 26.48870254913345 0 0 0 0 -20.122939546212365 48.562146475662303 0 48.562146475662303 0.098235669500354561 0 0 0 0 -13.319115021832999 52.164425186112339 0 52.164425186112339 -0.06119687162572518 0 0 0 0 -19.986702422858343 16.339188728030422 0 16.339188728030422 -7.0018253847247252 0 0 0 0 -13.501349620152723 13.719611008560605 0 13.719611008560605 -11.281074624840585 0 0 0 0 -12.247244995940036 2.2163269916991339 0 2.2163269916991339 -54.53670358868294 0 0 0 0 -17.567070568275948 6.5289308485036948 0 6.5289308485036948 3.2450041504469134 0 0 0 0 -11.915848261359486 43.407436214960285 0 43.407436214960285 -26.302872476255288 0 0 0 0 -18.132825704592506 51.279081112097629 0 51.279081112097629 -34.482415402514562 0 0 0 0 -4.9612904971863827 61.863443443536198 0 61.863443443536198 -46.670182867412223 0 0 0 0 -25.193446858477273 23.096799940924029 0 23.096799940924029 -70.431548572856627 0 0 0 0 -21.542288891832413 11.240793780283866 0 11.240793780283866 -5.3472879378550715 0 0 0 0 -1.7711943654510716 1.0329528276658628 0 1.0329528276658628 -0.99261322942388119 0 0 0 0 -34.424923163355743 20.307543804686247 0 20.307543804686247 -66.720163663232597 0 0 0 0 -44.843788067315472 28.780889041887349 0 28.780889041887349 -3.5145166026159131 0 0 0 0 -21.464270578521791 21.662047954583613 0 21.662047954583613 -13.183708710277642 0 0 0 0 -65.256330033505947 30.974077651764674 0 30.974077651764674 6.0641152052135112 0 0 0 0 -21.357666232930569 -1.773248720652191 0 -1.773248720652191 17.691976171248825 0 0 0 0 -13.386378058859009 -0.90961892562881985 0 -0.90961892562881985 11.151890814027865 0 0 0 0 -7.5520867054601695 0.030283911957667442 0 0.030283911957667442 11.272820698611213 0 0 0 0 -1.9068886272822114 1.0522375278649214 0 1.0522375278649214 2.4153457711329693 0 0 0 0 -23.490314858909642 0.38901816287807378 0 0.38901816287807378 19.120428280875785 0 0 0 0 -11.947124246014027 6.1794509392188957 0 6.1794509392188957 -0.67874354364903411 0 0 0 0 -11.704315355974314 3.6426312801121661 0 3.6426312801121661 6.1243249997891258 0 0 0 0 -15.338463535988922 8.566517985518658 0 8.566517985518658 7.9734743788549167 0 0 0 0 -12.486174260463031 7.7640794572998857 0 7.7640794572998857 5.4369911600538217 0 0 0 0 -23.973391142062837 21.194322606251717 0 21.194322606251717 -1.0865314696638961 0 0 0 0 -12.613711049874837 18.823846826624504 0 18.823846826624504 -9.7212428406105573 0 0 0 0 -14.400539756951389 18.289600436918704 0 18.289600436918704 -9.8809126350261067 0 0 0 0 -13.351663358019778 16.91687511024702 0 16.91687511024702 -14.621825140097826 0 0 0 0 -9.4506602866922549 15.241824376174918 0 15.241824376174918 -15.543876829615328 0 0 0 0 -10.514036829500128 18.269913512528547 0 18.269913512528547 -20.143055870629361 0 0 0 0 -12.116611553192342 22.643622658164986 0 22.643622658164986 -20.150292180282122 0 0 0 0 -13.248007436729949 29.389500300445434 0 29.389500300445434 -46.425085829805539 0 0 0 0 -0.82131573902737287 0.81043516841474883 0 0.81043516841474883 0.60735024658061221 0 0 0 0 -10.390116183561531 18.500359007309953 0 18.500359007309953 -20.89956914555296 0 0 0 0 -7.0093488828970294 17.544244062191865 0 17.544244062191865 -26.110807629387637 0 0 0 0 -10.797963885250283 16.3637487895503 0 16.3637487895503 57.674103239030046 0 0 0 0 -1.146801663411015 3.1259103291032879 0 3.1259103291032879 -1.8794519769394302 0 0 0 0 -4.3580284563495297 18.56897739323631 0 18.56897739323631 57.510707268542319 0 0 0 0 -1.8688761590495462 3.2302775154129151 0 3.2302775154129151 -1.8306168051981189 0 0 0 0 -9.9933722616056002 15.995021193554294 0 15.995021193554294 56.724411480943672 0 0 0 0 -13.028449170845079 13.885583343804456 0 13.885583343804456 66.790157640713005 0 0 0 0 -20.200076488613377 29.707544769613378 0 29.707544769613378 52.282909533598286 0 0 0 0 -16.621058931564221 26.914116761970945 0 26.914116761970945 46.959986052610475 0 0 0 0 -10.033286861006559 3.8706417441756003 0 3.8706417441756003 124.9232548109685 0 0 0 0 -1.0643027033611361 14.294204080074451 0 14.294204080074451 57.336347515253692 0 0 0 0 13.716300512181533 -44.744337839731998 0 -44.744337839731998 101.69759403844 0 0 0 0 23.101171147128753 31.079476467857603 0 31.079476467857603 68.949240402920623 0 0 0 0 -15.09383753158545 27.876022950584229 0 27.876022950584229 -44.90444831637933 0 0 0 0 -15.867465325840953 23.104854539572329 0 23.104854539572329 -65.565225980168179 0 0 0 0 -38.697215882140881 52.644247971659752 0 52.644247971659752 -54.967009160067391 0 0 0 0 -65.885076181136583 2.6380491175711995 0 2.6380491175711995 8.9190763290898758 0 0 0 0 -60.268203112697847 41.842868859815553 0 41.842868859815553 -40.376938640773005 0 0 0 0 -34.112190933375132 67.542129946628847 0 67.542129946628847 -125.28585049556568 0 0 0 0 -65.159851476397307 26.421855488526489 0 26.421855488526489 -69.908052594561013 0 0 0 0 -117.18609693753297 -44.515346966212746 0 -44.515346966212746 239.71244885068154 0 0 0 0 -280.38317035158389 78.048605944265546 0 78.048605944265546 36.044357148541167 0 0 0 0 -0.64317703422298167 -0.010736693591821389 0 -0.010736693591821389 9.754951161839287 0 0 0 0 -0.54212063214289152 0.46094176254830188 0 0.46094176254830188 0.2516665345028013 0 0 0 0 -60.133385424946027 95.667173621084657 0 95.667173621084657 -131.4255416036649 0 0 0 0 -79.849683166656177 -32.094765737081616 0 -32.094765737081616 111.00984858998891 0 0 0 0 -171.21269186608242 52.426830260372299 0 52.426830260372299 124.29607340990697 0 0 0 0 -175.94703214090987 32.48372200976155 0 32.48372200976155 184.76783182132203 0 0 0 0 -0.39782412849677495 2.0500600341702837 0 2.0500600341702837 -1.1666200081407894 0 0 0 0 -145.83177994659127 -26.396698855161958 0 -26.396698855161958 61.505627009173622 0 0 0 0 -35.195502133535911 -8.2363999421218068 0 -8.2363999421218068 60.182392047310714 0 0 0 0 -13.241138348176719 21.325637745596396 0 21.325637745596396 46.214778521440167 0 0 0 0 17.308201287795782 7.5179936056993029 0 7.5179936056993029 -6.1951694157596648 0 0 0 0 3.6316116285606768 39.598024439221263 0 39.598024439221263 71.678724418073216 0 0 0 0 -18.239074875923961 0.23970532863756944 0 0.23970532863756944 14.000818345160951 0 0 0 0 -0.75086117325108503 0.13045388118334067 0 0.13045388118334067 0.40409867211885597 0 0 0 0 -6.864216927335292 -0.58528299135377893 0 -0.58528299135377893 3.6851661212913314 0 0 0 0 -17.046810919346456 -7.5032888495804286 0 -7.5032888495804286 4.6006070857656596 0 0 0 0 -7.3739607419570348 6.8666495823758851 0 6.8666495823758851 8.8374245071245241 0 0 0 0 -11.383206495896502 1.9916015779335794 0 1.9916015779335794 4.6767654898576438 0 0 0 0 -0.86446836927671944 2.3366654434911842 0 2.3366654434911842 7.0720967559865748 0 0 0 0 -0.94820582941977261 -0.076856618708021962 0 -0.076856618708021962 5.4212006200399756 0 0 0 0 -16.510867982400214 -1.8095708908531378 0 -1.8095708908531378 3.2750020686798962 0 0 0 0 -19.883781437442394 -8.2889892625908033 0 -8.2889892625908033 10.198507490189968 0 0 0 0 -2.2223185500602085 2.8608018657887442 0 2.8608018657887442 2.180688336278763 0 0 0 0 -3.1429026760203329 1.6657290855685376 0 1.6657290855685376 4.7173809620845049 0 0 0 0 -17.299808547626981 -2.7520596544995897 0 -2.7520596544995897 8.9266543187586649 0 0 0 0 -14.050276428033612 -1.7510071480655824 0 -1.7510071480655824 4.5546335762774106 0 0 0 0 -4.0640768991170537 3.4773333251738467 0 3.4773333251738467 6.3299381789478062 0 0 0 0 -9.0764514206957756 -1.1451449829028206 0 -1.1451449829028206 1.1467790420279016 0 0 0 0 -5.114151266800036 -0.81410409957175034 0 -0.81410409957175034 4.7289494745491538 0 0 0 0 -11.008937512968714 1.2427492130827886 0 1.2427492130827886 5.1368231858314175 0 0 0 0 -5.8201532128362032 3.0722106504595104 0 3.0722106504595104 3.3228098578802019 0 0 0 0 -4.7696781235213166 1.9033981032735028 0 1.9033981032735028 4.4024851992678578 0 0 0 0 -2.8151397449801152 3.5464908377525717 0 3.5464908377525717 6.9948180520127607 0 0 0 0 -6.231701971781149 -1.6711296320264637 0 -1.6711296320264637 10.070181363029405 0 0 0 0 -6.4559393763985131 1.4596033453976229 0 1.4596033453976229 3.6968632067057374 0 0 0 0 -10.327892737468574 5.8006275949474002 0 5.8006275949474002 3.3436632960679162 0 0 0 0 -3.4602592504015774 1.506643817290751 0 1.506643817290751 12.468759244497051 0 0 0 0 -2.8021124040307956 1.2649462636325799 0 1.2649462636325799 3.6485707245545882 0 0 0 0 -10.293921216195486 1.8591192905305434 0 1.8591192905305434 3.8869466811593156 0 0 0 0 -3.4989040396393829 1.8113811029680607 0 1.8113811029680607 2.944630740593162 0 0 0 0 -2.6281701448492232 3.5767938794042209 0 3.5767938794042209 1.5072045669268057 0 0 0 0 -15.987451911250901 2.5286058015735762 0 2.5286058015735762 5.1766432556543123 0 0 0 0 -7.2520501226773604 4.5077683485670832 0 4.5077683485670832 6.4839697621282539 0 0 0 0 -5.4302857395511239 0.37657945560907358 0 0.37657945560907358 9.0912535062755921 0 0 0 0 -7.4336090444026279 1.4551474072921735 0 1.4551474072921735 5.5751728961903755 0 0 0 0 -15.867211184602638 0.4975493752717739 0 0.4975493752717739 4.9509528086709906 0 0 0 0 -12.602711005669853 6.4324218369192305 0 6.4324218369192305 9.8225657281204377 0 0 0 0 -21.577843896257946 10.082976712156778 0 10.082976712156778 4.2270115777446335 0 0 0 0 20.693823527599307 25.032807616619266 0 25.032807616619266 7.9966381069514227 0 0 0 0 -9.0974428095274789 21.192093432864453 0 21.192093432864453 11.006622069067816 0 0 0 0 -19.932128664380798 11.147587415725866 0 11.147587415725866 3.0157056374100648 0 0 0 0 -10.923468599039552 1.104824540010668 0 1.104824540010668 5.6272574300564884 0 0 0 0 -4.7522646184869473 3.8527367595023634 0 3.8527367595023634 6.5530246033304138 0 0 0 0 -7.7992134765263472 9.5393459486522261 0 9.5393459486522261 -2.3711270796002282 0 0 0 0 -10.786577943628572 3.5762385086616177 0 3.5762385086616177 4.9047618119420804 0 0 0 0 -5.3491985672312694 -0.77226826341984633 0 -0.77226826341984633 5.3227583522311761 0 0 0 0 -6.1227634703855074 0.03456797460148664 0 0.03456797460148664 9.979662199032191 0 0 0 0 -4.2232869215622326 2.1707228600419821 0 2.1707228600419821 1.3134619413078088 0 0 0 0 4.4977654632066333 6.6126548223428472 0 6.6126548223428472 5.2562165624929094 0 0 0 0 -5.2291454320256889 -0.42729912625509314 0 -0.42729912625509314 5.1704276714499429 0 0 0 0 -0.93929771478883595 20.646338558045045 0 20.646338558045045 8.3871666224276851 0 0 0 0 -1.2553974503433949 1.5842646951356851 0 1.5842646951356851 -0.75078868845568536 0 0 0 0 -2.9636078018315999 3.4817086198586145 0 3.4817086198586145 -2.4220230488107219 0 0 0 0 1.8740808161314817 5.7428427246104548 0 5.7428427246104548 1.8517523385905861 0 0 0 0 -0.1904875748961139 3.8787844366107791 0 3.8787844366107791 -1.5564441622819043 0 0 0 0 6.1972798090195056 44.536051371824911 0 44.536051371824911 189.93482353928721 0 0 0 0 1.4321726947170248 -16.068740236646363 0 -16.068740236646363 66.737595410444555 0 0 0 0 48.392116593722676 81.240312984269622 0 81.240312984269622 70.870406036233533 0 0 0 0 -5.1331507690720173 0.23358310135517968 0 0.23358310135517968 3.6235086477008736 0 0 0 0 -5.0845103835472401 -0.50944978032930521 0 -0.50944978032930521 4.0520897015703667 0 0 0 0 -5.0622980581520096 -0.0722158260850847 0 -0.0722158260850847 4.6664749377468979 0 0 0 0 -1.3019595692830883 1.0889809587117814 0 1.0889809587117814 0.56895409408594588 0 0 0 0 2.0491079007665576 5.0166787826319705 0 5.0166787826319705 4.6475120728800903 0 0 0 0 -1.1611552301470702 0.3984642678681567 0 0.3984642678681567 1.4958262095112289 0 0 0 0 -6.3262354433645669 12.305478270442109 0 12.305478270442109 2.724475361261284 0 0 0 0 0.36037297277653124 -13.869220118402154 0 -13.869220118402154 -1.8483530881057959 0 0 0 0 34.128906899827598 54.555408505880223 0 54.555408505880223 124.01425157144013 0 0 0 0 15.67374070164351 52.187029925607021 0 52.187029925607021 125.72414004905477 0 0 0 0 10.750797493541882 81.53031939381367 0 81.53031939381367 121.67128610120562 0 0 0 0 60.994714311190364 78.785162297348506 0 78.785162297348506 120.25637313843163 0 0 0 0 34.424360465830205 117.8302699452961 0 117.8302699452961 176.39635696155892 0 0 0 0 14.237123385696577 59.080479538337386 0 59.080479538337386 148.57300170654162 0 0 0 0 57.409916732705824 90.635240532317312 0 90.635240532317312 181.5351543505567 0 0 0 0 58.922986205574489 79.580854594261837 0 79.580854594261837 193.91835571933552 0 0 0 0 50.469850661306054 100.94762524154953 0 100.94762524154953 169.16215726585779 0 0 0 0 0.8425720964420762 0.6702285479180432 0 0.6702285479180432 -0.22748493373634204 0 0 0 0 -3.2942936714225652 63.738647744145965 0 63.738647744145965 179.39075637917495 0 0 0 0 0.6501678692961832 53.868586215495043 0 53.868586215495043 170.7524238486285 0 0 0 0 31.733300246974068 52.757389581964617 0 52.757389581964617 171.53614091485906 0 0 0 0 2.1151641257201845 55.944789187004972 0 55.944789187004972 177.6095547271243 0 0 0 0 8.8110482548316895 75.009266073442632 0 75.009266073442632 159.51178112537127 0 0 0 0 13.021956045516163 52.950754597527975 0 52.950754597527975 108.23119480425612 0 0 0 0 1.1952988152693251 41.856713772453077 0 41.856713772453077 132.83861930393141 0 0 0 0 19.570105552469727 36.295072231488575 0 36.295072231488575 67.79627393145347 0 0 0 0 34.114753681210914 48.370070752960601 0 48.370070752960601 37.446558361325515 0 0 0 0 25.354043558105332 47.57715055875633 0 47.57715055875633 66.074684198624709 0 0 0 0 4.3860084249563442 3.7080107400097404 0 3.7080107400097404 -0.48347497971553821 0 0 0 0 -6.0312610668115667 -26.025670414719571 0 -26.025670414719571 1.3272106771960352 0 0 0 0 38.194989501012969 5.1915396460481134 0 5.1915396460481134 -10.521136710724932 0 0 0 0 -15.443851957810693 13.791019882498404 0 13.791019882498404 22.49986101376976 0 0 0 0 97.43970966775214 49.027989603389869 0 49.027989603389869 8.6687680166469363 0 0 0 0 45.886388065934625 63.523081960024683 0 63.523081960024683 44.632587368463192 0 0 0 0 100.32288035071193 90.151980142311601 0 90.151980142311601 19.455107505737033 0 0 0 0 25.668447369121168 101.42358328569208 0 101.42358328569208 145.94574442589192 0 0 0 0 -0.66637734320328512 0.5516883791967544 0 0.5516883791967544 -0.52724849523703199 0 0 0 0 19.541320812115828 4.8448299484593917 0 4.8448299484593917 10.860969284762632 0 0 0 0 -1.1564649249282866 -0.47987417209446903 0 -0.47987417209446903 -2.5606518875347319 0 0 0 0 20.141951938061993 9.3139127419681245 0 9.3139127419681245 -11.27651068058185 0 0 0 0 22.999409105963991 12.486179927897467 0 12.486179927897467 18.447959029256708 0 0 0 0 -2.7826406912156276 3.0707071368760457 0 3.0707071368760457 -3.3869389184527599 0 0 0 0 -8.8514246359745812 -16.903463547224192 0 -16.903463547224192 -8.1855080481846016 0 0 0 0 17.737959807156585 28.700366220599676 0 28.700366220599676 12.872718940689083 0 0 0 0 -2.836887776639804 3.1376729392828304 0 3.1376729392828304 -3.1702899012030592 0 0 0 0 -0.23308416629772921 0.16223477569950528 0 0.16223477569950528 0.095379277185987377 0 0 0 0 3.571064821492655 13.349361974585918 0 13.349361974585918 10.341899766457573 0 0 0 0 18.458537850360699 24.335249952812319 0 24.335249952812319 12.425866688203314 0 0 0 0 29.046230754041744 21.235053847657809 0 21.235053847657809 -12.625374319000912 0 0 0 0 11.518464980979616 33.551583130674089 0 33.551583130674089 26.291179687448675 0 0 0 0 -0.21683184855479531 0.14461190881788522 0 0.14461190881788522 -0.066907957083724767 0 0 0 0 20.471888156300338 10.800991446502849 0 10.800991446502849 20.088199545120915 0 0 0 0 2.4634117435130065 -2.0381579505342415 0 -2.0381579505342415 7.5455677478830694 0 0 0 0 30.599645399617202 26.890079828683156 0 26.890079828683156 -16.708045262319729 0 0 0 0 7.6639828234668812 12.464136295865046 0 12.464136295865046 -11.189674251588258 0 0 0 0 2.8394074254456427 2.817185383625656 0 2.817185383625656 -8.6140267207379111 0 0 0 0 19.529008730919486 -7.7816369745708016 0 -7.7816369745708016 -13.611825578958815 0 0 0 0 31.047870829516341 41.647186887752468 0 41.647186887752468 9.4842612180172523 0 0 0 0 -2.4841496618695871 2.766963859276768 0 2.766963859276768 -2.7597670389438349 0 0 0 0 18.426888278114347 -64.976781549406496 0 -64.976781549406496 83.284745310591461 0 0 0 0 18.950078001074871 33.75077532362684 0 33.75077532362684 -46.700969829868654 0 0 0 0 10.616478121889315 69.916277766050229 0 69.916277766050229 -15.274618899319648 0 0 0 0 0.10245631920200005 -0.024566172998014668 0 -0.024566172998014668 -0.063033639477094283 0 0 0 0 -111.11624797442164 -6.8225413509248938 0 -6.8225413509248938 36.39110298972264 0 0 0 0 -15.621648241643925 -1.4364951546072007 0 -1.4364951546072007 6.2707360049321323 0 0 0 0 -7.5907881126795473 -8.2303565187253298 0 -8.2303565187253298 9.1272481119876829 0 0 0 0 20.579213873086701 -5.9796310237857142 0 -5.9796310237857142 34.746765969588068 0 0 0 0 12.625989812336229 7.2756253281015688 0 7.2756253281015688 3.9191151387749414 0 0 0 0 -0.11992424257656609 0.078366565115544518 0 0.078366565115544518 0.12645732695743206 0 0 0 0 5.7130420292423878 31.270966345279248 0 31.270966345279248 19.094962567760376 0 0 0 0 -21.241543506232574 -2.6923700334837122 0 -2.6923700334837122 13.205217432253448 0 0 0 0 3.8175403105460646 9.0763760578265646 0 9.0763760578265646 -38.413223786556273 0 0 0 0 10.975505368507925 -15.356285189224934 0 -15.356285189224934 14.399990188172524 0 0 0 0 -11.326878047088712 -11.820733766043759 0 -11.820733766043759 -17.346689490685094 0 0 0 0 -1.1608686471933805 1.6791416998706103 0 1.6791416998706103 -2.6245441063757546 0 0 0 0 7.1959929883996665 15.343216768803813 0 15.343216768803813 0.18876385913063132 0 0 0 0 -19.35109041880105 -16.406825813595333 0 -16.406825813595333 -8.8468522695484353 0 0 0 0 -0.87914021080405291 0.78024690937286323 0 0.78024690937286323 -2.6209148502230164 0 0 0 0 8.0236398389539545 10.015137007705846 0 10.015137007705846 -4.4597178575313592 0 0 0 0 -1.3932551284824513 4.9141530934161892 0 4.9141530934161892 -3.6503642107400083 0 0 0 0 -2.8157923396205176 5.1157494026323196 0 5.1157494026323196 -2.2862973355660792 0 0 0 0 15.308182365342873 -8.5833097577778972 0 -8.5833097577778972 -0.090124991106677044 0 0 0 0 -10.332523522471092 5.557395304469992 0 5.557395304469992 -0.75462999475348624 0 0 0 0 -111.33497400221495 -1.9095150199404998 0 -1.9095150199404998 194.40244158608766 0 0 0 0 -6.0929810774614452 2.6823986698132103 0 2.6823986698132103 11.746801358845005 0 0 0 0 -45.576563812281165 55.380056648358732 0 55.380056648358732 -35.16076250133392 0 0 0 0 -26.604424335440854 21.193248118318479 0 21.193248118318479 16.582668817118929 0 0 0 0 -8.2829380154526007 24.336153001090452 0 24.336153001090452 -29.873385158960446 0 0 0 0 -0.086474094387085643 1.8353017396784708 0 1.8353017396784708 -21.133798541006172 0 0 0 0 -2.4905664044463265 15.312647842898514 0 15.312647842898514 -70.52132675906887 0 0 0 0 -0.41178307246618218 0.4587435729508178 0 0.4587435729508178 -0.31662197134491343 0 0 0 0 -4.5356874381213856 -6.0520884699053568 0 -6.0520884699053568 -6.7634911507152538 0 0 0 0 -28.43815346559677 45.165922736085577 0 45.165922736085577 -104.88686240644893 0 0 0 0 -6.5781805177507522 5.9893156365893674 0 5.9893156365893674 3.7885913942573097 0 0 0 0 -4.1759298941160523 9.7191797970990592 0 9.7191797970990592 4.3105794207863255 0 0 0 0 -2.8014221961829353 5.0419087481886233 0 5.0419087481886233 -1.7220159615435442 0 0 0 0 -6.9118158521559963 5.4629666882565289 0 5.4629666882565289 1.2868481289824558 0 0 0 0 -1.9101151647731633 4.0441294049261121 0 4.0441294049261121 -0.51568856852731493 0 0 0 0 0.73541990535250079 4.695634992043324 0 4.695634992043324 -1.5304078362687505 0 0 0 0 -2.7507630181964253 2.9796884794339569 0 2.9796884794339569 4.9461950706355609 0 0 0 0 -15.248239029217075 -8.4706893430786181 0 -8.4706893430786181 10.827320960714133 0 0 0 0 -10.299568975799957 5.7993975130029867 0 5.7993975130029867 7.4340734958377652 0 0 0 0 -4.2733977664047416 -2.4102324709929235 0 -2.4102324709929235 10.921450295158138 0 0 0 0 -8.5870617108746146 5.7425928326584277 0 5.7425928326584277 2.6282909239057961 0 0 0 0 -7.9421838233683957 10.777854801664944 0 10.777854801664944 -7.7102622370948666 0 0 0 0 -1.1943473892772616 1.9324366671352387 0 1.9324366671352387 0.24743512543301804 0 0 0 0 -9.5037717193627032 -2.7235779629008903 0 -2.7235779629008903 15.523710816509265 0 0 0 0 -12.604132153814135 3.6036850725140539 0 3.6036850725140539 5.2060456578192316 0 0 0 0 -9.2662295245945394 0.87881466016067478 0 0.87881466016067478 3.9768985667878818 0 0 0 0 -2.2992095414883806 2.674481883073895 0 2.674481883073895 7.2342321637042915 0 0 0 0 -15.885160967027332 2.9227651045207494 0 2.9227651045207494 3.7958204028946056 0 0 0 0 -14.602485078393329 1.4447168213828263 0 1.4447168213828263 4.7289257673000975 0 0 0 0 -10.427986171406701 0.7566416834993106 0 0.7566416834993106 2.2567740348258667 0 0 0 0 -9.0514150492017507 1.6554752102169914 0 1.6554752102169914 2.2116517960821511 0 0 0 0 -9.1627796329685225 2.9133858333743774 0 2.9133858333743774 2.5023911005609989 0 0 0 0 -3.2689651867436513 3.3900201932564729 0 3.3900201932564729 3.0671035692990003 0 0 0 0 -6.3405556069619706 3.8934671355818864 0 3.8934671355818864 0.65098391015817469 0 0 0 0 -8.63353935158284 -2.9854929103776158 0 -2.9854929103776158 -4.0086361230751208 0 0 0 0 -0.92944473037160869 1.2573981058916566 0 1.2573981058916566 -0.49440377806871449 0 0 0 0 -2.5639551366948581 5.4287578100374958 0 5.4287578100374958 0.24882499430896132 0 0 0 0 -3.2336657816354144 2.7511160054448913 0 2.7511160054448913 0.65398166617830711 0 0 0 0 -2.1109351782852173 -1.4659870305222285 0 -1.4659870305222285 0.06147009480446286 0 0 0 0 -7.9143136365273676 -0.77662718490773841 0 -0.77662718490773841 3.4100605043995529 0 0 0 0 -14.532199679204496 3.6872990728461446 0 3.6872990728461446 2.9872406016529567 0 0 0 0 -16.807280800248009 7.035213310191466 0 7.035213310191466 -3.7403925852868269 0 0 0 0 -22.581018770628361 6.7353445809503683 0 6.7353445809503683 2.5361174367005788 0 0 0 0 -18.852126650313039 5.9471257219665858 0 5.9471257219665858 3.6986563175141782 0 0 0 0 -19.289351914438157 9.0152829626349558 0 9.0152829626349558 3.4510504064783163 0 0 0 0 -16.337054132475259 10.563758936945533 0 10.563758936945533 2.6467227189641562 0 0 0 0 -0.13744413698482028 0.094234280372697654 0 0.094234280372697654 0.048811532378575606 0 0 0 0 -21.663740986126868 4.6453135395349818 0 4.6453135395349818 7.1278305751548032 0 0 0 0 -14.0783702930039 -0.98616977157234942 0 -0.98616977157234942 9.0989504343283443 0 0 0 0 -17.989708714019798 5.598405486595766 0 5.598405486595766 2.0243896662259431 0 0 0 0 -9.7354356430696498 1.1948903381839955 0 1.1948903381839955 1.8370468333432655 0 0 0 0 -21.384308653035077 0.7030797675388385 0 0.7030797675388385 5.0975237342167929 0 0 0 0 -3.929020248186589 -3.9948952519041541 0 -3.9948952519041541 2.7564582254290144 0 0 0 0 -21.584454869105684 3.0575365589411376 0 3.0575365589411376 -7.4354466774575485 0 0 0 0 0.98735107618449547 11.020471147163335 0 11.020471147163335 2.0242830750903522 0 0 0 0 -22.430121875911027 -5.6784300425297261 0 -5.6784300425297261 -0.9705537755999103 0 0 0 0 -1.9179367918974481 3.0658524007508343 0 3.0658524007508343 -3.8119932983893943 0 0 0 0 -19.133144985480612 2.3202967858214834 0 2.3202967858214834 4.9270646743534598 0 0 0 0 -19.298285836801369 -0.02896485195014975 0 -0.02896485195014975 -3.9025456140759047 0 0 0 0 0.036840039563685423 -4.0415278528598719 0 -4.0415278528598719 8.2380257584779883 0 0 0 0 3.4409131749889639 3.688845476403344 0 3.688845476403344 5.1320286849345393 0 0 0 0 6.3317269322888023 -0.94216723672343505 0 -0.94216723672343505 9.803955795240654 0 0 0 0 -0.43750199609312901 0.39382910642882152 0 0.39382910642882152 0.22313767835702158 0 0 0 0 1.6714072465128993 0.88200199319078365 0 0.88200199319078365 -0.045311007257282654 0 0 0 0 -0.34839738048210123 0.4250686877120522 0 0.4250686877120522 0.38241761783535821 0 0 0 0 21.800828433670176 26.248628607950309 0 26.248628607950309 21.431068246573204 0 0 0 0 -0.0058594262172846356 1.4481036217282508 0 1.4481036217282508 0.86351851049062134 0 0 0 0 2.6616262914867548 18.804002558866159 0 18.804002558866159 24.822257609050666 0 0 0 0 10.402165334187885 8.9182176097506272 0 8.9182176097506272 -0.13776469050026208 0 0 0 0 2.8591213683594106 6.2222028866174242 0 6.2222028866174242 32.083835444943361 0 0 0 0 -0.27869489694421645 14.961865314486204 0 14.961865314486204 47.050051241768415 0 0 0 0 -1.0792590917553753 7.9973613861434387 0 7.9973613861434387 58.144416355710518 0 0 0 0 8.9985774677770678 13.56694043431844 0 13.56694043431844 47.435493721510284 0 0 0 0 2.2431164803965657 11.839755014465482 0 11.839755014465482 30.164069187228051 0 0 0 0 159.98833884689884 126.41492978643328 0 126.41492978643328 73.271594643981189 0 0 0 0 44.819631931037293 31.411482285450802 0 31.411482285450802 70.818916694027166 0 0 0 0 -1.5740580721812876 18.915289090485203 0 18.915289090485203 102.65291495660495 0 0 0 0 0.015317359950131504 -9.969730232251095 0 -9.969730232251095 61.132223130472539 0 0 0 0 48.31831986803644 137.95258668836811 0 137.95258668836811 158.88945591683751 0 0 0 0 -63.39031847167098 82.257901414555249 0 82.257901414555249 226.23997904604494 0 0 0 0 4.7741258900553021 22.934902348987265 0 22.934902348987265 -57.021687550297884 0 0 0 0 -4.1371442495510564 -64.342554385338872 0 -64.342554385338872 -36.353108230360704 0 0 0 0 -3.2131495903558971 -3.5356914594590307 0 -3.5356914594590307 55.740836443138051 0 0 0 0 0.72381797217349231 3.6641748783007415 0 3.6641748783007415 2.1002926842519969 0 0 0 0 4.6336506371590076 -3.1608430765802495 0 -3.1608430765802495 35.092292594979767 0 0 0 0 -2.1170282907623914 -19.550196915346532 0 -19.550196915346532 50.757929599116181 0 0 0 0 8.8651490099728107 -2.7624032779631307 0 -2.7624032779631307 -0.19751634346584979 0 0 0 0 7.5400719855360876 0.19132452910480424 0 0.19132452910480424 -3.7959378045873109 0 0 0 0 -103.23345886315656 86.788433715673705 0 86.788433715673705 -27.0017420145968 0 0 0 0 3.8292535288613081 4.4271430110373018 0 4.4271430110373018 4.6432286946931427 0 0 0 0 -38.982082795300812 35.972755957450516 0 35.972755957450516 -11.073212699632563 0 0 0 0 -84.333493109221308 42.581699306017299 0 42.581699306017299 37.305222156579532 0 0 0 0 -84.464690331911697 45.057202463273569 0 45.057202463273569 -0.89251089676639594 0 0 0 0 2.3679452257673361 3.214239652765567 0 3.214239652765567 3.9076693361731172 0 0 0 0 3.325726067125288 4.7538825336204127 0 4.7538825336204127 -5.4231734158293534 0 0 0 0 2.4014418145143281 -10.027004266463166 0 -10.027004266463166 8.9721690355763712 0 0 0 0 -0.083392320746636273 1.0259717390728973 0 1.0259717390728973 0.26300185342942761 0 0 0 0 0.020298996334531694 2.670940748439989 0 2.670940748439989 -1.9754815702069664 0 0 0 0 21.14075473111734 21.346529952318747 0 21.346529952318747 10.953855026638166 0 0 0 0 0.01773193190456368 18.514060423115552 0 18.514060423115552 38.658962289898795 0 0 0 0 31.191399796818587 77.565475873150717 0 77.565475873150717 137.40438331265591 0 0 0 0 49.258353961275134 22.970629479210629 0 22.970629479210629 -0.31318047198550403 0 0 0 0 4.9139690377069201 26.124103623032113 0 26.124103623032113 135.5135375757128 0 0 0 0 0.52881088143499255 0.5589739366498705 0 0.5589739366498705 0.57637181833093187 0 0 0 0 10.79787574567581 111.61730641743162 0 111.61730641743162 102.77344722599196 0 0 0 0 69.623782512915568 78.753888753537581 0 78.753888753537581 46.538970113256255 0 0 0 0 83.301450415738145 81.600611131820074 0 81.600611131820074 50.786627946347721 0 0 0 0 -0.0054873023527761688 31.947669382608808 0 31.947669382608808 19.458359968764853 0 0 0 0 -11.410098642179946 -10.725666682360611 0 -10.725666682360611 152.66075592547855 0 0 0 0 16.164310103913522 -8.9708885462092098 0 -8.9708885462092098 -130.49828039293016 0 0 0 0 71.160898063781133 37.610496243116529 0 37.610496243116529 -135.80480956265103 0 0 0 0 -102.31800681786262 39.278613101670942 0 39.278613101670942 42.1348922417761 0 0 0 0 -26.247512637821274 145.99770835954348 0 145.99770835954348 13.859485120164663 0 0 0 0 -50.271761830551441 48.057052877159059 0 48.057052877159059 -22.613242887965498 0 0 0 0 -37.233112386506946 20.831081514062049 0 20.831081514062049 0.40518329111068851 0 0 0 0 -25.131728309930622 -5.2882019345028937 0 -5.2882019345028937 12.580952705093551 0 0 0 0 -1.567580325074772 1.0613886481769299 0 1.0613886481769299 0.093611713130792085 0 0 0 0 0.053419921425813754 -0.19237849039396515 0 -0.19237849039396515 0.94290480416871703 0 0 0 0 1.0575003883805039 11.609355504899312 0 11.609355504899312 -23.92696552690586 0 0 0 0 -14.495611523267144 69.600954484280237 0 69.600954484280237 -105.56926171943221 0 0 0 0 -0.0035020588821006158 33.632974950906373 0 33.632974950906373 -45.480069488409924 0 0 0 0 -2.7164729898441919 4.9643300362570582 0 4.9643300362570582 -2.1605729391784005 0 0 0 0 -3.8545954645414895 5.6909688914107619 0 5.6909688914107619 -4.3988850809905671 0 0 0 0 0.09694455011057812 1.0097133674397973 0 1.0097133674397973 -0.89964028833400755 0 0 0 0 -22.014242793655285 50.503923470289237 0 50.503923470289237 1.5125432425545569 0 0 0 0 -4.4421596383617725 1.2595546503147261 0 1.2595546503147261 0.51719165368899667 0 0 0 0 -6.2467643361160299 2.6809488555942096 0 2.6809488555942096 2.3070389625441408 0 0 0 0 2.1564197580947848 3.9528888938916538 0 3.9528888938916538 0.049730249061021858 0 0 0 0 171.71770000638753 161.76568565926789 0 161.76568565926789 -32.003937139341986 0 0 0 0 -24.21889651253332 35.58106143838836 0 35.58106143838836 104.09198675052562 0 0 0 0 -35.912105205290572 24.025382271035255 0 24.025382271035255 39.692563108228285 0 0 0 0 -65.551314993468168 -20.39500339745554 0 -20.39500339745554 7.8989221366611559 0 0 0 0 -0.18649358443009589 0.11777674188063258 0 0.11777674188063258 0.57699292134636071 0 0 0 0 -195.98888477409673 -14.831389813050436 0 -14.831389813050436 45.430674919289629 0 0 0 0 -0.20697926076372042 0.82996715760867446 0 0.82996715760867446 2.1070154107150008 0 0 0 0 -97.789302556846451 8.0584919927394481 0 8.0584919927394481 10.721003714244148 0 0 0 0 -61.882601480215271 12.471439329178065 0 12.471439329178065 16.84324239121986 0 0 0 0 -82.431924929347588 22.505806086098403 0 22.505806086098403 19.071184572365112 0 0 0 0 -61.526464104050774 18.489011140645694 0 18.489011140645694 110.42764141187661 0 0 0 0 1.2873470648719376 26.359844023297285 0 26.359844023297285 119.39071841549989 0 0 0 0 4.8836841637566977 -20.785150088514484 0 -20.785150088514484 4.3160518176490541 0 0 0 0 0.16843601772509942 -0.36241452936705443 0 -0.36241452936705443 1.0018128493333271 0 0 0 0 38.007519914579461 67.005890581600852 0 67.005890581600852 90.142906678606721 0 0 0 0 -7.0048067260759126 -30.03451784343531 0 -30.03451784343531 43.065791268269493 0 0 0 0 -57.815172250177511 3.786185623727107 0 3.786185623727107 20.760246047437136 0 0 0 0 4.1814090702391695 9.635893385234624 0 9.635893385234624 13.997203275893696 0 0 0 0 5.0382211434098281 -5.9659618753058226 0 -5.9659618753058226 -1.0485987802476586 0 0 0 0 -33.967459607084606 -9.3729562858765885 0 -9.3729562858765885 53.320632488411775 0 0 0 0 0.0645311660372343 0.20552595618336511 0 0.20552595618336511 0.11527691113235172 0 0 0 0 2.3704697813955136 19.981700805361243 0 19.981700805361243 10.310466151184016 0 0 0 0 -0.0065328303119258635 -0.43936725930889509 0 -0.43936725930889509 3.2254791288548064 0 0 0 0 -18.333209682076813 -3.1588704238351397 0 -3.1588704238351397 10.999320095988423 0 0 0 0 -16.895285002527089 1.6819084265434867 0 1.6819084265434867 26.43538093087534 0 0 0 0 -5.8470934410684094 7.426686370757615 0 7.426686370757615 -1.169372522674621 0 0 0 0 -5.722877779970986 8.277701305894162 0 8.277701305894162 1.7336328377198242 0 0 0 0 -1.8178962880221476 2.1244257437624121 0 2.1244257437624121 3.4200945056516483 0 0 0 0 -1.5684936937723251 4.6084204181598238 0 4.6084204181598238 -0.9934398501621331 0 0 0 0 -0.42631246004748391 9.5738968305516892 0 9.5738968305516892 -5.0827932624841878 0 0 0 0 -2.5302155503686663 5.2158733507961301 0 5.2158733507961301 -6.9221637585428653 0 0 0 0 1.6519990700799099 10.932664543806368 0 10.932664543806368 -11.27151859819844 0 0 0 0 -77.404202089813225 35.201545862709622 0 35.201545862709622 -6.1990193153287692 0 0 0 0 -22.56268199441547 15.172574676530928 0 15.172574676530928 -4.8133865740603596 0 0 0 0 -30.366829138456524 3.9175384373967859 0 3.9175384373967859 2.6649095107940752 0 0 0 0 -49.769851116667269 18.822254537917047 0 18.822254537917047 2.315488466788679 0 0 0 0 -2.4269581436628869 15.597763287223898 0 15.597763287223898 -5.6524994178090537 0 0 0 0 -1.5980634514814867 2.2306802178555039 0 2.2306802178555039 1.0468904004143766 0 0 0 0 -2.373980515756557 3.0271586738442124 0 3.0271586738442124 0.78520731756651685 0 0 0 0 1.2117621539330372 1.0669167819606251 0 1.0669167819606251 1.0360702003344746 0 0 0 0 11.48071511116359 12.7856884594233 0 12.7856884594233 19.352934482638986 0 0 0 0 1.642335468213787 -0.53257355882500224 0 -0.53257355882500224 25.202216391761098 0 0 0 0 -8.8150158654348161 -1.0018664181875407 0 -1.0018664181875407 68.244047763995113 0 0 0 0 -1.9145966793166735 44.002784178243971 0 44.002784178243971 101.23290943332482 0 0 0 0 22.686536423003417 38.892048122107411 0 38.892048122107411 39.946574467618468 0 0 0 0 -4.8974394528650009 36.206293843150426 0 36.206293843150426 90.162054917977258 0 0 0 0 1.3555670654459391 22.985310815092362 0 22.985310815092362 78.442622581261418 0 0 0 0 17.970117919218865 51.036815446740405 0 51.036815446740405 66.017090198918964 0 0 0 0 34.574601770947083 48.829397705760677 0 48.829397705760677 45.609232790542251 0 0 0 0 20.110506122572588 37.065738595679129 0 37.065738595679129 56.325938137255889 0 0 0 0 31.70382654929108 38.923777110934452 0 38.923777110934452 15.671397840786312 0 0 0 0 45.567258638839121 44.472634340435775 0 44.472634340435775 17.365090505988178 0 0 0 0 44.244697081547201 36.747121433961979 0 36.747121433961979 -24.197276227250086 0 0 0 0 24.363478433280761 11.578300271060044 0 11.578300271060044 9.7992120670328404 0 0 0 0 23.872509204187736 26.071992941037166 0 26.071992941037166 48.349705779931753 0 0 0 0 18.015907444499135 33.283315109131635 0 33.283315109131635 49.9187991675999 0 0 0 0 40.754254141866113 -9.5861917436812689 0 -9.5861917436812689 41.955084714665929 0 0 0 0 8.0316793777110433 41.999603110752787 0 41.999603110752787 10.287382421928385 0 0 0 0 0.665567235862909 82.266675546241402 0 82.266675546241402 40.923772851563029 0 0 0 0 -43.065956700549577 90.321124059555984 0 90.321124059555984 -32.156173403878398 0 0 0 0 -38.448837479270878 61.669066326465554 0 61.669066326465554 -26.317073987545708 0 0 0 0 -8.2191099521314754 14.223587695531151 0 14.223587695531151 -27.862915095813833 0 0 0 0 -80.173174376780707 46.203644591168725 0 46.203644591168725 -26.485662287997229 0 0 0 0 21.447730446468995 30.909669655620235 0 30.909669655620235 -52.237163510264736 0 0 0 0 -27.013456869390211 47.354925663440554 0 47.354925663440554 -82.375190753765992 0 0 0 0 -69.95749129907017 108.74106688376753 0 108.74106688376753 -66.369849682250134 0 0 0 0 3.5854270785433968 4.3843178297101844 0 4.3843178297101844 4.621908763647558 0 0 0 0 -201.2615137286848 -65.412447390776606 0 -65.412447390776606 176.88354291535688 0 0 0 0 -23.603659562457324 47.674227183697894 0 47.674227183697894 -196.98784909998631 0 0 0 0 -0.057989204564734109 -0.043722817509269873 0 -0.043722817509269873 1.5021430835913829 0 0 0 0 -60.691355661036141 68.421288687374386 0 68.421288687374386 126.79429290001008 0 0 0 0 71.703303600581421 211.62168896383059 0 211.62168896383059 -21.482273624073969 0 0 0 0 18.282634053743095 -153.4377184820587 0 -153.4377184820587 513.13448377404893 0 0 0 0 38.513413771026535 13.18318332619981 0 13.18318332619981 -68.363941892846455 0 0 0 0 60.674505107224832 103.10893056723046 0 103.10893056723046 15.262929234077774 0 0 0 0 108.80523093254669 102.31521350370707 0 102.31521350370707 -23.684754780339745 0 0 0 0 53.536074793259104 94.145275824631142 0 94.145275824631142 4.3377532831709686 0 0 0 0 44.228820176151203 57.402442898126992 0 57.402442898126992 -2.8312913110388536 0 0 0 0 62.107818066116252 79.12309411298105 0 79.12309411298105 13.9929646037358 0 0 0 0 62.481479403296248 55.244865663097208 0 55.244865663097208 -52.948657154936882 0 0 0 0 27.04847413493917 45.69309610107814 0 45.69309610107814 -16.758256956022308 0 0 0 0 34.531488304855884 63.833223164248807 0 63.833223164248807 37.635151423155634 0 0 0 0 28.634290468384279 94.005669756378495 0 94.005669756378495 73.186005052596897 0 0 0 0 2.7186675999491854 62.182204831407716 0 62.182204831407716 37.750500054033516 0 0 0 0 18.677451153569564 47.98047393923855 0 47.98047393923855 33.934320865618815 0 0 0 0 18.682920132063373 47.980776753385157 0 47.980776753385157 33.927498733609852 0 0 0 0 30.408896254668434 27.072624811052435 0 27.072624811052435 10.380919489485336 0 0 0 0 27.210755870723006 48.148173202975954 0 48.148173202975954 33.718322948253245 0 0 0 0 36.43358755164536 53.983275567100847 0 53.983275567100847 33.781650510524855 0 0 0 0 23.090706384294208 64.459342203421571 0 64.459342203421571 31.717810417483264 0 0 0 0 25.105620900307258 59.838805018124376 0 59.838805018124376 52.034377168484284 0 0 0 0 35.342068655887488 50.015075298200188 0 50.015075298200188 39.841628879658856 0 0 0 0 23.245735504930963 56.795819763820916 0 56.795819763820916 36.236637344321252 0 0 0 0 37.451413034988946 51.595650999762299 0 51.595650999762299 24.223750341533133 0 0 0 0 43.918223984423093 61.272781570932196 0 61.272781570932196 29.45050858485979 0 0 0 0 25.482623849166885 69.522109361770703 0 69.522109361770703 108.20580031859993 0 0 0 0 36.462566339541809 53.499944818626361 0 53.499944818626361 55.073807695215606 0 0 0 0 -7.5788445121379482 73.788101850714725 0 73.788101850714725 116.88142514968268 0 0 0 0 -7.1973417711278671 11.774412845487868 0 11.774412845487868 160.33491457957936 0 0 0 0 -25.510148528099307 55.750261293226913 0 55.750261293226913 -35.751110121326633 0 0 0 0 0.65192317748689987 0.28312524396560157 0 0.28312524396560157 0.1135738378280694 0 0 0 0 -38.139126153491816 31.999313208531873 0 31.999313208531873 -1.1991725058508109 0 0 0 0 -31.822379080618703 117.72334503725654 0 117.72334503725654 77.346638608773617 0 0 0 0 -9.2737851835372567 94.812864899814372 0 94.812864899814372 15.96107172288589 0 0 0 0 -11.929616417692159 128.12542049417797 0 128.12542049417797 31.781541680727742 0 0 0 0 -51.797450645140998 88.762321394383264 0 88.762321394383264 4.986137130586485 0 0 0 0 -67.869030004496381 48.049789900370712 0 48.049789900370712 -2.8604623964588427 0 0 0 0 -53.163462043950858 108.40711166525068 0 108.40711166525068 20.636231277998377 0 0 0 0 -76.213338211324299 106.0851785504704 0 106.0851785504704 38.016318746434081 0 0 0 0 -153.90028540501953 53.212404437166697 0 53.212404437166697 -22.131655838901679 0 0 0 0 -128.23008885856689 106.87387557533702 0 106.87387557533702 40.947131406877816 0 0 0 0 -103.42256686504697 49.358775311700128 0 49.358775311700128 -13.753825223066542 0 0 0 0 -100.14428696756659 68.852314057729018 0 68.852314057729018 -33.856880753070527 0 0 0 0 -194.50190565806406 85.02623847765517 0 85.02623847765517 -65.439493578056954 0 0 0 0 -111.89494723467942 39.440560852447561 0 39.440560852447561 -92.425143706672316 0 0 0 0 -141.02140686656276 99.052037892555518 0 99.052037892555518 -112.55253054606601 0 0 0 0 -287.66262542447657 150.69594139392257 0 150.69594139392257 -91.090180857489031 0 0 0 0 -0.14888004868850579 0.80493549405099074 0 0.80493549405099074 -0.17384551036029805 0 0 0 0 -75.87447687698841 44.729356156743052 0 44.729356156743052 -47.842686395026249 0 0 0 0 -64.150072646327317 40.393447485280717 0 40.393447485280717 -19.865770433669589 0 0 0 0 -70.078591070436232 38.390437023343111 0 38.390437023343111 2.8109789743732563 0 0 0 0 -78.33109536307893 60.662061710172054 0 60.662061710172054 -14.023942222635924 0 0 0 0 -2.312522048378014 113.78436571194868 0 113.78436571194868 46.931596173775119 0 0 0 0 -7.7219930258142995 111.36204093663019 0 111.36204093663019 61.425842432854665 0 0 0 0 -11.13973332367641 116.80114209748399 0 116.80114209748399 75.506782856100472 0 0 0 0 -14.727372199336969 96.950831298754679 0 96.950831298754679 59.897878641268107 0 0 0 0 -6.1431633753072674 96.359805571930281 0 96.359805571930281 55.005808629763578 0 0 0 0 -11.488537147823081 101.93452374793014 0 101.93452374793014 67.019030154930306 0 0 0 0 53.150801059415244 116.90362051349678 0 116.90362051349678 47.869128702264561 0 0 0 0 98.755106707125378 60.867432955034019 0 60.867432955034019 -20.35936440213348 0 0 0 0 83.020764653854712 8.87096595534058 0 8.87096595534058 -39.33102492191972 0 0 0 0 -67.531095245558845 80.506174801392547 0 80.506174801392547 -91.286385678035458 0 0 0 0 -9.0390187207134431e-05 0.87355390406115063 0 0.87355390406115063 -0.57888546721020928 0 0 0 0 -145.59143083836761 134.38064348472665 0 134.38064348472665 52.614694252356458 0 0 0 0 -16.453919767740445 190.63160772656806 0 190.63160772656806 35.78755236766122 0 0 0 0 44.443807060393738 108.45322778776591 0 108.45322778776591 34.566955534919771 0 0 0 0 12.070646540909365 102.23792680135466 0 102.23792680135466 59.771565107195102 0 0 0 0 11.951418213840952 103.46893486467252 0 103.46893486467252 54.368156533276078 0 0 0 0 6.1566519904490633 118.27785976356381 0 118.27785976356381 49.315614240665695 0 0 0 0 -12.275097944102527 124.5425670910211 0 124.5425670910211 62.673583619769943 0 0 0 0 4.0348420940645155 129.60641337302894 0 129.60641337302894 31.656147631354045 0 0 0 0 6.9664919212991663 122.55164187945968 0 122.55164187945968 42.965893372294659 0 0 0 0 5.6748333900918624 128.23779676534306 0 128.23779676534306 19.8988554658373 0 0 0 0 15.545386443274765 105.8323466214818 0 105.8323466214818 16.566140659033522 0 0 0 0 16.30196657705892 102.17419524418636 0 102.17419524418636 30.549374190853115 0 0 0 0 -1.794501464066343 99.585754856220476 0 99.585754856220476 55.510801136419104 0 0 0 0 6.3250949495277382 96.362649339729145 0 96.362649339729145 47.199008162536259 0 0 0 0 25.802755110502858 60.418348318149256 0 60.418348318149256 37.559077202674878 0 0 0 0 35.384479341573751 66.170258442296671 0 66.170258442296671 -5.1496083350208313 0 0 0 0 -63.022381755357856 48.443017990771423 0 48.443017990771423 -31.396082296627952 0 0 0 0 -24.636397925807614 118.63316880257906 0 118.63316880257906 -56.918452892897221 0 0 0 0 11.86790159411612 115.7268962134353 0 115.7268962134353 -0.39807756240831083 0 0 0 0 -10.130894636398807 93.646883016631591 0 93.646883016631591 -14.168083839937822 0 0 0 0 2.7817767781689327 137.01844285080793 0 137.01844285080793 52.977599164547655 0 0 0 0 14.143680057670281 137.33012227639784 0 137.33012227639784 -23.537477626924797 0 0 0 0 -13.800029799691401 132.73509815053694 0 132.73509815053694 52.149741197341314 0 0 0 0 -24.850123233220074 139.19367943797533 0 139.19367943797533 114.56669897186032 0 0 0 0 -16.867310810068375 192.54380376865271 0 192.54380376865271 178.84996924906704 0 0 0 0 -2.2641218433454924 183.69498065632354 0 183.69498065632354 38.325516050143051 0 0 0 0 -0.49601658473279286 0.028280556853930605 0 0.028280556853930605 0.040066415360717422 0 0 0 0 33.435445646924563 144.31373874404068 0 144.31373874404068 139.82807530314267 0 0 0 0 17.699595314847102 129.27228159233664 0 129.27228159233664 117.29094965489207 0 0 0 0 -2.5941341777033813 75.998042321869661 0 75.998042321869661 170.40527124909283 0 0 0 0 43.068427744128712 79.13466498131254 0 79.13466498131254 110.47251050824752 0 0 0 0 -11.397899617793882 82.125369481975099 0 82.125369481975099 110.97332859949211 0 0 0 0 -16.924029352059733 94.043052439581174 0 94.043052439581174 84.993607754336381 0 0 0 0 -11.767334516905976 86.114584965475615 0 86.114584965475615 69.737569572148004 0 0 0 0 -20.282998408729327 113.21719474755355 0 113.21719474755355 80.803940214290435 0 0 0 0 -11.96505428776436 102.7598142758649 0 102.7598142758649 101.78903655913359 0 0 0 0 -15.970797854788543 101.55765093532216 0 101.55765093532216 104.76794643875587 0 0 0 0 -11.83441532413417 12.634608074987 0 12.634608074987 131.8690205086987 0 0 0 0 26.084660951914884 140.08659228281874 0 140.08659228281874 123.36791888111384 0 0 0 0 52.349179919258859 101.57507375150664 0 101.57507375150664 124.35665975079542 0 0 0 0 206.44317180890357 166.24466683307082 0 166.24466683307082 151.37987483490565 0 0 0 0 82.277844558049765 16.232115961434374 0 16.232115961434374 207.06920979346205 0 0 0 0 0.50986135841034752 1.65403481707793 0 1.65403481707793 0.010784855420496342 0 0 0 0 106.5542338702036 9.673002106855348 0 9.673002106855348 -0.29749153744694468 0 0 0 0 16.77118843986409 141.07092369771166 0 141.07092369771166 291.6527660733509 0 0 0 0 108.70629437364914 197.75136230005916 0 197.75136230005916 176.67953887678561 0 0 0 0 -1.0012154042256611 1.7156857133940271 0 1.7156857133940271 0.1331048058790853 0 0 0 0 -8.0209505762359186 37.210618603744138 0 37.210618603744138 281.46608655348405 0 0 0 0 -1.0694248446343408 43.970672090062457 0 43.970672090062457 -85.916184785856814 0 0 0 0 -6.6215898672089679 37.445183928799274 0 37.445183928799274 -86.763775986586694 0 0 0 0 -4.7617453678358288 30.586170433813152 0 30.586170433813152 -103.01378213136559 0 0 0 0 -2.5489918000566831 55.078223580838795 0 55.078223580838795 -245.04874194960345 0 0 0 0 -1.6784260930071468 38.290751933254533 0 38.290751933254533 -92.993625813050983 0 0 0 0 -23.401054481664687 49.571254340660275 0 49.571254340660275 -80.456795188992842 0 0 0 0 -42.991058666752906 36.554341393524453 0 36.554341393524453 -44.244762613306392 0 0 0 0 -4.7888146954464901 37.056279300608068 0 37.056279300608068 -91.2001814601457 0 0 0 0 43.741575218236903 47.204822152334714 0 47.204822152334714 -50.343866585077478 0 0 0 0 -3.9436401208804455 26.542594538998131 0 26.542594538998131 -54.380059184445429 0 0 0 0 79.749833317004232 37.93953387676379 0 37.93953387676379 -25.446370406353708 0 0 0 0 -45.546578371649957 0.8732974047691755 0 0.8732974047691755 14.290726352570772 0 0 0 0 -79.723821163372122 64.918547388973849 0 64.918547388973849 -38.888156262999956 0 0 0 0 -7.0651103167938345 106.39200758675486 0 106.39200758675486 6.3120338170917876 0 0 0 0 49.892285506157805 33.739179172654502 0 33.739179172654502 25.144599153918648 0 0 0 0 125.6439659773132 86.724908079078716 0 86.724908079078716 7.1676212675847069 0 0 0 0 -0.49213714727991231 0.98661014203550934 0 0.98661014203550934 -0.15287295982090021 0 0 0 0 -264.24223271783376 -44.777487203957037 0 -44.777487203957037 24.212654855579444 0 0 0 0 -85.533678430012515 32.966649425800028 0 32.966649425800028 -23.386161317308733 0 0 0 0 41.538180369381735 39.682696172417707 0 39.682696172417707 23.564396101894175 0 0 0 0 -1.0698336485572018 2.4538281445830528 0 2.4538281445830528 -1.3844281099478337 0 0 0 0 -225.25864027317584 3.288561542943512 0 3.288561542943512 54.486594985644274 0 0 0 0 -113.31375652390307 -24.788729218885464 0 -24.788729218885464 7.8990621659877434 0 0 0 0 -19.64137633610153 71.117607182197446 0 71.117607182197446 19.423607373683581 0 0 0 0 18.985415302926413 33.193999930560267 0 33.193999930560267 36.019056009316728 0 0 0 0 -4.5897160719602894 0.26018842999811653 0 0.26018842999811653 2.3021034201550479 0 0 0 0 123.89529042659706 50.543901086055484 0 50.543901086055484 43.943153810394392 0 0 0 0 184.65075743358466 112.94949589781754 0 112.94949589781754 61.641758619400207 0 0 0 0 -2.2378987483328974 -0.30706264056845356 0 -0.30706264056845356 0.38484039054514163 0 0 0 0 256.96805392004171 137.8187946689236 0 137.8187946689236 97.955935883778693 0 0 0 0 134.10485318145948 35.847150607844696 0 35.847150607844696 37.583891749800614 0 0 0 0 116.82200908134018 71.168042593367318 0 71.168042593367318 22.187351865911296 0 0 0 0 49.407267302121909 84.516787365967275 0 84.516787365967275 64.32802785032095 0 0 0 0 64.973414434412916 27.208934885140508 0 27.208934885140508 36.541023482264791 0 0 0 0 95.935558632259927 104.8346693371916 0 104.8346693371916 80.027486606710681 0 0 0 0 188.09721763741982 117.89737821756921 0 117.89737821756921 32.197460789012894 0 0 0 0 76.805613239841477 29.824570197671505 0 29.824570197671505 44.979320870628499 0 0 0 0 -2.818553733821318 75.926641015200289 0 75.926641015200289 30.576230279291849 0 0 0 0 -52.682374171050469 -9.2803835670097783 0 -9.2803835670097783 24.664158322999356 0 0 0 0 38.631398757250281 76.30669906726007 0 76.30669906726007 16.906480594732443 0 0 0 0 -9.8677623741642293 12.804308477120708 0 12.804308477120708 -4.6243394487989686 0 0 0 0 11.034639887057892 51.503423820984381 0 51.503423820984381 19.558391701076289 0 0 0 0 -60.319249745101843 5.8899123297380811 0 5.8899123297380811 27.4163925215571 0 0 0 0 -46.759448232225623 -1.1884576522822954 0 -1.1884576522822954 7.5266769841773566 0 0 0 0 -10.902303243078968 12.083974731514118 0 12.083974731514118 -2.0335753991971215 0 0 0 0 -41.852066285482579 18.197083338843868 0 18.197083338843868 4.495628694635343 0 0 0 0 -6.4292510085936563 -7.3931243172141059 0 -7.3931243172141059 6.6926683835527259 0 0 0 0 -60.345982133335383 6.1797782099406788 0 6.1797782099406788 13.58628042927171 0 0 0 0 100.46802675050094 98.154815507856256 0 98.154815507856256 30.841827971574617 0 0 0 0 -8.1612566850108124 22.491511792641859 0 22.491511792641859 24.650346303832976 0 0 0 0 99.021614035160383 79.222678053360141 0 79.222678053360141 -1.4189596494363741 0 0 0 0 -22.40666893598609 45.917155611736916 0 45.917155611736916 -12.514602661943741 0 0 0 0 6.5929673150881172 14.030551291726468 0 14.030551291726468 10.353310106993604 0 0 0 0 -117.60927630412425 30.532729113269966 0 30.532729113269966 30.143060317512436 0 0 0 0 -1.4170471004109757 3.6314586336497321 0 3.6314586336497321 -4.2454285145963597 0 0 0 0 -25.026247005737787 26.530806856756044 0 26.530806856756044 -9.5223493202324789 0 0 0 0 -27.438538773164055 27.752154161379167 0 27.752154161379167 27.481964178422913 0 0 0 0 -36.336177657770804 50.953015326049183 0 50.953015326049183 22.034714570099368 0 0 0 0 -25.792666952926083 71.911074417223517 0 71.911074417223517 -4.6785349449710338 0 0 0 0 -0.20541754507212318 45.113166350467054 0 45.113166350467054 0.32006500468787635 0 0 0 0 -1.2795023884333183 4.9307978076244687 0 4.9307978076244687 -8.0783892715181356 0 0 0 0 -7.4904053123109406 33.600878867276379 0 33.600878867276379 -15.459713792710318 0 0 0 0 106.83258528527313 8.1824956619996101 0 8.1824956619996101 -20.765943478934787 0 0 0 0 -0.36264078845488257 115.98379708236098 0 115.98379708236098 75.641257071289147 0 0 0 0 -3.4620653104648227 39.479106686944078 0 39.479106686944078 10.878634215172497 0 0 0 0 -83.874667140948077 91.289411917331108 0 91.289411917331108 -56.03509857257086 0 0 0 0 -7.859168309915006 4.6024009943369855 0 4.6024009943369855 -2.1570100101094667 0 0 0 0 -73.544780396376154 66.748549670324792 0 66.748549670324792 0.31542466740575037 0 0 0 0 -52.143601058542117 36.973957787123254 0 36.973957787123254 -28.362215740323336 0 0 0 0 -56.539722715155222 49.17096920260974 0 49.17096920260974 -62.055152148143293 0 0 0 0 76.000230811429901 92.796642111693018 0 92.796642111693018 -27.486098828789409 0 0 0 0 39.253272970390753 -93.688111982608461 0 -93.688111982608461 17.465650411827369 0 0 0 0 -12.369291681110195 14.097155162711756 0 14.097155162711756 -4.4826300298189601 0 0 0 0 42.318752779839997 12.886054971824478 0 12.886054971824478 -46.252088656930937 0 0 0 0 -76.797685520174127 14.623395278982571 0 14.623395278982571 55.132706790762086 0 0 0 0 -76.283721151190548 36.574965173110286 0 36.574965173110286 60.188363001256221 0 0 0 0 -64.600914625059886 31.399773391296094 0 31.399773391296094 33.954902124254659 0 0 0 0 -89.781251794142008 -28.002601259177027 0 -28.002601259177027 0.69272673440082144 0 0 0 0 -70.470142068910718 6.7826868454028499 0 6.7826868454028499 11.538672734483043 0 0 0 0 -190.29455044630777 16.770702274514406 0 16.770702274514406 19.047651628435233 0 0 0 0 -123.80115230574756 -71.131407777922959 0 -71.131407777922959 8.8944047762270202 0 0 0 0 -56.833285915730812 130.56953443097564 0 130.56953443097564 -120.00714187920676 0 0 0 0 -128.40912608809958 -103.65611958117552 0 -103.65611958117552 -105.88795295173554 0 0 0 0 -139.68076619177918 105.23831209269792 0 105.23831209269792 -21.989208549377508 0 0 0 0 -41.425143015561844 28.826686664920089 0 28.826686664920089 -13.08503265475963 0 0 0 0 -100.06513998853188 22.510638689866482 0 22.510638689866482 84.574361402623254 0 0 0 0 53.7572010118256 12.856984536733307 0 12.856984536733307 -51.550527458645774 0 0 0 0 -10.687358055136841 5.7560338152267825 0 5.7560338152267825 10.967030733680129 0 0 0 0 -29.84789994075345 51.761859010048056 0 51.761859010048056 -0.32259550579692586 0 0 0 0 -25.898738062593111 47.234855452639749 0 47.234855452639749 -2.6383194140385058 0 0 0 0 -84.554724064202901 74.862601989470477 0 74.862601989470477 -14.170548374589998 0 0 0 0 -7.3204933169463402 30.805511599673991 0 30.805511599673991 -48.543760804244812 0 0 0 0 -0.14398979123262734 -1.2036030332150496 0 -1.2036030332150496 1.6300983555376263 0 0 0 0 17.981924399617128 -61.658379584944669 0 -61.658379584944669 58.441987920671863 0 0 0 0 -9.48828631396057 1.6300349954607078 0 1.6300349954607078 10.718798682594432 0 0 0 0 -40.844252515371636 -18.002544629402792 0 -18.002544629402792 8.3129934511889587 0 0 0 0 -101.29013561712145 50.028763949346285 0 50.028763949346285 -31.249999458517777 0 0 0 0 -34.034788368312547 32.118436545422355 0 32.118436545422355 -74.096250013208191 0 0 0 0 -28.444873167587502 64.188012006658028 0 64.188012006658028 -36.097533109310461 0 0 0 0 -104.13072958451755 38.140436299554722 0 38.140436299554722 -8.6599990057584364 0 0 0 0 -0.15958580730724936 0.21576313812497361 0 0.21576313812497361 -0.67604827962563974 0 0 0 0 68.846136232023127 12.007807595122358 0 12.007807595122358 -26.690895228497538 0 0 0 0 -193.83606889027169 24.365758813259163 0 24.365758813259163 -25.797960591291485 0 0 0 0 32.477145300319535 13.181248034048622 0 13.181248034048622 -5.381442668366617 0 0 0 0 19.99240412209474 12.6495577083424 0 12.6495577083424 -4.9228996497067783 0 0 0 0 -7.7051452998840393 9.9545661862573596 0 9.9545661862573596 -5.1502587981642733 0 0 0 0 18.997528218211301 41.648535000915217 0 41.648535000915217 -43.937329348829735 0 0 0 0 31.794259389327635 35.660981250992336 0 35.660981250992336 -37.684589572835648 0 0 0 0 36.254091045892892 15.846524585775114 0 15.846524585775114 -32.496789366203302 0 0 0 0 4.8864356527728887 22.272297150198938 0 22.272297150198938 -21.846176175451546 0 0 0 0 34.645969225603949 28.994288629593939 0 28.994288629593939 -22.386030393896363 0 0 0 0 2.1282081334429677 -8.8939032520247565 0 -8.8939032520247565 -61.654453186820547 0 0 0 0 -9.9102705262072526 11.556291829916876 0 11.556291829916876 -5.9155457128479512 0 0 0 0 24.214755350555606 13.292208609688714 0 13.292208609688714 -14.822611836036231 0 0 0 0 32.395583717529007 25.119960703026663 0 25.119960703026663 -21.839512888833269 0 0 0 0 -2.9438856785216529 8.6224326211301801 0 8.6224326211301801 -10.331679705671256 0 0 0 0 21.556415548646328 3.2191240914698938 0 3.2191240914698938 -60.93361672447827 0 0 0 0 -6.820594775450445 18.817472930393706 0 18.817472930393706 -63.458500852555517 0 0 0 0 -43.120370081374858 19.178255444814567 0 19.178255444814567 -42.321210550409887 0 0 0 0 46.105154603078063 32.179757875767223 0 32.179757875767223 -36.519537688183846 0 0 0 0 -14.669536739587784 -1.139909085918589 0 -1.139909085918589 -36.331615621875244 0 0 0 0 54.574894982870319 51.260464407036125 0 51.260464407036125 -26.200015346837972 0 0 0 0 -11.634524881266108 18.642575767666049 0 18.642575767666049 -20.576220167994148 0 0 0 0 -87.673307497258065 -69.797926392940326 0 -69.797926392940326 -28.59224035403895 0 0 0 0 32.377969562701765 35.124131744218175 0 35.124131744218175 -36.928910006385195 0 0 0 0 -1.3141962102999969 55.720609206287918 0 55.720609206287918 -13.249692011992011 0 0 0 0 42.499975269123752 65.053586991070915 0 65.053586991070915 18.493912035155518 0 0 0 0 10.250873864600145 3.8449086785866609 0 3.8449086785866609 -9.4337619030076247 0 0 0 0 52.715116083002613 58.295785689973854 0 58.295785689973854 -41.063480069860816 0 0 0 0 -132.04653929633423 -26.788473516100112 0 -26.788473516100112 65.111622265229016 0 0 0 0 -31.004182859352568 48.061601330591884 0 48.061601330591884 1.8981056370066653 0 0 0 0 -12.954492687031291 21.098589318322855 0 21.098589318322855 -21.922007296590628 0 0 0 0 -23.283684905911286 40.070483104074356 0 40.070483104074356 7.5400761545315618 0 0 0 0 -84.769694103100846 62.432835922448476 0 62.432835922448476 -8.7918783555560367 0 0 0 0 38.245841995612864 15.107156173727162 0 15.107156173727162 -3.4329782718461956 0 0 0 0 17.023841447768064 -71.59673348909746 0 -71.59673348909746 -59.784329777680796 0 0 0 0 71.033929399200133 -77.128950529609028 0 -77.128950529609028 114.42448656057968 0 0 0 0 0.11044454208968091 40.140895018630545 0 40.140895018630545 238.16564466397722 0 0 0 0 0.26370047298946275 1.6407048735461274 0 1.6407048735461274 -2.5770678301365937 0 0 0 0 96.845655620090838 118.67204289070196 0 118.67204289070196 35.453996807799285 0 0 0 0 -9.0415786059566017 13.708927584958701 0 13.708927584958701 61.291151915617775 0 0 0 0 2.5629479493691179 15.34183192313958 0 15.34183192313958 44.928432569792903 0 0 0 0 20.234357624980476 61.645465100690672 0 61.645465100690672 33.551873753022846 0 0 0 0 0.7489462312842079 5.8848783097432715 0 5.8848783097432715 12.696601823607125 0 0 0 0 -6.8238459841177246 23.792482559192194 0 23.792482559192194 22.929554186108817 0 0 0 0 4.3132930057990961 26.068785436958251 0 26.068785436958251 -24.308068749054655 0 0 0 0 10.617277728671979 33.223023165114228 0 33.223023165114228 -11.535542929938856 0 0 0 0 1.9197990111206309 21.256735060902429 0 21.256735060902429 -19.793733294549838 0 0 0 0 9.7276094327571627 24.147724307621957 0 24.147724307621957 -13.147397076542802 0 0 0 0 22.110600678774063 30.988822368421097 0 30.988822368421097 -29.630651888584907 0 0 0 0 5.0452447410971217 7.3017347484155835 0 7.3017347484155835 -45.360024368987979 0 0 0 0 -10.388132381562173 16.51401640551785 0 16.51401640551785 -16.433547955868562 0 0 0 0 -8.594144558222979 -0.70628818138493443 0 -0.70628818138493443 -32.707835064069513 0 0 0 0 -3.9111981053993077 8.2896916836568835 0 8.2896916836568835 -21.439622577720002 0 0 0 0 10.943441857560174 17.641060571901789 0 17.641060571901789 -31.768942906499433 0 0 0 0 -3.1950743125639747 31.752448915537343 0 31.752448915537343 -34.618931606780279 0 0 0 0 -15.078378642374446 42.909380399979455 0 42.909380399979455 16.091733323140943 0 0 0 0 -2.8868944964196999 12.397810591955931 0 12.397810591955931 6.3201310164877214 0 0 0 0 55.323208203233662 40.711533799807512 0 40.711533799807512 10.591498407302424 0 0 0 0 -32.185218667764275 -13.592905522235014 0 -13.592905522235014 -26.680604881141335 0 0 0 0 -9.7299405385456339 8.4349367766171781 0 8.4349367766171781 -24.826849438728459 0 0 0 0 -4.1259696167597397 0.48967567665719969 0 0.48967567665719969 5.1921605340177379 0 0 0 0 36.76237255558226 31.551898521319345 0 31.551898521319345 -14.097188717768404 0 0 0 0 -6.2587783859935158 7.0169048832618017 0 7.0169048832618017 -5.9907267992908029 0 0 0 0 3.2905218231971958 -4.2068261885524407 0 -4.2068261885524407 -25.597070944753796 0 0 0 0 6.3324499282643956 17.423165327534662 0 17.423165327534662 -14.054281134811276 0 0 0 0 -10.163411814235587 19.562634453434839 0 19.562634453434839 12.383196210444112 0 0 0 0 -0.49319096629915293 -5.1241186134539021 0 -5.1241186134539021 -15.067147010195185 0 0 0 0 -0.86339575056626927 2.8649558707711549 0 2.8649558707711549 6.7701707267133315 0 0 0 0 -7.466477103465877 4.7913825657790312 0 4.7913825657790312 11.917679258869612 0 0 0 0 -7.9200104405827005 7.2547242835762518 0 7.2547242835762518 0.24208490638193325 0 0 0 0 -6.7815764991319156 5.146265581456646 0 5.146265581456646 3.4657497046791832 0 0 0 0 -8.7357107223360799 13.107165498123322 0 13.107165498123322 3.2369618205993902 0 0 0 0 -8.2922507577713986 7.8199902709739035 0 7.8199902709739035 6.3962964485108387 0 0 0 0 -12.739278012886643 18.055306319427473 0 18.055306319427473 -4.9746629531837243 0 0 0 0 -9.5210030104117322 11.522401434079711 0 11.522401434079711 -4.0704609727872594 0 0 0 0 -14.455312638849136 15.115050151878677 0 15.115050151878677 4.7911585722322343 0 0 0 0 -26.150658542785095 24.786597153168259 0 24.786597153168259 -0.32228280549315969 0 0 0 0 -8.3864596555213211 13.637921154549986 0 13.637921154549986 -1.0563415837059438 0 0 0 0 -6.7519327449554112 11.32235179446252 0 11.32235179446252 4.6625260017422079 0 0 0 0 -6.7028041034427588 12.714648695614414 0 12.714648695614414 9.9712289802992018 0 0 0 0 -11.423311671671399 13.637701642588581 0 13.637701642588581 28.640824976413114 0 0 0 0 -4.0112481868600298 12.44832725515289 0 12.44832725515289 5.5619610960329737 0 0 0 0 0.46784049736125866 -0.030711576518811512 0 -0.030711576518811512 -0.11679447434626056 0 0 0 0 -5.3658775345334604 6.3744326407852689 0 6.3744326407852689 -5.5280461542476544 0 0 0 0 -5.4160052015740803 -3.4136927427989576 0 -3.4136927427989576 43.013171050112987 0 0 0 0 8.0670887222877354 8.0952222501746292 0 8.0952222501746292 22.596111146591738 0 0 0 0 1.6198716893231904 -7.0595573237887947 0 -7.0595573237887947 21.411141347024113 0 0 0 0 -1.316135802630015 18.513421230714812 0 18.513421230714812 -31.752799071958179 0 0 0 0 -18.671607174161181 19.895873364923773 0 19.895873364923773 -16.615649727315031 0 0 0 0 -8.1680417449751985 4.6061609898201823 0 4.6061609898201823 6.1385465023449797 0 0 0 0 -17.419999703050962 22.971302014023991 0 22.971302014023991 -16.714046008371952 0 0 0 0 -6.9286809458571952 5.6272900317098902 0 5.6272900317098902 5.7901251950038386 0 0 0 0 -0.18142171798431406 1.038851236243417 0 1.038851236243417 0.31568186479053395 0 0 0 0 -25.245509703335301 18.252409504970274 0 18.252409504970274 -14.44725643329366 0 0 0 0 -18.778975697663554 25.808026157340009 0 25.808026157340009 -6.667200165758004 0 0 0 0 -9.4646749621460913 23.283910324672433 0 23.283910324672433 -4.2801478224992024 0 0 0 0 -8.2010038013795565 21.520001751082873 0 21.520001751082873 -16.455750668250175 0 0 0 0 -13.460692974503218 21.561466864965951 0 21.561466864965951 8.6080999367595723 0 0 0 0 -3.6845893227146007 18.821157492244311 0 18.821157492244311 -7.2195616414314827 0 0 0 0 -23.93524587936281 30.374125341809986 0 30.374125341809986 -9.4767579993931577 0 0 0 0 -12.692638580596395 16.870010796656061 0 16.870010796656061 -7.9416032289941541 0 0 0 0 -13.529784619175189 11.233152008107481 0 11.233152008107481 8.9414194064061121 0 0 0 0 -7.4099632973993721 10.539136478800174 0 10.539136478800174 -10.73598638805106 0 0 0 0 -10.253534928232511 17.502264702839852 0 17.502264702839852 1.1422340726858238 0 0 0 0 -5.6121928240180736 6.0292674638573214 0 6.0292674638573214 2.8655310045905575 0 0 0 0 -7.0668044776403462 14.915243560571948 0 14.915243560571948 1.868527589956102 0 0 0 0 -6.3241329285920074 3.3156487877440668 0 3.3156487877440668 1.1668540907162424 0 0 0 0 1.331619603175568 16.186422358489267 0 16.186422358489267 -14.625994438773319 0 0 0 0 -4.8913038361551742 4.6526298638281176 0 4.6526298638281176 3.4514612441912647 0 0 0 0 -9.5415832862781826 9.1456870859801711 0 9.1456870859801711 24.81514438931481 0 0 0 0 -5.7417902012894046 4.7215727863103893 0 4.7215727863103893 4.2648670409188298 0 0 0 0 -5.044669455715578 4.7815377981604001 0 4.7815377981604001 3.1003188714669223 0 0 0 0 -0.67025063022447284 7.2908601152348638 0 7.2908601152348638 -15.506420884629847 0 0 0 0 -3.9211608043569868 5.0290488972855201 0 5.0290488972855201 -1.4344099334133489 0 0 0 0 -2.7141266840599201 8.2349643976723428 0 8.2349643976723428 -6.4496504845428717 0 0 0 0 -10.276582437792968 5.6945855479177681 0 5.6945855479177681 -4.7495069112294459 0 0 0 0 4.9574560873716109 12.059694222458575 0 12.059694222458575 -2.6413637061990585 0 0 0 0 12.939295541746105 17.037759152745764 0 17.037759152745764 3.7459893444314218 0 0 0 0 -2.8758135245407175 29.407577177663541 0 29.407577177663541 33.902463746226999 0 0 0 0 -45.46211779087389 55.715960434552926 0 55.715960434552926 66.174191716788414 0 0 0 0 -8.0857507812525 38.503749362189069 0 38.503749362189069 69.257668909746826 0 0 0 0 -16.596459629870878 2.2491542195369902 0 2.2491542195369902 17.607442582663111 0 0 0 0 -8.4472999094796251 17.539257134458126 0 17.539257134458126 22.31680933006578 0 0 0 0 -5.7844826000527974 21.62805878464394 0 21.62805878464394 20.949022043763762 0 0 0 0 169.21020177270839 -26.611150010533947 0 -26.611150010533947 -23.102551238600654 0 0 0 0 -54.28805520237438 1.96602271616905 0 1.96602271616905 91.220935039782034 0 0 0 0 29.380503209646122 -88.709379399618342 0 -88.709379399618342 172.05176026996196 0 0 0 0 0.42846609993078744 1.5687302906568057 0 1.5687302906568057 0.55692645519943262 0 0 0 0 4.8659998877301405 146.80392676596432 0 146.80392676596432 229.12584146942663 0 0 0 0 147.61198836754193 97.726426420670577 0 97.726426420670577 -56.712370977886309 0 0 0 0 138.94805209626247 203.01737673802381 0 203.01737673802381 62.693996562025916 0 0 0 0 -105.67042463848156 36.8526549785513 0 36.8526549785513 293.84199625010342 0 0 0 0 1.4562787909498311 1.8458331876444056 0 1.8458331876444056 2.1895525567060874 0 0 0 0 -78.903290648155235 -67.300969216804901 0 -67.300969216804901 129.07023551075054 0 0 0 0 -21.064737059732579 147.22314163483134 0 147.22314163483134 329.83825285888622 0 0 0 0 -99.922164809635433 -165.52830242276463 0 -165.52830242276463 156.5837421849028 0 0 0 0 -0.098601082016241293 -0.1077283171364023 0 -0.1077283171364023 1.7461638905077717 0 0 0 0 -94.656923887998346 -66.34025990857117 0 -66.34025990857117 177.10926095437117 0 0 0 0 -19.33424887079309 -84.191884474714243 0 -84.191884474714243 52.696087582902464 0 0 0 0 137.64662379543734 29.01513139412873 0 29.01513139412873 171.13997364677141 0 0 0 0 6.5947716282162219 -211.17987675928731 0 -211.17987675928731 86.898952432542501 0 0 0 0 557.72142166766753 -183.83901256107652 0 -183.83901256107652 -44.929847356930622 0 0 0 0 83.555273244197451 199.59662091515258 0 199.59662091515258 287.80021662877789 0 0 0 0 80.154271134366354 391.28807253886782 0 391.28807253886782 100.01542766351804 0 0 0 0 -1.3594788421578414 164.51371744478922 0 164.51371744478922 306.74896265616371 0 0 0 0 -5.89142444213212 164.88834785023619 0 164.88834785023619 313.92199606583074 0 0 0 0 4.5838514521316469 1.1421990009159675 0 1.1421990009159675 0.57451096572492677 0 0 0 0 -40.107422570112249 98.796696589180556 0 98.796696589180556 241.75962272771449 0 0 0 0 164.2458585437962 33.074295514083587 0 33.074295514083587 -88.833113517326183 0 0 0 0 24.438895264775056 -3.6703700533444135 0 -3.6703700533444135 -52.759992717634532 0 0 0 0 -43.161053823856491 36.72620614875791 0 36.72620614875791 4.1009526966136036 0 0 0 0 295.16484427075193 146.15957123916337 0 146.15957123916337 -78.10694169940416 0 0 0 0 109.34527524186706 110.01049902098384 0 110.01049902098384 -80.525010602603743 0 0 0 0 135.51525756583942 70.526683365193321 0 70.526683365193321 -23.63389767456556 0 0 0 0 80.098287972774415 121.48519502548334 0 121.48519502548334 -22.672672451957624 0 0 0 0 121.97506065637572 90.419454872350798 0 90.419454872350798 -15.042342116155623 0 0 0 0 85.250695432781868 100.78441186430246 0 100.78441186430246 28.591323943292082 0 0 0 0 78.889566722002201 65.651168272721861 0 65.651168272721861 15.031224768761831 0 0 0 0 100.86549105801078 113.67788198859853 0 113.67788198859853 80.431463282113327 0 0 0 0 -15.516913585999646 27.660723622115256 0 27.660723622115256 4.0250223164621275 0 0 0 0 53.881297417128735 53.362350501121909 0 53.362350501121909 -26.164939650593624 0 0 0 0 11.011521875507242 62.52982161462478 0 62.52982161462478 29.189435424576914 0 0 0 0 -12.024395059423114 38.534880469763266 0 38.534880469763266 25.122358166141225 0 0 0 0 -48.097153223556234 14.716154517094765 0 14.716154517094765 23.845045256209687 0 0 0 0 -30.562386801010689 13.451338031574323 0 13.451338031574323 12.294808519995968 0 0 0 0 -35.357024451604957 25.793207886062191 0 25.793207886062191 24.517488716600354 0 0 0 0 93.812670880637597 53.15690086506504 0 53.15690086506504 -74.552578007867737 0 0 0 0 10.492596291757884 5.2300599549360598 0 5.2300599549360598 0.056701974110035636 0 0 0 0 -19.579742857336896 45.295173910651101 0 45.295173910651101 -28.623065499030872 0 0 0 0 0.38053837995721551 24.546919604871846 0 24.546919604871846 1.2125786157293987 0 0 0 0 -8.7345257366978331 26.953136502768302 0 26.953136502768302 -14.111232046455825 0 0 0 0 -5.3288032012077409 11.638867527086134 0 11.638867527086134 -4.4981674001685938 0 0 0 0 -44.40757555484015 28.769001198814294 0 28.769001198814294 5.7172267850664866 0 0 0 0 26.049884090900377 6.7155592356650686 0 6.7155592356650686 -3.3194582740288752 0 0 0 0 34.492917613228201 4.9308981424987905 0 4.9308981424987905 -17.04347426188906 0 0 0 0 -4.2312104550618628 9.2611109265406881 0 9.2611109265406881 -2.0339448958461475 0 0 0 0 -50.366600225273942 -36.253906214505378 0 -36.253906214505378 -22.565619206887277 0 0 0 0 -31.284569262825244 1.8162545390446212 0 1.8162545390446212 3.2975883502253964 0 0 0 0 35.284299912389088 9.7315970498289062 0 9.7315970498289062 -8.5228058309367043 0 0 0 0 -41.761201747685845 1.605794309306475 0 1.605794309306475 5.9385725560000537 0 0 0 0 -102.82084604339616 12.734900213520632 0 12.734900213520632 36.67407641112186 0 0 0 0 1.203718524333901 1.1849823384065417 0 1.1849823384065417 -0.57445958514607653 0 0 0 0 -91.750396815708882 -11.150618456077837 0 -11.150618456077837 25.115440465064239 0 0 0 0 -122.38080972709577 34.156264952373022 0 34.156264952373022 -11.876242728766556 0 0 0 0 -1.7219846359215438 1.0195647843826592 0 1.0195647843826592 0.14354767230741317 0 0 0 0 28.010784110808345 9.4976072667711833 0 9.4976072667711833 0.077195347737415432 0 0 0 0 14.478952950517851 8.3465460652141701 0 8.3465460652141701 -17.668845390135175 0 0 0 0 11.19429324838373 6.5010724723985867 0 6.5010724723985867 -0.28836218676380199 0 0 0 0 1.4200778583950591 0.40196327704222412 0 0.40196327704222412 -0.49967735773855892 0 0 0 0 -39.000478896579807 25.187348745662121 0 25.187348745662121 -3.5798536467091253 0 0 0 0 -0.27250906739573111 17.701454049232552 0 17.701454049232552 26.208135824484998 0 0 0 0 3.9041173584754176 7.6347450144016236 0 7.6347450144016236 -0.52763046655215007 0 0 0 0 6.2111729564203415 17.056935719426747 0 17.056935719426747 -23.342165337533515 0 0 0 0 11.49585062686856 55.323803233903618 0 55.323803233903618 49.346718906684146 0 0 0 0 2.9451319901927491 -17.967316500262768 0 -17.967316500262768 -48.27067106503273 0 0 0 0 71.658390467280697 85.370075725155402 0 85.370075725155402 -102.87395180009526 0 0 0 0 -11.271239506194632 -28.049721286204523 0 -28.049721286204523 -6.359242271131734 0 0 0 0 -12.689100338669675 48.456297775430592 0 48.456297775430592 34.05803095972442 0 0 0 0 -2.6460195898112282 1.5713336932487039 0 1.5713336932487039 -0.38706061747752329 0 0 0 0 -9.6335508562697214 -1.5333434100602972 0 -1.5333434100602972 10.437271880472508 0 0 0 0 -8.5818817932813545 20.626397315241775 0 20.626397315241775 52.745695328453507 0 0 0 0 -1.9142304185529966 1.2788466253248139 0 1.2788466253248139 0.30573307396643301 0 0 0 0 -11.074122409205302 5.9778265246077353 0 5.9778265246077353 -10.666383323742537 0 0 0 0 -10.105958056527015 31.007715822444425 0 31.007715822444425 -11.668203276724853 0 0 0 0 -2.253210664580461 -0.31925989214654393 0 -0.31925989214654393 0.84742494236460431 0 0 0 0 -21.234587412729525 9.0134801083195271 0 9.0134801083195271 0.67004019376213364 0 0 0 0 2.4155652110530355 5.3400458307260124 0 5.3400458307260124 -2.9315701018299478 0 0 0 0 -16.684017042771302 23.449563580676113 0 23.449563580676113 -17.2644426027382 0 0 0 0 -12.02510271074425 4.3212978058654699 0 4.3212978058654699 2.8607724307776152 0 0 0 0 -16.889090704709815 18.659659941798964 0 18.659659941798964 25.455421492629284 0 0 0 0 -39.313565913955699 -127.06296313439486 0 -127.06296313439486 -5.6902950392723142 0 0 0 0 -0.39995822368364031 -0.5766627251423273 0 -0.5766627251423273 -0.24409200101156436 0 0 0 0 2.5478999231563648 20.236950184505986 0 20.236950184505986 -56.904375342415733 0 0 0 0 -78.916500563933369 6.8459788596601356 0 6.8459788596601356 44.130015319271251 0 0 0 0 -0.30358739684743341 -6.7280013386068731 0 -6.7280013386068731 -16.659519210484177 0 0 0 0 36.046029024006657 -9.4437717907477463 0 -9.4437717907477463 60.863668484978916 0 0 0 0 35.818731219821757 -13.320403168712289 0 -13.320403168712289 -0.91200523923180299 0 0 0 0 4.8055895074721775 13.176275700718179 0 13.176275700718179 14.934614177914227 0 0 0 0 -92.389980881383053 -20.776930499386026 0 -20.776930499386026 16.404494285063265 0 0 0 0 -15.342711808982131 34.351785082387323 0 34.351785082387323 -38.503100769739376 0 0 0 0 -87.52181023243611 43.74335347439046 0 43.74335347439046 33.811294140850805 0 0 0 0 -17.342467131107696 31.981454026863958 0 31.981454026863958 59.407424948267362 0 0 0 0 -46.4913748538238 17.618282913983421 0 17.618282913983421 28.293001597765397 0 0 0 0 -35.956972775169561 57.733775595969291 0 57.733775595969291 33.5010230288608 0 0 0 0 59.528661948944318 76.498264663323425 0 76.498264663323425 79.787427143782224 0 0 0 0 34.335071574510948 28.914409631433045 0 28.914409631433045 27.639276663396231 0 0 0 0 25.766366293648389 81.389971839817008 0 81.389971839817008 48.881440144595217 0 0 0 0 109.8560198367195 55.342844403123763 0 55.342844403123763 55.977873614088139 0 0 0 0 284.77714203219512 160.72950722528685 0 160.72950722528685 35.943387893696581 0 0 0 0 129.04503155031534 139.73865719488424 0 139.73865719488424 173.86807639419112 0 0 0 0 -0.44052264740276925 0.36550198829606373 0 0.36550198829606373 1.1796806747582114 0 0 0 0 57.41198715934479 147.92866053013108 0 147.92866053013108 129.9181370646869 0 0 0 0 40.603067456713688 78.256041422889211 0 78.256041422889211 141.88155111162087 0 0 0 0 95.932995280112664 77.810267393890172 0 77.810267393890172 50.768744059931123 0 0 0 0 40.531046529758896 50.720006515013665 0 50.720006515013665 56.660739398768101 0 0 0 0 0.074175680464165339 -0.33416153275543792 0 -0.33416153275543792 -0.3533877937063874 0 0 0 0 76.433320646628999 27.272275923623965 0 27.272275923623965 78.081778682563709 0 0 0 0 54.052892057472491 7.3992370390014912 0 7.3992370390014912 126.84492423547499 0 0 0 0 39.662377605181973 28.083607836186275 0 28.083607836186275 -46.316703023145237 0 0 0 0 48.784801299533683 55.468750741119266 0 55.468750741119266 19.959285451799587 0 0 0 0 61.500185883578524 57.179409063745879 0 57.179409063745879 24.823529192355636 0 0 0 0 39.357143661527061 50.169880187118792 0 50.169880187118792 26.380266985572234 0 0 0 0 46.530730566006241 28.166021354985787 0 28.166021354985787 -15.610873378604083 0 0 0 0 18.130221262435953 33.788787280189354 0 33.788787280189354 15.343772423631322 0 0 0 0 29.481954706623583 18.631016903221735 0 18.631016903221735 0.34104572796422872 0 0 0 0 21.076042514119763 13.752624677362292 0 13.752624677362292 -0.26520655371996327 0 0 0 0 22.411844243766609 11.019008459352335 0 11.019008459352335 -6.6433747242299432 0 0 0 0 7.6053277273240383 2.3029663482611795 0 2.3029663482611795 -0.22732779622174348 0 0 0 0 8.3436847807006416 47.973471875593532 0 47.973471875593532 31.767729561250121 0 0 0 0 15.046235946165325 29.914364507001665 0 29.914364507001665 10.824687330437882 0 0 0 0 17.29922279209859 52.023947674378178 0 52.023947674378178 42.404436162529237 0 0 0 0 40.789584647194715 44.69827642942073 0 44.69827642942073 12.328719005919083 0 0 0 0 0.0038401640422367662 48.939655426706359 0 48.939655426706359 63.223438011408689 0 0 0 0 17.71253058210641 53.413800320588507 0 53.413800320588507 30.872283269186255 0 0 0 0 -7.2650142797956505 51.73824271104786 0 51.73824271104786 65.00578700448591 0 0 0 0 5.2444940080695233 81.016844951210942 0 81.016844951210942 105.19765222235674 0 0 0 0 35.838501465692389 72.327066728111731 0 72.327066728111731 58.392193229982695 0 0 0 0 47.101727272445714 62.803829898188269 0 62.803829898188269 63.047620882193314 0 0 0 0 -76.842966938898826 -17.122827396888169 0 -17.122827396888169 31.3577368724591 0 0 0 0 -38.459369209846045 36.793826217780406 0 36.793826217780406 98.42013396506951 0 0 0 0 -0.022281100500549655 44.654546318257417 0 44.654546318257417 71.916184470664575 0 0 0 0 -12.138012176583288 19.006861504581593 0 19.006861504581593 36.175032630283113 0 0 0 0 -0.0063692355115569435 34.485563755843565 0 34.485563755843565 21.528832721251092 0 0 0 0 -8.2288809679466794 34.479718139952183 0 34.479718139952183 31.705885056964689 0 0 0 0 -5.2876673849059443 33.988769196489329 0 33.988769196489329 23.488838909996502 0 0 0 0 -3.3135884305447689 34.935295764589682 0 34.935295764589682 18.377014362381487 0 0 0 0 -7.4787505367894482 23.531875490144444 0 23.531875490144444 14.302063056818042 0 0 0 0 -8.6552820387823886 19.457504796494504 0 19.457504796494504 1.8990088217360608 0 0 0 0 -16.340595895133447 23.14173944432423 0 23.14173944432423 17.97822734739205 0 0 0 0 -36.334816171856801 -12.540550331814416 0 -12.540550331814416 63.253632061218013 0 0 0 0 -0.37925756849028502 1.021820512629894 0 1.021820512629894 1.3423487362148556 0 0 0 0 212.61380551830371 62.459580538395358 0 62.459580538395358 5.8648876071742961 0 0 0 0 104.46469641349267 57.72550574610807 0 57.72550574610807 21.492765347610657 0 0 0 0 -0.60866519914837625 0.97211311369150977 0 0.97211311369150977 3.1270736087741238 0 0 0 0 58.124326709188608 95.806766240323441 0 95.806766240323441 -73.661094594182032 0 0 0 0 -101.84203324931877 148.18968362426222 0 148.18968362426222 77.203883928895266 0 0 0 0 34.073110897625156 38.464453594639963 0 38.464453594639963 27.434888214240118 0 0 0 0 85.004716217029682 82.829623667123542 0 82.829623667123542 10.791617531018346 0 0 0 0 -0.61118723508216277 0.21199025696968832 0 0.21199025696968832 2.7369724308697236 0 0 0 0 -19.744492256681951 13.326063075133334 0 13.326063075133334 16.809785209963593 0 0 0 0 -11.995671998160105 27.217442761345865 0 27.217442761345865 11.470923399091134 0 0 0 0 3.0441312266884779 33.382825801923445 0 33.382825801923445 20.713665088198923 0 0 0 0 32.542054344661665 28.992160753695316 0 28.992160753695316 19.294634607018452 0 0 0 0 1.9268304162666254 12.877410833078997 0 12.877410833078997 10.968682069356873 0 0 0 0 6.6771421455159725 26.323994594366013 0 26.323994594366013 36.325500932216073 0 0 0 0 -0.38863966823015517 -0.11765224907296101 0 -0.11765224907296101 3.1569233392430007 0 0 0 0 33.242306141912195 31.668241674559454 0 31.668241674559454 29.218293249504313 0 0 0 0 51.963404039670422 -105.49830340706035 0 -105.49830340706035 184.64221608808134 0 0 0 0 57.211981085911248 148.83528869581232 0 148.83528869581232 -348.29397567699561 0 0 0 0 33.57458806681916 25.524691100502935 0 25.524691100502935 37.09769206659621 0 0 0 0 77.083423531006702 36.938164779543968 0 36.938164779543968 39.603186541888135 0 0 0 0 24.560546129192517 46.537347883756411 0 46.537347883756411 78.291654591331962 0 0 0 0 27.897833364681446 40.411340795587193 0 40.411340795587193 45.549151849530972 0 0 0 0 14.633133193373396 27.591742071306271 0 27.591742071306271 51.309245655503219 0 0 0 0 4.1202590632055944 31.104891279036565 0 31.104891279036565 59.600121249795677 0 0 0 0 2.8012110494669287 23.963153778501521 0 23.963153778501521 39.262974344835129 0 0 0 0 2.6757194513975264 26.825731822304988 0 26.825731822304988 42.33981375227313 0 0 0 0 8.3899467540859405 26.553955658780978 0 26.553955658780978 34.264413718571177 0 0 0 0 0.082126873308880022 33.214967170005366 0 33.214967170005366 30.41783425917788 0 0 0 0 1.7187829254253302 35.76486779325478 0 35.76486779325478 23.04123304766 0 0 0 0 0.065747737848004126 33.149502138210018 0 33.149502138210018 30.373703919889522 0 0 0 0 -3.3745892419756274 30.536107919973574 0 30.536107919973574 31.042986501054656 0 0 0 0 5.9559633759921553 35.519657037423229 0 35.519657037423229 33.635356654420775 0 0 0 0 0.018231386728984944 9.1319004767606202 0 9.1319004767606202 -15.159017030885479 0 0 0 0 -18.363303617739803 11.114195531269161 0 11.114195531269161 -2.7016266485052256 0 0 0 0 0.53779100285417769 0.11624558252911754 0 0.11624558252911754 -0.40529247675799596 0 0 0 0 -20.056908968281277 15.193594950222632 0 15.193594950222632 -2.0262202872827402 0 0 0 0 -17.004080049850018 24.392147068562736 0 24.392147068562736 -11.950887953185429 0 0 0 0 0.69909471914013466 0.2686778348845813 0 0.2686778348845813 -0.30205386772971821 0 0 0 0 -2.2144167226324498 3.6142863959980787 0 3.6142863959980787 -6.556255381959545 0 0 0 0 7.7252022503991071 5.2269051777198996 0 5.2269051777198996 4.1200189641925249 0 0 0 0 -6.2427580812009182 15.295749303408684 0 15.295749303408684 -5.9534774772860146 0 0 0 0 -7.2911284791418893 1.2206346283428502 0 1.2206346283428502 -5.5875012903297829 0 0 0 0 4.036832543875704 3.0668481717060736 0 3.0668481717060736 2.1987363002564422 0 0 0 0 -2.1067567428344773 30.827406461855389 0 30.827406461855389 -34.84874789182777 0 0 0 0 -23.717621632263217 40.742536361834254 0 40.742536361834254 -19.719506908303629 0 0 0 0 3.0207507136983622 41.874149150206449 0 41.874149150206449 -110.51819624349446 0 0 0 0 4.9782691996342692 28.583601047285811 0 28.583601047285811 -76.79980906509445 0 0 0 0 -2.7228542138782359 21.246035204175314 0 21.246035204175314 -42.339393223385741 0 0 0 0 9.8754958241343047 20.170462814537586 0 20.170462814537586 -113.5924614621108 0 0 0 0 13.333380430092802 7.5983380626807957 0 7.5983380626807957 -85.603616203903584 0 0 0 0 -14.435825331309388 16.056274612664765 0 16.056274612664765 -139.73161054151569 0 0 0 0 -7.1205000055051642 0.28066864017728221 0 0.28066864017728221 -113.2507235009669 0 0 0 0 -59.252132691592124 -46.631529001729177 0 -46.631529001729177 -158.53744026875916 0 0 0 0 14.838568921726619 57.029681904510653 0 57.029681904510653 -147.25776781048978 0 0 0 0 -0.10000050512098824 38.750014052749066 0 38.750014052749066 -19.06017780682896 0 0 0 0 1.2903419659130435 0.91865372672487666 0 0.91865372672487666 0.62808332829669666 0 0 0 0 -42.200118665623449 -35.738411006145952 0 -35.738411006145952 10.425279066363146 0 0 0 0 65.229727549605741 -59.963248981138349 0 -59.963248981138349 -471.80283608004856 0 0 0 0 -0.38420816361031029 367.93307446193467 0 367.93307446193467 -196.23144853101803 0 0 0 0 0.01621071375302563 20.526969645886311 0 20.526969645886311 51.154753947550489 0 0 0 0 -11.219070609464325 18.398748811263886 0 18.398748811263886 85.38743337743017 0 0 0 0 -1.8174622450952 1.442197390263102 0 1.442197390263102 -1.3193889252904416 0 0 0 0 4.8123099902768445 -13.729099944303925 0 -13.729099944303925 66.186144853931637 0 0 0 0 27.069821812428927 -32.907795017585158 0 -32.907795017585158 -31.468290635990343 0 0 0 0 13.835706726029457 50.100024687241785 0 50.100024687241785 -54.276236642555659 0 0 0 0 18.759597524487617 24.649988005980049 0 24.649988005980049 -4.0831246392873481 0 0 0 0 10.883015064193387 -2.6453155243643778 0 -2.6453155243643778 -1.2493143623833021 0 0 0 0 0.024745163493207656 34.112853531908058 0 34.112853531908058 -5.4599208232530145 0 0 0 0 2.4870866899384509 44.6593596831366 0 44.6593596831366 5.6347875965002459 0 0 0 0 3.3496049467997864 30.719618744039906 0 30.719618744039906 10.453872105673327 0 0 0 0 -27.716282253199097 54.30187414240072 0 54.30187414240072 -3.424546989916962 0 0 0 0 3.8288033973985875 31.25438705786064 0 31.25438705786064 10.982602876969395 0 0 0 0 0.0074693638507596916 35.468067079651064 0 35.468067079651064 15.679630291475405 0 0 0 0 14.346515301871932 8.5645172803243668 0 8.5645172803243668 5.418498542974703 0 0 0 0 6.6338945588722709 7.8403754889895936 0 7.8403754889895936 11.096371718483738 0 0 0 0 13.395138282495964 13.348137284248764 0 13.348137284248764 5.6267024918961397 0 0 0 0 6.2673443494459207 13.043003931696148 0 13.043003931696148 10.563536627910253 0 0 0 0 -15.879828558426198 20.468210424403878 0 20.468210424403878 27.984129345280053 0 0 0 0 9.4826857564694365 9.9090511771514684 0 9.9090511771514684 12.509626017700612 0 0 0 0 10.921276107095764 11.74244138469021 0 11.74244138469021 11.459308512710891 0 0 0 0 3.5760594423145449 53.158302414418131 0 53.158302414418131 -0.55002576437982498 0 0 0 0 25.051510661203793 -63.807185596705494 0 -63.807185596705494 -55.037492961697353 0 0 0 0 -47.796579801942698 110.56846935411238 0 110.56846935411238 29.879825918857023 0 0 0 0 -1.1425615338701718 0.42563078469670712 0 0.42563078469670712 -0.18746281107854124 0 0 0 0 -5.1554771926848986 4.3655073880998359 0 4.3655073880998359 -2.9554278511775234 0 0 0 0 2.3238959263908328 -23.081005446745621 0 -23.081005446745621 -162.89216841669895 0 0 0 0 2.0665764953055259 2.729686090393443 0 2.729686090393443 -66.033212642279977 0 0 0 0 -11.155502516094202 -22.010934499150153 0 -22.010934499150153 -111.12990465183429 0 0 0 0 14.37512059306755 12.619292563436829 0 12.619292563436829 -101.5902596381784 0 0 0 0 18.08693274761572 26.531227790152116 0 26.531227790152116 -68.458371390273214 0 0 0 0 11.592903829626266 42.778113707692683 0 42.778113707692683 -108.64949918707498 0 0 0 0 -16.339435170120851 45.53841017088962 0 45.53841017088962 -36.199475414323388 0 0 0 0 -16.413324501385432 12.770651022129186 0 12.770651022129186 3.4089407247556665 0 0 0 0 3.8752882787857743 12.06091301510196 0 12.06091301510196 -63.776023202486613 0 0 0 0 -7.9784609574759457 6.2813642161370868 0 6.2813642161370868 -4.1543989797753529 0 0 0 0 1.2624588457492791 13.776504602780733 0 13.776504602780733 -59.784202542799903 0 0 0 0 -3.4103768731141955 1.7462105327609012 0 1.7462105327609012 -0.93670600298243301 0 0 0 0 -2.1937907332685427 -12.046554058181755 0 -12.046554058181755 -22.196888091914843 0 0 0 0 3.7733107498042955 15.345866924499205 0 15.345866924499205 21.615535024569908 0 0 0 0 -10.047085913086505 7.6282884838785208 0 7.6282884838785208 -3.9415714037273677 0 0 0 0 2.5496276194444363 15.545972064554405 0 15.545972064554405 -4.7633304968821903 0 0 0 0 -5.9367766884928344 3.4359173703196517 0 3.4359173703196517 -1.4766918086280203 0 0 0 0 -4.0555207645184055 16.770832226502989 0 16.770832226502989 10.981870301703566 0 0 0 0 1.9512665607508097 10.294517998373976 0 10.294517998373976 12.152778631325418 0 0 0 0 -3.4271262620932248 7.5696676538791507 0 7.5696676538791507 18.633423835482063 0 0 0 0 -12.712421920368797 11.091276499899323 0 11.091276499899323 12.547589072627488 0 0 0 0 1.997539564699764 7.994328059360214 0 7.994328059360214 7.8579415310596232 0 0 0 0 7.0575321464148146 7.731038779571918 0 7.731038779571918 7.870187014066687 0 0 0 0 -9.7847340241244609 3.9080781725111313 0 3.9080781725111313 -0.019967194179747239 0 0 0 0 -10.348747814010231 4.5107814417407877 0 4.5107814417407877 -0.42068475713344533 0 0 0 0 -10.640108519892237 6.2952168900865217 0 6.2952168900865217 0.49129052438001963 0 0 0 0 -10.845280246525363 6.3200298881965864 0 6.3200298881965864 1.3067739911111858 0 0 0 0 -11.453503232169169 6.8325270274892773 0 6.8325270274892773 1.2239673977455823 0 0 0 0 -11.526050289496197 7.0238999908842743 0 7.0238999908842743 0.58687073234068521 0 0 0 0 -7.3284451066890934 5.2616653683985568 0 5.2616653683985568 4.1677319512175437 0 0 0 0 -12.48359967027136 10.373802186276407 0 10.373802186276407 6.068132809286908 0 0 0 0 -11.661861578664684 7.1094533475461503 0 7.1094533475461503 0.95954654396155092 0 0 0 0 -5.9118377717859403 5.2520263838323444 0 5.2520263838323444 -7.0235031922775306 0 0 0 0 13.792419255551067 20.597236538420475 0 20.597236538420475 11.742732196405996 0 0 0 0 -10.283139162827865 5.9053394384236526 0 5.9053394384236526 0.8998438703811189 0 0 0 0 -5.7168314222632937 4.485172933591457 0 4.485172933591457 -0.62603076126623591 0 0 0 0 -21.832906191979419 18.179884573386516 0 18.179884573386516 5.0837159579805302 0 0 0 0 -2.9447386292179818 2.5802317144028528 0 2.5802317144028528 3.9073391037862066 0 0 0 0 -14.846363580218167 5.1572575180834974 0 5.1572575180834974 0.7664730019041599 0 0 0 0 -12.7368490249155 3.3300573835535943 0 3.3300573835535943 -0.4122032751711231 0 0 0 0 -18.56159439277144 4.7347547799454333 0 4.7347547799454333 1.4732507754788458 0 0 0 0 -19.535941343398008 6.7938003977205881 0 6.7938003977205881 -1.0672694543809484 0 0 0 0 -16.057728780132493 2.3653195470465107 0 2.3653195470465107 0.58587987511054962 0 0 0 0 -7.6627110596009516 6.4797996469278587 0 6.4797996469278587 9.112139676049992 0 0 0 0 -30.337863786295202 15.64768581426506 0 15.64768581426506 18.094021181537755 0 0 0 0 -41.373859974304651 43.877213601750555 0 43.877213601750555 -1.226904363342328 0 0 0 0 -21.469790991277478 28.024597239580544 0 28.024597239580544 -29.800317512901529 0 0 0 0 -48.438665924861198 58.301249983189336 0 58.301249983189336 -29.218333523636829 0 0 0 0 -17.954461902927505 48.882921802484816 0 48.882921802484816 -41.806718709749475 0 0 0 0 -28.276948073182211 86.394846432945087 0 86.394846432945087 2.1941157963556179 0 0 0 0 -146.99034545240283 308.73597638922365 0 308.73597638922365 -349.7914915432375 0 0 0 0 -29.144663398286866 96.357598935194801 0 96.357598935194801 -85.033274620518569 0 0 0 0 0.15249467063333633 -0.043964761544895481 0 -0.043964761544895481 0.37667473854665445 0 0 0 0 -15.968820241936101 -122.64977219909542 0 -122.64977219909542 140.97120224513128 0 0 0 0 -38.076592042179982 1.6318216631316318 0 1.6318216631316318 4.9135581040591205 0 0 0 0 -514.93647053713357 195.73230821262769 0 195.73230821262769 356.84150862501701 0 0 0 0 -21.976169187257256 -14.575975299821948 0 -14.575975299821948 0.052047950921405572 0 0 0 0 49.588945499544934 156.28790019952157 0 156.28790019952157 -483.75324415055366 0 0 0 0 -46.414979151444186 188.29019955064086 0 188.29019955064086 -125.7116181791298 0 0 0 0 0.2438722255745347 0.39090597322902809 0 0.39090597322902809 -1.2363975292818381 0 0 0 0 -48.216288370360417 21.661878536749555 0 21.661878536749555 11.953186495284172 0 0 0 0 -105.29783462799037 58.039756827731708 0 58.039756827731708 36.965862964767439 0 0 0 0 8.5345166144252289 -25.868697708249329 0 -25.868697708249329 -33.256546504990183 0 0 0 0 19.25128188286817 -23.567793265799537 0 -23.567793265799537 -265.26730357111592 0 0 0 0 18.894950378701992 -37.111495717106749 0 -37.111495717106749 -117.58332796542527 0 0 0 0 -0.66881191285981068 1.8782161522108254 0 1.8782161522108254 -4.7245040825460904 0 0 0 0 31.703885216107665 52.575622544663929 0 52.575622544663929 -234.89863149791563 0 0 0 0 33.901427751035953 29.594737536384855 0 29.594737536384855 -101.5879308034373 0 0 0 0 30.517348144036077 0.77503422031713853 0 0.77503422031713853 -137.52832327274064 0 0 0 0 22.422684238226793 15.224087489600606 0 15.224087489600606 -101.10342036947281 0 0 0 0 27.48709001008865 0.75756445749311752 0 0.75756445749311752 -73.333925288102364 0 0 0 0 5.9693938474711103 11.457865731548736 0 11.457865731548736 -30.847314630758774 0 0 0 0 9.8844868414216762 13.433699329139017 0 13.433699329139017 -64.819834649514632 0 0 0 0 10.71991313320359 23.658480826415143 0 23.658480826415143 6.4500521409131579 0 0 0 0 3.8545475059149794 1.5873444335680915 0 1.5873444335680915 -20.073251479787359 0 0 0 0 11.628071832830756 27.461889306907324 0 27.461889306907324 -15.896460813198246 0 0 0 0 -1.3621926452760817 21.891334388906671 0 21.891334388906671 -25.528078079452371 0 0 0 0 0.84213926379561599 14.82296880466356 0 14.82296880466356 -5.3103473516166559 0 0 0 0 10.786551575929479 23.688419262414754 0 23.688419262414754 -11.431293164344879 0 0 0 0 11.460754273963175 26.096174481808248 0 26.096174481808248 -2.9208589855001037 0 0 0 0 24.990584722118001 10.756910717958817 0 10.756910717958817 -5.3375808096716355 0 0 0 0 99.718596125389013 33.802266705934016 0 33.802266705934016 3.2524740809476498 0 0 0 0 75.265110370582988 53.836125816103959 0 53.836125816103959 32.215145534930343 0 0 0 0 2.9421217733142839 46.556465154591024 0 46.556465154591024 27.279713133766563 0 0 0 0 76.456146958293175 42.208422036776938 0 42.208422036776938 5.5615108310212236 0 0 0 0 2.7435006273080944 45.556086565238729 0 45.556086565238729 25.098551219370165 0 0 0 0 -16.914606769896636 -18.789505526374342 0 -18.789505526374342 32.792211154989673 0 0 0 0 -7.9455355884207393 13.02656722032998 0 13.02656722032998 21.660635808948427 0 0 0 0 122.19103797973003 6.5767623819692744 0 6.5767623819692744 -4.912369543015302 0 0 0 0 -11.348249445444822 49.549638802709751 0 49.549638802709751 14.225246668913314 0 0 0 0 -83.564298411944947 87.809096810304709 0 87.809096810304709 -9.1598515876721649 0 0 0 0 -1.6159279576189896 4.6839731092038077 0 4.6839731092038077 -12.574557991197651 0 0 0 0 148.12343217189664 65.165847189291526 0 65.165847189291526 -13.284515928116889 0 0 0 0 39.73230291791333 34.465150127196921 0 34.465150127196921 -15.895647575855946 0 0 0 0 -61.45843005073948 76.313247622758354 0 76.313247622758354 7.7951574217586312 0 0 0 0 -57.080925985377689 85.889211875828551 0 85.889211875828551 -21.195641772392264 0 0 0 0 -43.755728923835704 67.797869850078314 0 67.797869850078314 2.0202215699027875 0 0 0 0 -35.755868944683243 74.787248673696922 0 74.787248673696922 -26.609417706684326 0 0 0 0 -34.934564079272604 73.498964240727219 0 73.498964240727219 -40.53015840385342 0 0 0 0 -74.2257727367396 97.063170345423714 0 97.063170345423714 -17.294158081593196 0 0 0 0 -48.642693409892672 93.76111944796321 0 93.76111944796321 -51.292881399367616 0 0 0 0 -50.470952864292485 85.899770475331024 0 85.899770475331024 -38.40246973790272 0 0 0 0 -83.792413353639859 93.88265918201796 0 93.88265918201796 -25.826995341877137 0 0 0 0 -70.503835358318611 86.575150607204705 0 86.575150607204705 -27.010900982375915 0 0 0 0 -95.701469442027701 86.327834468595938 0 86.327834468595938 16.188981093673647 0 0 0 0 -71.006312831214018 36.870802912042564 0 36.870802912042564 30.607577565666361 0 0 0 0 -72.003719655780515 72.050692865662313 0 72.050692865662313 31.234327747089992 0 0 0 0 -53.394536748026439 55.415546520986027 0 55.415546520986027 32.150849913572529 0 0 0 0 -51.24195791794773 58.140794875684151 0 58.140794875684151 24.068636220121334 0 0 0 0 -52.555625091688853 57.127039362268988 0 57.127039362268988 33.673021773397977 0 0 0 0 -63.574021611770149 77.066347366502669 0 77.066347366502669 8.2070008324835726 0 0 0 0 -62.986042068597271 74.212910937328161 0 74.212910937328161 18.029415675147902 0 0 0 0 -66.693542563647497 64.263584006725068 0 64.263584006725068 24.739000541343557 0 0 0 0 -60.880418930502856 54.754524615704213 0 54.754524615704213 26.08543237379854 0 0 0 0 -52.86246154579203 57.130847682918102 0 57.130847682918102 6.7132397233774554 0 0 0 0 -39.29171488890097 37.780657341931146 0 37.780657341931146 19.449580102816981 0 0 0 0 -28.741811346193572 50.65281743905507 0 50.65281743905507 7.6484085969768785 0 0 0 0 -22.749763978383271 43.617477699285701 0 43.617477699285701 1.0078149562414183 0 0 0 0 -8.6625695007401191 17.023911432886962 0 17.023911432886962 8.0666348764407303 0 0 0 0 1.0414310579944868 32.042288582366382 0 32.042288582366382 -14.663386575172808 0 0 0 0 -0.25987661752515123 30.487748551376171 0 30.487748551376171 -10.279496637103875 0 0 0 0 -43.249026756048806 67.772301562494704 0 67.772301562494704 -12.209991417839774 0 0 0 0 -29.569387571766129 47.830270355261746 0 47.830270355261746 -1.5721318846462964 0 0 0 0 -8.9076929058937822 41.521694819605955 0 41.521694819605955 -23.552294084725872 0 0 0 0 -6.8671072590514086 49.83435358573297 0 49.83435358573297 -37.530208950600354 0 0 0 0 -22.68678322386404 55.216209229212836 0 55.216209229212836 -13.384520339266146 0 0 0 0 6.6301347232365515 34.784257343153513 0 34.784257343153513 -50.977453482482815 0 0 0 0 -11.426407806240604 55.502748709814114 0 55.502748709814114 -44.118247420326952 0 0 0 0 1.5317542230040999 39.494281815499562 0 39.494281815499562 -55.324752191543666 0 0 0 0 11.542595753462592 20.447006082971711 0 20.447006082971711 -28.820821510435053 0 0 0 0 1.5685729838696716 33.115004715336909 0 33.115004715336909 -44.322993213922018 0 0 0 0 10.323405416867899 14.327615348862309 0 14.327615348862309 -30.745872319286718 0 0 0 0 10.695846032238478 20.333621403971847 0 20.333621403971847 -60.859496832631066 0 0 0 0 12.315011143131414 11.282129839282788 0 11.282129839282788 -37.237001071537634 0 0 0 0 6.1718446955201216 26.897662485840556 0 26.897662485840556 -70.112261332717026 0 0 0 0 16.283088492908064 10.442204537174803 0 10.442204537174803 -12.198972281574243 0 0 0 0 9.8645904911936668 20.542697612077973 0 20.542697612077973 -25.258961456820543 0 0 0 0 12.934596946681268 5.3883269405832834 0 5.3883269405832834 -14.571824502820164 0 0 0 0 17.54697039963412 6.797453600053359 0 6.797453600053359 -2.0240056941856892 0 0 0 0 16.644755433282626 2.177426470507271 0 2.177426470507271 -17.925703356886515 0 0 0 0 10.343270273500821 0.3337946812807786 0 0.3337946812807786 -1.2041129787000955 0 0 0 0 9.4641210397494433 -3.7279163187331505 0 -3.7279163187331505 -4.389527033745253 0 0 0 0 -0.49968606512556057 0.27764042612572304 0 0.27764042612572304 0.073935800837993781 0 0 0 0 8.8547568359845172 5.4259738866630869 0 5.4259738866630869 -35.943279717181213 0 0 0 0 13.888286608278577 -0.079007298152646399 0 -0.079007298152646399 -24.176939905793006 0 0 0 0 12.226861701768939 0.80753823285158433 0 0.80753823285158433 -1.2223485903814435 0 0 0 0 -19.13290801857147 7.352194897629488 0 7.352194897629488 6.5320493706167326 0 0 0 0 -0.19055094868005895 0.4667357647794983 0 0.4667357647794983 0.13940582906936072 0 0 0 0 47.775164745670736 15.911180020768143 0 15.911180020768143 3.6400652754819021 0 0 0 0 -26.244593672925475 34.141416293347902 0 34.141416293347902 -62.961412642518553 0 0 0 0 -14.248730081428221 -1.230365325764069 0 -1.230365325764069 15.631094595324612 0 0 0 0 42.400401176095329 44.611695074967429 0 44.611695074967429 -70.735073509422364 0 0 0 0 5.3008135907584801 52.817799230881974 0 52.817799230881974 -112.93522046499857 0 0 0 0 -26.805522321496028 89.380288226573612 0 89.380288226573612 -129.35854248180476 0 0 0 0 -80.253463756132987 121.13931800427781 0 121.13931800427781 -72.232459834940528 0 0 0 0 -22.742572883738831 72.957926974261682 0 72.957926974261682 -70.104643056933128 0 0 0 0 -17.570332176517695 70.512195625415188 0 70.512195625415188 -69.057989341559733 0 0 0 0 -10.821749343587726 55.688462474005064 0 55.688462474005064 -46.174627324716312 0 0 0 0 -19.303881251598796 68.928580816198519 0 68.928580816198519 -66.749981467561156 0 0 0 0 -0.96206457602329465 47.993987864660994 0 47.993987864660994 -81.745520863092679 0 0 0 0 -12.489302962108923 61.367597590306104 0 61.367597590306104 -64.63988877749216 0 0 0 0 -12.390408326311444 69.533081961933931 0 69.533081961933931 -81.757545582135208 0 0 0 0 9.5028304071020102 39.651986105589458 0 39.651986105589458 -128.39919638013816 0 0 0 0 -103.11775470657449 61.107237189380612 0 61.107237189380612 -34.060305017566861 0 0 0 0 -158.40752883085861 161.2013432015774 0 161.2013432015774 -83.258898111813323 0 0 0 0 -5.1852398232185806 82.151783873814566 0 82.151783873814566 -185.450061819236 0 0 0 0 -127.33400841211528 164.62368739534259 0 164.62368739534259 -100.15217753286925 0 0 0 0 -80.403076918541046 106.91173088687538 0 106.91173088687538 -208.04341996564017 0 0 0 0 0.055821445635039879 0.59744429074737226 0 0.59744429074737226 -1.0876815049791446 0 0 0 0 25.329848470561956 3.1960495119319603 0 3.1960495119319603 -44.442165867492804 0 0 0 0 -18.858383419981692 10.901393246762382 0 10.901393246762382 15.505323125707946 0 0 0 0 0.28747625603027771 0.34768461708764065 0 0.34768461708764065 -2.3620106535051448 0 0 0 0 -5.5287185362249147 -6.0612289238442827 0 -6.0612289238442827 -7.6835276763267757 0 0 0 0 -14.133906136918085 10.007274861968654 0 10.007274861968654 13.747946624562246 0 0 0 0 -9.3716616480051016 6.4350728619856454 0 6.4350728619856454 15.341959799754989 0 0 0 0 18.885496937281459 7.4143766502693325 0 7.4143766502693325 4.3977591580660373 0 0 0 0 -0.22594736113563307 0.56794635288235895 0 0.56794635288235895 0.15605737544686349 0 0 0 0 7.9930144862737507 -4.9144990041513665 0 -4.9144990041513665 14.630038963971401 0 0 0 0 -9.3639255956678653 7.0341026533437656 0 7.0341026533437656 13.848146011081553 0 0 0 0 -3.2676155826845843 9.0625377518914547 0 9.0625377518914547 16.681978167311172 0 0 0 0 12.592949723728452 10.682334979832376 0 10.682334979832376 8.8550540193164125 0 0 0 0 -2.378678173161461 5.0451646255824016 0 5.0451646255824016 -2.9986506071218173 0 0 0 0 -6.1859699785654811 -9.0689737609277472 0 -9.0689737609277472 -7.1377745115241851 0 0 0 0 -1.66966528790776 1.3823163325236152 0 1.3823163325236152 -3.3351514710346422 0 0 0 0 -14.473432632163167 -18.233173147382331 0 -18.233173147382331 -17.227283813914255 0 0 0 0 -16.567068328677124 -5.6859785708602431 0 -5.6859785708602431 -2.3701361620060197 0 0 0 0 -14.502783214698866 -4.5745000019392137 0 -4.5745000019392137 5.1284810507640941 0 0 0 0 -14.526729891020295 -7.5837890043376319 0 -7.5837890043376319 -1.0144113871610898 0 0 0 0 -15.819285266639781 14.375908782747501 0 14.375908782747501 2.1052391414632439 0 0 0 0 16.926037814522715 -1.1934566487771008 0 -1.1934566487771008 3.6399962598097773 0 0 0 0 4.2459371942532016 6.1831783096258732 0 6.1831783096258732 -10.902612032075922 0 0 0 0 -47.595812997465373 -13.795046770125623 0 -13.795046770125623 0.97248472996579949 0 0 0 0 -29.797803400353587 59.168831327928274 0 59.168831327928274 -92.459017805136682 0 0 0 0 -5.6991469016793417 -30.360261992569576 0 -30.360261992569576 -46.71721664634606 0 0 0 0 9.1121138541493565 -17.03728607114499 0 -17.03728607114499 27.067955771210109 0 0 0 0 -40.143696973445685 35.493499558141025 0 35.493499558141025 -30.113869822042034 0 0 0 0 -0.75569576352656753 0.37019088512120657 0 0.37019088512120657 0.56574812142552844 0 0 0 0 5.948234887142462 4.1282538513805775 0 4.1282538513805775 -61.373176369792418 0 0 0 0 -6.5270138611806772 7.0513782631209097 0 7.0513782631209097 -4.3294783272431712 0 0 0 0 -8.1024892115929106 12.872582351426445 0 12.872582351426445 6.113409952883103 0 0 0 0 -31.201462476306915 20.988432991645823 0 20.988432991645823 1.3722646364931279 0 0 0 0 -11.843920107243321 15.592904869706217 0 15.592904869706217 4.8736803991180295 0 0 0 0 -11.563968219885282 14.979213182721651 0 14.979213182721651 5.8942569576709047 0 0 0 0 13.186921188054839 29.504250471783052 0 29.504250471783052 13.097477414503373 0 0 0 0 23.62164815212418 5.773934821768762 0 5.773934821768762 -13.462120562933706 0 0 0 0 2.5891339805966709 10.477819809377252 0 10.477819809377252 -13.389809045370384 0 0 0 0 4.6913767801040649 -0.34271979190975799 0 -0.34271979190975799 -21.452111124901421 0 0 0 0 -29.112420729361475 -13.13401595353298 0 -13.13401595353298 -13.627387335651292 0 0 0 0 7.0417417785756697 -14.242658423030662 0 -14.242658423030662 -20.820610428851069 0 0 0 0 -8.3006503009473818 -6.9763762057973508 0 -6.9763762057973508 4.2527361027714505 0 0 0 0 13.384440458510653 20.914764939861016 0 20.914764939861016 -41.810277568511083 0 0 0 0 -0.15248177785917427 0.37354489024648885 0 0.37354489024648885 0.15114442552926022 0 0 0 0 45.226430801607421 28.348067049154452 0 28.348067049154452 -14.751307500961957 0 0 0 0 -27.318391526772757 10.147820987450359 0 10.147820987450359 57.984356603019478 0 0 0 0 11.959242852182797 49.970645454873193 0 49.970645454873193 -12.896360786598962 0 0 0 0 0.23113505847595661 38.704344908941891 0 38.704344908941891 0.095176272789103677 0 0 0 0 11.193490277655656 28.160036166670579 0 28.160036166670579 53.686303757187488 0 0 0 0 -2.2688322119811737 0.76750308250138488 0 0.76750308250138488 0.15583274726377994 0 0 0 0 19.81663885634589 -10.169912908243532 0 -10.169912908243532 8.3160333508694748 0 0 0 0 -3.5189924794499348 10.021061063247544 0 10.021061063247544 0.7427162548792694 0 0 0 0 12.843673633187791 34.747401586235355 0 34.747401586235355 7.1906109585634113 0 0 0 0 -5.2267659578102048 9.7133368364005115 0 9.7133368364005115 -2.9445885880858285 0 0 0 0 9.3351810500098864 9.1800041723455266 0 9.1800041723455266 0.33951071633303798 0 0 0 0 13.347910869691191 4.16293965382539 0 4.16293965382539 9.2951767745071265 0 0 0 0 -6.2596946277576535 24.481176036215402 0 24.481176036215402 4.0396947041317617 0 0 0 0 13.63989407408917 6.4357787357503184 0 6.4357787357503184 10.160624531086796 0 0 0 0 25.939567596680718 17.836227872286145 0 17.836227872286145 -14.728911388850065 0 0 0 0 1.3630087665241888 0.64841782221782829 0 0.64841782221782829 -0.22271554287234352 0 0 0 0 22.077898696614284 7.9027578949167037 0 7.9027578949167037 13.857763225918461 0 0 0 0 7.1069275655409001 1.8169531074918268 0 1.8169531074918268 13.987365351793414 0 0 0 0 9.3984908055062988 6.7157892139930482 0 6.7157892139930482 12.576415419560362 0 0 0 0 12.339029519310316 3.148493365974673 0 3.148493365974673 8.4776344941728894 0 0 0 0 10.310102035604359 2.1966011613453702 0 2.1966011613453702 8.6070846817565325 0 0 0 0 15.436437848014975 4.8171882151145837 0 4.8171882151145837 -3.2994112840096772 0 0 0 0 12.984907047552952 16.158672013473733 0 16.158672013473733 8.4967150361926542 0 0 0 0 -1.4011290755897718 2.1343721736421455 0 2.1343721736421455 -3.5377680535590486 0 0 0 0 45.059845294311117 22.465000038324888 0 22.465000038324888 -2.6525191377349984 0 0 0 0 13.203119345431332 16.161935491050826 0 16.161935491050826 -4.5121038696925098 0 0 0 0 27.519109895981273 6.0636659828805932 0 6.0636659828805932 1.0742432397441917 0 0 0 0 21.0047510510542 9.554287705419938 0 9.554287705419938 4.5055499050358776 0 0 0 0 51.629168422548446 26.968791215133479 0 26.968791215133479 3.4080034380658617 0 0 0 0 16.457226028669993 19.561029099671032 0 19.561029099671032 -3.343282714173256 0 0 0 0 8.6726962966395149 5.4512053602988999 0 5.4512053602988999 0.9592588571304077 0 0 0 0 -67.248725895121879 -16.387015480546324 0 -16.387015480546324 -29.994928815717685 0 0 0 0 -5.1088119245546295 15.61485120006455 0 15.61485120006455 -23.698912878402552 0 0 0 0 -153.82562245908957 -34.726048909353722 0 -34.726048909353722 19.808021367880428 0 0 0 0 -0.53342934806450693 1.1867253052227515 0 1.1867253052227515 -1.8448169927164955 0 0 0 0 -5.683463053340347 -19.879827529179238 0 -19.879827529179238 -6.1084372422096749 0 0 0 0 -0.347438981061714 64.560819927347438 0 64.560819927347438 44.586108208215137 0 0 0 0 -103.96394311507879 -18.336947081284279 0 -18.336947081284279 19.352861857660173 0 0 0 0 29.043253836201416 28.587921191803389 0 28.587921191803389 35.46139527386913 0 0 0 0 91.226365602018632 36.510048182301944 0 36.510048182301944 -10.396317626917153 0 0 0 0 30.140593050660755 32.31567236778119 0 32.31567236778119 -45.830701231472631 0 0 0 0 27.631366162600898 42.153008367461553 0 42.153008367461553 -0.92195305134737282 0 0 0 0 16.573650437378092 50.398632395692402 0 50.398632395692402 -9.1070388321313658 0 0 0 0 -16.846787702865186 35.989630428379314 0 35.989630428379314 6.0358913722748184 0 0 0 0 31.182632732856007 38.576793436424055 0 38.576793436424055 -4.729973690744373 0 0 0 0 -32.968556551374604 51.705022092613945 0 51.705022092613945 29.169584926826474 0 0 0 0 -76.847269574707752 14.417030397024519 0 14.417030397024519 18.012885557058326 0 0 0 0 2.4994172335301803 4.1647414843440362 0 4.1647414843440362 -5.6398016313073995 0 0 0 0 10.451223764830203 11.496323423696246 0 11.496323423696246 2.4470118643059635 0 0 0 0 18.28519361718827 23.532625517265842 0 23.532625517265842 -3.2538317174371283 0 0 0 0 20.957088324020333 2.7065938439427555 0 2.7065938439427555 -3.9198102144691802 0 0 0 0 20.467241744216153 17.294389440265604 0 17.294389440265604 -1.2025168185482471 0 0 0 0 38.390175481856204 19.371009498061539 0 19.371009498061539 -11.461798598882524 0 0 0 0 0.34585189225610602 9.196124165469012 0 9.196124165469012 -3.3012857630683072 0 0 0 0 5.3019723172991036 7.4319936604576924 0 7.4319936604576924 0.75935310010333978 0 0 0 0 -17.998196654972446 29.021441179258773 0 29.021441179258773 -14.757358307691902 0 0 0 0 -23.477489800189687 40.514572465333913 0 40.514572465333913 -7.2204687549401569 0 0 0 0 2.6263478869623214 7.778287137971347 0 7.778287137971347 -1.2908053569367439 0 0 0 0 6.6561506186617407 15.551179282830162 0 15.551179282830162 -4.2482343441261037 0 0 0 0 15.309526197303057 14.411493383594916 0 14.411493383594916 0.67058827125765674 0 0 0 0 16.988519122125581 29.96578267091536 0 29.96578267091536 -3.8177746119849871 0 0 0 0 15.499720032516962 13.764912125912815 0 13.764912125912815 -4.2067244984791614 0 0 0 0 -4.3087159942278195 7.9846828715052656 0 7.9846828715052656 -2.4775253578291228 0 0 0 0 3.0473575224077649 10.255490866640685 0 10.255490866640685 -4.4804444179353595 0 0 0 0 -4.4380639227147185 16.147247069030072 0 16.147247069030072 -2.0867779060008615 0 0 0 0 7.0682355526470104 6.9330256538395219 0 6.9330256538395219 -0.22565631598857294 0 0 0 0 7.4983228266000879 15.772210907230146 0 15.772210907230146 -31.853070206459961 0 0 0 0 138.01410524035236 87.627110459021424 0 87.627110459021424 -4.9199417311720026 0 0 0 0 10.603064053341768 84.499851360807952 0 84.499851360807952 84.428583092561894 0 0 0 0 42.521847487427294 8.6684131455149327 0 8.6684131455149327 3.5625588376219639 0 0 0 0 0.61211312426335418 2.9748712229096572 0 2.9748712229096572 0.49918793180754761 0 0 0 0 11.026790314493837 15.979116689556122 0 15.979116689556122 -34.290301049670234 0 0 0 0 5.2657142137968549 20.315681056018548 0 20.315681056018548 -21.414970934043595 0 0 0 0 -10.047086802390368 28.801320188531463 0 28.801320188531463 -22.841150488462517 0 0 0 0 12.219542165261373 18.903792281222195 0 18.903792281222195 -18.769175380704837 0 0 0 0 13.599435882404578 5.1867535439465655 0 5.1867535439465655 0.047576585347997025 0 0 0 0 -26.301422754703935 49.314396512429994 0 49.314396512429994 111.09181153946338 0 0 0 0 -1.1239168166603122 -3.0752919219785326 0 -3.0752919219785326 13.623928714559952 0 0 0 0 1.852410253607701 1.9191848712117903 0 1.9191848712117903 2.9319285007875919 0 0 0 0 98.449449079098883 39.287468242368789 0 39.287468242368789 -22.112268589902669 0 0 0 0 96.975338039331291 16.254858618388425 0 16.254858618388425 4.5853159427028913 0 0 0 0 4.0849437149238756 7.446314923316379 0 7.446314923316379 6.762147411552796 0 0 0 0 -0.54602339029013081 8.1989343364914387 0 8.1989343364914387 -6.5350810268756021 0 0 0 0 2.6546018142785215 17.466340828328839 0 17.466340828328839 -5.1742838266363833 0 0 0 0 -1.637324809626989 28.865222340125001 0 28.865222340125001 -13.259971699164453 0 0 0 0 3.1386916998278025 12.378990222123861 0 12.378990222123861 1.7602627968935849 0 0 0 0 8.3573103723047097 12.966469180468266 0 12.966469180468266 -8.2508834625286909 0 0 0 0 15.455629079304344 16.392653908266652 0 16.392653908266652 -0.5962860947693116 0 0 0 0 7.7877916902070865 11.678362812177511 0 11.678362812177511 0.85672890703426674 0 0 0 0 14.871559764089398 11.023561981989587 0 11.023561981989587 -0.93139774291466892 0 0 0 0 0.97324088337882131 19.41479159616847 0 19.41479159616847 -1.2658107484967331 0 0 0 0 0.60927438177382243 4.9341986248726677 0 4.9341986248726677 -7.3986258939323797 0 0 0 0 -3.4801308523997037 8.0469435306669759 0 8.0469435306669759 -1.0327196737346185 0 0 0 0 7.6847495024085219 14.028827229849412 0 14.028827229849412 -5.9144875038077771 0 0 0 0 10.51735344253709 2.4944852675510401 0 2.4944852675510401 -8.1311002815711717 0 0 0 0 -0.27669618270009266 1.1847014477992905 0 1.1847014477992905 1.8690477179743326 0 0 0 0 18.991497350361897 12.521077831523144 0 12.521077831523144 3.5490791877382435 0 0 0 0 -4.32387486751702 -3.3011460422505365 0 -3.3011460422505365 -18.393789681744238 0 0 0 0 -4.0396911483604185 6.6050170934797166 0 6.6050170934797166 -0.21258277681045001 0 0 0 0 -6.5705225527499564 8.7974934167612489 0 8.7974934167612489 -0.50585426337109141 0 0 0 0 13.778882477272418 13.730277472903254 0 13.730277472903254 3.6462884467910044 0 0 0 0 1.2144904456323538 4.9305636071909449 0 4.9305636071909449 -4.9267768906364253 0 0 0 0 8.0717729203024646 1.8884960065242922 0 1.8884960065242922 -8.1783711701427819 0 0 0 0 11.067448398814349 7.6952413933099706 0 7.6952413933099706 1.6522723935704562 0 0 0 0 12.25441114910609 18.210433778449442 0 18.210433778449442 8.9090366897344211 0 0 0 0 9.1730043672614556 22.328602578005302 0 22.328602578005302 13.717830153949762 0 0 0 0 17.740115285557295 21.652927798849305 0 21.652927798849305 12.25638766647171 0 0 0 0 23.592041694494583 39.827494152166764 0 39.827494152166764 32.1628286755913 0 0 0 0 13.63421928009393 26.188081892816626 0 26.188081892816626 20.075511570474191 0 0 0 0 5.5412246239429805 11.65704920367989 0 11.65704920367989 -3.5744858439356904 0 0 0 0 3.9255946963112365 18.019907492941911 0 18.019907492941911 -1.368421100807609 0 0 0 0 8.1513708114980545 12.204422716100453 0 12.204422716100453 6.0736635603861941 0 0 0 0 14.706600548663118 27.196600258765102 0 27.196600258765102 16.600573195666584 0 0 0 0 9.9662565793679505 4.4639465683570734 0 4.4639465683570734 6.0801582451349532 0 0 0 0 8.4634800059939153 19.307629672062831 0 19.307629672062831 12.357281798163967 0 0 0 0 14.899790810351988 17.402374817651435 0 17.402374817651435 11.144080865280557 0 0 0 0 22.576244019648584 24.941881874130559 0 24.941881874130559 13.262413561857102 0 0 0 0 17.372826007986987 27.809289463491041 0 27.809289463491041 21.908765723579563 0 0 0 0 20.716456350719454 23.921921957241466 0 23.921921957241466 18.205691126429883 0 0 0 0 20.075366037081039 34.745689491375742 0 34.745689491375742 25.453801713678331 0 0 0 0 22.664318852472206 25.471406559152456 0 25.471406559152456 15.957764081664209 0 0 0 0 29.002977569540235 30.35406562827302 0 30.35406562827302 19.936201038277432 0 0 0 0 31.808138745360338 33.250361249887646 0 33.250361249887646 21.703929456101832 0 0 0 0 34.077157122467611 49.848834103726404 0 49.848834103726404 30.700803798423294 0 0 0 0 23.303417405421442 42.053149318291617 0 42.053149318291617 26.103745763033658 0 0 0 0 39.689695567489252 62.868370588684229 0 62.868370588684229 49.604957335308654 0 0 0 0 3.6867087546631865 26.399181084951977 0 26.399181084951977 55.341337545956776 0 0 0 0 4.9349600328932866 10.16224930298813 0 10.16224930298813 23.912261982281052 0 0 0 0 126.60946624538428 163.49350479947498 0 163.49350479947498 112.83801380435762 0 0 0 0 135.79579318022479 83.556642063396794 0 83.556642063396794 6.2392260327551412 0 0 0 0 34.162649976904049 79.894562256580912 0 79.894562256580912 38.134660239800724 0 0 0 0 33.880046555039371 29.801903868295085 0 29.801903868295085 0.029949249045330362 0 0 0 0 92.391235077234342 41.303682484347974 0 41.303682484347974 -3.0159517357624281 0 0 0 0 78.598146500641178 55.167944835266098 0 55.167944835266098 -7.7813482791589195 0 0 0 0 72.187788999919576 57.444576553243678 0 57.444576553243678 22.042201493554785 0 0 0 0 64.444320860849984 32.520380077587561 0 32.520380077587561 15.750083188115241 0 0 0 0 0.71870742272389165 -0.10626250478385391 0 -0.10626250478385391 -1.0598872361891551 0 0 0 0 0.56500594841841156 -0.14705983028444347 0 -0.14705983028444347 -0.62052786344915489 0 0 0 0 68.064634220831522 3.4917854856212216 0 3.4917854856212216 -43.615315145532804 0 0 0 0 82.79790933788081 62.271509648398933 0 62.271509648398933 15.941085898817619 0 0 0 0 61.931347126544097 36.028912752696669 0 36.028912752696669 -16.037636565421053 0 0 0 0 0.71860974865103344 47.584242473969425 0 47.584242473969425 -6.3255084222487312 0 0 0 0 20.698593181352635 24.577409648254616 0 24.577409648254616 14.543107789704663 0 0 0 0 35.976778235715756 29.696960119552386 0 29.696960119552386 15.93248182308389 0 0 0 0 47.470996347702567 41.728518822096703 0 41.728518822096703 18.52416948823884 0 0 0 0 40.902550512299968 39.569094266717912 0 39.569094266717912 18.231926064076106 0 0 0 0 27.585924243550835 38.097233513908577 0 38.097233513908577 27.212276466805633 0 0 0 0 24.139416151967453 28.68968168308038 0 28.68968168308038 21.876297732258536 0 0 0 0 25.005246855658697 32.051238636731796 0 32.051238636731796 21.435102590075985 0 0 0 0 28.447773763531586 25.921693000378582 0 25.921693000378582 16.796157356759068 0 0 0 0 0.085672901665363455 0.11128186350133262 0 0.11128186350133262 -0.89165735401306279 0 0 0 0 44.426693298828468 28.852532300239545 0 28.852532300239545 9.6799002761290467 0 0 0 0 -59.483592961152681 12.399478679178173 0 12.399478679178173 23.682199027993192 0 0 0 0 -81.029450419036948 44.509287435801525 0 44.509287435801525 -0.023310083797241532 0 0 0 0 32.236774572393188 33.385573367428151 0 33.385573367428151 16.541510768631269 0 0 0 0 26.692392190303508 35.572947422017933 0 35.572947422017933 15.802793836031924 0 0 0 0 34.590009260935403 16.656537583571662 0 16.656537583571662 -41.580201723048049 0 0 0 0 -149.66896732093278 105.68466255199837 0 105.68466255199837 -71.141026410079576 0 0 0 0 0.048026508794009715 -0.050085247373436559 0 -0.050085247373436559 -0.43544277546754984 0 0 0 0 86.105554185135588 33.206840717537489 0 33.206840717537489 -6.1603133445269123 0 0 0 0 36.334351739519207 64.241328369400549 0 64.241328369400549 -25.511306437387248 0 0 0 0 -121.91049854841276 104.2020131073441 0 104.2020131073441 -12.00791367735178 0 0 0 0 -117.52232164074081 31.121151642156391 0 31.121151642156391 3.4108351038448745 0 0 0 0 -367.58623499058558 60.17785602162985 0 60.17785602162985 17.343761519039617 0 0 0 0 -40.167435259261765 114.11270541889871 0 114.11270541889871 -195.24423382649093 0 0 0 0 -376.24298534345144 76.779959409004732 0 76.779959409004732 60.411066445351025 0 0 0 0 -1.420402859123687 1.1809889693570419 0 1.1809889693570419 -1.3007486474581285 0 0 0 0 -411.291087850037 -149.17804087652439 0 -149.17804087652439 -43.638517796583983 0 0 0 0 -146.48135426784847 133.28859510847178 0 133.28859510847178 39.180153423320007 0 0 0 0 -35.302055373334952 101.97996594452616 0 101.97996594452616 16.754476222707808 0 0 0 0 -62.10812197869609 81.733321775041986 0 81.733321775041986 18.144389462622712 0 0 0 0 -157.34103000351024 20.4354700367021 0 20.4354700367021 41.520200244538501 0 0 0 0 -99.422234813606337 45.998690862797957 0 45.998690862797957 28.658970278815104 0 0 0 0 -206.94864642183529 -0.13664711083220027 0 -0.13664711083220027 35.369133265670825 0 0 0 0 -169.83386743330993 -17.864858113383889 0 -17.864858113383889 23.497387264989811 0 0 0 0 -163.11935202739187 -54.094626465923284 0 -54.094626465923284 3.9618496825605689 0 0 0 0 -3.879108514687303 3.6800103974187035 0 3.6800103974187035 -3.3921296978267605 0 0 0 0 -173.4901977683312 -24.290088742726766 0 -24.290088742726766 14.886243630047829 0 0 0 0 29.643269748259627 21.788048354776038 0 21.788048354776038 -18.64158671631958 0 0 0 0 31.347333791519304 14.44051367816337 0 14.44051367816337 1.2762751950649545 0 0 0 0 -30.611645324858728 50.758912309653169 0 50.758912309653169 -38.289235497444679 0 0 0 0 -1.4641808921376622 1.3534402113733055 0 1.3534402113733055 -0.73598348576341266 0 0 0 0 -3.7387223450901423 5.703395169911472 0 5.703395169911472 -6.1159721539244529 0 0 0 0 -30.522025601835594 16.906928356718709 0 16.906928356718709 19.301028045596468 0 0 0 0 0.97236520233673218 8.9762238720704772 0 8.9762238720704772 8.0589495673993952 0 0 0 0 -126.62133330604775 -22.835545951522363 0 -22.835545951522363 12.270409304516761 0 0 0 0 -78.562549250329539 -62.280225063262606 0 -62.280225063262606 2.4983773218446004 0 0 0 0 -93.75270731197088 18.36673993986733 0 18.36673993986733 -22.828340075724782 0 0 0 0 -120.37467844233288 -26.735224162709528 0 -26.735224162709528 -17.351643126512499 0 0 0 0 -119.99338615180204 29.657987985101499 0 29.657987985101499 22.2165978922676 0 0 0 0 -102.43978864541532 25.137224219948621 0 25.137224219948621 10.310640211580903 0 0 0 0 -75.931209208731161 15.161069034087632 0 15.161069034087632 14.065034330386879 0 0 0 0 -91.798521953318414 40.183907059566081 0 40.183907059566081 27.754814608029847 0 0 0 0 -83.764959836609705 43.240317713556578 0 43.240317713556578 19.564297296197765 0 0 0 0 11.20545205991948 -1.6517660220852122 0 -1.6517660220852122 0.57615228318900336 0 0 0 0 -83.899648056645674 -13.818329274907228 0 -13.818329274907228 0.0083542252159531927 0 0 0 0 1.5025869647731085 1.4581609691492616 0 1.4581609691492616 -0.63477272675206819 0 0 0 0 -28.009269364152715 -8.9974576188160427 0 -8.9974576188160427 -0.17689528122855336 0 0 0 0 -32.410039946666075 22.425521742125056 0 22.425521742125056 10.55593433314516 0 0 0 0 -67.103107124416056 22.697615452475475 0 22.697615452475475 17.118916281186102 0 0 0 0 -38.45504366698151 18.609006228677572 0 18.609006228677572 17.695029418882768 0 0 0 0 -65.124601176765282 39.559289982671544 0 39.559289982671544 26.462272046206635 0 0 0 0 -60.317576988660221 42.003398758675758 0 42.003398758675758 18.618074891106517 0 0 0 0 -76.655575526263419 52.87265461437255 0 52.87265461437255 28.735919472052046 0 0 0 0 -65.334777246464 68.643700036796872 0 68.643700036796872 33.894436875385509 0 0 0 0 -80.072441715634341 61.48697000451466 0 61.48697000451466 36.878739423250863 0 0 0 0 -73.635872945011215 56.59604496967313 0 56.59604496967313 31.937274850246467 0 0 0 0 -35.250865482767949 58.363253221459672 0 58.363253221459672 33.992825833993265 0 0 0 0 -39.38359420404413 71.334123177154197 0 71.334123177154197 30.728758852479586 0 0 0 0 -45.800597950920746 73.18706441553968 0 73.18706441553968 29.546046595154621 0 0 0 0 -91.756664291169727 76.777983906253212 0 76.777983906253212 37.340901976957866 0 0 0 0 -105.60092067454752 70.511722739265679 0 70.511722739265679 35.417796289817488 0 0 0 0 -107.38265547992921 51.868695658325919 0 51.868695658325919 27.615140520410932 0 0 0 0 -91.700756775293485 48.712066605276959 0 48.712066605276959 34.557957057506428 0 0 0 0 -77.636666139111185 58.313323688149467 0 58.313323688149467 27.228140199000109 0 0 0 0 54.408051948237699 69.991634108802828 0 69.991634108802828 -4.9890386082888654 0 0 0 0 100.97170441304115 58.120897781578606 0 58.120897781578606 -16.578780711425679 0 0 0 0 88.730599762915517 57.608511656420887 0 57.608511656420887 -2.3759025181734614 0 0 0 0 39.423684737897929 49.118777727299857 0 49.118777727299857 15.144807336560916 0 0 0 0 13.501543378504721 84.481490004534862 0 84.481490004534862 7.723085416928825 0 0 0 0 -19.013153626116946 77.189565922126349 0 77.189565922126349 11.411146025171547 0 0 0 0 59.527913128775253 53.966127931425945 0 53.966127931425945 3.4877929894792032 0 0 0 0 63.357991665114241 66.531418313297308 0 66.531418313297308 20.207943495497602 0 0 0 0 127.98968239572059 66.166019603578206 0 66.166019603578206 1.8960001843042846 0 0 0 0 95.659497521456615 44.986078022656329 0 44.986078022656329 4.5738653162188712 0 0 0 0 128.445907221987 77.214809365710607 0 77.214809365710607 6.1226574678366887 0 0 0 0 0.85448954657024245 7.378000585664525 0 7.378000585664525 -17.124743422100384 0 0 0 0 18.748198336099449 16.290570988163381 0 16.290570988163381 -8.2281641527865759 0 0 0 0 -7.1626068066011044 14.942407493238441 0 14.942407493238441 -6.802006645026168 0 0 0 0 146.3933955364264 62.072386652564091 0 62.072386652564091 4.7285541121727874 0 0 0 0 10.882823607196769 5.4194945348695001 0 5.4194945348695001 -14.680190503051563 0 0 0 0 15.482580310686899 12.288751623695134 0 12.288751623695134 -7.162458707111 0 0 0 0 10.116845989351219 9.7071893003512635 0 9.7071893003512635 3.2135112423835182 0 0 0 0 23.261764929369747 26.145565802264173 0 26.145565802264173 -8.6147303881753032 0 0 0 0 -8.198946488968005 12.435078788523597 0 12.435078788523597 -8.1236792309791142 0 0 0 0 18.007288289537428 20.933975495905997 0 20.933975495905997 -3.3487097187862673 0 0 0 0 21.743539870919449 18.23222994013895 0 18.23222994013895 -15.410829019159792 0 0 0 0 114.71249028608599 44.61739245717672 0 44.61739245717672 -11.50526807182905 0 0 0 0 109.62974343929091 68.522088865357546 0 68.522088865357546 11.903417765977792 0 0 0 0 111.4906907833174 43.010387182977865 0 43.010387182977865 -5.6671458117907605 0 0 0 0 110.44402948104835 45.642503530852991 0 45.642503530852991 -8.7344277388874616 0 0 0 0 114.08703629998945 52.552225635467607 0 52.552225635467607 -5.7429555791204621 0 0 0 0 113.49549862966614 47.495507026506857 0 47.495507026506857 -17.278820569616073 0 0 0 0 104.02223484926799 29.687162050748157 0 29.687162050748157 -1.5702560744612128 0 0 0 0 106.57576522134514 32.109717201679814 0 32.109717201679814 -11.731421197313466 0 0 0 0 120.52232953361363 23.050546948976262 0 23.050546948976262 -28.925373170910461 0 0 0 0 26.229224124304892 34.827484070632636 0 34.827484070632636 15.226083365043451 0 0 0 0 90.363496377343836 44.480722076866186 0 44.480722076866186 10.641865502177097 0 0 0 0 38.12868768167391 20.38711914985015 0 20.38711914985015 -12.351116624977294 0 0 0 0 61.738047234129226 29.253402927281968 0 29.253402927281968 -0.49346908363440889 0 0 0 0 59.516508761918885 29.998814908545228 0 29.998814908545228 0.43490531439783808 0 0 0 0 -8.309231837286525 11.84110889837522 0 11.84110889837522 -7.7026051739260382 0 0 0 0 14.042297771702579 23.748817741685343 0 23.748817741685343 -9.1614310721997754 0 0 0 0 65.262124390155805 39.254929132621328 0 39.254929132621328 9.5777339312389813 0 0 0 0 146.70316803137939 13.51647907323877 0 13.51647907323877 -29.156845515346504 0 0 0 0 80.587255282304795 19.11869042285889 0 19.11869042285889 -5.3626661010785028 0 0 0 0 53.406368688072689 22.945330575181288 0 22.945330575181288 -0.83529002566865529 0 0 0 0 74.320078395632663 -28.756839106508778 0 -28.756839106508778 -23.686240696253662 0 0 0 0 254.65769797757821 70.060156438596096 0 70.060156438596096 -67.43130155953736 0 0 0 0 213.10238642595868 -18.36540604775837 0 -18.36540604775837 -67.708410612784064 0 0 0 0 80.557879634383426 70.868082888535355 0 70.868082888535355 -23.453361524412685 0 0 0 0 140.44697549654484 41.118598703152202 0 41.118598703152202 -30.258832274517772 0 0 0 0 120.70597827872007 77.104180079722482 0 77.104180079722482 -67.68428300546293 0 0 0 0 103.09813158691122 58.750343239334143 0 58.750343239334143 -29.468268091746722 0 0 0 0 73.838205176838528 114.13271153435562 0 114.13271153435562 -8.4846105617598369 0 0 0 0 146.8120952996187 188.23560162286503 0 188.23560162286503 -17.937643933079926 0 0 0 0 -44.939601346852214 136.48449963627422 0 136.48449963627422 6.3302508621636662 0 0 0 0 -52.723483881293078 40.956073959602236 0 40.956073959602236 103.5101805448594 0 0 0 0 227.51236001440157 71.221904491244459 0 71.221904491244459 -52.088610683482329 0 0 0 0 131.55191305576045 -33.212776377446971 0 -33.212776377446971 -57.165145431673238 0 0 0 0 108.04008408134268 74.168426850070773 0 74.168426850070773 16.015471706909011 0 0 0 0 92.161847174149443 46.094214520668174 0 46.094214520668174 -12.055998083138547 0 0 0 0 106.56972165153456 80.352120374919423 0 80.352120374919423 45.212254922786087 0 0 0 0 8.5690022592647104 -1.6177483091595608 0 -1.6177483091595608 -0.4246058429249544 0 0 0 0 221.64021996952241 209.41006544075609 0 209.41006544075609 128.01088493960378 0 0 0 0 2.5517857432942819 -0.92682233710192286 0 -0.92682233710192286 0.47156920434546379 0 0 0 0 51.090453161554251 -77.478269311841359 0 -77.478269311841359 -63.127576413597126 0 0 0 0 163.33432569822071 -35.048812052061294 0 -35.048812052061294 -48.982817222164158 0 0 0 0 -14.517618305480028 24.271196926133825 0 24.271196926133825 8.9634152600719972 0 0 0 0 -3.7137356661041849 20.866952298890737 0 20.866952298890737 0.67665474035720763 0 0 0 0 0.067079530575938406 320.74519688278133 0 320.74519688278133 -348.88801883059932 0 0 0 0 10.014393350626051 64.353340421310349 0 64.353340421310349 0.021587426520000008 0 0 0 0 -5.7834018405883398 16.349621808763914 0 16.349621808763914 -2.4910134953838678 0 0 0 0 -1.1332695501350827 16.512284501073736 0 16.512284501073736 4.3148859001630626 0 0 0 0 -8.2725054038564849 22.551599476420051 0 22.551599476420051 -0.28289084899734007 0 0 0 0 -8.0106242538942958 11.421826087354157 0 11.421826087354157 -6.8572653221818811 0 0 0 0 43.389420110584069 11.969129476676244 0 11.969129476676244 -48.638728371533034 0 0 0 0 3.9429771794984845 21.843454053485402 0 21.843454053485402 -1.8746207186313768 0 0 0 0 -5.3140233238493622 4.5639013155681631 0 4.5639013155681631 -2.4085597234285245 0 0 0 0 -6.1255852982922079 21.10838064746531 0 21.10838064746531 7.9618845438626522 0 0 0 0 -8.1820689154710635 16.785178332333089 0 16.785178332333089 -26.387974104121895 0 0 0 0 0.42057241818901403 0.29485778115306971 0 0.29485778115306971 0.26944876858940603 0 0 0 0 -0.21652514061861439 -19.162597101276333 0 -19.162597101276333 -51.160131450231347 0 0 0 0 -384.38253991606325 501.98657392114183 0 501.98657392114183 -216.6971944591005 0 0 0 0 -2.5011677649297965 0.98828068620378495 0 0.98828068620378495 -0.50664559776306461 0 0 0 0 -28.884408112151505 -5.1629420552171723 0 -5.1629420552171723 14.508861546110893 0 0 0 0 -3.4298908035580098 16.72269996930072 0 16.72269996930072 4.4618422489038494 0 0 0 0 -47.823303457508246 15.03702446716602 0 15.03702446716602 17.800144168093539 0 0 0 0 -30.064050126361053 26.961642736369186 0 26.961642736369186 2.4472879964778258 0 0 0 0 -16.3605684572467 13.76780861228599 0 13.76780861228599 4.397912738220441 0 0 0 0 -0.085694675440208812 17.064186031647523 0 17.064186031647523 -15.580316740501075 0 0 0 0 -14.25430217657231 25.683081609321562 0 25.683081609321562 -6.9377396141162535 0 0 0 0 -7.6261313558898109 19.529492542252228 0 19.529492542252228 -5.9698135512977615 0 0 0 0 -12.147612228965386 14.477945017141593 0 14.477945017141593 -11.567918436116088 0 0 0 0 -4.6078731452580541 19.45805121982994 0 19.45805121982994 -3.0986778437138582 0 0 0 0 14.250203173649425 28.469834209933651 0 28.469834209933651 -5.7635449203771714 0 0 0 0 7.3979475365958933 21.604353306371195 0 21.604353306371195 -3.3323920367420214 0 0 0 0 -0.16463039911104715 30.142553540450535 0 30.142553540450535 -3.8080623852019926 0 0 0 0 -14.185776071512009 30.242352846210451 0 30.242352846210451 2.4807475411171254 0 0 0 0 15.905143364208925 38.629911417564472 0 38.629911417564472 -0.71189857871831919 0 0 0 0 -17.052337317834827 11.553688120156039 0 11.553688120156039 -9.9247737709092689 0 0 0 0 -11.704871587699017 20.869746028362897 0 20.869746028362897 0.1415804326743455 0 0 0 0 -12.626723204826703 19.022603288416121 0 19.022603288416121 -22.716332408940616 0 0 0 0 8.0335619501383917 6.8769718369294424 0 6.8769718369294424 -20.414520128197182 0 0 0 0 0.5826047221362316 0.15337818842772322 0 0.15337818842772322 -0.36668504881433606 0 0 0 0 27.351397076649903 17.260682193021324 0 17.260682193021324 -18.909535360275186 0 0 0 0 2.6599935476679093 17.340048568513339 0 17.340048568513339 -17.029254125859552 0 0 0 0 -20.411814921860241 22.596075102326722 0 22.596075102326722 -13.239707590147191 0 0 0 0 0.77461692500922652 0.31242573785439731 0 0.31242573785439731 -0.30616094476917155 0 0 0 0 -5.5371315539905481 12.736043589986366 0 12.736043589986366 -17.846440783469006 0 0 0 0 -8.0681955422751344 14.976180882451445 0 14.976180882451445 -18.091047686582897 0 0 0 0 -13.403199742946299 16.919936901355413 0 16.919936901355413 -11.136784272624936 0 0 0 0 -34.095396876130053 52.839072847169064 0 52.839072847169064 -6.3452167722753074 0 0 0 0 -36.70536666597809 57.066506330175798 0 57.066506330175798 -8.6874232276559269 0 0 0 0 -29.181376863999503 47.242660791907838 0 47.242660791907838 -2.2317334459894482 0 0 0 0 -31.949754334201316 55.961769364834709 0 55.961769364834709 4.7453402773080597 0 0 0 0 -33.867229053833398 57.437421095349237 0 57.437421095349237 7.4198745157361827 0 0 0 0 -38.26456821652755 46.460946532626622 0 46.460946532626622 6.9548041259222373 0 0 0 0 -37.780446442582161 47.517510466644126 0 47.517510466644126 4.7223524772612109 0 0 0 0 -38.266511973167113 45.994712627138071 0 45.994712627138071 -0.46970828843768686 0 0 0 0 -32.746395970998492 43.216870997109254 0 43.216870997109254 0.82936275800420844 0 0 0 0 -23.600028718373778 41.631557142091879 0 41.631557142091879 -4.1511676389350214 0 0 0 0 -32.917318303513184 40.255645409673889 0 40.255645409673889 -4.1876225636497111 0 0 0 0 10.848020330593954 46.342102094510665 0 46.342102094510665 -17.547690776774743 0 0 0 0 27.324381595100249 83.441562990394686 0 83.441562990394686 -37.140203249151455 0 0 0 0 12.869287773768065 50.301058780004496 0 50.301058780004496 -15.420102251337994 0 0 0 0 -8.734743151641851 58.501888172074814 0 58.501888172074814 -21.102166675129411 0 0 0 0 -28.460552182009906 60.823938141591498 0 60.823938141591498 -17.043703274086965 0 0 0 0 -38.553271971211416 69.310292919776657 0 69.310292919776657 -21.095842582889418 0 0 0 0 -23.905583272463673 57.900333826175938 0 57.900333826175938 -17.84260877637098 0 0 0 0 -38.83091778799735 68.62152382214299 0 68.62152382214299 -26.254178334831522 0 0 0 0 -12.708899876343821 83.449719971289596 0 83.449719971289596 -19.747513139225703 0 0 0 0 -40.771090497114983 81.820411267867485 0 81.820411267867485 -40.61982190566232 0 0 0 0 -32.652024530730046 61.81411293554379 0 61.81411293554379 -36.086236205504974 0 0 0 0 -36.87965612905964 74.665644358002282 0 74.665644358002282 -26.267152881030711 0 0 0 0 -31.591529881462975 58.93735141813022 0 58.93735141813022 -24.643814074745023 0 0 0 0 -31.711078775318128 65.878672038676086 0 65.878672038676086 -9.9737389727661139 0 0 0 0 -30.616400300574526 58.722991477015171 0 58.722991477015171 -9.9437217822232924 0 0 0 0 -18.191381818656282 64.362994794615588 0 64.362994794615588 -14.353419572156781 0 0 0 0 -16.278196366634802 68.796900745529456 0 68.796900745529456 -23.646710974208872 0 0 0 0 -4.5153857408445219 63.71737787978509 0 63.71737787978509 -24.771877079712795 0 0 0 0 -5.6664908623615702 64.162401534817036 0 64.162401534817036 -17.668703589356483 0 0 0 0 -0.55113945000812237 59.057422671827453 0 59.057422671827453 -16.29005994765248 0 0 0 0 -4.3097967423472028 70.524119978072349 0 70.524119978072349 -11.824299966170656 0 0 0 0 14.039767759969891 70.53036235743366 0 70.53036235743366 -7.9758046087972616 0 0 0 0 2.2589305244873685 62.987140948891465 0 62.987140948891465 -1.1257963279485921 0 0 0 0 -0.81914983886599657 73.669407129972569 0 73.669407129972569 5.5056051964984363 0 0 0 0 -19.87360636033327 67.762085051189388 0 67.762085051189388 -2.548373342029663 0 0 0 0 -17.866265215069689 61.729136816951723 0 61.729136816951723 -2.8537695338891353 0 0 0 0 7.8444878980130852 26.980383170461664 0 26.980383170461664 -22.811991201702767 0 0 0 0 13.425161142003617 38.053643620521143 0 38.053643620521143 -16.664012536102746 0 0 0 0 2.2504974174748895 24.204923598547794 0 24.204923598547794 -24.087423111461248 0 0 0 0 4.7680464866489274 48.476641909112914 0 48.476641909112914 -22.368902537567465 0 0 0 0 5.9949617427878366 51.386143401655318 0 51.386143401655318 -16.05999032651016 0 0 0 0 41.947714815842119 64.732315436243425 0 64.732315436243425 -12.060017239654371 0 0 0 0 24.408762252271117 50.203210217912783 0 50.203210217912783 -23.619043243058968 0 0 0 0 48.179444841406053 27.500159016755219 0 27.500159016755219 -36.078236030574772 0 0 0 0 -11.777298472652092 -0.46435874478356709 0 -0.46435874478356709 -18.038805261216112 0 0 0 0 118.41681422598077 15.243955962627865 0 15.243955962627865 -19.122158140713509 0 0 0 0 31.487378059257935 59.894943793215134 0 59.894943793215134 -0.10232685938353825 0 0 0 0 30.925812306331196 82.200607982878907 0 82.200607982878907 11.63712748231228 0 0 0 0 77.067990553080563 86.409286002291992 0 86.409286002291992 12.95961917690056 0 0 0 0 14.147357538423648 87.243409431818009 0 87.243409431818009 84.269810577367025 0 0 0 0 13.430163434619885 82.094690850033885 0 82.094690850033885 47.309941600127786 0 0 0 0 -3.0700635485582097 60.21096576284981 0 60.21096576284981 111.99549379923337 0 0 0 0 17.485318579027989 68.44223331194371 0 68.44223331194371 74.277303372604365 0 0 0 0 35.151173046340318 111.48917263073599 0 111.48917263073599 174.31210604097578 0 0 0 0 184.80682735806056 55.891701180551649 0 55.891701180551649 5.1899429771856376 0 0 0 0 0.87888799131679551 1.0253208334212118 0 1.0253208334212118 0.91835942502775936 0 0 0 0 94.351032637360731 113.6836917141145 0 113.6836917141145 55.372679195792443 0 0 0 0 80.46382302755228 95.266872982074347 0 95.266872982074347 47.174528872623341 0 0 0 0 167.3901243601922 197.96904572975109 0 197.96904572975109 154.45849949264448 0 0 0 0 -21.57200855035444 63.848979139024777 0 63.848979139024777 10.645767517996319 0 0 0 0 -20.706842547258361 60.932052469669543 0 60.932052469669543 19.075756206064398 0 0 0 0 -6.136029627868993 67.6111229879034 0 67.6111229879034 36.600022884539612 0 0 0 0 -6.185765925247324 68.707826760175521 0 68.707826760175521 22.829099202888756 0 0 0 0 -27.360290678712772 54.983560376474088 0 54.983560376474088 43.368735952775751 0 0 0 0 -7.532107791231283 44.262684901814282 0 44.262684901814282 64.196100605256106 0 0 0 0 -19.581590516291271 52.730927211404833 0 52.730927211404833 65.562247701589513 0 0 0 0 -26.702195487360768 34.844892316623373 0 34.844892316623373 28.506468322198089 0 0 0 0 -36.799085605738014 53.547929482772247 0 53.547929482772247 19.908362331452736 0 0 0 0 -27.744043078439972 51.115681088676865 0 51.115681088676865 11.827427917227396 0 0 0 0 -31.992036435077807 34.892698592780562 0 34.892698592780562 32.02424480548234 0 0 0 0 -23.429427899639393 -0.73739214079762405 0 -0.73739214079762405 -16.252793239158564 0 0 0 0 -35.515983595844318 27.503909874028977 0 27.503909874028977 17.50860635958793 0 0 0 0 -20.554115272086165 17.53899883066174 0 17.53899883066174 31.018761172061204 0 0 0 0 -5.4267220374358658 3.3379147621235461 0 3.3379147621235461 44.338563838428399 0 0 0 0 -13.59791895086255 -36.499017928387275 0 -36.499017928387275 -22.688686408439935 0 0 0 0 -13.402890956017472 3.3116287224420375 0 3.3116287224420375 -22.054057535277025 0 0 0 0 29.282632112147894 89.917336624309428 0 89.917336624309428 140.70577505531583 0 0 0 0 138.10013781214957 -20.322045805752168 0 -20.322045805752168 -4.0431786946846842 0 0 0 0 0.19804392723308339 0.42823363974724415 0 0.42823363974724415 -0.25799880748886039 0 0 0 0 -27.106726634763618 87.861580359574873 0 87.861580359574873 239.57246268766721 0 0 0 0 108.05355550095055 47.910367365567254 0 47.910367365567254 48.655035135558137 0 0 0 0 74.874818564884663 -24.223395451879696 0 -24.223395451879696 81.778265639757592 0 0 0 0 31.956124363347499 22.934250535475257 0 22.934250535475257 35.371099261232303 0 0 0 0 7.6307561208604966 9.2938434655425226 0 9.2938434655425226 133.73811856286193 0 0 0 0 -29.631288749636951 26.010417490084365 0 26.010417490084365 131.0103768680201 0 0 0 0 10.122096185114628 17.125004454889222 0 17.125004454889222 75.427330014303152 0 0 0 0 -7.2999161863608606 10.832591939273698 0 10.832591939273698 94.327503101831098 0 0 0 0 -9.6610376132312012 12.518424644550123 0 12.518424644550123 -11.68563103901306 0 0 0 0 36.606603219052886 -23.473286719218777 0 -23.473286719218777 16.021319098304048 0 0 0 0 1.3670030850089461 26.214322594764781 0 26.214322594764781 66.090743933124031 0 0 0 0 41.800613846286979 43.774376413235586 0 43.774376413235586 17.905184184352038 0 0 0 0 -1.8662800220239681 5.2634520121495854 0 5.2634520121495854 -1.3511997621009364 0 0 0 0 36.15558506730531 -23.255394448742663 0 -23.255394448742663 -135.75060954728451 0 0 0 0 -19.287175352639679 -19.79393692900976 0 -19.79393692900976 -1.0222054042587843 0 0 0 0 11.802785018026952 48.47793473972888 0 48.47793473972888 182.14336325664726 0 0 0 0 -1.2851597702147046 58.184801675232848 0 58.184801675232848 198.55806033546924 0 0 0 0 -1.2439896022252999 4.1525568303216698 0 4.1525568303216698 -0.94896037294383273 0 0 0 0 2.8608118266840847 -21.138645888241172 0 -21.138645888241172 -95.237520659257825 0 0 0 0 24.199999549427048 73.786485035233 0 73.786485035233 239.53993531592619 0 0 0 0 11.755496851509264 48.323477695052958 0 48.323477695052958 204.54400695247023 0 0 0 0 28.296461644331657 65.820057884484186 0 65.820057884484186 254.17829701791288 0 0 0 0 35.14005571250209 116.09304977027341 0 116.09304977027341 225.60033063693936 0 0 0 0 53.72581743237879 92.603080943307759 0 92.603080943307759 195.55591913008993 0 0 0 0 73.023281306959234 119.08023488884464 0 119.08023488884464 163.76523717475493 0 0 0 0 10.771302997815383 119.76076384084126 0 119.76076384084126 276.41967880907669 0 0 0 0 61.003240841121624 110.54699629029892 0 110.54699629029892 277.99185911032259 0 0 0 0 -1.1064535423123516 2.9417746244143235 0 2.9417746244143235 -0.46097584661687385 0 0 0 0 3.6208565762303806 117.43621856535492 0 117.43621856535492 371.18681801919865 0 0 0 0 -11.912628955355387 1.2807929287646402 0 1.2807929287646402 -82.379064055040544 0 0 0 0 -24.854085432151805 29.93108240057245 0 29.93108240057245 -30.866157154647226 0 0 0 0 -25.736733866428381 23.855846563971909 0 23.855846563971909 -68.415680522972252 0 0 0 0 -41.929720286015709 62.950517082123952 0 62.950517082123952 -28.500273160129836 0 0 0 0 -38.311348507053594 37.517257601425626 0 37.517257601425626 -3.743146154394708 0 0 0 0 -32.760143538256898 30.209201901325287 0 30.209201901325287 -30.244104101799167 0 0 0 0 -39.682242717421559 40.298234697218504 0 40.298234697218504 5.8504539599500731 0 0 0 0 142.10828941553791 51.404254024353577 0 51.404254024353577 -19.564025943478555 0 0 0 0 47.507818121209311 26.269102403663055 0 26.269102403663055 -12.395413733671376 0 0 0 0 -49.219242101131385 34.571949553181184 0 34.571949553181184 20.17473854637592 0 0 0 0 3.9252589807792901 24.965736703456969 0 24.965736703456969 -4.0160767010675045 0 0 0 0 21.751393205372551 43.468227910514088 0 43.468227910514088 -230.45420170978196 0 0 0 0 -4.3793082047473035 123.0160077860819 0 123.0160077860819 -78.520735696505653 0 0 0 0 78.086608267951306 -19.944147252315815 0 -19.944147252315815 286.85631464604012 0 0 0 0 -10.544445761814586 91.193838193535157 0 91.193838193535157 151.51943946342908 0 0 0 0 113.00985113138358 277.84388175493405 0 277.84388175493405 338.97353142151223 0 0 0 0 48.132232777914851 207.72522597825355 0 207.72522597825355 275.45523930989293 0 0 0 0 312.47101017399177 255.53738953493303 0 255.53738953493303 164.09360128259868 0 0 0 0 -24.675944657336004 122.59185764254585 0 122.59185764254585 574.70346655749563 0 0 0 0 -0.56439009294242659 0.95982960773867632 0 0.95982960773867632 0.057707224483669606 0 0 0 0 39.854118218034728 231.51660529077162 0 231.51660529077162 300.21414755198202 0 0 0 0 45.711097166802119 49.52311878196997 0 49.52311878196997 54.135084987833579 0 0 0 0 4.2851314500039734 80.85643348526628 0 80.85643348526628 280.48302322000018 0 0 0 0 171.62444726891238 118.53450495481707 0 118.53450495481707 51.234435269056121 0 0 0 0 130.0783978545096 225.27779143913722 0 225.27779143913722 198.98265423830344 0 0 0 0 49.22455189980974 77.140691220477493 0 77.140691220477493 153.00228402261928 0 0 0 0 31.068977121490207 -33.346091525503653 0 -33.346091525503653 14.997843941306201 0 0 0 0 78.967828666849528 22.41951216936468 0 22.41951216936468 25.637955930305907 0 0 0 0 -20.643832452141851 -2.0411397125262738 0 -2.0411397125262738 55.385162139202293 0 0 0 0 -112.54701893241236 45.240887608006233 0 45.240887608006233 -31.223155692896398 0 0 0 0 -86.89981007638653 -23.059624589970554 0 -23.059624589970554 43.626597742797458 0 0 0 0 -70.324110383447078 -55.543562603368628 0 -55.543562603368628 -65.672987093214033 0 0 0 0 -37.441929094876514 16.587119620003705 0 16.587119620003705 28.429104451293824 0 0 0 0 -114.88292701252658 6.9160036744870013 0 6.9160036744870013 61.368970817857189 0 0 0 0 -205.64208914759502 -78.31604972277637 0 -78.31604972277637 34.693688676727106 0 0 0 0 19.483420112773274 15.724826887593736 0 15.724826887593736 -114.90959787055181 0 0 0 0 0.044084663193270313 -0.26245257392540067 0 -0.26245257392540067 -0.64080045269162156 0 0 0 0 -30.864875492216925 -6.9044291844220425 0 -6.9044291844220425 115.11948585857681 0 0 0 0 0.14759163718514823 0.38989075540567564 0 0.38989075540567564 3.7025737343090057 0 0 0 0 -42.637455469141969 -51.711790595798448 0 -51.711790595798448 59.560134885578009 0 0 0 0 -56.386675245767037 167.77733580948006 0 167.77733580948006 469.89505668272614 0 0 0 0 -118.64259111604269 -75.030751724526453 0 -75.030751724526453 338.40146301779532 0 0 0 0 -53.935187263225998 -9.4320861156625142 0 -9.4320861156625142 79.227496599092774 0 0 0 0 -73.275047266278307 -12.127403541175227 0 -12.127403541175227 233.52480572476634 0 0 0 0 -21.995742724218303 -9.0136457616629286 0 -9.0136457616629286 77.493077550094313 0 0 0 0 -17.664182997444641 0.57509691192990431 0 0.57509691192990431 53.153577702783878 0 0 0 0 -30.217099740147205 -37.336174831926655 0 -37.336174831926655 1.4448389467215748 0 0 0 0 -3.9408934580371806 19.064585160598654 0 19.064585160598654 61.27830635002465 0 0 0 0 -20.842431772902273 39.913720776880382 0 39.913720776880382 45.292853066472162 0 0 0 0 -39.990063608401215 45.141541840727768 0 45.141541840727768 55.34342396194188 0 0 0 0 -26.898935703429743 32.81103390161752 0 32.81103390161752 65.097577346523622 0 0 0 0 -38.646774821785129 52.199641624793458 0 52.199641624793458 46.892978399780986 0 0 0 0 -31.657951452732959 37.950083547583745 0 37.950083547583745 62.523024730504403 0 0 0 0 -51.799000680103745 54.63503619448511 0 54.63503619448511 70.737258757021664 0 0 0 0 -57.607393456281443 67.891165591618119 0 67.891165591618119 57.044604798373257 0 0 0 0 -45.324945137139366 27.053442796873242 0 27.053442796873242 65.286167842120904 0 0 0 0 -40.725935125902197 9.3227614681190971 0 9.3227614681190971 103.86287391091901 0 0 0 0 -36.610246506936619 83.546892112037312 0 83.546892112037312 48.129246218209119 0 0 0 0 -62.725832169365901 75.596051012160501 0 75.596051012160501 48.891055071246228 0 0 0 0 -60.362632781789671 59.14774830346505 0 59.14774830346505 93.888300817887284 0 0 0 0 -66.997847107891175 69.743729032523333 0 69.743729032523333 135.52228401453976 0 0 0 0 -56.921776332841546 78.160660217623445 0 78.160660217623445 49.78379431675603 0 0 0 0 -55.342514340711347 96.079089434703974 0 96.079089434703974 6.6379933799016726 0 0 0 0 -69.575534860997323 118.68793980130431 0 118.68793980130431 27.349316746673139 0 0 0 0 -41.618520789884315 101.84130764871315 0 101.84130764871315 7.3809578506752587 0 0 0 0 -48.672224458550772 124.7375829409275 0 124.7375829409275 -45.313907202184055 0 0 0 0 -53.894206171515407 115.29176135214175 0 115.29176135214175 -25.339768942783849 0 0 0 0 -64.03111554575662 118.14504372070041 0 118.14504372070041 67.687591910862011 0 0 0 0 4.1901275042029056 110.76868565793325 0 110.76868565793325 -45.983206855804383 0 0 0 0 -2.0951393170448682 96.893805779022841 0 96.893805779022841 9.841911560499284 0 0 0 0 49.877816414506924 138.74309409656416 0 138.74309409656416 43.364655405801386 0 0 0 0 76.685275523369455 94.613045486562896 0 94.613045486562896 -24.998062264674445 0 0 0 0 62.904521126159125 74.806911615514764 0 74.806911615514764 8.4066273763528443 0 0 0 0 107.25464174154774 135.38033014977395 0 135.38033014977395 59.778587597134901 0 0 0 0 352.54127995306135 199.26528780906801 0 199.26528780906801 154.84018006626502 0 0 0 0 94.203047237389001 120.86032078801509 0 120.86032078801509 46.628911692849215 0 0 0 0 65.308582750470123 92.873050931815669 0 92.873050931815669 116.99247803637445 0 0 0 0 -43.719503730636461 93.564894583930254 0 93.564894583930254 88.034267400713361 0 0 0 0 -59.87165135783016 69.844490833771488 0 69.844490833771488 167.16768778108326 0 0 0 0 -46.450048682319931 117.19291598374485 0 117.19291598374485 214.14500539997971 0 0 0 0 84.377481346203012 85.217575601870521 0 85.217575601870521 -12.548864195436181 0 0 0 0 -11.804667522000273 0.1918164048483959 0 0.1918164048483959 21.246723652645414 0 0 0 0 -5.4467062301700935 69.283526163162605 0 69.283526163162605 -19.992020791186405 0 0 0 0 -21.501586036557455 57.996497633664148 0 57.996497633664148 -19.223466374232885 0 0 0 0 -62.623927164004726 132.72126135024928 0 132.72126135024928 62.480623892226504 0 0 0 0 -51.578735868877629 79.719414580327793 0 79.719414580327793 34.056655934240553 0 0 0 0 -64.516130151301695 69.828367382436682 0 69.828367382436682 26.503796108837378 0 0 0 0 -28.96157581483476 76.204591517227527 0 76.204591517227527 34.53318284430793 0 0 0 0 -6.5142310590364332 78.232121895048351 0 78.232121895048351 5.023808397945686 0 0 0 0 -39.560606413291453 62.435240828515816 0 62.435240828515816 34.557275714483694 0 0 0 0 -36.508075178772742 60.050251293999281 0 60.050251293999281 36.420405298096739 0 0 0 0 -46.468273011685369 60.566372440463056 0 60.566372440463056 39.853695846340997 0 0 0 0 -50.218911335645316 75.622043727575146 0 75.622043727575146 29.137887146814137 0 0 0 0 -45.348425727813265 69.717644660405313 0 69.717644660405313 26.691899046914841 0 0 0 0 -49.614341887552655 70.612128639275397 0 70.612128639275397 22.280164333527864 0 0 0 0 -48.829886209959568 86.487842436295523 0 86.487842436295523 2.5437088743674394 0 0 0 0 -50.494155687644707 81.520804136172956 0 81.520804136172956 29.942885301491742 0 0 0 0 -31.978365398653295 87.54127174293717 0 87.54127174293717 -20.521023821715062 0 0 0 0 -34.442352217798543 94.557462839477466 0 94.557462839477466 -40.404855743010557 0 0 0 0 -44.78304319081326 75.39172808683179 0 75.39172808683179 -11.612953507029488 0 0 0 0 -50.345163144366779 77.190744956290473 0 77.190744956290473 3.7061742702953779 0 0 0 0 -49.060510759944066 76.762416208773402 0 76.762416208773402 3.6864494483161252 0 0 0 0 -179.52110543996378 70.014578903830625 0 70.014578903830625 36.075918161327536 0 0 0 0 -27.051098323836413 46.424633199228992 0 46.424633199228992 -21.210507429233303 0 0 0 0 -95.426230311828931 38.660296057397318 0 38.660296057397318 -19.177364238814334 0 0 0 0 113.45041138219767 50.361384352017012 0 50.361384352017012 12.995817763913465 0 0 0 0 115.30661172558212 -6.7465180067802066 0 -6.7465180067802066 23.733278305515341 0 0 0 0 93.524485406882832 111.59532709741052 0 111.59532709741052 71.902414603135185 0 0 0 0 0.19213335128028863 0.70802499581213496 0 0.70802499581213496 1.1122436969991156 0 0 0 0 328.14278870248836 69.631851434661257 0 69.631851434661257 -14.783199396548298 0 0 0 0 107.66347458251494 57.582973609191868 0 57.582973609191868 -4.5915221226023277 0 0 0 0 98.153074453010049 22.664221375357556 0 22.664221375357556 -97.985857356190536 0 0 0 0 87.083834238270299 -13.442703014005644 0 -13.442703014005644 35.198319371675097 0 0 0 0 216.18058114432006 -0.41858587121578239 0 -0.41858587121578239 -14.380600646707535 0 0 0 0 0.31671510815027726 1.8830826850000726 0 1.8830826850000726 3.6084970292409224 0 0 0 0 -57.78926385495862 35.474837834530149 0 35.474837834530149 -17.154431118056891 0 0 0 0 12.525348145232329 2.9541183184528563 0 2.9541183184528563 -7.5230127590984921 0 0 0 0 -6.8124639310231032 25.296949596095601 0 25.296949596095601 15.768048168230962 0 0 0 0 -7.8057899083232769 14.74272917960343 0 14.74272917960343 3.8251885142926767 0 0 0 0 -10.850702226475732 56.624652019739187 0 56.624652019739187 -28.281993496178984 0 0 0 0 -5.8185498154653033 11.547805825727664 0 11.547805825727664 8.9242865845344568 0 0 0 0 -40.789841437969244 71.428805493100754 0 71.428805493100754 -40.353599781128651 0 0 0 0 -3.2840727307461748 55.879248903667758 0 55.879248903667758 -33.956398914622696 0 0 0 0 -13.705925842166153 79.147141662419926 0 79.147141662419926 -79.228298260051815 0 0 0 0 -24.626823024715122 98.292178574584796 0 98.292178574584796 -45.150421512661524 0 0 0 0 1.7756123750223196 31.581781723323274 0 31.581781723323274 -82.880624895064102 0 0 0 0 2.9297041387917488 25.317821785977685 0 25.317821785977685 -65.580227639121404 0 0 0 0 -9.6653704400941933 40.551583874020253 0 40.551583874020253 -50.674557691368136 0 0 0 0 -0.085600892667214268 2.3849189009409848 0 2.3849189009409848 -1.5893864763940719 0 0 0 0 69.117428235323132 220.05461246208779 0 220.05461246208779 112.9660416322904 0 0 0 0 251.6584524966338 258.46855686968911 0 258.46855686968911 80.788378006822313 0 0 0 0 84.524491917251453 -80.887312932103669 0 -80.887312932103669 70.477477752032428 0 0 0 0 212.1272367217889 -46.698941720318544 0 -46.698941720318544 18.31112240976654 0 0 0 0 -72.388634315643685 42.643745513953036 0 42.643745513953036 112.40748306403293 0 0 0 0 42.378985914047007 43.468320199386653 0 43.468320199386653 200.2833592567049 0 0 0 0 251.78560519077564 188.68025587128614 0 188.68025587128614 109.51355469663213 0 0 0 0 60.550855692128152 66.062273281461785 0 66.062273281461785 -23.135463285163496 0 0 0 0 0.24114000371562661 3.4211968361337846 0 3.4211968361337846 -0.8146894991144773 0 0 0 0 -0.71137840987739764 10.118519030065727 0 10.118519030065727 -1.5761896355024874 0 0 0 0 1.2693703446748259 7.3821349527515849 0 7.3821349527515849 2.2021145397084183 0 0 0 0 117.27101418842267 -56.211792656802572 0 -56.211792656802572 -87.184118712588315 0 0 0 0 154.1855056254492 34.670669732199485 0 34.670669732199485 -35.666385380653082 0 0 0 0 0.86624821420360609 3.2696290556246801 0 3.2696290556246801 6.8607711394948652 0 0 0 0 1.3687191939230281 1.5036210705494195 0 1.5036210705494195 0.21167007547700223 0 0 0 0 16.510559544200987 5.8775354014824188 0 5.8775354014824188 -3.4702995354127779 0 0 0 0 13.450835262727196 6.3551825924878358 0 6.3551825924878358 0.86376978939370019 0 0 0 0 8.2635655270490069 3.9154694226775071 0 3.9154694226775071 -1.313831171049868 0 0 0 0 -31.425109345857891 36.426197844664784 0 36.426197844664784 -5.4440084643465525 0 0 0 0 0.98476586390013976 6.6176599515828061 0 6.6176599515828061 5.9788131495144867 0 0 0 0 -20.02421250894713 23.963998350154725 0 23.963998350154725 -6.7884797538936255 0 0 0 0 -12.469481215126052 50.374795268706293 0 50.374795268706293 -25.738400760281365 0 0 0 0 -2.788871566994203 34.504161369535723 0 34.504161369535723 -17.588488421359216 0 0 0 0 10.983489043102509 25.968686356526632 0 25.968686356526632 -33.609108872333309 0 0 0 0 8.0902457831289212 32.634846837554505 0 32.634846837554505 -18.595245812764915 0 0 0 0 -26.407244212676346 32.890180997719085 0 32.890180997719085 -21.797670586878667 0 0 0 0 1.3913087748371311 2.1699732365436368 0 2.1699732365436368 -0.25051368296629306 0 0 0 0 46.647007168228811 0.076970900000560505 0 0.076970900000560505 -75.023679250651185 0 0 0 0 124.94572334209806 128.31529021934693 0 128.31529021934693 176.03703790694271 0 0 0 0 0.86945439583457684 0.56512354497672845 0 0.56512354497672845 2.034184311933398 0 0 0 0 60.222320227356249 30.748628361048759 0 30.748628361048759 -25.028943681607416 0 0 0 0 60.065251661477305 34.460408597369678 0 34.460408597369678 -37.823126950559526 0 0 0 0 139.6200049094823 32.863163938700382 0 32.863163938700382 -63.855115719790774 0 0 0 0 210.69364913411482 130.67130561580598 0 130.67130561580598 68.208185987477918 0 0 0 0 157.56212485492142 81.117508245093632 0 81.117508245093632 84.447193661770143 0 0 0 0 163.68492401165713 11.037529361459747 0 11.037529361459747 -117.38952869088098 0 0 0 0 -0.80842389214147659 0.084627345899466633 0 0.084627345899466633 0.21329383344501807 0 0 0 0 146.78815365966784 114.6244513660431 0 114.6244513660431 44.398819832851586 0 0 0 0 124.11513664365702 75.385734761915955 0 75.385734761915955 163.52469830352948 0 0 0 0 25.708986328960464 -44.565431314269063 0 -44.565431314269063 -124.61632455740073 0 0 0 0 -34.296507876520991 155.42007584743897 0 155.42007584743897 -61.687469626033476 0 0 0 0 -23.338630360777188 96.399784975073089 0 96.399784975073089 -35.222891094289366 0 0 0 0 -12.207678605845103 118.02133805122457 0 118.02133805122457 -0.092286432463879464 0 0 0 0 28.898601011264361 128.00608440785234 0 128.00608440785234 -51.945673579964932 0 0 0 0 30.560345331251938 78.539618892265025 0 78.539618892265025 -30.380179090512684 0 0 0 0 -5.900538808758256 107.46983952679739 0 107.46983952679739 -54.084649563151288 0 0 0 0 -77.829851029914153 134.66673381161945 0 134.66673381161945 -28.457589931980237 0 0 0 0 -69.891436033683021 198.0141574866293 0 198.0141574866293 -145.64906975564645 0 0 0 0 -76.345915667414374 111.46400389756855 0 111.46400389756855 -25.642044965588866 0 0 0 0 -24.294064217230698 101.02735495592515 0 101.02735495592515 -53.6888774132035 0 0 0 0 -43.92817443267063 150.02028666766478 0 150.02028666766478 -138.29023863921248 0 0 0 0 -10.922700976915166 46.786654464608091 0 46.786654464608091 -69.684101627373821 0 0 0 0 -3.8956840686109899 43.240035400356646 0 43.240035400356646 -131.40219075135133 0 0 0 0 -77.288954795157224 233.35099700483806 0 233.35099700483806 407.08859294173089 0 0 0 0 16.040757490186024 83.062599943362329 0 83.062599943362329 -392.85915337107872 0 0 0 0 -0.22699025310354948 1.2051071790757106 0 1.2051071790757106 -0.63306219220746307 0 0 0 0 -35.676932312028384 219.17321397476644 0 219.17321397476644 118.32746554032565 0 0 0 0 -50.340330596830938 56.812173784936817 0 56.812173784936817 70.280980484712927 0 0 0 0 -54.505630672808365 30.165911391351983 0 30.165911391351983 31.680209425772773 0 0 0 0 -29.211761449525511 140.3184238145011 0 140.3184238145011 138.07160721386026 0 0 0 0 108.03162073172189 149.86678066208469 0 149.86678066208469 125.85035306236387 0 0 0 0 -19.125682774051711 58.924022775139747 0 58.924022775139747 258.68569326370744 0 0 0 0 -62.283256148650253 186.32875428583066 0 186.32875428583066 121.25488916233553 0 0 0 0 -16.550938082455104 44.326189491550394 0 44.326189491550394 -78.626958117582035 0 0 0 0 1.5398492292782961 2.1473661405582867 0 2.1473661405582867 0.81458465841129168 0 0 0 0 -46.330412185478963 266.34075537570698 0 266.34075537570698 132.28785389938912 0 0 0 0 -163.40751562025343 53.778870774292955 0 53.778870774292955 7.7636230501429964 0 0 0 0 -258.7281349524992 198.32297385984202 0 198.32297385984202 -130.42565134532742 0 0 0 0 -59.107024046880824 147.46662964850091 0 147.46662964850091 -188.97358136040566 0 0 0 0 0.87228119234982016 0.93055359574876562 0 0.93055359574876562 -1.3297999032203052 0 0 0 0 -32.179376414979856 48.488375098354027 0 48.488375098354027 -55.721620167598303 0 0 0 0 -57.001464168724851 100.67683903716534 0 100.67683903716534 -30.241633854688189 0 0 0 0 -56.866375579350034 56.276767821237968 0 56.276767821237968 -105.72112747936262 0 0 0 0 -70.2511161917555 135.70638449154285 0 135.70638449154285 -133.51724363931044 0 0 0 0 -74.298408957681204 97.190670860461978 0 97.190670860461978 -70.836302941266695 0 0 0 0 -57.753082249659599 70.814742350938445 0 70.814742350938445 -35.803485805765376 0 0 0 0 -63.69933658929358 88.010970248889862 0 88.010970248889862 32.2042729404493 0 0 0 0 -49.221553516274071 93.45030333705472 0 93.45030333705472 3.1351989930777791 0 0 0 0 -54.313318409558633 86.170748173232823 0 86.170748173232823 -41.502343541047367 0 0 0 0 -46.82708837391101 63.764638161578659 0 63.764638161578659 -57.412592150024466 0 0 0 0 -53.965629102038292 74.708854589325028 0 74.708854589325028 -106.23388813764359 0 0 0 0 -72.956400587731423 113.80652787446343 0 113.80652787446343 -135.97359331742155 0 0 0 0 -77.239968250251422 111.94014434085511 0 111.94014434085511 -104.47448145980388 0 0 0 0 0.22056810842281838 0.96911079987999571 0 0.96911079987999571 1.2509697636642443 0 0 0 0 -4.6810569706628939 4.2509788360794118 0 4.2509788360794118 3.3361227606092143 0 0 0 0 -86.153953369483588 84.261838803504361 0 84.261838803504361 -83.68112929131712 0 0 0 0 -78.143477711520518 79.827197879631967 0 79.827197879631967 -115.04845461308105 0 0 0 0 -44.165267872383538 69.675689117928414 0 69.675689117928414 -94.171025333056605 0 0 0 0 -0.72558488787646169 1.6244041936663791 0 1.6244041936663791 1.9755568920017907 0 0 0 0 -50.375175259026037 93.199058914215129 0 93.199058914215129 -109.37188857416913 0 0 0 0 -92.713855297738974 136.07431603225541 0 136.07431603225541 -120.98448317813131 0 0 0 0 -108.52930634674158 119.75646441777917 0 119.75646441777917 -102.29716724319587 0 0 0 0 14.249069193092055 -1.6685964025659814 0 -1.6685964025659814 -7.6884294720512116 0 0 0 0 -113.87701542369177 116.43872351493155 0 116.43872351493155 -123.88174909867666 0 0 0 0 16.7267885404558 -7.8478811564154967 0 -7.8478811564154967 -3.23649091740117 0 0 0 0 12.57517910575325 -2.1766506816334186 0 -2.1766506816334186 8.5578986776708916 0 0 0 0 2.5102996554644124 3.7063630966883405 0 3.7063630966883405 -0.6416667223077539 0 0 0 0 18.68218196142243 -3.6460757325257873 0 -3.6460757325257873 -18.845874207388988 0 0 0 0 14.011733694070244 9.1807976987965958 0 9.1807976987965958 -8.0132586615218315 0 0 0 0 -4.68491720359998 4.0521336415758924 0 4.0521336415758924 0.42479824734255089 0 0 0 0 -4.2650930172708286 6.5533439551195443 0 6.5533439551195443 -2.9769727400125703 0 0 0 0 1.9874372224238384 4.0532141560250814 0 4.0532141560250814 2.2303699848883767 0 0 0 0 -5.0542981410690118 5.6254230490521877 0 5.6254230490521877 2.4946857375116451 0 0 0 0 -8.9368115416823457 29.705771672560331 0 29.705771672560331 -6.3927059312845813 0 0 0 0 -1.6793038632622483 25.16245853050259 0 25.16245853050259 -19.666398588564334 0 0 0 0 -0.11193818029282454 19.15580043333749 0 19.15580043333749 7.1188396416073374 0 0 0 0 -0.017506154182566291 29.133562893449891 0 29.133562893449891 -8.5902120635364554 0 0 0 0 -5.3333180914264631 5.5455797040067409 0 5.5455797040067409 4.0477395824382256 0 0 0 0 2.0215736076676838 5.1689976074858563 0 5.1689976074858563 4.4936517855619016 0 0 0 0 -0.2005784799121102 10.864376039407034 0 10.864376039407034 6.0052017471739418 0 0 0 0 -47.449978009373353 14.120935598928554 0 14.120935598928554 26.943349444548403 0 0 0 0 -6.751447985095183 27.301735475873102 0 27.301735475873102 21.546831180084382 0 0 0 0 -3.2782522740239983 -2.4715753566770218 0 -2.4715753566770218 28.619999132739849 0 0 0 0 0.12653345798130911 0.39993061497977322 0 0.39993061497977322 0.36903297878253838 0 0 0 0 -24.86084685990636 99.324684682967018 0 99.324684682967018 -118.22815326317686 0 0 0 0 -5.5321428955480769 5.1735711819264907 0 5.1735711819264907 3.3581814678036608 0 0 0 0 420.74313848124439 -39.255568932288952 0 -39.255568932288952 -46.06530438433947 0 0 0 0 145.62043085079949 245.3546701399564 0 245.3546701399564 96.0307017863488 0 0 0 0 112.19316387884965 63.431791962300849 0 63.431791962300849 -73.692181800033723 0 0 0 0 109.3532118901685 33.753012641164787 0 33.753012641164787 -38.795899480999651 0 0 0 0 99.427190210130902 2.9871103086916264 0 2.9871103086916264 4.8330778401077623 0 0 0 0 -221.99913561509129 56.880411217894107 0 56.880411217894107 50.696624401509325 0 0 0 0 28.146309406787623 57.594116991702322 0 57.594116991702322 -31.162535953066254 0 0 0 0 -3.7153826231260609 48.70373921628925 0 48.70373921628925 -20.213625752898224 0 0 0 0 -3.5427118348269033 32.082372493286599 0 32.082372493286599 -40.890572030384646 0 0 0 0 0.10876641181354341 5.6836741200651231 0 5.6836741200651231 7.7083151803579568 0 0 0 0 35.58098326300933 81.3462205163014 0 81.3462205163014 -81.524984096844491 0 0 0 0 -85.460172067547319 175.73526032927566 0 175.73526032927566 25.338194824069433 0 0 0 0 522.35935700250275 59.827017548465392 0 59.827017548465392 -64.019081044258201 0 0 0 0 351.0837436229117 10.801403049495093 0 10.801403049495093 -4.7797293692492531 0 0 0 0 179.78126695787245 105.75169054895224 0 105.75169054895224 70.785871418582246 0 0 0 0 362.1236362547038 215.44463479061142 0 215.44463479061142 8.2985895608344435 0 0 0 0 108.60370474033789 -26.007740032081529 0 -26.007740032081529 -12.764330520443764 0 0 0 0 -96.648512930018569 134.50843617611281 0 134.50843617611281 7.9209755998952005 0 0 0 0 306.94936918536087 166.39047876559243 0 166.39047876559243 7.3958740167563519 0 0 0 0 0.85478498064947939 1.4668596958774831 0 1.4668596958774831 0.63607912120441767 0 0 0 0 23.712578104346221 -2.0607686223956989 0 -2.0607686223956989 -27.234985844228504 0 0 0 0 12.297094190489588 25.241198752300988 0 25.241198752300988 -49.627587163824501 0 0 0 0 -7.315623750720988 42.730806102059432 0 42.730806102059432 -23.243746860985993 0 0 0 0 1.2121209801494284 2.7259976052560901 0 2.7259976052560901 2.0852258006204636 0 0 0 0 125.31463777605745 93.417837778990815 0 93.417837778990815 27.449354813576065 0 0 0 0 -1.799935048223233 31.920409605339955 0 31.920409605339955 -2.0846458661053475 0 0 0 0 115.70152742707705 36.864869456863744 0 36.864869456863744 -15.736830673660734 0 0 0 0 0.8357191120881966 2.223498560506517 0 2.223498560506517 2.2264904084831443 0 0 0 0 217.86778936562041 -13.106891477132194 0 -13.106891477132194 -136.63217301512668 0 0 0 0 -150.26643474222374 122.72957394749346 0 122.72957394749346 147.14466354082106 0 0 0 0 -96.765842156344661 0.62819790767207451 0 0.62819790767207451 221.33566297305879 0 0 0 0 261.79632182261321 102.136004844524 0 102.136004844524 79.903079305171559 0 0 0 0 461.70456576530296 47.87491206201048 0 47.87491206201048 -100.98987538234724 0 0 0 0 272.51849730200502 -17.349205509273816 0 -17.349205509273816 1.1716250714296166 0 0 0 0 -169.60730612620682 -105.47045009589601 0 -105.47045009589601 52.403353536651593 0 0 0 0 0.26508526519572906 3.8580435608353998 0 3.8580435608353998 5.8169502393867063 0 0 0 0 -376.0122498924984 10.767174033565425 0 10.767174033565425 151.09508929249569 0 0 0 0 -42.908566308004993 -67.324940648135453 0 -67.324940648135453 -163.68002930350485 0 0 0 0 -6.1204321402619826 94.478912808576752 0 94.478912808576752 5.5137633917329367 0 0 0 0 0.40512944216446378 -0.082748686318516285 0 -0.082748686318516285 -0.67223791192803617 0 0 0 0 45.35599513017587 -62.090366853381056 0 -62.090366853381056 -29.388649201609496 0 0 0 0 405.82471716882537 -33.852402800292111 0 -33.852402800292111 -49.707552442591805 0 0 0 0 -148.74265806598464 52.315351155987628 0 52.315351155987628 286.37361880773096 0 0 0 0 85.971626632674997 16.413790155496827 0 16.413790155496827 -17.21823480232797 0 0 0 0 79.812403807010469 22.887255818961421 0 22.887255818961421 -20.838948960019479 0 0 0 0 -17.714826450815963 -28.431820964557119 0 -28.431820964557119 11.289565389201186 0 0 0 0 -316.71387379222415 29.659148734460359 0 29.659148734460359 108.80558983309129 0 0 0 0 0.22808733567849215 1.0778423723225519 0 1.0778423723225519 2.030994461046383 0 0 0 0 -126.52126187258409 129.88014013269367 0 129.88014013269367 50.004775101013365 0 0 0 0 146.35658091096445 53.458424504610775 0 53.458424504610775 36.060333286326568 0 0 0 0 1.061187500279237 -0.50502009398968362 0 -0.50502009398968362 0.16418171583033825 0 0 0 0 91.351732529761648 90.898364170559944 0 90.898364170559944 -37.531896353616446 0 0 0 0 209.95217466109898 338.43178230224294 0 338.43178230224294 -19.695047539458756 0 0 0 0 147.95137415094541 29.432391310108869 0 29.432391310108869 53.458740567290079 0 0 0 0 153.93821702350169 42.660218396051505 0 42.660218396051505 10.765229300970532 0 0 0 0 122.0621062573673 98.683235216854882 0 98.683235216854882 25.370426340236008 0 0 0 0 131.23404026465505 72.559127827000339 0 72.559127827000339 93.282423302452116 0 0 0 0 137.42834380945897 25.649136843916494 0 25.649136843916494 77.568146465699101 0 0 0 0 141.29776716639753 112.76039797943668 0 112.76039797943668 382.39814948625281 0 0 0 0 0.67382544664911848 -0.17924660081707344 0 -0.17924660081707344 0.50501620413220394 0 0 0 0 253.54827499883049 166.95897422506096 0 166.95897422506096 -30.861942199288023 0 0 0 0 579.62821376659986 -13.483021290659053 0 -13.483021290659053 -65.885821268687323 0 0 0 0 133.3568739410357 111.75263818120493 0 111.75263818120493 -122.31471194509868 0 0 0 0 -77.168079160907837 -45.332243368517084 0 -45.332243368517084 -57.351501113002996 0 0 0 0 264.17022229036451 -30.973363886724087 0 -30.973363886724087 -20.611831817775965 0 0 0 0 -87.155008441689461 72.130511780544111 0 72.130511780544111 46.889034596935744 0 0 0 0 -182.22391633399002 49.416817718879429 0 49.416817718879429 88.892793316434108 0 0 0 0 0.23175277258426563 0.56257915911363909 0 0.56257915911363909 0.97365456216158464 0 0 0 0 -11.866353464538406 58.505307568166245 0 58.505307568166245 40.933095590044104 0 0 0 0 86.772829247781829 30.381065217508194 0 30.381065217508194 -23.822099276309018 0 0 0 0 0.054212169802836385 0.47164529141935674 0 0.47164529141935674 0.60288714142301458 0 0 0 0 -1.5911077218624996 -11.677418806611058 0 -11.677418806611058 -11.714540550159654 0 0 0 0 72.649547879868805 32.714390351015027 0 32.714390351015027 -0.037666667524717035 0 0 0 0 107.00697661820868 25.676091006447678 0 25.676091006447678 -20.780726454418982 0 0 0 0 96.988863263965186 59.114478251223318 0 59.114478251223318 17.038293558216537 0 0 0 0 117.30734803419 31.692454237439961 0 31.692454237439961 53.382296444842268 0 0 0 0 95.99222906386467 61.972317227126041 0 61.972317227126041 32.691419293392755 0 0 0 0 123.61117801212299 73.590058666446794 0 73.590058666446794 18.988716650264905 0 0 0 0 102.43276490487165 48.413481514304408 0 48.413481514304408 16.701522045586898 0 0 0 0 93.132234582335514 35.869704851718325 0 35.869704851718325 0.044234048706130125 0 0 0 0 0.73591752486181683 -0.21088375842293594 0 -0.21088375842293594 -0.33578759335230757 0 0 0 0 70.86219532815403 116.22438536727532 0 116.22438536727532 28.244877610484764 0 0 0 0 99.414827774257901 79.000168514996403 0 79.000168514996403 64.28436894330207 0 0 0 0 54.098509828432725 132.33408875403984 0 132.33408875403984 105.38020924013654 0 0 0 0 49.417454077909952 76.426367411665524 0 76.426367411665524 114.59484039325434 0 0 0 0 3.5266673849182659 3.6817002645221955 0 3.6817002645221955 -0.76256588544116255 0 0 0 0 56.666822297719136 80.174958683052409 0 80.174958683052409 73.324757558857527 0 0 0 0 1.2290250098101296 14.491891134175148 0 14.491891134175148 -9.6332004699479512 0 0 0 0 -1.1332332017308957 1.5190104112785505 0 1.5190104112785505 0.96179314223095957 0 0 0 0 -31.847806388493609 112.04635466369837 0 112.04635466369837 40.040281342942762 0 0 0 0 -85.945712174923756 -13.53084663386835 0 -13.53084663386835 7.0819415320329426 0 0 0 0 222.05570443786974 -108.94905103133715 0 -108.94905103133715 -137.27395270550551 0 0 0 0 -39.565042495499256 109.83091365595192 0 109.83091365595192 49.004588276280629 0 0 0 0 0.6152027384024672 0.6439141375798183 0 0.6439141375798183 -0.23242769433779387 0 0 0 0 -71.686545743760917 73.525090116615502 0 73.525090116615502 17.091623813841579 0 0 0 0 -6.6440101218749987 69.49152770353794 0 69.49152770353794 -137.12389152228207 0 0 0 0 -12.922749431709235 105.74377704232211 0 105.74377704232211 31.65827255997101 0 0 0 0 -30.347684849993129 22.780808399169928 0 22.780808399169928 115.5708781755875 0 0 0 0 -19.601194990073964 -65.612540802076182 0 -65.612540802076182 32.990598084799785 0 0 0 0 0.10177994200484441 0.46091832028197643 0 0.46091832028197643 0.54719170458223942 0 0 0 0 -25.357760551543151 25.410998163884642 0 25.410998163884642 -0.00757451894969563 0 0 0 0 82.051006651218358 25.225906298193877 0 25.225906298193877 -28.676432590809327 0 0 0 0 118.21610022811115 104.36105460624708 0 104.36105460624708 5.2591075736090716 0 0 0 0 88.382117993265638 121.750278857392 0 121.750278857392 -0.057804859541647602 0 0 0 0 80.504141075283769 114.08315847318636 0 114.08315847318636 27.223799338355093 0 0 0 0 63.007150065135647 92.484977581591011 0 92.484977581591011 2.7261491277113237 0 0 0 0 78.714283811929818 121.52545444648149 0 121.52545444648149 17.792173645802905 0 0 0 0 22.679141799404533 121.62324034543326 0 121.62324034543326 -0.071293041042736149 0 0 0 0 84.113215852284952 104.49346785731097 0 104.49346785731097 -15.602918109101665 0 0 0 0 -52.04636304178905 19.381898331564344 0 19.381898331564344 -35.19724280365881 0 0 0 0 73.906256110253707 94.136834419135994 0 94.136834419135994 -100.00013196172858 0 0 0 0 28.121295664852823 148.55694027802929 0 148.55694027802929 44.025853566186925 0 0 0 0 -133.91647146062979 150.24807200107352 0 150.24807200107352 -148.42260895836262 0 0 0 0 -185.8607718602118 102.18900017971464 0 102.18900017971464 0.1419326538034511 0 0 0 0 -2.9908337760568964 1.0476023314480329 0 1.0476023314480329 -0.15489269084664414 0 0 0 0 -5.5589931064801021 -9.1764348513770528 0 -9.1764348513770528 190.62995586743273 0 0 0 0 -128.86537676071384 -19.465377138112672 0 -19.465377138112672 218.65918080090523 0 0 0 0 -228.13542516147584 254.74776229249801 0 254.74776229249801 123.14628176565202 0 0 0 0 -124.09572567296163 195.36310346731443 0 195.36310346731443 490.88992387875533 0 0 0 0 -75.867577348438317 124.71538652458253 0 124.71538652458253 79.846687175748229 0 0 0 0 87.897580913987667 109.20182776012098 0 109.20182776012098 66.490531951918456 0 0 0 0 41.048707888828631 37.168315812318724 0 37.168315812318724 250.13080991929746 0 0 0 0 -3.0061808854507035 146.66106763714879 0 146.66106763714879 332.52280758222969 0 0 0 0 27.406607753403932 214.8135818527544 0 214.8135818527544 155.86155210861853 0 0 0 0 1.0188194651703668 2.8501695754803968 0 2.8501695754803968 -0.83727275162414294 0 0 0 0 20.348826405527802 14.610430856001358 0 14.610430856001358 -82.781277341244277 0 0 0 0 -26.987538339042658 39.367055280934437 0 39.367055280934437 -35.833839813125451 0 0 0 0 -21.194628976634249 106.47169775783823 0 106.47169775783823 -101.62412329874132 0 0 0 0 -26.417850480297147 106.08631289251298 0 106.08631289251298 -96.979485513332293 0 0 0 0 -35.247837397184412 128.63618507821502 0 128.63618507821502 -131.09781354132792 0 0 0 0 -16.013053389733955 41.92022213963719 0 41.92022213963719 -150.83432714243463 0 0 0 0 -0.12479142155191703 1.1316790857040431 0 1.1316790857040431 -0.16546555844167088 0 0 0 0 1.8279729119658441 75.516829423608215 0 75.516829423608215 -315.26278226490649 0 0 0 0 -12.265485065521716 59.691724615816383 0 59.691724615816383 10.689578869296383 0 0 0 0 -12.516080722854895 98.034770370504702 0 98.034770370504702 -73.05496745050209 0 0 0 0 -74.972586969625638 104.10642718667168 0 104.10642718667168 -18.076329163128321 0 0 0 0 -64.226820724308936 151.92661103866521 0 151.92661103866521 -168.83092633453725 0 0 0 0 -72.591120161053595 113.23184166277588 0 113.23184166277588 -67.792812712907107 0 0 0 0 -39.556578074446406 85.484633582461356 0 85.484633582461356 -67.244264075983665 0 0 0 0 -44.885338735722172 89.041549213162426 0 89.041549213162426 -54.586893541480094 0 0 0 0 -21.36474663432773 71.942398283966213 0 71.942398283966213 -68.220542372993805 0 0 0 0 -44.615419811903394 71.403913319763888 0 71.403913319763888 -39.066993463380641 0 0 0 0 -27.319721885061426 69.496873057396442 0 69.496873057396442 -20.836507980538045 0 0 0 0 -26.401105624503543 66.000556512115963 0 66.000556512115963 -43.267275175108807 0 0 0 0 -34.159421933573867 68.217829882918522 0 68.217829882918522 -45.701621810754659 0 0 0 0 -40.120576128367247 81.395208617263961 0 81.395208617263961 -49.184041034887741 0 0 0 0 -36.680382761801866 74.376599513390829 0 74.376599513390829 -60.99804299025709 0 0 0 0 -36.707208744017862 86.89600504360078 0 86.89600504360078 -87.461934213579298 0 0 0 0 -39.607900409729382 93.194247162447027 0 93.194247162447027 -84.075617936508934 0 0 0 0 -35.256360649410453 93.794763867710572 0 93.794763867710572 -99.817379510270257 0 0 0 0 -46.8530617103861 98.04364529104987 0 98.04364529104987 -73.676712326770939 0 0 0 0 -15.231226429380513 52.430504043192741 0 52.430504043192741 -4.6467680062560248 0 0 0 0 -16.169073240283126 46.405587193266285 0 46.405587193266285 23.315620601797491 0 0 0 0 -0.44881113496103353 34.557227553043049 0 34.557227553043049 4.097675875222194 0 0 0 0 -4.31819537523279 28.301540158076023 0 28.301540158076023 -9.2869700565788662 0 0 0 0 -4.7033552123155005 36.940680783549851 0 36.940680783549851 2.8435472084202047 0 0 0 0 -6.5575523863012677 43.047568808582582 0 43.047568808582582 -16.874649577152013 0 0 0 0 -10.352254575256211 45.734442603683419 0 45.734442603683419 -0.92932136120953146 0 0 0 0 -19.506863896390314 61.302924994035493 0 61.302924994035493 -16.332083572740885 0 0 0 0 -10.734273868802347 68.383820406404539 0 68.383820406404539 -24.899076608508039 0 0 0 0 -15.264938463084491 69.88971621505334 0 69.88971621505334 -21.046749072428611 0 0 0 0 -13.988903674065568 68.555771328845367 0 68.555771328845367 -40.3560415082502 0 0 0 0 -19.059303808072514 80.967074960293758 0 80.967074960293758 -33.055568812806086 0 0 0 0 -14.150498090948986 89.110844249701586 0 89.110844249701586 -53.033704745690557 0 0 0 0 -15.155786905098921 90.866835832955985 0 90.866835832955985 -11.780385382495751 0 0 0 0 -59.113040199832085 119.11846003783194 0 119.11846003783194 -28.590853818292999 0 0 0 0 -0.20483522526188835 129.13079746521748 0 129.13079746521748 -42.676744800266533 0 0 0 0 10.46941287249274 86.274857785548193 0 86.274857785548193 -37.230317217399715 0 0 0 0 -13.238159608011756 99.433739677408084 0 99.433739677408084 -44.512481924464737 0 0 0 0 2.5303019300727101 107.10887653927057 0 107.10887653927057 -17.136907600516679 0 0 0 0 42.936059297859629 104.78003911179167 0 104.78003911179167 -33.482651565700962 0 0 0 0 -27.443792524854416 36.25428145128717 0 36.25428145128717 53.17480495593918 0 0 0 0 -175.21094742273795 95.560487832191257 0 95.560487832191257 69.888585882476946 0 0 0 0 -42.622228722307682 222.168898613078 0 222.168898613078 -183.94422568806294 0 0 0 0 -70.8626996145303 66.224497261845386 0 66.224497261845386 35.439273689986294 0 0 0 0 -2.8238820686640782 2.6139807193328082 0 2.6139807193328082 -2.0979968841395902 0 0 0 0 157.15988915547337 -39.766602492708444 0 -39.766602492708444 -254.90711057278213 0 0 0 0 -291.72735210539759 366.7881405889857 0 366.7881405889857 -43.180818379747052 0 0 0 0 87.765563612125788 -76.193340824803272 0 -76.193340824803272 -114.51505890078261 0 0 0 0 -14.821807738375014 7.4217537740532862 0 7.4217537740532862 3.4394317085552757 0 0 0 0 -118.60909731647598 85.217396838851528 0 85.217396838851528 294.08624469752795 0 0 0 0 -8.8857600191731834 4.3863571978610523 0 4.3863571978610523 -0.33664039395801382 0 0 0 0 -12.830566357161018 9.3523888925265055 0 9.3523888925265055 4.0616016595477049 0 0 0 0 -13.789546321156593 7.2562581610054622 0 7.2562581610054622 1.6584695764395292 0 0 0 0 12.271710782247283 60.248892778894515 0 60.248892778894515 38.386982683005726 0 0 0 0 6.1887617694183064 80.354966105016501 0 80.354966105016501 42.617269075317381 0 0 0 0 -22.562141104512648 -19.135651361095825 0 -19.135651361095825 312.73242248913539 0 0 0 0 -7.870981877917921 2.9927641863898664 0 2.9927641863898664 -0.61995032332360012 0 0 0 0 -40.91075842277553 38.923954929905449 0 38.923954929905449 -17.428854209711062 0 0 0 0 -46.292724831887142 32.445646222702635 0 32.445646222702635 -0.19542134617040574 0 0 0 0 -15.38713344875498 26.030412525274187 0 26.030412525274187 -43.566251139427095 0 0 0 0 -28.298817271469261 23.73185894348353 0 23.73185894348353 0.047144556354396627 0 0 0 0 -8.2930716537243825 7.3846178870844597 0 7.3846178870844597 -2.0791604766545788 0 0 0 0 -13.286420368287949 12.208127743559317 0 12.208127743559317 -4.3355705307440076 0 0 0 0 -6.7932761856162358 7.0693062383184042 0 7.0693062383184042 -5.6905094181129243 0 0 0 0 -16.300683139391936 22.872472003714392 0 22.872472003714392 -17.41101632732807 0 0 0 0 -15.282596576861579 13.432634292400508 0 13.432634292400508 -2.3967637233590722 0 0 0 0 -18.297031118770718 14.831977381412344 0 14.831977381412344 -0.038048306003474863 0 0 0 0 -26.967129925262952 9.9619483157803188 0 9.9619483157803188 1.3747523356832971 0 0 0 0 -31.424828119140756 -3.5293659891440257 0 -3.5293659891440257 1.7493789705367817 0 0 0 0 -13.227480899295045 9.3854642474507273 0 9.3854642474507273 1.0045606487210534 0 0 0 0 -11.759466410600567 -0.9862086720249863 0 -0.9862086720249863 1.8313843059040664 0 0 0 0 -18.831713135726105 5.0718084071440899 0 5.0718084071440899 4.545759281332721 0 0 0 0 -7.972111513465677 2.7444328284946096 0 2.7444328284946096 3.9771938114254226 0 0 0 0 -12.191827370821294 8.3654199035531747 0 8.3654199035531747 1.980352542748733 0 0 0 0 -11.994456488394064 7.7257577765776659 0 7.7257577765776659 1.2389599169146095 0 0 0 0 -11.930824382646392 1.2177289553274022 0 1.2177289553274022 6.5622980462012492 0 0 0 0 -6.6580324142372547 3.5856447730311629 0 3.5856447730311629 4.1204278829818577 0 0 0 0 -2.5589174567055579 4.1345902946068236 0 4.1345902946068236 0.24500759771035518 0 0 0 0 -0.65901635499011835 0.48596547276891933 0 0.48596547276891933 0.41876994574457882 0 0 0 0 1.5659037297570535 2.5978706421101379 0 2.5978706421101379 0.00078027238669164944 0 0 0 0 0.45818150648672029 -0.34368018910270948 0 -0.34368018910270948 -0.55117934697666726 0 0 0 0 -2.5520136738646215 1.5424349291752151 0 1.5424349291752151 0.92425794181872334 0 0 0 0 -2.2409863871050675 1.8076898641975276 0 1.8076898641975276 -1.4155703494143381 0 0 0 0 -3.3071816198835222 2.515174407727045 0 2.515174407727045 -0.00074284425500081852 0 0 0 0 -1.9919390652429541 0.70158605704879662 0 0.70158605704879662 0.93990626530202803 0 0 0 0 -58.558297279090311 190.95883794738711 0 190.95883794738711 -201.48963030933737 0 0 0 0 -1.6352846484574277 1.7158755267147399 0 1.7158755267147399 0.80727340371427303 0 0 0 0 -1.9859132286364911 4.0070363990998885 0 4.0070363990998885 -2.3696009588893503 0 0 0 0 -134.35109986065868 53.548081753757288 0 53.548081753757288 -22.510874608748054 0 0 0 0 -259.23449755011472 64.808602564691682 0 64.808602564691682 -13.184734472759374 0 0 0 0 -0.83140256100693188 1.6643619147171584 0 1.6643619147171584 -2.4892398743311901 0 0 0 0 -200.17858383493422 173.50302429379008 0 173.50302429379008 -56.118798857350157 0 0 0 0 -54.2387957412231 157.68356498800267 0 157.68356498800267 -63.685960666209212 0 0 0 0 -33.275330736552633 81.591068156447363 0 81.591068156447363 -235.00727274327437 0 0 0 0 37.368021728771794 75.782520076001674 0 75.782520076001674 -91.018053565076116 0 0 0 0 28.355019838116618 111.57514961775723 0 111.57514961775723 -232.97535991881341 0 0 0 0 59.657604246613118 19.547598515431673 0 19.547598515431673 -160.7136942400648 0 0 0 0 117.51088783456089 162.56533424506233 0 162.56533424506233 -130.56142166768041 0 0 0 0 112.19390039230257 99.327925929115736 0 99.327925929115736 -201.48962131027292 0 0 0 0 73.873249408053425 116.36598941321654 0 116.36598941321654 -46.57104233768041 0 0 0 0 -10.202477935930176 -0.42389174582058331 0 -0.42389174582058331 6.2644411505898461 0 0 0 0 68.573620642162837 178.19176136464421 0 178.19176136464421 -17.429519054945558 0 0 0 0 -0.11784632817068186 -0.13350110873720311 0 -0.13350110873720311 0.87920636388685125 0 0 0 0 -6.4683351234379858 3.3870808633143668 0 3.3870808633143668 3.0920058854437968 0 0 0 0 -2.2248305345323445 5.9578604969465232 0 5.9578604969465232 1.2506681529594061 0 0 0 0 -5.9561843317193279 -25.156206737829507 0 -25.156206737829507 -108.87313161663951 0 0 0 0 -17.595065627123176 -3.5912608571416058 0 -3.5912608571416058 10.850583362262114 0 0 0 0 -39.778776083200682 44.501594892794856 0 44.501594892794856 -13.816117022701292 0 0 0 0 -53.342989885963675 32.960898837239256 0 32.960898837239256 -0.77485486772275181 0 0 0 0 -230.26706898458997 172.03627418396991 0 172.03627418396991 -99.52660146981907 0 0 0 0 38.256988123165229 -1.0321102351608715 0 -1.0321102351608715 -59.654922606685886 0 0 0 0 -138.89565828248533 197.02970407266912 0 197.02970407266912 -179.5083724648166 0 0 0 0 -353.52515049683939 190.42649218880069 0 190.42649218880069 -145.54170035291827 0 0 0 0 -4.1767975386220364 1.4830371333312264 0 1.4830371333312264 -0.68815682786664212 0 0 0 0 -1.4890864215190955 0.62626941642641754 0 0.62626941642641754 0.43708730882010727 0 0 0 0 -230.45491139904524 256.49644875416459 0 256.49644875416459 -196.09021382159517 0 0 0 0 -2.8439635860581802 2.0943607138469815 0 2.0943607138469815 -1.7212423216187744 0 0 0 0 -2.5609820203053459 1.3808352593459858 0 1.3808352593459858 -0.0011590409039108898 0 0 0 0 -9.3387621872473119 92.850346230427022 0 92.850346230427022 -147.99445370203648 0 0 0 0 -274.56376424187624 443.90455230638509 0 443.90455230638509 -225.17709032776293 0 0 0 0 -16.785086718002731 38.432752233201427 0 38.432752233201427 -412.93658265500926 0 0 0 0 -154.03016553629277 177.32914113519519 0 177.32914113519519 132.70576700857237 0 0 0 0 103.34930658933945 -64.375714598134437 0 -64.375714598134437 62.589608290432807 0 0 0 0 -46.638167676995408 41.108060877407297 0 41.108060877407297 36.762582679177285 0 0 0 0 -85.548873510578204 55.502356523987146 0 55.502356523987146 0.13912783583327837 0 0 0 0 0.67007089469638426 1.5425729120746814 0 1.5425729120746814 3.317570183853384 0 0 0 0 -96.115577563728607 98.446105349079062 0 98.446105349079062 64.533220962952328 0 0 0 0 -28.397475977252135 -314.03672319990937 0 -314.03672319990937 -93.357104695656744 0 0 0 0 -113.23052756734387 34.548197690469351 0 34.548197690469351 137.03606004887297 0 0 0 0 -131.71217930744962 -6.2201914739030144 0 -6.2201914739030144 48.044649722500253 0 0 0 0 -77.709576726778494 33.409343118708648 0 33.409343118708648 55.244118789521963 0 0 0 0 -41.219314381793311 21.301850935374205 0 21.301850935374205 18.720501320417497 0 0 0 0 -24.644222353505825 34.903468697724293 0 34.903468697724293 -5.3966467616191949 0 0 0 0 -25.816998302578213 4.9146753062200332 0 4.9146753062200332 69.519330355627972 0 0 0 0 -12.389136594192061 4.2439856527611255 0 4.2439856527611255 -1.72934551959845 0 0 0 0 7.2034439635401171 7.5617943869103481 0 7.5617943869103481 9.1178686090054697 0 0 0 0 -45.30517047370347 40.066100097306162 0 40.066100097306162 -6.4301495351610356 0 0 0 0 -76.051661126342253 45.776473230701868 0 45.776473230701868 1.5575762600310554 0 0 0 0 -45.672562948740222 42.428665686271984 0 42.428665686271984 -14.589624969670695 0 0 0 0 -134.18955905352141 46.848478617392175 0 46.848478617392175 14.611795888923041 0 0 0 0 -82.795882576990039 34.301828056532941 0 34.301828056532941 -0.64874098689193715 0 0 0 0 1.6772178547393832 3.7909505242889585 0 3.7909505242889585 11.191101894081982 0 0 0 0 -108.02876753667738 40.56137194150142 0 40.56137194150142 13.957115921650256 0 0 0 0 77.180345252116126 -115.04398083330216 0 -115.04398083330216 -2.113029070358607 0 0 0 0 -208.63054544520065 -21.362989966841951 0 -21.362989966841951 13.89447199091137 0 0 0 0 -66.86782721369832 9.5224865977133959 0 9.5224865977133959 20.512953475234099 0 0 0 0 -9.3110125432075961 81.941227809053089 0 81.941227809053089 -311.67394112704005 0 0 0 0 -3.2299348349687169 5.1241758747475643 0 5.1241758747475643 2.1084024096522196 0 0 0 0 -201.39294388581743 131.79589396421943 0 131.79589396421943 60.587483636718389 0 0 0 0 1.4893586015215843 1.3237075511964047 0 1.3237075511964047 1.0023047077778209 0 0 0 0 27.642829360583846 -3.981518263959515 0 -3.981518263959515 -806.86113258823752 0 0 0 0 -23.304121433669479 -113.4750799532776 0 -113.4750799532776 -60.597693497218074 0 0 0 0 -5.1212865670006522 27.418433459115931 0 27.418433459115931 -113.10529359913016 0 0 0 0 -57.286576324051879 89.349600512049165 0 89.349600512049165 -0.84646348872229282 0 0 0 0 -192.39866817242688 136.89159977176905 0 136.89159977176905 -7.7124246065723128 0 0 0 0 4.0928765209020099 4.413709132221487 0 4.413709132221487 4.3156854001174558 0 0 0 0 -42.469523441238152 49.975348226655115 0 49.975348226655115 -22.320897407470966 0 0 0 0 -5.9453741144218384 24.679580872741553 0 24.679580872741553 -47.276959153668031 0 0 0 0 -18.685010045678609 17.720298446980451 0 17.720298446980451 -14.221582733104128 0 0 0 0 -6.8588199018056457 30.647812358105739 0 30.647812358105739 -44.520507669656581 0 0 0 0 -2.566415336652085 26.281843371290847 0 26.281843371290847 -16.771542126516579 0 0 0 0 4.2073743026107877 5.3582323562777674 0 5.3582323562777674 -14.459126060943163 0 0 0 0 -8.7916250182817457 6.5430499209476416 0 6.5430499209476416 -5.5057719453064138 0 0 0 0 18.743697730766598 69.062614922223474 0 69.062614922223474 43.914173666298666 0 0 0 0 19.659494443964377 46.178527704462795 0 46.178527704462795 19.561168151009042 0 0 0 0 65.22295994581583 42.637598476778976 0 42.637598476778976 -65.168978213283481 0 0 0 0 -29.802941397316204 157.18648114895313 0 157.18648114895313 46.864920945998165 0 0 0 0 -239.32016683395307 136.01560208762385 0 136.01560208762385 -11.710365871032991 0 0 0 0 24.619586454431357 32.463237079991814 0 32.463237079991814 27.734420464390496 0 0 0 0 -119.4283499650698 -84.016169514863577 0 -84.016169514863577 -28.794899656531925 0 0 0 0 -20.618149090457905 2.7470767758832153 0 2.7470767758832153 42.966764218954268 0 0 0 0 -12.800975484469632 -25.544835587244961 0 -25.544835587244961 66.182207539006413 0 0 0 0 -55.495728350689944 37.751545012588394 0 37.751545012588394 114.15580274549302 0 0 0 0 -12.2638970814847 11.997402859704177 0 11.997402859704177 -2.8500599966156379 0 0 0 0 22.78445574691159 33.889729905854438 0 33.889729905854438 2.9161859688301774 0 0 0 0 -0.51634042613210629 8.9072877248749087 0 8.9072877248749087 18.177909833276068 0 0 0 0 -10.839063784056435 49.622417910757122 0 49.622417910757122 -113.49632725572064 0 0 0 0 2.8837374001659999 12.238381713430726 0 12.238381713430726 15.30276345136398 0 0 0 0 -60.704721656139554 31.58569438363611 0 31.58569438363611 98.224083626519132 0 0 0 0 82.57636797043051 36.139865895734147 0 36.139865895734147 2.9538553786433113 0 0 0 0 11.95214496112294 72.519806041500487 0 72.519806041500487 13.540565038452314 0 0 0 0 27.081093032896206 44.119966316875662 0 44.119966316875662 26.369655919266734 0 0 0 0 6.5662340683916227 55.807320264655573 0 55.807320264655573 19.711440834363202 0 0 0 0 -0.99669626136665102 37.85458501098401 0 37.85458501098401 -1.5303462983993086 0 0 0 0 -17.003773819494199 36.519770220477312 0 36.519770220477312 9.0754788402791746 0 0 0 0 -25.369848722705683 20.161160364312309 0 20.161160364312309 -12.581835649742061 0 0 0 0 -1.1584010655669772 31.916245033382438 0 31.916245033382438 -24.70503233933141 0 0 0 0 -51.793812783881549 56.372138439720402 0 56.372138439720402 9.8624564060244211 0 0 0 0 200.37614285448853 -22.328206405185483 0 -22.328206405185483 -40.287600489114993 0 0 0 0 -31.507365012946593 12.353578368396484 0 12.353578368396484 -19.210962362581995 0 0 0 0 1.1339413046941473 0.9318741681481022 0 0.9318741681481022 0.34893288426115987 0 0 0 0 2.1289322921384155 85.182785435852566 0 85.182785435852566 -17.936418034423696 0 0 0 0 144.79613095913646 -15.894885992641321 0 -15.894885992641321 -15.239261722254923 0 0 0 0 25.645892644705611 -65.053798269112576 0 -65.053798269112576 66.436768909830789 0 0 0 0 1.8321459465306011 1.9443376905543168 0 1.9443376905543168 1.3670099053034548 0 0 0 0 -12.289096178537875 18.840233157568946 0 18.840233157568946 -38.573303682205733 0 0 0 0 -23.604751434561877 43.451241246509198 0 43.451241246509198 -25.463148836058735 0 0 0 0 2.7896565525207841 4.9614356379492754 0 4.9614356379492754 7.3956325387769652 0 0 0 0 160.78787164418054 32.739101053854938 0 32.739101053854938 -93.922554669739839 0 0 0 0 214.80363316139506 -97.243145935940447 0 -97.243145935940447 -41.616886853340475 0 0 0 0 -185.51305044248306 62.281294208150939 0 62.281294208150939 122.56627941276929 0 0 0 0 262.8704150885942 -116.01899203821631 0 -116.01899203821631 22.118978722784959 0 0 0 0 374.53792337189861 -59.737249474675991 0 -59.737249474675991 19.028330894107057 0 0 0 0 0.70004083032931996 1.2635902430128958 0 1.2635902430128958 2.8267993589287812 0 0 0 0 52.723896614013938 111.54284170583423 0 111.54284170583423 152.90553989987166 0 0 0 0 53.425265809067241 100.01828782777739 0 100.01828782777739 113.07578184289014 0 0 0 0 -128.40883155947358 100.20683631696829 0 100.20683631696829 147.04724516801252 0 0 0 0 98.991778374211208 -124.52566254613339 0 -124.52566254613339 41.679398173034315 0 0 0 0 -105.11421626473106 -59.275159667648722 0 -59.275159667648722 108.99440433095697 0 0 0 0 -34.580076185218559 -43.164890032599033 0 -43.164890032599033 41.434756798696981 0 0 0 0 -110.6713312450031 -15.077225325073414 0 -15.077225325073414 7.1234475772125734 0 0 0 0 -145.75122930910197 12.550537358748443 0 12.550537358748443 35.901316193253479 0 0 0 0 -137.27577083568212 -37.380954153982202 0 -37.380954153982202 88.519365150813428 0 0 0 0 -115.62555073178407 31.705157588539805 0 31.705157588539805 -44.824689699847113 0 0 0 0 -181.7151483277475 34.018069457074034 0 34.018069457074034 -28.428985663440471 0 0 0 0 -277.67394516174522 114.96361715836974 0 114.96361715836974 23.232875540275472 0 0 0 0 -182.53019081928085 43.395624097324799 0 43.395624097324799 95.103991026428048 0 0 0 0 -121.04264803449021 52.535166470670447 0 52.535166470670447 60.461866706516957 0 0 0 0 -93.981717198634584 2.7270708649366497 0 2.7270708649366497 144.0989817776684 0 0 0 0 -143.72554206185038 161.96651423087451 0 161.96651423087451 14.128923196170945 0 0 0 0 -114.23983652797307 116.25399439628245 0 116.25399439628245 49.410840307838953 0 0 0 0 -139.58564574001628 149.09574831620375 0 149.09574831620375 -69.113684352354539 0 0 0 0 -205.25426901130697 186.30676134198848 0 186.30676134198848 -7.0637387067108648 0 0 0 0 137.69347083989805 30.442095705516294 0 30.442095705516294 -29.044960162693314 0 0 0 0 5.0743079815974186 8.205474358269722 0 8.205474358269722 12.013695533002245 0 0 0 0 215.63756297867212 34.837422760585468 0 34.837422760585468 -64.753001898170623 0 0 0 0 -110.51880745331582 152.07917573423219 0 152.07917573423219 -74.913503803139065 0 0 0 0 -85.62494468963996 200.81280854189572 0 200.81280854189572 4.1109316777619824 0 0 0 0 -133.89413994148018 153.61568453646487 0 153.61568453646487 -36.72637179326739 0 0 0 0 -146.13763178506895 132.25175666134692 0 132.25175666134692 -50.313650237789261 0 0 0 0 -68.731854000747262 183.87140971102781 0 183.87140971102781 -52.489088241423815 0 0 0 0 -58.566815353829583 157.75263442807955 0 157.75263442807955 -91.768651454018254 0 0 0 0 -97.356892304414032 327.17507395808934 0 327.17507395808934 -214.58608671354614 0 0 0 0 -46.383853186415763 108.43320969655815 0 108.43320969655815 19.464959885582175 0 0 0 0 -152.43582511584395 203.33482222093699 0 203.33482222093699 -31.991034680165285 0 0 0 0 -65.466609965626219 17.577304516705681 0 17.577304516705681 172.51000342731095 0 0 0 0 -374.70558142399295 293.31909319151782 0 293.31909319151782 118.34405946908919 0 0 0 0 27.806165314263751 -66.58262280059057 0 -66.58262280059057 -110.76940643579837 0 0 0 0 -16.147639425222906 -28.854950473521058 0 -28.854950473521058 31.899434158289296 0 0 0 0 241.13401858896123 34.425873173745458 0 34.425873173745458 10.12283264210555 0 0 0 0 18.619197704919884 -145.21405673064919 0 -145.21405673064919 266.89908630931313 0 0 0 0 38.642987753993793 -10.325385494256807 0 -10.325385494256807 2.7408401525572117 0 0 0 0 146.95138557314635 215.68222335939845 0 215.68222335939845 149.21733351335024 0 0 0 0 -44.768965177109635 194.44427365900719 0 194.44427365900719 137.26254659040274 0 0 0 0 15.356596691063601 100.20700053219252 0 100.20700053219252 55.890388959427582 0 0 0 0 30.069187779468621 144.90327227547641 0 144.90327227547641 32.409330714917814 0 0 0 0 -19.90194749058162 21.717040474605483 0 21.717040474605483 -50.259594028698302 0 0 0 0 -22.148540584712464 23.506379866223597 0 23.506379866223597 -46.338157744488853 0 0 0 0 -22.513581291262653 -54.091645339539809 0 -54.091645339539809 13.535057351060459 0 0 0 0 -51.010217395636801 -8.1592104304099848 0 -8.1592104304099848 -60.488857438671857 0 0 0 0 -108.54905619398744 34.165068094334401 0 34.165068094334401 36.676031510440453 0 0 0 0 -60.381581096395507 76.094155970995416 0 76.094155970995416 -96.171653978095947 0 0 0 0 -1.0275664023480351 0.44398291835933357 0 0.44398291835933357 0.65077475490662273 0 0 0 0 -176.44815010797538 -80.557329353917339 0 -80.557329353917339 402.85079008071853 0 0 0 0 5.473028776741387 46.427594683767438 0 46.427594683767438 146.73009730168815 0 0 0 0 -34.614038132678729 7.825080763654114 0 7.825080763654114 90.341012693244011 0 0 0 0 -0.61712593592028497 110.87269809923146 0 110.87269809923146 91.72679351785365 0 0 0 0 -157.09813642343579 13.414356390520652 0 13.414356390520652 82.912794245176883 0 0 0 0 -82.154903464245407 -61.588977836943513 0 -61.588977836943513 105.67792478919091 0 0 0 0 -71.612437082357019 77.897848244672105 0 77.897848244672105 393.49736561752252 0 0 0 0 23.413833141100667 140.47713658031989 0 140.47713658031989 301.1631641970805 0 0 0 0 277.85589389215369 135.026805136901 0 135.026805136901 71.517212175018358 0 0 0 0 0.17806661479256566 -0.10607057491503369 0 -0.10607057491503369 4.1831745778279235 0 0 0 0 72.699144393875031 28.675818554815578 0 28.675818554815578 25.055314643807833 0 0 0 0 36.070275212001548 -114.37354197463219 0 -114.37354197463219 131.10292407837551 0 0 0 0 -37.388089673810725 -20.547148238269074 0 -20.547148238269074 24.707570635469892 0 0 0 0 -58.934083781000254 -4.0081183176807826 0 -4.0081183176807826 26.946597696821755 0 0 0 0 -51.655754882173369 1.804899282675251 0 1.804899282675251 31.306495889446524 0 0 0 0 0.31412213219760793 0.23671438406255163 0 0.23671438406255163 12.102764614850066 0 0 0 0 71.259086583186118 39.388146897155423 0 39.388146897155423 18.952292124006817 0 0 0 0 16.133827797722802 16.903364412491101 0 16.903364412491101 25.218005522218846 0 0 0 0 21.572739201118566 21.333007317069132 0 21.333007317069132 25.250493442554628 0 0 0 0 -8.2274467445826076 14.379389261223878 0 14.379389261223878 10.195191013917793 0 0 0 0 -53.234478411222426 14.758674393098772 0 14.758674393098772 20.982118339119552 0 0 0 0 -65.232056799839057 28.048432819959089 0 28.048432819959089 39.447598337792442 0 0 0 0 -46.70063797187683 10.319731961554226 0 10.319731961554226 81.857748316590914 0 0 0 0 -72.865480754663949 -45.270939934898252 0 -45.270939934898252 30.585551988784573 0 0 0 0 15.005327517863861 29.384658253819453 0 29.384658253819453 37.91202680166316 0 0 0 0 14.572868107940977 17.85476795864389 0 17.85476795864389 25.486402978796832 0 0 0 0 14.824155438452408 20.294976559663155 0 20.294976559663155 12.515624160765583 0 0 0 0 -41.167408798270856 24.398142561204622 0 24.398142561204622 6.9654413387888781 0 0 0 0 -13.710202419959829 6.3082445593968259 0 6.3082445593968259 -15.38381114963704 0 0 0 0 -12.760224301006474 12.809568840266365 0 12.809568840266365 28.675824925046072 0 0 0 0 -18.647047856699075 30.720716074358563 0 30.720716074358563 17.707365487302013 0 0 0 0 -47.624779132967774 39.037722821288298 0 39.037722821288298 17.650906163029504 0 0 0 0 -14.656278658882847 29.872104000749687 0 29.872104000749687 -0.66210787498857826 0 0 0 0 -10.413314313139551 20.153381615489479 0 20.153381615489479 19.292743112551761 0 0 0 0 -19.510714214832319 39.504208317604025 0 39.504208317604025 30.881099415164044 0 0 0 0 1.3268792803952465 32.22777757066433 0 32.22777757066433 20.599850199178036 0 0 0 0 10.245737598401092 22.549692657677497 0 22.549692657677497 31.07534967007814 0 0 0 0 10.982972215492737 29.279781854404973 0 29.279781854404973 30.237791338642637 0 0 0 0 24.709362247634999 -5.67567254927053 0 -5.67567254927053 -15.735731538245091 0 0 0 0 -0.83262641411238469 0.20472983443230675 0 0.20472983443230675 1.4295841222687677 0 0 0 0 -234.83766801861566 85.345516493220202 0 85.345516493220202 30.089215702380898 0 0 0 0 -11.316120138750009 -0.45184738703768268 0 -0.45184738703768268 3.8829627275354248 0 0 0 0 -5.1216469371211133 44.517710797143991 0 44.517710797143991 62.722605635182049 0 0 0 0 57.46221632047309 -8.2398381693292322 0 -8.2398381693292322 12.328369112854489 0 0 0 0 -4.6818016143735122 29.003323060375806 0 29.003323060375806 61.042765807023898 0 0 0 0 -3.9679784654990158 33.188925741498679 0 33.188925741498679 33.18488720415553 0 0 0 0 -23.501568056320366 40.839810406768265 0 40.839810406768265 56.225545053696806 0 0 0 0 11.259414783406896 31.72897736852974 0 31.72897736852974 58.482395460187035 0 0 0 0 -57.754458464252593 -26.907738084323682 0 -26.907738084323682 85.345169883248673 0 0 0 0 -0.83024299787382461 -4.9046113027898173 0 -4.9046113027898173 83.489576845442571 0 0 0 0 -7.083254737881993 0.65689194055639533 0 0.65689194055639533 2.2298945618823867 0 0 0 0 -67.046243386482615 20.715496292144962 0 20.715496292144962 73.58752232239749 0 0 0 0 -55.718891329651598 48.979574203676748 0 48.979574203676748 41.0204590643134 0 0 0 0 -19.884666202750964 21.163160820766279 0 21.163160820766279 62.609327822783598 0 0 0 0 -2.059641124871491 1.3173488818534409 0 1.3173488818534409 -0.64418693355832346 0 0 0 0 -34.490163350363503 32.121862176702962 0 32.121862176702962 10.311293455635678 0 0 0 0 14.824454904964568 33.773957248646184 0 33.773957248646184 -24.921648361785515 0 0 0 0 -3.5906576397170076 2.3803710335355248 0 2.3803710335355248 2.2849986595926595 0 0 0 0 -208.5323990017655 -20.270313084604823 0 -20.270313084604823 71.949344301236124 0 0 0 0 -3.0666725655111318 -0.055836154570251928 0 -0.055836154570251928 19.561398553429449 0 0 0 0 11.700777319775511 26.558190307489213 0 26.558190307489213 39.194808690178434 0 0 0 0 26.578025615747265 18.255425567677776 0 18.255425567677776 24.474087847982446 0 0 0 0 15.433193259756081 24.800900088001072 0 24.800900088001072 24.409372401793917 0 0 0 0 20.435315868775433 17.301463432944274 0 17.301463432944274 35.377551609119109 0 0 0 0 -27.224988638669856 12.711153262203879 0 12.711153262203879 25.001578138104378 0 0 0 0 256.66159812835951 -225.93783066916967 0 -225.93783066916967 -210.85774919307823 0 0 0 0 -6.1905989515221984 -2.8685799845200628 0 -2.8685799845200628 15.215254132861414 0 0 0 0 -14.081815839485007 2.1282133278394664 0 2.1282133278394664 7.456641049906132 0 0 0 0 -1.5247704981263572 1.8196113458440655 0 1.8196113458440655 0.19146378551395671 0 0 0 0 -41.974901558159218 56.748431992000405 0 56.748431992000405 32.905866281895214 0 0 0 0 -102.733038615331 116.09498766210527 0 116.09498766210527 -17.014623326153924 0 0 0 0 -59.611592928744358 50.602718185100457 0 50.602718185100457 85.79588784197631 0 0 0 0 -9.5102149649689487 8.3380688425136924 0 8.3380688425136924 -0.34011157454920715 0 0 0 0 102.21390961482939 22.629959895661159 0 22.629959895661159 27.117955846846598 0 0 0 0 10.430874851556382 93.735139968206795 0 93.735139968206795 12.081557705749219 0 0 0 0 73.677257972613461 -12.421866224348378 0 -12.421866224348378 11.67183632718843 0 0 0 0 -2.5179802490415568 34.336381414295829 0 34.336381414295829 -22.809166907985855 0 0 0 0 34.56076996870388 19.856979242555099 0 19.856979242555099 -18.123161634071948 0 0 0 0 -220.50702221319489 -177.63602292992437 0 -177.63602292992437 324.3416566210999 0 0 0 0 26.207202512672268 -15.545769814215305 0 -15.545769814215305 -1.7161915354245139 0 0 0 0 9.4770295977039041 -5.2826494968346651 0 -5.2826494968346651 -6.0688684852557344 0 0 0 0 -16.322177228508735 65.025536155698319 0 65.025536155698319 56.428535317744263 0 0 0 0 -6.835834291686476 7.9307675671006415 0 7.9307675671006415 -2.1532649523526821 0 0 0 0 51.717847287044606 18.969180806932854 0 18.969180806932854 -82.402018321679861 0 0 0 0 -77.497745719668274 46.632986030048414 0 46.632986030048414 167.46949921006694 0 0 0 0 10.346977709659313 50.889424385893562 0 50.889424385893562 127.80273724713118 0 0 0 0 -3.8431164740022545 6.4543707344080126 0 6.4543707344080126 -1.6454049218988862 0 0 0 0 -6.3875201731643756 53.583714261818386 0 53.583714261818386 -9.6123653775084676 0 0 0 0 48.310507171202516 5.0376613971284314 0 5.0376613971284314 -134.42835934647997 0 0 0 0 -59.146124547846739 29.512825325882659 0 29.512825325882659 3.078762485380139 0 0 0 0 56.961470751678007 8.1271930318007435 0 8.1271930318007435 5.6178804279834367 0 0 0 0 -0.81952549630761062 1.7755689521548312 0 1.7755689521548312 -1.2015538061003888 0 0 0 0 -8.9527343430836481 80.354526206220726 0 80.354526206220726 93.146155679828553 0 0 0 0 138.23477183113937 58.983821205434651 0 58.983821205434651 -8.0960973304900108 0 0 0 0 44.442057791427487 10.057509985099387 0 10.057509985099387 25.750356648024535 0 0 0 0 -1.6767294081078035 10.99532518655451 0 10.99532518655451 116.14836709974406 0 0 0 0 -50.437424080473647 -21.358508933750272 0 -21.358508933750272 167.69217647731421 0 0 0 0 323.94639857411312 120.85810369455976 0 120.85810369455976 -0.8776065792017107 0 0 0 0 -120.71824980908309 138.48420870490418 0 138.48420870490418 352.91693543183283 0 0 0 0 316.32414570307628 209.76835293436307 0 209.76835293436307 174.21240649260653 0 0 0 0 6.407312009219595 122.22779912862234 0 122.22779912862234 113.81762653027909 0 0 0 0 61.112810763976086 158.62413303621997 0 158.62413303621997 137.85668918311057 0 0 0 0 -85.847587997963046 -10.53639248799027 0 -10.53639248799027 101.75288862437083 0 0 0 0 -88.544447266629163 -21.597846671599655 0 -21.597846671599655 70.629195332783638 0 0 0 0 -61.659749587237826 -25.503697138141433 0 -25.503697138141433 43.0779486323828 0 0 0 0 -113.02817575610197 30.260886438512898 0 30.260886438512898 66.688382583515704 0 0 0 0 -99.340591823512057 13.21066077069554 0 13.21066077069554 80.986091358618978 0 0 0 0 -86.088515136219939 49.703695771828279 0 49.703695771828279 22.276663185750294 0 0 0 0 -38.725563511634107 -13.882745718206934 0 -13.882745718206934 83.557591639197199 0 0 0 0 -3.0497985801153549 2.7181009145075947 0 2.7181009145075947 -1.4847693306347622 0 0 0 0 -90.176887518093224 -3.4863921863989162 0 -3.4863921863989162 107.90536054672157 0 0 0 0 134.12476948826475 366.25436852864368 0 366.25436852864368 -44.975983122476464 0 0 0 0 -13.979244062740008 7.12874726679388 0 7.12874726679388 2.8154350288697287 0 0 0 0 -4.5268232282069221 8.1764751790251466 0 8.1764751790251466 1.1637109450407479 0 0 0 0 -5.1041566692078959 2.963020170793925 0 2.963020170793925 2.4419923742098035 0 0 0 0 -2.6438690703671561 3.8604285440114872 0 3.8604285440114872 1.7775254340879876 0 0 0 0 -29.83174499669849 -6.630414062767386 0 -6.630414062767386 19.223361216563717 0 0 0 0 0.017467004183345125 4.1129778947297382 0 4.1129778947297382 -1.0460975370722281 0 0 0 0 -1.9691483916068622 4.7884050829586098 0 4.7884050829586098 -2.6192906201354091 0 0 0 0 -1.5711726235484011 4.7157362626129942 0 4.7157362626129942 -3.1749939602726891 0 0 0 0 5.4124558440182682 4.1795317938904191 0 4.1795317938904191 -5.9584323025760568 0 0 0 0 -1.0035023435043513 9.1940033875857807 0 9.1940033875857807 -1.6287894455526839 0 0 0 0 -1.3047302985788329 6.5756793466878918 0 6.5756793466878918 2.3106930094267133 0 0 0 0 -70.160072321579719 139.98481082811395 0 139.98481082811395 -81.835375021972141 0 0 0 0 34.421429522794824 148.94689198639753 0 148.94689198639753 -265.24980632159713 0 0 0 0 -328.80670291048136 282.02501239927187 0 282.02501239927187 47.476468811071754 0 0 0 0 -339.01959489831734 -29.447553888880975 0 -29.447553888880975 454.58669702164207 0 0 0 0 -380.5766999074973 138.16317949824054 0 138.16317949824054 365.81722720017024 0 0 0 0 -183.68950621876775 28.133538493798369 0 28.133538493798369 219.57714331519674 0 0 0 0 -205.54669539141014 63.578515739672184 0 63.578515739672184 204.23380685743541 0 0 0 0 -4.8120662053224805 5.8606384410122701 0 5.8606384410122701 -1.1666264665400377 0 0 0 0 150.19610729626811 30.350456607332035 0 30.350456607332035 -14.497772677995727 0 0 0 0 -4.3797933593760145 4.0680338099076234 0 4.0680338099076234 4.070671785480803 0 0 0 0 -53.770435147683202 23.866759845707747 0 23.866759845707747 -95.942221135658201 0 0 0 0 0.66449719133538299 -0.086783602748761624 0 -0.086783602748761624 -0.21607802834514089 0 0 0 0 -17.696153130258608 42.476605023723096 0 42.476605023723096 34.949161603468383 0 0 0 0 -0.34599517550419945 4.0504142089135327 0 4.0504142089135327 -1.90164785072961 0 0 0 0 0.016726438252590015 5.987720142168655 0 5.987720142168655 -7.4315515994567249 0 0 0 0 119.79238795930314 125.03680246983276 0 125.03680246983276 84.134797082731438 0 0 0 0 24.70318236089588 100.42378297153982 0 100.42378297153982 104.20218038118924 0 0 0 0 0.99916785524237639 64.571426247948693 0 64.571426247948693 86.031716495645014 0 0 0 0 -5.870726044629814 3.8340994422729526 0 3.8340994422729526 -1.8694573224661868 0 0 0 0 47.370014770639045 34.648291708285797 0 34.648291708285797 -1.345728967242394 0 0 0 0 26.457299680983397 29.597438500874432 0 29.597438500874432 19.263650894592047 0 0 0 0 -0.97434275725765218 1.5766520421780914 0 1.5766520421780914 -4.1337293491509328 0 0 0 0 0.64081099414306664 -6.1530849302021124 0 -6.1530849302021124 6.9756275489029349 0 0 0 0 -2.722055073982574 -14.395847235315614 0 -14.395847235315614 -7.6643459647757481 0 0 0 0 34.636328042905006 -8.3872601935818238 0 -8.3872601935818238 -12.024594004142727 0 0 0 0 0.30755625252825247 0.5634469427081239 0 0.5634469427081239 -3.7453785928805949 0 0 0 0 9.5267453192207086 6.5550418804123183 0 6.5550418804123183 -24.607475549425544 0 0 0 0 2.4792622078434761 0.38226250118100324 0 0.38226250118100324 -5.6172056912525932 0 0 0 0 -17.261917264373892 24.527780262062379 0 24.527780262062379 -15.009006465028506 0 0 0 0 -1.1731931131425881 14.855907855688997 0 14.855907855688997 -8.4663914461743843 0 0 0 0 12.063460369930453 6.6547217903776072 0 6.6547217903776072 -5.7825203109687209 0 0 0 0 -0.86963688423243202 0.68148875783779639 0 0.68148875783779639 0.28131716524839767 0 0 0 0 7.8282877909753097 10.164650184201491 0 10.164650184201491 1.7936968681678991 0 0 0 0 7.8436487590254274 12.268377854971277 0 12.268377854971277 -1.0689729986252132 0 0 0 0 65.112162398347209 20.791833371916255 0 20.791833371916255 3.7634331893236777 0 0 0 0 -0.32940265528619306 -0.67392880552526102 0 -0.67392880552526102 0.64364801167663188 0 0 0 0 24.266414437721323 51.902647036206645 0 51.902647036206645 -5.1386405855141675 0 0 0 0 12.004917798297186 65.146923853457793 0 65.146923853457793 49.294243475304029 0 0 0 0 17.230248988613425 63.315635964437661 0 63.315635964437661 10.061985115351035 0 0 0 0 26.162400576709331 109.21989651141121 0 109.21989651141121 92.815194492688534 0 0 0 0 -63.043720590674184 34.958210271019198 0 34.958210271019198 -27.715219404410163 0 0 0 0 3.0016562165931551 3.8448977855982971 0 3.8448977855982971 4.0631259585916091 0 0 0 0 -7.6014270279105318 29.362184862485606 0 29.362184862485606 126.49608338211692 0 0 0 0 -8.0307876764110233 16.226972060620938 0 16.226972060620938 39.601338137267192 0 0 0 0 15.748516887832068 16.629779584393191 0 16.629779584393191 -5.5455389870439831 0 0 0 0 -116.5181483101091 75.639636369919572 0 75.639636369919572 75.709080185972198 0 0 0 0 -60.571821644118302 40.073343827414647 0 40.073343827414647 49.116869477292312 0 0 0 0 -165.90495173169649 89.608498791060811 0 89.608498791060811 209.19307636810208 0 0 0 0 -65.84389137928018 8.2907767641551118 0 8.2907767641551118 144.21060150654012 0 0 0 0 -138.45531539168516 -51.381159807637232 0 -51.381159807637232 114.81844945185003 0 0 0 0 -119.08571685670825 -152.9056939729744 0 -152.9056939729744 354.15908476020559 0 0 0 0 -2.169561824273285 0.18305148674013161 0 0.18305148674013161 0.32631133010842461 0 0 0 0 114.16569975596519 92.924163655712164 0 92.924163655712164 480.32477481913611 0 0 0 0 -173.08467094582352 189.94367978957055 0 189.94367978957055 -33.567272784930537 0 0 0 0 -244.71184063989841 -285.00744727452957 0 -285.00744727452957 499.60431539064388 0 0 0 0 0.60858261969802829 1.0888323283321455 0 1.0888323283321455 1.3840309561170816 0 0 0 0 142.78700593823726 34.809129052248409 0 34.809129052248409 -21.348343409514882 0 0 0 0 -70.06750305674791 24.27560099715447 0 24.27560099715447 -4.613384808821138 0 0 0 0 -91.787473378601362 104.83682855778716 0 104.83682855778716 -75.965674482881695 0 0 0 0 -90.667350012546422 55.132614725344865 0 55.132614725344865 -50.811711112970443 0 0 0 0 -100.96292361759902 61.863813099653726 0 61.863813099653726 -3.8223206547409063 0 0 0 0 -121.64667745747855 81.208993103616194 0 81.208993103616194 21.424177648827026 0 0 0 0 -45.530925258942517 42.630329418653673 0 42.630329418653673 -7.8352543256369245 0 0 0 0 -34.305367521787346 43.799447748460466 0 43.799447748460466 -14.105817580062649 0 0 0 0 -109.37959757584144 95.847244805052469 0 95.847244805052469 -50.176411276177532 0 0 0 0 -140.4193204474347 60.173314599920786 0 60.173314599920786 11.778087636586861 0 0 0 0 -297.46015315750128 174.44600832360811 0 174.44600832360811 192.74943198913525 0 0 0 0 -4.5694671020068061 1.3993900205524401 0 1.3993900205524401 -0.009254527397814627 0 0 0 0 -19.473835527296643 -101.9564581984946 0 -101.9564581984946 78.246429628529768 0 0 0 0 4.8808706884517505 32.387499114901402 0 32.387499114901402 -117.74355974750461 0 0 0 0 111.13449520873925 -73.647479356283839 0 -73.647479356283839 -68.936791401537448 0 0 0 0 7.1550446270521775 -37.187129152057423 0 -37.187129152057423 25.167131649880503 0 0 0 0 -8.9124099816768165 3.9040787316401051 0 3.9040787316401051 1.5160182642990332 0 0 0 0 4.1318323086172768 20.204627587270068 0 20.204627587270068 -6.2306953594397783 0 0 0 0 5.8317379381394003 8.0843850213812729 0 8.0843850213812729 4.5304991198302496 0 0 0 0 -0.2201235409659148 38.634500978316282 0 38.634500978316282 15.687300958468768 0 0 0 0 -17.616789260027311 -28.83181763022867 0 -28.83181763022867 -99.168210370235101 0 0 0 0 -95.017922940520521 5.2824218055061465 0 5.2824218055061465 70.712503798603393 0 0 0 0 10.544149129694006 1.0307352939234988 0 1.0307352939234988 -13.411993656334744 0 0 0 0 282.98840687568116 -185.17311266721026 0 -185.17311266721026 -347.42497005261384 0 0 0 0 -2.6414148843356626 0.73859161845407151 0 0.73859161845407151 -0.58017373343963552 0 0 0 0 -1.8491343533899949 1.4267107791032068 0 1.4267107791032068 -0.52967321520313781 0 0 0 0 320.03946595431626 -171.96539954831496 0 -171.96539954831496 130.56385206578216 0 0 0 0 -71.515828199175502 198.16922731207706 0 198.16922731207706 -18.212354823397391 0 0 0 0 -15.402180015575595 182.17984420562789 0 182.17984420562789 195.89355302716251 0 0 0 0 173.20415587867819 127.11547639649871 0 127.11547639649871 62.989641725414003 0 0 0 0 -36.243751846875284 66.005334650010809 0 66.005334650010809 138.48239490899095 0 0 0 0 -85.293253765018108 79.97777762227588 0 79.97777762227588 151.36790284075141 0 0 0 0 20.451092572550579 70.363934461836834 0 70.363934461836834 118.55583687415765 0 0 0 0 16.362224104427526 27.068169376413408 0 27.068169376413408 8.9160111093224259 0 0 0 0 17.12236894596731 52.391095876262625 0 52.391095876262625 149.72821210611392 0 0 0 0 -2.4201057886483426 0.42649077804910895 0 0.42649077804910895 0.18665291825469943 0 0 0 0 -51.825469294481309 49.907643343068003 0 49.907643343068003 161.44834145449931 0 0 0 0 -25.459493086224853 33.369448238026507 0 33.369448238026507 152.80281171529896 0 0 0 0 18.255143671249016 42.450654199655673 0 42.450654199655673 128.9425567310418 0 0 0 0 -7.9800760784713702 12.119399522523054 0 12.119399522523054 138.82126251832767 0 0 0 0 0.20550491058907028 29.723616548099926 0 29.723616548099926 176.36100996111554 0 0 0 0 -2.2698845423048541 1.2274523909917683 0 1.2274523909917683 1.2922023830761411 0 0 0 0 -13.249831356340785 31.216285600711345 0 31.216285600711345 -29.696671704199616 0 0 0 0 -13.295786310126459 29.94557770850497 0 29.94557770850497 -42.592587444210039 0 0 0 0 -14.454684361031923 36.282685675429548 0 36.282685675429548 -53.913561916249364 0 0 0 0 -18.721978765278891 22.224843597374274 0 22.224843597374274 38.237171829717227 0 0 0 0 2.4191343398148959 -3.5299931463617611 0 -3.5299931463617611 13.827770786761903 0 0 0 0 3.6288658593484797 12.232073225409295 0 12.232073225409295 50.347017305546615 0 0 0 0 0.65847519247660102 13.07951157211653 0 13.07951157211653 50.233560566023698 0 0 0 0 -26.882062587311793 26.705428905790541 0 26.705428905790541 -16.392385000067407 0 0 0 0 -2.5428293702244877 1.3632643940346867 0 1.3632643940346867 1.094212672353752 0 0 0 0 -9.5099849701468884 -2.6535919478301366 0 -2.6535919478301366 6.1833078739236953 0 0 0 0 -3.3366667014202216 1.5767201459608273 0 1.5767201459608273 3.2530831099796025 0 0 0 0 -59.585048912890215 60.844912179895118 0 60.844912179895118 -15.740535962916965 0 0 0 0 -14.11858068505444 -0.9750649525026347 0 -0.9750649525026347 16.878359768769769 0 0 0 0 0.15736545136800517 4.8343634540422844 0 4.8343634540422844 13.932790556302381 0 0 0 0 -6.3195474168833243 37.670236144833098 0 37.670236144833098 -37.005562737388118 0 0 0 0 -8.4776087969247556 15.609044724716114 0 15.609044724716114 3.8995240519252548 0 0 0 0 20.224234594880727 32.021472428180914 0 32.021472428180914 -35.803566080488963 0 0 0 0 -9.8547826705178068 73.274672576690364 0 73.274672576690364 -34.846572766477948 0 0 0 0 37.008507378057487 15.2353319092487 0 15.2353319092487 -3.7120079794358389 0 0 0 0 38.896955572055958 52.066295114601417 0 52.066295114601417 -37.929503172664965 0 0 0 0 -158.13535644654098 95.860886965196869 0 95.860886965196869 74.642467138028223 0 0 0 0 -38.745459427766036 32.165558006899118 0 32.165558006899118 22.063778452719816 0 0 0 0 0.23612398437743876 1.8722207237869297 0 1.8722207237869297 10.672374509196294 0 0 0 0 4.8240154948884992 143.34843292140749 0 143.34843292140749 304.11915012166082 0 0 0 0 -12.048246702054712 -86.9607668617748 0 -86.9607668617748 163.00559423265713 0 0 0 0 -1.4387520729643919 0.48535041375530064 0 0.48535041375530064 2.9367440761326264 0 0 0 0 -123.3322003136368 -74.334727448060335 0 -74.334727448060335 300.9238067675642 0 0 0 0 -119.79196975644732 -72.318837639142885 0 -72.318837639142885 222.18493132483854 0 0 0 0 -143.08184923493491 -103.40873880745767 0 -103.40873880745767 181.4711618443589 0 0 0 0 -94.423224740461706 -188.21940067325568 0 -188.21940067325568 314.92889997730526 0 0 0 0 -0.011810972211264925 0.374117744550446 0 0.374117744550446 4.2808104791299577 0 0 0 0 -27.868705126011264 79.279695535566134 0 79.279695535566134 175.92972209556638 0 0 0 0 4.743189985042136 49.88143846138064 0 49.88143846138064 115.45802155838555 0 0 0 0 1.5925293362834054 17.510909200104379 0 17.510909200104379 293.03606743371711 0 0 0 0 39.451097738393401 145.47536956372232 0 145.47536956372232 216.22222063538993 0 0 0 0 54.887210644827064 55.308940952880675 0 55.308940952880675 49.758243214622553 0 0 0 0 250.85587641935808 -25.240112687520195 0 -25.240112687520195 80.25941797111318 0 0 0 0 98.394196047241167 -4.2071829538172096 0 -4.2071829538172096 -2.4784586883702104 0 0 0 0 -8.354566326245731 1.3362441106537517 0 1.3362441106537517 140.47610999313383 0 0 0 0 -11.573522030874301 35.317605824929615 0 35.317605824929615 33.16140579984949 0 0 0 0 -28.212687819452185 -28.405618630400113 0 -28.405618630400113 -43.855075297316716 0 0 0 0 -46.167494133756918 11.402451270997062 0 11.402451270997062 40.620119481695838 0 0 0 0 40.656061048924585 3.8052753054166146 0 3.8052753054166146 -69.1493550875457 0 0 0 0 57.829644998538242 5.4637614482001027 0 5.4637614482001027 -45.892973242035623 0 0 0 0 33.786258472756003 22.439529298028049 0 22.439529298028049 -13.426746724852819 0 0 0 0 34.746972462213307 42.143068319355734 0 42.143068319355734 -29.209619734050193 0 0 0 0 -2.6646448941557992 9.626946970599306 0 9.626946970599306 -40.883500738593739 0 0 0 0 18.933086466532586 19.765060324635897 0 19.765060324635897 -36.688263814571883 0 0 0 0 2.8622368402800724 11.008604457957349 0 11.008604457957349 -6.1356501682733766 0 0 0 0 10.499865611920086 -16.982881753642062 0 -16.982881753642062 -40.554012222614801 0 0 0 0 -1.0602313016324842 23.995037671135833 0 23.995037671135833 9.4047115661423959 0 0 0 0 1.945510261819436 18.834302630639286 0 18.834302630639286 6.6073541084742828 0 0 0 0 -0.76118273973952455 17.438127759123859 0 17.438127759123859 -1.5455067743932887 0 0 0 0 7.3330833670834181 19.342694773762105 0 19.342694773762105 -1.0337670170447382 0 0 0 0 1.223713417864019 22.801825638771334 0 22.801825638771334 -2.9176658692595083 0 0 0 0 0.58946481892053271 22.698330506854177 0 22.698330506854177 -2.3428607585028658 0 0 0 0 11.216519914604305 30.167998788448131 0 30.167998788448131 2.9071369596422301 0 0 0 0 17.401121385670194 28.251960193291779 0 28.251960193291779 -15.311954758909451 0 0 0 0 16.139616169438341 17.132606387892338 0 17.132606387892338 -6.6355592908512335 0 0 0 0 13.924852382656354 15.91398623218538 0 15.91398623218538 -10.104428612539778 0 0 0 0 7.6399661127545073 16.295314871847324 0 16.295314871847324 -3.0494455406060297 0 0 0 0 1.8814660566506074 11.75591166311413 0 11.75591166311413 -6.2868268288424112 0 0 0 0 -1.2598717404471245 7.3044881462446938 0 7.3044881462446938 5.1562697783974727 0 0 0 0 14.249854557199797 4.0003270844408689 0 4.0003270844408689 -11.131670245546047 0 0 0 0 -0.4208363663547523 0.36930223009502772 0 0.36930223009502772 -0.68506516500304926 0 0 0 0 -0.22064614805081639 1.0200715750588714 0 1.0200715750588714 -3.5370719677559812 0 0 0 0 0.63442423683200566 9.6968909295379575 0 9.6968909295379575 2.6690620561673786 0 0 0 0 -0.64973838117111882 4.6781529596555629 0 4.6781529596555629 -1.1762734872372675 0 0 0 0 -0.46304051796358614 5.0017316614364447 0 5.0017316614364447 1.7397686082583483 0 0 0 0 1.7430760008992365 1.0223598900106481 0 1.0223598900106481 1.5746374819827906 0 0 0 0 1.6542439350871518 2.0647741429720554 0 2.0647741429720554 2.5279702210282267 0 0 0 0 3.9216608433307556 8.9209020417802094 0 8.9209020417802094 5.0714181585659617 0 0 0 0 13.954277179752353 21.045789089775099 0 21.045789089775099 -7.7114612279410721 0 0 0 0 8.8299802156725491 7.3024927238293458 0 7.3024927238293458 2.5380834037891873 0 0 0 0 -0.52450361706758031 5.981528000504909 0 5.981528000504909 9.6959745832755289 0 0 0 0 -1.4935275644719574 6.1324675185066662 0 6.1324675185066662 1.7707208472214155 0 0 0 0 -13.908559160814093 21.89880275789028 0 21.89880275789028 -40.408318580561172 0 0 0 0 -1.1230263097605082 1.4099936811753864 0 1.4099936811753864 0.17010199198820075 0 0 0 0 -30.868203638573959 41.136519587937528 0 41.136519587937528 -43.766217772335949 0 0 0 0 18.414709587731977 15.893612066645801 0 15.893612066645801 -55.81732311936139 0 0 0 0 10.232036974104176 1.5468613199695938 0 1.5468613199695938 -79.199112101334322 0 0 0 0 1.1780006591138772 39.855381046771981 0 39.855381046771981 -64.702697901308056 0 0 0 0 23.83678796649474 6.87235782256721 0 6.87235782256721 -52.679485675817887 0 0 0 0 15.513514387428586 4.8236870327391443 0 4.8236870327391443 -37.510563955333055 0 0 0 0 -24.398231440125983 71.11726499498036 0 71.11726499498036 28.173919290253252 0 0 0 0 2.8391327528006514 58.14831937031795 0 58.14831937031795 -56.728643562742946 0 0 0 0 14.259974474659884 28.333522605820235 0 28.333522605820235 14.837502034670251 0 0 0 0 -20.963617917671399 33.955520348507889 0 33.955520348507889 46.275122937962806 0 0 0 0 -6.2518928080919309 14.410254023920697 0 14.410254023920697 -12.270296822930373 0 0 0 0 1.5221429141711269 25.473314328508422 0 25.473314328508422 -48.098726574936336 0 0 0 0 -21.643274733934049 40.318198006977582 0 40.318198006977582 31.889449740407144 0 0 0 0 6.7805244473756829 22.993129193479348 0 22.993129193479348 -4.6531282448122511 0 0 0 0 41.530809173180387 72.992577663921111 0 72.992577663921111 19.464058462839603 0 0 0 0 5.5161326245159046 53.554749994414578 0 53.554749994414578 37.67709005924371 0 0 0 0 51.037925329097561 63.839242887884211 0 63.839242887884211 27.065314966384904 0 0 0 0 -3.2589521850420224 5.0924603543231193 0 5.0924603543231193 3.6026950441314725 0 0 0 0 29.102249806510372 49.318826553635517 0 49.318826553635517 54.651393430996904 0 0 0 0 13.599873601676336 58.281816086355775 0 58.281816086355775 49.486817256820359 0 0 0 0 13.632824835150132 65.214879852135709 0 65.214879852135709 19.531934320819346 0 0 0 0 -4.0174664165841296 7.4161517730789281 0 7.4161517730789281 -4.5590627348326507 0 0 0 0 -7.8405405613184485 17.842901344493839 0 17.842901344493839 10.109117796881947 0 0 0 0 -11.555388843439687 13.018789903559991 0 13.018789903559991 -8.4776609496238962 0 0 0 0 -0.3838347289012134 2.7457627096496626 0 2.7457627096496626 -8.0009801304969308 0 0 0 0 -2.8762885474368503 3.0692034246118141 0 3.0692034246118141 -5.670821404026162 0 0 0 0 -4.5636958386294282 12.86378778746257 0 12.86378778746257 -20.586407515211249 0 0 0 0 1.5221429141784029 25.473314328493871 0 25.473314328493871 -48.098726574923603 0 0 0 0 -4.0738482781921732 6.8811586089112211 0 6.8811586089112211 -5.7240820472834457 0 0 0 0 -4.1069117926344916 6.1004470717216464 0 6.1004470717216464 -11.828565935400547 0 0 0 0 13.906089077038814 21.824720000338857 0 21.824720000338857 -87.480682589835851 0 0 0 0 -0.93773166536576369 1.3002565602170826 0 1.3002565602170826 0.87669565709276842 0 0 0 0 -7.3413800727980743 39.856767995382143 0 39.856767995382143 -0.86916473899509583 0 0 0 0 -13.666838740033199 30.002782659852528 0 30.002782659852528 -42.074629424518207 0 0 0 0 17.987960738071706 20.920865744436014 0 20.920865744436014 -39.494479379747645 0 0 0 0 -5.8254513920874071 14.414480489147159 0 14.414480489147159 -12.350105045669206 0 0 0 0 -11.724834119604566 -11.336129900377273 0 -11.336129900377273 -28.303720497349786 0 0 0 0 1.5221429141765839 25.473314328492052 0 25.473314328492052 -48.098726574917237 0 0 0 0 -6.6580164707297627 32.979953397943916 0 32.979953397943916 -41.274701537428882 0 0 0 0 -8.4645583190315392 20.513020001976656 0 20.513020001976656 -21.98966284809012 0 0 0 0 -9.7416440019285346 27.644611608403466 0 27.644611608403466 -42.301700458343475 0 0 0 0 -9.1771251157338156 16.453626377128785 0 16.453626377128785 -15.336847728664907 0 0 0 0 -18.037436937104758 6.7118872872829343 0 6.7118872872829343 -83.307913389033274 0 0 0 0 -69.264194081936239 12.901615113846219 0 12.901615113846219 -21.021831679601746 0 0 0 0 -30.835196557995914 57.817325152144804 0 57.817325152144804 -55.290265453349093 0 0 0 0 -6.4190216494575907 16.637554881632241 0 16.637554881632241 -15.946958936528972 0 0 0 0 -64.178370271426047 41.884864584812476 0 41.884864584812476 -3.7014287304355094 0 0 0 0 -41.222830300738224 6.6123578480510332 0 6.6123578480510332 19.754246694774338 0 0 0 0 -0.32661014849321468 0.54260856934878277 0 0.54260856934878277 -0.38205944055194152 0 0 0 0 12.801010540338211 16.715836862406832 0 16.715836862406832 -163.8634661297192 0 0 0 0 -44.988147592168389 65.372420805241745 0 65.372420805241745 -83.995125186820587 0 0 0 0 -23.88512381464966 24.307162907075735 0 24.307162907075735 -9.9847141897189431 0 0 0 0 -7.1998947624479115 52.268213036552879 0 52.268213036552879 -49.640659876555674 0 0 0 0 -20.877706107022277 49.27592556574109 0 49.27592556574109 0.24558159382058875 0 0 0 0 -32.833881640276104 18.892648028649091 0 18.892648028649091 12.905156574483044 0 0 0 0 -9.5537189034059793 32.739404235759594 0 32.739404235759594 23.365329261161605 0 0 0 0 -5.576289342820818 11.178284318207382 0 11.178284318207382 -10.009732485375803 0 0 0 0 -11.315734548244109 52.495412989291253 0 52.495412989291253 31.871128031979879 0 0 0 0 12.974099262471555 50.102741518363473 0 50.102741518363473 22.084528465627159 0 0 0 0 -19.85546572276121 10.163299489267501 0 10.163299489267501 28.645585005802786 0 0 0 0 -12.631628383837551 28.048517611342049 0 28.048517611342049 40.93093470374788 0 0 0 0 4.6193146284622344 31.735665244447091 0 31.735665244447091 14.308941504496033 0 0 0 0 -24.514897358467351 29.305150016337393 0 29.305150016337393 -15.031616602530448 0 0 0 0 -30.998677781753941 0.042437186048232434 0 0.042437186048232434 -10.363869003978834 0 0 0 0 -10.166395338843358 21.143039676243461 0 21.143039676243461 7.0352962611596013 0 0 0 0 -15.090349616738422 9.4707561558158204 0 9.4707561558158204 17.311493527254243 0 0 0 0 -1.4826387270061332 14.237953518507766 0 14.237953518507766 17.386404818131602 0 0 0 0 6.1788542204250039 14.359961412924299 0 14.359961412924299 10.987727318386348 0 0 0 0 -0.84348563294997803 19.812027492694597 0 19.812027492694597 -14.473120472470782 0 0 0 0 1.1169258410959628 3.6141856890476447 0 3.6141856890476447 5.0268437769673255 0 0 0 0 -15.947157526902629 9.1850125001128617 0 9.1850125001128617 26.905944585968427 0 0 0 0 -25.814030629046556 35.807002869644066 0 35.807002869644066 13.444431782030733 0 0 0 0 -17.819638414417675 9.6896494299008182 0 9.6896494299008182 -0.3109853993239895 0 0 0 0 -13.111433015145622 4.1936606831054632 0 4.1936606831054632 17.195107335643115 0 0 0 0 -0.62806706032111848 5.5820534646087445 0 5.5820534646087445 1.3241730399481284 0 0 0 0 4.7073592123865637 21.190339954412593 0 21.190339954412593 -6.2974467108706449 0 0 0 0 -17.378163378280988 38.856434921667642 0 38.856434921667642 -14.608751241856226 0 0 0 0 -5.8891465079286718 29.694669137306846 0 29.694669137306846 -2.2085440350692807 0 0 0 0 -8.981722954214824 14.140552212472661 0 14.140552212472661 -6.8666874061478786 0 0 0 0 -22.041556068121281 5.9561251548047949 0 5.9561251548047949 5.0604417507038306 0 0 0 0 -4.1464419613650421 11.582166190775979 0 11.582166190775979 0.3278699961847451 0 0 0 0 -38.906702501555628 17.849028828417431 0 17.849028828417431 0.79563598199274566 0 0 0 0 0.14233858124949794 1.4090383128638582 0 1.4090383128638582 -2.568280982762154 0 0 0 0 -21.83230679031567 3.534412117890497 0 3.534412117890497 -8.4560264035389991 0 0 0 0 -76.515767258024425 -10.40917796400754 0 -10.40917796400754 -8.8052376481246029 0 0 0 0 -111.50792036095316 4.0294234123751949 0 4.0294234123751949 5.6370916608138941 0 0 0 0 -76.515767258006235 -10.409177964014816 0 -10.409177964014816 -8.8052376481209649 0 0 0 0 -76.515767258004416 -10.409177964011178 0 -10.409177964011178 -8.8052376481246029 0 0 0 0 -35.435915597139683 14.954890480654285 0 14.954890480654285 -4.6997217091466155 0 0 0 0 -43.20902718900561 22.23106856763934 0 22.23106856763934 7.1659738125090371 0 0 0 0 -83.900882681355142 4.1455300105844799 0 4.1455300105844799 15.238912901999356 0 0 0 0 27.100968502224532 48.431947502937874 0 48.431947502937874 -144.65600229519623 0 0 0 0 -114.70145155795308 54.329927357384804 0 54.329927357384804 -43.315482172896736 0 0 0 0 -13.307856231110236 122.11507205717862 0 122.11507205717862 -235.99946184594592 0 0 0 0 -102.9009951289936 -168.74074678680336 0 -168.74074678680336 215.87824625088615 0 0 0 0 9.8197671908176289 6.2714642618857397 0 6.2714642618857397 0.58755865107377758 0 0 0 0 -0.15603095332435846 -0.019294293152816167 0 -0.019294293152816167 -0.60963383888081779 0 0 0 0 -22.028740762902544 40.008024286567888 0 40.008024286567888 -0.22334119167499011 0 0 0 0 -91.389351444661116 44.654460779488858 0 44.654460779488858 64.255234917101916 0 0 0 0 24.318681566322084 -29.658053846544135 0 -29.658053846544135 -20.857138902256906 0 0 0 0 -3.3942846941067728 -28.333725848994618 0 -28.333725848994618 73.899612080798761 0 0 0 0 0.96283149073139107 0.62864687678240294 0 0.62864687678240294 1.5654825827217493 0 0 0 0 -8.7413951065825017 7.7048886009296211 0 7.7048886009296211 12.17412732707453 0 0 0 0 -18.577495484938254 27.580936932833993 0 27.580936932833993 28.408502537875393 0 0 0 0 -16.459436575805739 24.024853388515112 0 24.024853388515112 0.24320262224411365 0 0 0 0 -6.8045936947612518 3.9577656946612478 0 3.9577656946612478 -3.2490700723665213 0 0 0 0 -3.513543434892199 18.789235166881554 0 18.789235166881554 -21.329871359123899 0 0 0 0 -5.7697738739266242 18.863138108703197 0 18.863138108703197 3.9232480113005295 0 0 0 0 5.6381667294735962 0.33588340962069196 0 0.33588340962069196 0.79737549955245868 0 0 0 0 -3.1888146561609574 9.187873930146452 0 9.187873930146452 -7.6468260001438466 0 0 0 0 -4.5413346213413206 7.781855421394539 0 7.781855421394539 -6.8231101330420643 0 0 0 0 -7.0701822246610391 11.333762946447678 0 11.333762946447678 -10.486650567938341 0 0 0 0 -7.7698118572333215 6.7989261151254823 0 6.7989261151254823 -5.2363122133829165 0 0 0 0 -1.4132882841249739 6.9152794158071629 0 6.9152794158071629 -6.7084044205594182 0 0 0 0 -1.4769899233165411 3.1820846640152833 0 3.1820846640152833 -4.2439344084208841 0 0 0 0 -20.891474265366014 6.9846073052431166 0 6.9846073052431166 3.1441139527178166 0 0 0 0 4.0596497106735114 4.9059374616754212 0 4.9059374616754212 -3.0207911333427546 0 0 0 0 2.0974127159295151 1.8788462769907568 0 1.8788462769907568 -0.09032315425805848 0 0 0 0 -4.906820020079067 9.2628814614417934 0 9.2628814614417934 -6.2940209790881454 0 0 0 0 -5.4238577029636872 7.8561377790119877 0 7.8561377790119877 -6.7577560000663652 0 0 0 0 6.8616437633145324 7.7438878523389576 0 7.7438878523389576 -0.029632291357302165 0 0 0 0 1.8698794904687475 1.9517415929544768 0 1.9517415929544768 1.2740070030959032 0 0 0 0 1.8170887097553532 3.9596778097966308 0 3.9596778097966308 0.57287760219696793 0 0 0 0 2.909418029435983 6.8489859276414791 0 6.8489859276414791 5.5746608274257596 0 0 0 0 4.4654050512745016 4.2550961784454557 0 4.2550961784454557 0.1861715060649658 0 0 0 0 6.3364463065954624 8.9890918624814731 0 8.9890918624814731 2.9521393667628217 0 0 0 0 5.220038615630358 14.032834432321692 0 14.032834432321692 11.909672191512072 0 0 0 0 16.213793123796677 15.390228043379466 0 15.390228043379466 0.092512767977495969 0 0 0 0 -0.15135587776444481 6.2553581921813475 0 6.2553581921813475 16.104168608240798 0 0 0 0 1.5900239961133842 1.1422685697311223 0 1.1422685697311223 0.66918468917449481 0 0 0 0 0.49613754728825654 0.65490414874677683 0 0.65490414874677683 0.35957166108480365 0 0 0 0 120.42382577785929 43.101460822866102 0 43.101460822866102 44.765138470012971 0 0 0 0 63.445863068211111 85.420636772038051 0 85.420636772038051 98.96145505925233 0 0 0 0 72.402462806582662 107.78873952231879 0 107.78873952231879 42.311936873375089 0 0 0 0 68.868662587542531 8.3467101378992083 0 8.3467101378992083 -41.552943900832361 0 0 0 0 93.625805345449862 96.920994630681889 0 96.920994630681889 24.768235745836137 0 0 0 0 46.686745761126076 90.933074518889043 0 90.933074518889043 39.732866241362899 0 0 0 0 76.597950533449875 90.842257541072286 0 90.842257541072286 29.053749655193315 0 0 0 0 11.94564078870917 39.226057494631277 0 39.226057494631277 18.285525085454083 0 0 0 0 22.164216558231374 32.718783740294839 0 32.718783740294839 18.37394315884012 0 0 0 0 29.318162731145094 96.827510615786196 0 96.827510615786196 54.999284613269083 0 0 0 0 25.259213638564688 77.162110841498361 0 77.162110841498361 125.77440432464573 0 0 0 0 25.861247479237136 97.445780805925097 0 97.445780805925097 55.074557106740031 0 0 0 0 79.588080075248399 90.943844106932829 0 90.943844106932829 0.0499836354274521 0 0 0 0 42.635497704808586 100.74621310511429 0 100.74621310511429 44.315410404353315 0 0 0 0 28.294498255614599 106.98335943152961 0 106.98335943152961 42.181865519843996 0 0 0 0 14.109376564759259 151.5594260796197 0 151.5594260796197 0.18224345640419415 0 0 0 0 11.042835629306865 140.59933266467624 0 140.59933266467624 7.0240024092572639 0 0 0 0 30.420832083530058 111.65802042199425 0 111.65802042199425 50.197180542667411 0 0 0 0 6.6535464341759507 113.31531124722824 0 113.31531124722824 50.099059740880421 0 0 0 0 187.88674884011471 153.24017810697705 0 153.24017810697705 -14.522394170925509 0 0 0 0 -72.247896826886063 119.44121893428019 0 119.44121893428019 198.25979384167476 0 0 0 0 -68.715677465927001 185.69811120851136 0 185.69811120851136 85.770289358646551 0 0 0 0 -0.25379120567150792 0.76020263011240985 0 0.76020263011240985 -0.41610590771044187 0 0 0 0 22.249468651612915 67.981286440716758 0 67.981286440716758 162.76595653242293 0 0 0 0 -48.861649533540913 103.26585930688088 0 103.26585930688088 161.60420564530432 0 0 0 0 -16.0211486303524 52.113305208324164 0 52.113305208324164 140.04176644774088 0 0 0 0 -27.138018953934079 70.140369127499071 0 70.140369127499071 117.26539788367518 0 0 0 0 21.50663271373196 87.292427738443166 0 87.292427738443166 146.78366252581327 0 0 0 0 -26.628072980438446 112.1179288953108 0 112.1179288953108 87.255375380116675 0 0 0 0 -30.127153452534913 106.63644572971771 0 106.63644572971771 124.38590941060102 0 0 0 0 -27.717037424314185 65.651249232198097 0 65.651249232198097 86.019916603849197 0 0 0 0 -15.749011716210589 85.12640605048 0 85.12640605048 103.3266231324933 0 0 0 0 3.1277484214247124 73.965299610750208 0 73.965299610750208 66.351565256642061 0 0 0 0 -4.6190497732304721 59.068692599469614 0 59.068692599469614 47.062399104813267 0 0 0 0 -7.1496151753078721 53.298157160537357 0 53.298157160537357 51.592274360989904 0 0 0 0 -13.351822940979673 64.617861652151078 0 64.617861652151078 82.334549352835893 0 0 0 0 -19.601369140269071 50.001102188294681 0 50.001102188294681 75.733265488313918 0 0 0 0 -16.564827174712264 43.526410460783154 0 43.526410460783154 46.67446006456521 0 0 0 0 -10.251261159322894 48.40334852619344 0 48.40334852619344 42.146142010795302 0 0 0 0 -6.0661556798786478 20.963117886350119 0 20.963117886350119 1.6337278631799563 0 0 0 0 -16.118903379245239 49.797687517588201 0 49.797687517588201 10.266672675559676 0 0 0 0 -5.6048524785451264 38.04291859447676 0 38.04291859447676 15.452520682472823 0 0 0 0 -17.66206741998576 33.301022944777287 0 33.301022944777287 143.35140754713086 0 0 0 0 22.102055230484439 43.767166568540233 0 43.767166568540233 98.655848108226564 0 0 0 0 -18.04662428784286 33.534706347050815 0 33.534706347050815 96.134214538255037 0 0 0 0 -14.605555778056441 31.065684630777469 0 31.065684630777469 82.637439640753655 0 0 0 0 -1.7550331033871771 45.509945561710083 0 45.509945561710083 81.131140868150396 0 0 0 0 7.5380703051050659 35.159279057872482 0 35.159279057872482 15.822420691596562 0 0 0 0 1.0303073728535992 23.236436777285178 0 23.236436777285178 9.4620578833853717 0 0 0 0 -2.8353460046637338 34.223047007482819 0 34.223047007482819 42.659395490089082 0 0 0 0 -18.64472205785205 28.592808175719256 0 28.592808175719256 44.534890855955837 0 0 0 0 8.6342762241129094 8.4166549584460881 0 8.4166549584460881 34.242616175510193 0 0 0 0 -25.842766035766545 18.641495892847161 0 18.641495892847161 101.31651379640243 0 0 0 0 -2.738499057091758 42.170105535011999 0 42.170105535011999 -10.936484089334499 0 0 0 0 23.579359581206518 28.728424855236199 0 28.728424855236199 -48.2110219437468 0 0 0 0 -27.398485046891437 40.658195395990106 0 40.658195395990106 14.013197256433159 0 0 0 0 46.462088029848019 22.577362247667907 0 22.577362247667907 -6.7056583443315958 0 0 0 0 99.837469364536446 59.556509189947747 0 59.556509189947747 -14.226798801772361 0 0 0 0 3.3894384164350413 44.659561582894412 0 44.659561582894412 -8.7622907672430301 0 0 0 0 4.7763538565541239 45.313219005927749 0 45.313219005927749 -20.704096373507127 0 0 0 0 -50.224553334839584 56.867636433466487 0 56.867636433466487 -6.9952984957202489 0 0 0 0 -4.5894226709388022 48.557038452903726 0 48.557038452903726 -6.5247083191268302 0 0 0 0 -0.14087170724436504 23.22045999356283 0 23.22045999356283 8.7476137569067181 0 0 0 0 -0.050110113964932257 -0.23337021742250386 0 -0.23337021742250386 0.21225362046340024 0 0 0 0 -113.61852136381913 39.07101362304229 0 39.07101362304229 12.829996576605936 0 0 0 0 -40.776488199292544 13.923762152070708 0 13.923762152070708 -12.304278277635603 0 0 0 0 -22.427388769196114 38.344424404990605 0 38.344424404990605 -12.255547924676875 0 0 0 0 8.7436264537636816 22.774528293808203 0 22.774528293808203 -19.265505552024933 0 0 0 0 0.17359425808899687 32.138385777366238 0 32.138385777366238 -7.0451350087587343 0 0 0 0 -8.1990138211472186 19.274804271140056 0 19.274804271140056 16.389426330027618 0 0 0 0 -1.7555866653110321 22.479443218283166 0 22.479443218283166 10.731352319713709 0 0 0 0 23.603918780276217 36.59710653725233 0 36.59710653725233 -51.342510415010111 0 0 0 0 3.2180806754604419 2.5598213478479011 0 2.5598213478479011 8.7726784455771849 0 0 0 0 -6.2169394510710845 23.881602716794077 0 23.881602716794077 9.794538968728375 0 0 0 0 0.39772252805411412 4.0225249462805968 0 4.0225249462805968 -7.6901481931446938 0 0 0 0 0.49571143819566643 11.124422118283022 0 11.124422118283022 8.6608977060967938 0 0 0 0 -1.9411261004225366 24.6147590446826 0 24.6147590446826 2.1965433614482208 0 0 0 0 -3.1296894533534214 34.825060781082811 0 34.825060781082811 -5.0867062155462008 0 0 0 0 -8.2916601873021136 10.862592900070013 0 10.862592900070013 -12.741550091039244 0 0 0 0 -8.4862159818731016 19.941723335970892 0 19.941723335970892 8.5518942555499962 0 0 0 0 -0.91672279114391131 11.393243981648993 0 11.393243981648993 -29.755489511577252 0 0 0 0 -5.9381953807774153 31.654365155321784 0 31.654365155321784 -7.2310249203328567 0 0 0 0 -1.5525256995987924 -0.60948218730266035 0 -0.60948218730266035 4.4407393436452729 0 0 0 0 -3.1389252064118409 21.586928147921753 0 21.586928147921753 4.5510923135043413 0 0 0 0 -1.0026623342992025 22.629239629110089 0 22.629239629110089 -0.72470917796272261 0 0 0 0 -5.9073173023753043 18.789769555080966 0 18.789769555080966 -1.5101506962782878 0 0 0 0 0.39023576479303301 17.91297506216506 0 17.91297506216506 -7.3502306208429218 0 0 0 0 -0.47123635567240996 1.5579427186657107 0 1.5579427186657107 -3.9958367234601715 0 0 0 0 0.7413018235401978 17.967460855567879 0 17.967460855567879 -10.791965630363848 0 0 0 0 -16.399170423632313 37.825585395758026 0 37.825585395758026 25.351099419722232 0 0 0 0 -1.3693267495800683 17.345585207340264 0 17.345585207340264 -8.3810352334567142 0 0 0 0 -5.3231736362098587 14.224586144333717 0 14.224586144333717 -9.3974048111270356 0 0 0 0 -8.7641893465261091 5.1629914848726912 0 5.1629914848726912 11.765197055482531 0 0 0 0 -5.3577199048829272 13.557831231208946 0 13.557831231208946 5.187023259866657 0 0 0 0 -14.605631928468938 10.379574565879011 0 10.379574565879011 25.240003609962514 0 0 0 0 -14.023176549173513 18.137426473804226 0 18.137426473804226 -5.4659659832668694 0 0 0 0 4.0465007832679021 11.699057836104203 0 11.699057836104203 6.0206587232896709 0 0 0 0 -5.692815783972037 33.292166577703028 0 33.292166577703028 -8.4963575239034981 0 0 0 0 7.0500449382943771 24.68256481780918 0 24.68256481780918 -3.5575536800315604 0 0 0 0 -13.256310954633136 7.8075857664216528 0 7.8075857664216528 -8.8986032645771047 0 0 0 0 -21.090574930496587 20.918985497661197 0 20.918985497661197 5.5149478507677259 0 0 0 0 -17.009668034891547 39.68400250312061 0 39.68400250312061 -61.31345822977255 0 0 0 0 -22.200350512187242 5.3362402968356264 0 5.3362402968356264 -65.041830412228592 0 0 0 0 -15.422148607949566 9.3174607968521741 0 9.3174607968521741 -30.064953631803292 0 0 0 0 -9.3158965423917834 31.048811199316333 0 31.048811199316333 -33.606017708356376 0 0 0 0 -11.431806086615325 -1.9646799764504976 0 -1.9646799764504976 -59.426762151998446 0 0 0 0 0.016199018760342909 1.4015487288099315 0 1.4015487288099315 0.088792086776528834 0 0 0 0 8.2077777217064067 22.787839344063286 0 22.787839344063286 -118.99954283504849 0 0 0 0 37.503053495061977 28.923829104553079 0 28.923829104553079 -160.2487367902454 0 0 0 0 0.13747592673617959 0.73467571650785146 0 0.73467571650785146 0.10345519556702332 0 0 0 0 29.801042113604353 62.013501427390878 0 62.013501427390878 -75.824706183797389 0 0 0 0 30.278415228828635 51.240686095987257 0 51.240686095987257 7.8867554352236766 0 0 0 0 -8.6739970170399374 16.272540097069395 0 16.272540097069395 -19.670767988205625 0 0 0 0 -14.009178980370052 24.906142962179729 0 24.906142962179729 12.81825815956654 0 0 0 0 -6.6237170983167744 38.76676064831554 0 38.76676064831554 -33.723413575815357 0 0 0 0 228.44425205321022 352.54915402690949 0 352.54915402690949 154.19394238127279 0 0 0 0 43.720873397060132 346.71472805562144 0 346.71472805562144 485.68569753332667 0 0 0 0 278.60318475710119 469.20485685550102 0 469.20485685550102 329.87764503891049 0 0 0 0 266.11127270204543 233.02194413403413 0 233.02194413403413 -0.085813954666718928 0 0 0 0 -0.19796951028722276 1.1076420758248773 0 1.1076420758248773 -0.210776383099752 0 0 0 0 215.3786991030629 269.26280950277669 0 269.26280950277669 247.10153713941327 0 0 0 0 212.14739445736814 231.32027812290744 0 231.32027812290744 140.19416854347764 0 0 0 0 78.614920054756567 156.5663808613092 0 156.5663808613092 224.94554615731249 0 0 0 0 -0.98693155880878791 1.5736896088981283 0 1.5736896088981283 -0.68187655260167546 0 0 0 0 -1.106699379303457 1.7725839634123943 0 1.7725839634123943 -0.54570208035933732 0 0 0 0 72.583507951705542 192.84609803455623 0 192.84609803455623 320.26322208529746 0 0 0 0 105.91993113936223 110.20702194252408 0 110.20702194252408 248.65989650608935 0 0 0 0 20.462884796324033 72.883685486291597 0 72.883685486291597 197.07231662759295 0 0 0 0 91.41557766407459 119.55463446586964 0 119.55463446586964 195.73086203274579 0 0 0 0 0.21041299121134216 38.703040842832706 0 38.703040842832706 189.46058209787259 0 0 0 0 41.083410558934702 45.101850804109745 0 45.101850804109745 117.44888191854261 0 0 0 0 -32.920068089759297 -20.733814614704897 0 -20.733814614704897 118.88291152029399 0 0 0 0 -24.314934359772451 112.13299754432046 0 112.13299754432046 290.35980431492681 0 0 0 0 -8.4553735888603114 39.807155185187185 0 39.807155185187185 239.63447605275724 0 0 0 0 -53.449211935112544 -28.642095698513003 0 -28.642095698513003 165.62768157102039 0 0 0 0 45.087982617902526 86.125641897297101 0 86.125641897297101 167.2461088071359 0 0 0 0 -0.91911138338034171 7.6915593200887535 0 7.6915593200887535 5.038616547564736 0 0 0 0 12.065437079832918 32.806322498061945 0 32.806322498061945 -41.226017083143688 0 0 0 0 0.95433175522697411 23.867646531218355 0 23.867646531218355 6.3550906062008483 0 0 0 0 26.059579915097856 38.332378224897184 0 38.332378224897184 54.319989851863284 0 0 0 0 -10.175840619277551 27.727996755983668 0 27.727996755983668 -15.991702824848744 0 0 0 0 6.0376082749280613 41.742061760562819 0 41.742061760562819 -6.3013091748432544 0 0 0 0 40.344674106678212 39.647035849686972 0 39.647035849686972 -15.233618689790319 0 0 0 0 1.0208728302395684 33.07677620117488 0 33.07677620117488 -13.649082666236609 0 0 0 0 15.821906519939148 41.541511895838312 0 41.541511895838312 -22.564453661176685 0 0 0 0 -2.460137163106431 15.19682067044619 0 15.19682067044619 -30.34296960507298 0 0 0 0 -1.6978427106205345 21.216150211111199 0 21.216150211111199 -22.392691957933494 0 0 0 0 3.1857213181096995 29.309108700594379 0 29.309108700594379 -19.142350106943923 0 0 0 0 -4.234178267691636 9.8695373055629858 0 9.8695373055629858 -25.904673363404022 0 0 0 0 2.7173759731376776 0.40305973825479668 0 0.40305973825479668 -14.967795926027122 0 0 0 0 53.373014864036719 23.264014217357996 0 23.264014217357996 -21.402428820580099 0 0 0 0 53.83405482552007 -6.5559702071632273 0 -6.5559702071632273 -6.1511285689539363 0 0 0 0 -28.416623757413618 42.138155061114958 0 42.138155061114958 -14.018295746044714 0 0 0 0 28.971897914016154 -45.233879953787891 0 -45.233879953787891 4.0144394575399929 0 0 0 0 62.849566615681397 91.373654997805716 0 91.373654997805716 276.92179589126044 0 0 0 0 -2.925805597775252 47.506948662759896 0 47.506948662759896 -58.533031418545761 0 0 0 0 12.183641877185558 6.8908618160208555 0 6.8908618160208555 -3.3671802243247217 0 0 0 0 104.83747708860028 118.91087306789268 0 118.91087306789268 260.62307578606487 0 0 0 0 88.707449855421146 289.68011945053604 0 289.68011945053604 472.76957598963418 0 0 0 0 68.481421519106334 147.94175915772394 0 147.94175915772394 245.10980237228796 0 0 0 0 169.23753967122047 236.54038315116259 0 236.54038315116259 303.24433671614679 0 0 0 0 74.537486095086933 114.30124393564438 0 114.30124393564438 320.24109142925226 0 0 0 0 -151.05065669259056 -101.72120779903457 0 -101.72120779903457 746.5129277948763 0 0 0 0 1.3111518019923096 102.77220831923478 0 102.77220831923478 431.27130826835128 0 0 0 0 -0.028363097520806534 272.47277367487237 0 272.47277367487237 429.88561207058501 0 0 0 0 4.4569852033924988 1.2959169770619141 0 1.2959169770619141 1.5468023935031816 0 0 0 0 251.65745514367836 434.25896579986102 0 434.25896579986102 322.18438794827125 0 0 0 0 441.44094359724477 92.604737224125529 0 92.604737224125529 -91.651643171107935 0 0 0 0 234.48210737281261 -49.285841334196448 0 -49.285841334196448 -69.148555813369967 0 0 0 0 191.36914192134282 -9.2035584932591519 0 -9.2035584932591519 -40.18968768572995 0 0 0 0 108.02745397142644 46.206519034414669 0 46.206519034414669 -29.356246952489528 0 0 0 0 160.47647364548266 87.828931651985613 0 87.828931651985613 -0.0023202449392556446 0 0 0 0 68.702229062593688 37.934237815758934 0 37.934237815758934 -38.857484772688849 0 0 0 0 125.80945239191351 41.696640667284555 0 41.696640667284555 -40.798645820534148 0 0 0 0 59.842269299122563 83.65838260840701 0 83.65838260840701 -27.22985315634628 0 0 0 0 -212.69888589257789 120.09390865111345 0 120.09390865111345 110.3200455836859 0 0 0 0 111.75182569537947 72.667639831403903 0 72.667639831403903 -35.609177011885549 0 0 0 0 392.58709864676166 178.70190674759579 0 178.70190674759579 11.192209562890639 0 0 0 0 -0.074725283906069251 1.3177205007205224 0 1.3177205007205224 0.8789856332466357 0 0 0 0 -0.21808807272727382 2.1956702383635829 0 2.1956702383635829 1.4345759564847924 0 0 0 0 114.26118641715584 142.61109520736454 0 142.61109520736454 98.398663139214932 0 0 0 0 0.3357179673698738 63.864242928001886 0 63.864242928001886 -6.0897675039132082 0 0 0 0 -209.69038517776585 124.54420443635888 0 124.54420443635888 167.54938027592289 0 0 0 0 298.85070511390768 124.67298058116376 0 124.67298058116376 -24.113236424796924 0 0 0 0 -0.08947484009994966 1.0138451318191528 0 1.0138451318191528 0.35208889253403441 0 0 0 0 -15.819177368051896 56.227010690516181 0 56.227010690516181 187.15123434244742 0 0 0 0 -26.776834015285203 50.984220775503672 0 50.984220775503672 39.444145154382568 0 0 0 0 -0.24276137259682695 2.0087604203947045 0 2.0087604203947045 0.93028675198318211 0 0 0 0 146.26993960608161 67.032122998109969 0 67.032122998109969 2.1233323945707525 0 0 0 0 66.452105889997256 28.865130320075878 0 28.865130320075878 2.2147840639044034 0 0 0 0 66.284941777909808 32.932331233754439 0 32.932331233754439 -27.383347874806532 0 0 0 0 81.43827509185212 60.916398645025765 0 60.916398645025765 -3.4079215991387173 0 0 0 0 21.903617888314329 -7.1173061330116525 0 -7.1173061330116525 -16.482207330669553 0 0 0 0 64.836596325922073 61.550907733035729 0 61.550907733035729 17.389849627723379 0 0 0 0 136.51596411333776 8.5687020809973546 0 8.5687020809973546 19.87297788251135 0 0 0 0 -25.680679756762402 -2.131600029088986 0 -2.131600029088986 35.977319744793022 0 0 0 0 -21.632654474620722 -12.725226758334884 0 -12.725226758334884 4.4140814818847502 0 0 0 0 -2.3185521108080849 6.4869611263381728 0 6.4869611263381728 -14.538514826423572 0 0 0 0 5.2634684037911939 -10.498664332643557 0 -10.498664332643557 3.6510036105337349 0 0 0 0 35.212679975877109 35.50175296787711 0 35.50175296787711 1.0183454600121422 0 0 0 0 129.24775007372045 41.40764925304984 0 41.40764925304984 -26.996255966759691 0 0 0 0 87.078557027385614 24.478638296485542 0 24.478638296485542 -32.924860454738109 0 0 0 0 -3.2630479697371335 8.2607369420865382 0 8.2607369420865382 -19.631593506099662 0 0 0 0 -10.592689837138096 25.352472042402951 0 25.352472042402951 8.0441893995364353 0 0 0 0 46.681233274131955 47.073477023399846 0 47.073477023399846 -22.103103293728964 0 0 0 0 44.162220077724669 39.933650159509853 0 39.933650159509853 -32.897882147942255 0 0 0 0 80.81504855159892 26.068760796183142 0 26.068760796183142 -27.796071854635557 0 0 0 0 42.37995888208161 10.569888470371779 0 10.569888470371779 -7.6805236093605345 0 0 0 0 59.992253044249082 67.460986449473694 0 67.460986449473694 -35.85697120710347 0 0 0 0 -4.1386698404627396 38.16664149297381 0 38.16664149297381 -14.079778092321703 0 0 0 0 -7.4895618855116481 53.975600732427665 0 53.975600732427665 -16.770644887580374 0 0 0 0 -60.734947218404614 67.077354018416486 0 67.077354018416486 6.0948091128720989 0 0 0 0 -8.7084718608366529 37.432856573537265 0 37.432856573537265 17.428930579696498 0 0 0 0 0.18652132305110314 0.017313324857340717 0 0.017313324857340717 -0.58537729238139491 0 0 0 0 152.05940709352762 42.974579196399873 0 42.974579196399873 -33.439594403613228 0 0 0 0 82.133469866557334 29.208559307955056 0 29.208559307955056 32.817795631680383 0 0 0 0 68.626798764114938 82.219241325582288 0 82.219241325582288 36.603705190080291 0 0 0 0 0.12351081035703615 0.41958654878622781 0 0.41958654878622781 -0.80691746158048794 0 0 0 0 125.22873118667849 69.784380643707209 0 69.784380643707209 -3.128115799295756 0 0 0 0 45.785435976834378 55.615117134556613 0 55.615117134556613 22.689258320065164 0 0 0 0 27.609933185126806 69.420877622923484 0 69.420877622923484 51.037098418471942 0 0 0 0 27.21106743825294 62.393867663856327 0 62.393867663856327 61.816414377515684 0 0 0 0 147.90531434641161 155.11894209475895 0 155.11894209475895 86.261192597811714 0 0 0 0 0.35626398252275848 0.042372198642350867 0 0.042372198642350867 -0.49141493516228607 0 0 0 0 173.84685943498243 74.910132364033188 0 74.910132364033188 37.640323822907703 0 0 0 0 234.91060281440878 153.82776933099262 0 153.82776933099262 26.742318402355522 0 0 0 0 4.9851668256933408 95.10205281776075 0 95.10205281776075 17.269779994368946 0 0 0 0 16.629154525788181 68.816347069212497 0 68.816347069212497 75.457530315105032 0 0 0 0 -79.544638895786193 78.295218402916817 0 78.295218402916817 16.993583601624323 0 0 0 0 -64.526370403009423 22.153065877944755 0 22.153065877944755 12.268518526239859 0 0 0 0 -34.758824801352603 -1.1359133323330752 0 -1.1359133323330752 -7.0471902994070206 0 0 0 0 319.26015117569568 219.71444626862353 0 219.71444626862353 63.73524852396622 0 0 0 0 -163.55529649495338 -26.648953616137305 0 -26.648953616137305 3.7965607237565564 0 0 0 0 -0.082358456326527829 0.37295703781309086 0 0.37295703781309086 -0.092181656393751865 0 0 0 0 211.48805328402705 106.7512694438301 0 106.7512694438301 3.8422021891306031 0 0 0 0 127.09161755376044 97.757375449419669 0 97.757375449419669 24.615522950116883 0 0 0 0 301.4535538193195 230.51645047156853 0 230.51645047156853 117.59364851107699 0 0 0 0 199.34345891024532 97.578469967314504 0 97.578469967314504 108.57350541076448 0 0 0 0 146.0792470183078 69.49075230219205 0 69.49075230219205 40.075477582320673 0 0 0 0 184.05114824839256 76.820465585910824 0 76.820465585910824 17.708911041680039 0 0 0 0 196.56795991140461 139.87641408505806 0 139.87641408505806 83.363006875011706 0 0 0 0 168.05362994701136 57.950530580577151 0 57.950530580577151 50.71962178216927 0 0 0 0 136.38860229245256 87.698286346886562 0 87.698286346886562 43.648421499319738 0 0 0 0 109.54784776605447 44.34456919819695 0 44.34456919819695 3.1953038126739557 0 0 0 0 107.87341633481992 37.665107242529302 0 37.665107242529302 15.954766851841214 0 0 0 0 143.57244517471918 53.84398400320606 0 53.84398400320606 -16.159037379166875 0 0 0 0 106.32342981083275 44.125946043307522 0 44.125946043307522 -10.018923737130535 0 0 0 0 158.07892205873759 79.836969985570249 0 79.836969985570249 8.4001812621809222 0 0 0 0 104.29510102079439 43.917336108234849 0 43.917336108234849 6.4512699205000672 0 0 0 0 81.695281947308104 21.018903737533947 0 21.018903737533947 -16.111679579873453 0 0 0 0 101.71800423331297 51.214785409162687 0 51.214785409162687 -9.9009309638440754 0 0 0 0 67.72959812350382 38.063714788294419 0 38.063714788294419 2.5962947817479289 0 0 0 0 2.8643361392714723 19.39243950163609 0 19.39243950163609 24.491151800162697 0 0 0 0 84.274019548029173 27.671267973062641 0 27.671267973062641 -8.7129790064419694 0 0 0 0 75.879229875470628 52.43470483009969 0 52.43470483009969 -5.3554778529916121 0 0 0 0 99.948034845882376 64.419915203861251 0 64.419915203861251 -4.3484445176345616 0 0 0 0 60.823186294847801 53.49046529852717 0 53.49046529852717 19.679396728480242 0 0 0 0 107.54880112307455 82.075118963690102 0 82.075118963690102 20.975941833637989 0 0 0 0 114.4586568007071 67.100206797186502 0 67.100206797186502 28.554866904375558 0 0 0 0 135.30608778517126 21.251620644575269 0 21.251620644575269 22.85624631387509 0 0 0 0 35.218431378087189 62.74227147388433 0 62.74227147388433 46.064019150123386 0 0 0 0 69.598080398174716 -7.2223874026067278 0 -7.2223874026067278 -33.710567067200827 0 0 0 0 54.423275853800078 74.702185221295622 0 74.702185221295622 53.321435611947891 0 0 0 0 0.44932192444826313 1.8526083218261435 0 1.8526083218261435 -3.0683627615138613 0 0 0 0 2.4751414975301387 1.5494674732483809 0 1.5494674732483809 -3.3144478800930366 0 0 0 0 7.5397136400424642 9.0079238702519433 0 9.0079238702519433 -16.637728664544511 0 0 0 0 10.860399536027217 5.4261494760507958 0 5.4261494760507958 -49.733427080477668 0 0 0 0 122.44183004513252 86.126500395960647 0 86.126500395960647 -4.9054159744628123 0 0 0 0 1.7637134903616243 0.99486025746500673 0 0.99486025746500673 -21.767143841792858 0 0 0 0 1.2230514569096158 4.5062660580084639 0 4.5062660580084639 -16.988850025967622 0 0 0 0 0.74926851158670615 7.0725646555320054 0 7.0725646555320054 -11.108219312536676 0 0 0 0 6.1834570090722991 8.0455535215869531 0 8.0455535215869531 -16.648051988240695 0 0 0 0 -1.6806673918981687 9.0156781172499905 0 9.0156781172499905 -17.488018516574812 0 0 0 0 0.31788997289368126 5.0445489815192559 0 5.0445489815192559 -11.388275953553602 0 0 0 0 3.9488143980379391 3.178648657814847 0 3.178648657814847 -6.7136865927168401 0 0 0 0 1.2870922771908226 10.139760146636036 0 10.139760146636036 -6.7898320884108045 0 0 0 0 2.7076734638249036 8.2985657497124521 0 8.2985657497124521 6.4905772696911299 0 0 0 0 -1.8677725446257263 5.368028038681107 0 5.368028038681107 -9.4697024653720305 0 0 0 0 10.032464321027874 2.1959919142700528 0 2.1959919142700528 -8.1542005601404526 0 0 0 0 6.9265041450830722 -1.320557346098326 0 -1.320557346098326 10.829448141732428 0 0 0 0 12.551818756192006 7.089798042547045 0 7.089798042547045 -17.350189710083214 0 0 0 0 8.6943882938794559 5.7012241207366969 0 5.7012241207366969 -14.460479032612056 0 0 0 0 38.459362224733923 16.505748518429755 0 16.505748518429755 -45.010897359788942 0 0 0 0 43.47801230569894 11.694215679892295 0 11.694215679892295 -41.256516957560962 0 0 0 0 42.520880379146547 9.5917510988683716 0 9.5917510988683716 -10.678650601730624 0 0 0 0 60.416667062476336 39.520454641293327 0 39.520454641293327 -22.996997685872884 0 0 0 0 23.814400253129861 20.552628929432558 0 20.552628929432558 -15.735220786496939 0 0 0 0 19.677003252465511 35.082654084718342 0 35.082654084718342 -47.544757398791262 0 0 0 0 14.524440109969873 22.474396802503179 0 22.474396802503179 -12.071740374929504 0 0 0 0 25.645360068636364 35.238306907769584 0 35.238306907769584 -19.189644568626136 0 0 0 0 40.467562970457948 20.60427179175349 0 20.60427179175349 -14.07640021118641 0 0 0 0 9.7642858426843304 27.893907649002358 0 27.893907649002358 -8.2242779435182456 0 0 0 0 29.892694445079542 20.312262632141938 0 20.312262632141938 -11.252260698322061 0 0 0 0 7.915520236165321 10.190943756953857 0 10.190943756953857 -3.6541281447716756 0 0 0 0 28.995364610091201 29.278490087728642 0 29.278490087728642 -7.1955910101605696 0 0 0 0 6.2736036441683609 13.46483817671151 0 13.46483817671151 -2.0057384219035157 0 0 0 0 21.850441842427244 -4.4093579553627933 0 -4.4093579553627933 3.6909983930090675 0 0 0 0 -20.623381969342518 12.958423962023517 0 12.958423962023517 -0.44963588273458299 0 0 0 0 -1.3456724416364381 4.0244443937565215 0 4.0244443937565215 -6.7259252192359611 0 0 0 0 6.2198181721250876 13.747441007398265 0 13.747441007398265 0.18812996170345286 0 0 0 0 2.4662611257135723 7.0297655214831138 0 7.0297655214831138 0.68549392036220524 0 0 0 0 -5.9494919735443546 40.193395558890188 0 40.193395558890188 -19.995717491889081 0 0 0 0 -2.9324233093939256 2.7015243260120769 0 2.7015243260120769 -4.4639974439924117 0 0 0 0 -3.8882058769231662 18.523825645952456 0 18.523825645952456 -10.958481908852264 0 0 0 0 17.098409689293476 2.4850322865822818 0 2.4850322865822818 -13.386050564484322 0 0 0 0 18.729344855557429 16.27027066876326 0 16.27027066876326 -13.097650281499227 0 0 0 0 2.3555437686591176 14.26793052040739 0 14.26793052040739 -4.4166077828413108 0 0 0 0 21.018316692105145 6.6200008220512245 0 6.6200008220512245 -16.537590849948174 0 0 0 0 22.200335235531384 9.9521695053681469 0 9.9521695053681469 -2.1156492433001404 0 0 0 0 7.4439146486729442 -1.1748580174353265 0 -1.1748580174353265 -8.8463534529910248 0 0 0 0 24.929749592287408 12.014256807758102 0 12.014256807758102 -5.1827489497372881 0 0 0 0 27.518041650611849 18.804400108163463 0 18.804400108163463 -3.0065859407404787 0 0 0 0 14.438668850605609 12.057387922068301 0 12.057387922068301 0.48031780719611561 0 0 0 0 -3.9991075813341013 6.1422525530806524 0 6.1422525530806524 1.0060813636591774 0 0 0 0 -2.3196871536772079 4.0094053254763615 0 4.0094053254763615 -4.693853669538484 0 0 0 0 59.376817788033804 35.40298153155527 0 35.40298153155527 2.4958460514462786 0 0 0 0 61.732342893757959 24.765084978788764 0 24.765084978788764 -14.115638602892432 0 0 0 0 22.063090633137108 17.383710829645452 0 17.383710829645452 -3.9607198243320454 0 0 0 0 36.886508363415487 14.668127631644893 0 14.668127631644893 -9.952359487528156 0 0 0 0 34.541269107394328 19.699741316513609 0 19.699741316513609 -0.05636366197722964 0 0 0 0 61.99600185961026 30.814994612717783 0 30.814994612717783 -5.9326940142855165 0 0 0 0 42.27070882209955 10.706468882532135 0 10.706468882532135 -4.9132442302288837 0 0 0 0 69.264258519673604 21.865269368215195 0 21.865269368215195 0.23930577159262612 0 0 0 0 93.466957066062605 51.78704410588216 0 51.78704410588216 12.157968605327369 0 0 0 0 97.206001384001866 51.058483787677687 0 51.058483787677687 0.34858317799898941 0 0 0 0 51.109781776773161 26.964997657643835 0 26.964997657643835 6.913151395308887 0 0 0 0 68.643912930641818 20.514699061742249 0 20.514699061742249 -6.1925743721440085 0 0 0 0 37.066602407503524 23.827040461883371 0 23.827040461883371 3.8073591703487182 0 0 0 0 1.0517160839897564 -0.20193070166905969 0 -0.20193070166905969 -0.67566649016992386 0 0 0 0 -1.7938849077537089 3.4867416603209342 0 3.4867416603209342 -3.9029541144367101 0 0 0 0 67.944980064523406 1.819719538649224 0 1.819719538649224 -105.32968342129607 0 0 0 0 31.135498041177925 8.415811115561155 0 8.415811115561155 10.979403209217708 0 0 0 0 23.152614441831247 23.5691323275787 0 23.5691323275787 -9.129313353825637 0 0 0 0 36.261051375055104 14.448444943818686 0 14.448444943818686 -15.566398275714164 0 0 0 0 26.271630237082718 6.2805289398638706 0 6.2805289398638706 -17.854770867550542 0 0 0 0 -6.4328879563036026 -12.621935868990931 0 -12.621935868990931 -1.3735310411939281 0 0 0 0 6.7577589243592229 16.501286517139306 0 16.501286517139306 1.7698180558509193 0 0 0 0 53.323836718634993 13.303642693612346 0 13.303642693612346 -14.867466078441794 0 0 0 0 24.31888526113471 -0.19802671271827421 0 -0.19802671271827421 -7.8924243978253799 0 0 0 0 54.919728450171533 17.872259351355751 0 17.872259351355751 -9.2101626443591158 0 0 0 0 94.214029448477959 57.108870268967621 0 57.108870268967621 -6.8281394116565934 0 0 0 0 54.806611269093992 18.352852711124797 0 18.352852711124797 -10.540973512208438 0 0 0 0 32.666250928108639 -16.297506789705494 0 -16.297506789705494 -34.848593143604376 0 0 0 0 70.42361420929592 17.002363409181271 0 17.002363409181271 -45.539153431356681 0 0 0 0 125.91577670920014 81.743441619993973 0 81.743441619993973 37.284403877888508 0 0 0 0 116.82249443353703 40.560793403539947 0 40.560793403539947 -0.088007783426292008 0 0 0 0 88.8914475015481 46.155545997320587 0 46.155545997320587 35.45984084437282 0 0 0 0 -12.477598222300003 6.2781426135188667 0 6.2781426135188667 -10.486034793739236 0 0 0 0 -36.554108767113576 -19.498526338278225 0 -19.498526338278225 37.382240185361297 0 0 0 0 -1.4740746737697918 10.75736191438591 0 10.75736191438591 -8.8509233034947101 0 0 0 0 -0.86148747950937832 11.456204008613895 0 11.456204008613895 -6.2938205144309904 0 0 0 0 -0.70907646324849338 11.781260471529549 0 11.781260471529549 -7.4875564987196412 0 0 0 0 -1.0333526518370491 10.282594790551229 0 10.282594790551229 -7.188461933095823 0 0 0 0 -4.5065476151685289 9.106378068901904 0 9.106378068901904 -6.253082831827669 0 0 0 0 -4.0640655483475712 10.826384840826904 0 10.826384840826904 -3.9311226282661664 0 0 0 0 3.8783718475096975 8.6189295938220312 0 8.6189295938220312 -5.1488541817507212 0 0 0 0 -1.1852881547092693 10.461511436840738 0 10.461511436840738 -3.8580168397529633 0 0 0 0 0.060063864060794003 8.3247398999483266 0 8.3247398999483266 -3.4162883774688453 0 0 0 0 -1.183518222431303 12.168696275319235 0 12.168696275319235 -4.3873896531149512 0 0 0 0 -1.5999155647605221 9.1340038481334886 0 9.1340038481334886 -0.026744003389467252 0 0 0 0 2.2576398244709708 11.27932508332924 0 11.27932508332924 -4.930849998132544 0 0 0 0 -3.0759173221495075 13.478322427859894 0 13.478322427859894 -10.378922886966393 0 0 0 0 -7.6057351580639079 15.980350360804096 0 15.980350360804096 -16.820841406753971 0 0 0 0 -8.170245729090766 14.86417378274632 0 14.86417378274632 -11.169016596577421 0 0 0 0 -7.2403406186786015 12.189298162282284 0 12.189298162282284 -3.5095225295544878 0 0 0 0 -9.0387870083213784 14.174127206034427 0 14.174127206034427 -5.4809044515986898 0 0 0 0 -12.56789677546476 13.990834938372245 0 13.990834938372245 -5.4128471187542573 0 0 0 0 0.02420984587752173 16.001011426525565 0 16.001011426525565 -23.711176281782173 0 0 0 0 -1.9627838581254764 7.2171935998649133 0 7.2171935998649133 -20.971421429127076 0 0 0 0 2.1273176108351279 0.090271425397990157 0 0.090271425397990157 0.15673505135779653 0 0 0 0 1.7293319199125108 6.6544924331419679 0 6.6544924331419679 -30.592424833729638 0 0 0 0 -1.711110306197952 8.1565174052384464 0 8.1565174052384464 -21.555554527521963 0 0 0 0 0.79681404648908938 8.8476118591752311 0 8.8476118591752311 -41.014085323841755 0 0 0 0 -77.551094301277772 13.460819373071899 0 13.460819373071899 177.66188671294367 0 0 0 0 0.77924096324650094 0.06682679503670208 0 0.06682679503670208 0.066574240948504837 0 0 0 0 -14.787243740132908 27.635547149192917 0 27.635547149192917 41.565437189825701 0 0 0 0 -2.3983655166011886 18.661038991989926 0 18.661038991989926 13.753077734590079 0 0 0 0 33.080451919480765 39.504547348461983 0 39.504547348461983 19.05130923236834 0 0 0 0 -8.3797686447351225 34.472670510526086 0 34.472670510526086 93.849120416335609 0 0 0 0 -1.1195820009515955 27.958523523789381 0 27.958523523789381 41.572555426837823 0 0 0 0 -20.484024391464118 57.038301783061115 0 57.038301783061115 98.632366997921963 0 0 0 0 -25.611596255505845 55.715949056374853 0 55.715949056374853 102.18347553483545 0 0 0 0 -35.412499681708141 1.2585737576173415 0 1.2585737576173415 55.181570241184545 0 0 0 0 -38.236790169118649 56.557882207317562 0 56.557882207317562 104.86791436152589 0 0 0 0 -34.830443730485058 33.610818819315227 0 33.610818819315227 26.44799268026145 0 0 0 0 -30.332978464814119 24.57061016474654 0 24.57061016474654 52.828793457438223 0 0 0 0 -44.696260638005697 37.531872397133156 0 37.531872397133156 46.444315751298973 0 0 0 0 -14.521397981893642 15.37173333630767 0 15.37173333630767 -10.753906517987161 0 0 0 0 -28.331880625319172 8.7954323429130454 0 8.7954323429130454 -8.4623489292030172 0 0 0 0 -46.737835497357878 1.2417524463928373 0 1.2417524463928373 -16.802535572374836 0 0 0 0 -52.594702666209741 53.354607269060267 0 53.354607269060267 -38.270172610300506 0 0 0 0 -31.943615104435821 -19.22339572074975 0 -19.22339572074975 -52.231442187869106 0 0 0 0 -1.0487146149989712 23.616757880943169 0 23.616757880943169 -102.27730024222865 0 0 0 0 0.72962872508350252 0.76917136573215572 0 0.76917136573215572 -2.9281522949917891 0 0 0 0 -1.4217012170902308 21.650597663749068 0 21.650597663749068 -84.693010759880963 0 0 0 0 1.2881220596682574 8.9839976870061307 0 8.9839976870061307 13.803813333466152 0 0 0 0 -0.48067034451742074 16.93803716183811 0 16.93803716183811 6.8362104898205871 0 0 0 0 0.25169448309563336 1.6371590027748208 0 1.6371590027748208 2.3454970760158593 0 0 0 0 2.0233864176789211 22.945909441546064 0 22.945909441546064 4.6911519164940501 0 0 0 0 -19.494634686223435 1.0501852828292613 0 1.0501852828292613 9.8216824906803595 0 0 0 0 -54.598150165498282 51.058316315182083 0 51.058316315182083 -4.5033337361674057 0 0 0 0 -43.859531227539264 13.102315726777761 0 13.102315726777761 17.797179299639083 0 0 0 0 -9.6703525396526402 33.821801314728532 0 33.821801314728532 -5.7560226515815884 0 0 0 0 -17.476590190806746 36.048497105781735 0 36.048497105781735 1.8785471847871378 0 0 0 0 1.822914894196856 30.362636841208882 0 30.362636841208882 -22.647146437266201 0 0 0 0 -2.1629951275899657 40.008226645595641 0 40.008226645595641 -21.817043233114418 0 0 0 0 -3.4711740393477157 45.423217310558584 0 45.423217310558584 -65.491293008916728 0 0 0 0 11.818710663805632 21.949817366349293 0 21.949817366349293 -16.690986575361876 0 0 0 0 1.9772023071382137 32.743910456640151 0 32.743910456640151 -16.017793801482895 0 0 0 0 3.878981271941484 32.142277465429288 0 32.142277465429288 -19.209570390986755 0 0 0 0 -0.025229930242403498 29.155367197895544 0 29.155367197895544 -19.711565394843547 0 0 0 0 -36.700379726299616 23.812708799148595 0 23.812708799148595 -6.456885230664966 0 0 0 0 -0.030650488663246378 0.10199757221297645 0 0.10199757221297645 0.57336731413248998 0 0 0 0 9.492687902180478 13.914886228529667 0 13.914886228529667 -6.9725350632098682 0 0 0 0 -18.932572906542191 14.546255006902243 0 14.546255006902243 -6.9800362704627332 0 0 0 0 -3.1391408666495408 28.542885805598871 0 28.542885805598871 6.7316438262689644 0 0 0 0 8.8333996102978176 41.298011959025999 0 41.298011959025999 -9.0679402543423748 0 0 0 0 -12.345358527159078 38.66894943283728 0 38.66894943283728 -5.9012690832926182 0 0 0 0 -12.645266754401746 63.938789413306949 0 63.938789413306949 -31.59674452885406 0 0 0 0 -69.112865398154099 46.972686464065191 0 46.972686464065191 2.527789163865009 0 0 0 0 -58.930743836909187 34.097817220639513 0 34.097817220639513 -9.7717695870724128 0 0 0 0 -33.333025776819341 56.242576331311739 0 56.242576331311739 46.301730562422108 0 0 0 0 -48.074729056448632 59.567012635017591 0 59.567012635017591 49.885901969753832 0 0 0 0 -12.568029181112252 14.927843423965442 0 14.927843423965442 11.487092044081237 0 0 0 0 -0.076355025434018398 0.11162943552690763 0 0.11162943552690763 0.92194332838662518 0 0 0 0 -0.10231244016167684 -0.19842547681737699 0 -0.19842547681737699 0.55774999399908154 0 0 0 0 -145.62011351663841 5.7815155426458205 0 5.7815155426458205 79.14834501274072 0 0 0 0 56.355077853987495 72.789665050922395 0 72.789665050922395 67.371047099964017 0 0 0 0 15.909885560835392 8.2856740385391277 0 8.2856740385391277 10.812444791388089 0 0 0 0 5.7209770563358688 29.643747609371076 0 29.643747609371076 137.05891517378132 0 0 0 0 -152.64328323034533 115.73677015006251 0 115.73677015006251 198.33376461433909 0 0 0 0 -16.066509949378315 56.009427260018356 0 56.009427260018356 107.5968038092833 0 0 0 0 35.526867893357121 21.285357173886041 0 21.285357173886041 164.11161671166792 0 0 0 0 -20.142699506460758 46.269072647976429 0 46.269072647976429 152.97885891084752 0 0 0 0 -28.44503810545757 65.343456933588186 0 65.343456933588186 54.84544542869935 0 0 0 0 -105.07628765480604 44.775349490947519 0 44.775349490947519 80.832524378774451 0 0 0 0 -100.7046571173978 61.34951406514665 0 61.34951406514665 133.44389674776676 0 0 0 0 -118.42321785386139 172.84464582379042 0 172.84464582379042 8.7399751617122092 0 0 0 0 -23.074784335909499 56.380646434561413 0 56.380646434561413 23.423508364630834 0 0 0 0 -63.572728675992039 76.184419108200927 0 76.184419108200927 104.23363269781385 0 0 0 0 -58.550615839721104 87.330098053555503 0 87.330098053555503 68.752648324261827 0 0 0 0 -41.080467319464333 35.058592103325736 0 35.058592103325736 -22.330369262293971 0 0 0 0 5.6382230166618683 66.712988734081591 0 66.712988734081591 -1.3660794360048385 0 0 0 0 1.0462782488795028 111.04984889143989 0 111.04984889143989 -125.40875443185996 0 0 0 0 -204.722760256529 186.0402935163952 0 186.0402935163952 1.0144826394498523 0 0 0 0 80.057599958307037 3.6197867945020334 0 3.6197867945020334 -88.751928478721538 0 0 0 0 -20.396955515225272 40.049649313964892 0 40.049649313964892 29.896039564840066 0 0 0 0 -7.8710118670678639 34.130678785181772 0 34.130678785181772 -23.595973471301022 0 0 0 0 -58.770597225937308 230.36676969879863 0 230.36676969879863 -290.54496312352831 0 0 0 0 -2.2540099196539245 1.8443424204768313 0 1.8443424204768313 -0.42068796558260502 0 0 0 0 -88.966634487029296 46.915361704198858 0 46.915361704198858 271.95444429211511 0 0 0 0 1.8421592440563472 85.455986619915166 0 85.455986619915166 -77.413583425694924 0 0 0 0 -4.4516948750033407 136.0646215279985 0 136.0646215279985 -150.01662132403362 0 0 0 0 0.38606026423622097 45.702555943622201 0 45.702555943622201 -54.033845551736476 0 0 0 0 -69.055943613679574 -66.161885960232098 0 -66.161885960232098 27.551154992907868 0 0 0 0 -105.39474796967806 110.09353363823539 0 110.09353363823539 92.314085140516454 0 0 0 0 -6.0226412931772977 3.2480607311412406 0 3.2480607311412406 -0.51403298231382255 0 0 0 0 -0.6136114648761577 62.927285066336026 0 62.927285066336026 214.21109719357889 0 0 0 0 -12.621429904306524 53.504764935881667 0 53.504764935881667 170.58332249953128 0 0 0 0 1.870914236387307 22.988121320224764 0 22.988121320224764 150.24406738987182 0 0 0 0 12.011661525971817 60.821458731781718 0 60.821458731781718 107.12806488972183 0 0 0 0 -18.624385997488389 70.033092733534886 0 70.033092733534886 116.33398788545082 0 0 0 0 -1.0985086187606612 65.311202970882619 0 65.311202970882619 115.26140600705367 0 0 0 0 -26.271999542842423 42.407563014307016 0 42.407563014307016 119.12482723229868 0 0 0 0 4.4832578326904695 43.261950295570387 0 43.261950295570387 117.7896312143771 0 0 0 0 -6.9210402165231031 3.4335078663336009 0 3.4335078663336009 -0.59732830795054026 0 0 0 0 -3.6084151667755577 61.702306575414696 0 61.702306575414696 111.4482405400413 0 0 0 0 -10.305998547612489 -16.935214695055947 0 -16.935214695055947 49.571901747105017 0 0 0 0 -4.1627216748029241 -37.645428509678027 0 -37.645428509678027 -12.807104564945803 0 0 0 0 -39.602497336302804 23.324303355788743 0 23.324303355788743 130.40158389316036 0 0 0 0 -7.3650884314433469 3.5109851913272969 0 3.5109851913272969 -0.58507655912163292 0 0 0 0 4.4144476219571516 -4.6886319183281557 0 -4.6886319183281557 -120.19022527012567 0 0 0 0 -14.186004952977783 -30.321794689903982 0 -30.321794689903982 -10.956042830903471 0 0 0 0 8.2288805783682619 35.354473916638653 0 35.354473916638653 -73.211024839569745 0 0 0 0 -1.3948863536332965 10.773146652456063 0 10.773146652456063 -93.477904946246781 0 0 0 0 -50.918311955405443 6.3344378528768175 0 6.3344378528768175 -110.79681457136053 0 0 0 0 10.050802609797643 35.5320993307393 0 35.5320993307393 -210.67704021697773 0 0 0 0 -75.849142478495196 102.51828237274185 0 102.51828237274185 -155.77664022205863 0 0 0 0 11.454289081502793 82.085736502708642 0 82.085736502708642 -171.73565312917253 0 0 0 0 11.714294588691359 65.756490209325861 0 65.756490209325861 -180.92317545861715 0 0 0 0 -16.484001398874625 -9.3412785292966873 0 -9.3412785292966873 -57.114875966284671 0 0 0 0 -97.260389802941972 57.182057416231146 0 57.182057416231146 -42.82523591765721 0 0 0 0 14.347956589128046 28.091509477427081 0 28.091509477427081 -95.939736234015982 0 0 0 0 28.796474185415946 -24.610931605000587 0 -24.610931605000587 3.2314818704417121 0 0 0 0 -0.37132170859519675 1.0456707777326741 0 1.0456707777326741 -0.10085497352033634 0 0 0 0 -30.515483474011035 55.62173851432533 0 55.62173851432533 78.578822943205523 0 0 0 0 -142.20710395097194 34.936030812284571 0 34.936030812284571 6.4682185932597349 0 0 0 0 -0.39218498886577535 0.52544510228324093 0 0.52544510228324093 -0.0086632465762677136 0 0 0 0 -155.37735180815207 26.713508695962901 0 26.713508695962901 54.063058655160603 0 0 0 0 -124.32518122400506 -23.048202133164523 0 -23.048202133164523 125.28391198210375 0 0 0 0 -90.36259961755195 -8.3414861822134014 0 -8.3414861822134014 15.93178891045136 0 0 0 0 -218.08538833746115 70.45209452832114 0 70.45209452832114 -27.445900693428484 0 0 0 0 -131.03644113378959 -60.510552229470704 0 -60.510552229470704 -17.051256628146803 0 0 0 0 -331.24228033639702 -25.601912719941538 0 -25.601912719941538 -5.7164754146467658 0 0 0 0 -1.1758486129065293 1.5220750404558814 0 1.5220750404558814 -2.1485827038556629 0 0 0 0 -274.22490752096019 214.33068739264718 0 214.33068739264718 -236.48957261439864 0 0 0 0 -74.399629524815282 42.433477615279116 0 42.433477615279116 -90.592012272069496 0 0 0 0 -50.706094890997974 -14.208877560061069 0 -14.208877560061069 -354.00600127132475 0 0 0 0 -261.10439826516722 -22.65701009738541 0 -22.65701009738541 -71.020412924755874 0 0 0 0 -149.0532864402046 211.58603998741057 0 211.58603998741057 -174.93567677122337 0 0 0 0 28.224039387356243 68.769553421829642 0 68.769553421829642 -339.23855030553113 0 0 0 0 -23.923553587873357 39.256970387514457 0 39.256970387514457 -39.575604491076774 0 0 0 0 -86.965892950011039 131.47196540186997 0 131.47196540186997 -133.63390664488998 0 0 0 0 -57.301678208138583 48.563591830573841 0 48.563591830573841 -22.59309337061643 0 0 0 0 -3.8876367029788526 15.157475771261375 0 15.157475771261375 2.8632768772422423 0 0 0 0 -1.0644994488002961 3.1214033197789872 0 3.1214033197789872 3.7898638622921901 0 0 0 0 -15.125019180870368 28.675723718250993 0 28.675723718250993 -48.008300286124722 0 0 0 0 -11.298213796034361 36.374048267077796 0 36.374048267077796 9.5615519417024188 0 0 0 0 49.826303750245643 68.691222942603872 0 68.691222942603872 6.1064435261123435 0 0 0 0 88.933955270172191 14.945288768870341 0 14.945288768870341 -10.62581202826459 0 0 0 0 0.18180379348034847 0.36104460973536234 0 0.36104460973536234 1.8144352279130089 0 0 0 0 -4.1957416199566069 15.409162367435783 0 15.409162367435783 8.2711132425656615 0 0 0 0 22.81641122691326 14.726930744425772 0 14.726930744425772 -7.833428449027906 0 0 0 0 32.831254480512598 34.949132127753046 0 34.949132127753046 1.963820222306822 0 0 0 0 19.773381246219287 41.472936734350696 0 41.472936734350696 7.6506340305641061 0 0 0 0 27.570516258740099 30.943503353757478 0 30.943503353757478 1.0562474347384523 0 0 0 0 18.035014327901081 21.662176272157694 0 21.662176272157694 19.910063158689809 0 0 0 0 58.90203605221177 10.77543855105796 0 10.77543855105796 16.41227112141496 0 0 0 0 18.325505151862671 36.155149385349432 0 36.155149385349432 31.472796015948916 0 0 0 0 8.9619076196649985 20.209545394731322 0 20.209545394731322 12.18757324337912 0 0 0 0 9.5835327333024907 29.775339209904814 0 29.775339209904814 17.661726555837959 0 0 0 0 9.1092363977986679 19.043827257668539 0 19.043827257668539 5.6030385784088139 0 0 0 0 -8.54424299188031 11.455950367838341 0 11.455950367838341 13.776466947978406 0 0 0 0 -6.0423337001366235 11.449666519482435 0 11.449666519482435 1.0137258960567124 0 0 0 0 -16.445825419989887 4.1029244829946947 0 4.1029244829946947 18.972503828725166 0 0 0 0 -7.9314554661404451 5.6905546949196193 0 5.6905546949196193 -2.455363510705542 0 0 0 0 -11.802575756984879 -5.0505822736015489 0 -5.0505822736015489 -4.178085883577296 0 0 0 0 -11.989942900283154 -0.49057199901511694 0 -0.49057199901511694 -11.055253987060496 0 0 0 0 -0.66600867080719484 0.43443824332630854 0 0.43443824332630854 -0.062401791158706033 0 0 0 0 -9.6564108319143998 -7.422102993265753 0 -7.422102993265753 -28.043087031983305 0 0 0 0 -2.9283225899143872 9.6450836123221961 0 9.6450836123221961 2.9287796112857905 0 0 0 0 -10.060206212208868 3.1842173003697098 0 3.1842173003697098 10.413735680478567 0 0 0 0 -3.7116582055298295 20.618807493821578 0 20.618807493821578 28.108963120022963 0 0 0 0 31.572628165653441 -58.530414197127357 0 -58.530414197127357 -104.9782450923359 0 0 0 0 -84.375963255624811 -84.414651915900322 0 -84.414651915900322 -50.317624366918608 0 0 0 0 -0.92002492681058357 14.082077812414354 0 14.082077812414354 23.206225950463704 0 0 0 0 -0.95588883867953811 2.1465078246220548 0 2.1465078246220548 0.39045751479403812 0 0 0 0 171.80702425537675 45.700034154757304 0 45.700034154757304 -98.802511581256113 0 0 0 0 -54.031152960242252 3.946826358001772 0 3.946826358001772 -4.8373564575331329 0 0 0 0 -59.283843114979391 -5.6889882211321492 0 -5.6889882211321492 -7.9083575129570818 0 0 0 0 -3.717374327804766 4.7187701195502996 0 4.7187701195502996 -3.5495784165300748 0 0 0 0 -11.884806150883378 4.5585975429003156 0 4.5585975429003156 1.1152591060736086 0 0 0 0 -8.0880570600432673 5.8602194566110306 0 5.8602194566110306 -1.5792288298559924 0 0 0 0 -12.791461489208814 7.9858164165380003 0 7.9858164165380003 4.264865951480715 0 0 0 0 -4.4672471483863774 14.267352010509057 0 14.267352010509057 -6.191931323002791 0 0 0 0 -6.627218498722641 6.74728476548853 0 6.74728476548853 -1.9669197854273079 0 0 0 0 -16.489650616357721 11.678739622507237 0 11.678739622507237 1.8503652147517755 0 0 0 0 -2.4064884590615812 1.179828385920453 0 1.179828385920453 0.87541240748208082 0 0 0 0 -12.089176775453211 3.6102366768898833 0 3.6102366768898833 1.7099480364668125 0 0 0 0 -19.599288194106521 25.967626820838632 0 25.967626820838632 -21.60777888999894 0 0 0 0 -6.7286734427857482 -3.5707351569355978 0 -3.5707351569355978 -8.1792237645586283 0 0 0 0 -2.6623231543469004 -1.2215284984958279 0 -1.2215284984958279 -0.19819555841143277 0 0 0 0 -13.585083485158066 6.2380189196514948 0 6.2380189196514948 -19.203134989855243 0 0 0 0 -11.182896001916561 16.002907835121732 0 16.002907835121732 -6.412117305911238 0 0 0 0 -16.993656260874559 9.3888983782599098 0 9.3888983782599098 -2.4782136898513727 0 0 0 0 -7.4819573513330901 0.78008921344735427 0 0.78008921344735427 -0.25050615561293554 0 0 0 0 -19.361752651710503 18.608225372464403 0 18.608225372464403 -4.2818993700566352 0 0 0 0 -8.0716254674071024 -1.1843156956019811 0 -1.1843156956019811 25.261409876622565 0 0 0 0 -19.135818121631019 28.683252908907889 0 28.683252908907889 14.224233722524787 0 0 0 0 -12.425496084041697 10.802936894094273 0 10.802936894094273 34.153716983742925 0 0 0 0 -13.76897115796919 -7.9807085387440111 0 -7.9807085387440111 56.627072665738524 0 0 0 0 24.85243744924901 -24.103902939477848 0 -24.103902939477848 39.593722157263983 0 0 0 0 -6.3512619029934285 16.969660563589059 0 16.969660563589059 40.286077401228795 0 0 0 0 15.03631687619054 58.737421608165278 0 58.737421608165278 42.575246483082765 0 0 0 0 -0.28579657986119855 92.582194681509918 0 92.582194681509918 62.205367763079266 0 0 0 0 2.8528250454745319 -25.644644771802248 0 -25.644644771802248 22.560731804263924 0 0 0 0 -0.68410322578739269 0.59211896880379911 0 0.59211896880379911 -0.94260428718724398 0 0 0 0 -0.051966212264109135 10.92387897558339 0 10.92387897558339 0.73959238055784482 0 0 0 0 21.774464049096423 2.6392514225135528 0 2.6392514225135528 -6.3302099535312664 0 0 0 0 -34.809887152089686 3.0011344669997015 0 3.0011344669997015 14.658567111670891 0 0 0 0 3.3077240842758187 1.4340454960718887 0 1.4340454960718887 -0.25274632645670536 0 0 0 0 1.0968140522008372 10.596579877620723 0 10.596579877620723 2.3547214106379073 0 0 0 0 10.802880385539538 11.01065912589138 0 11.01065912589138 4.6919309884269751 0 0 0 0 25.660376029089093 11.346626147769712 0 11.346626147769712 -6.6679003160206776 0 0 0 0 -41.857399028348482 21.049748876239846 0 21.049748876239846 25.206185390741666 0 0 0 0 7.9274344069979179 -1.9549238022418649 0 -1.9549238022418649 -27.512978062706679 0 0 0 0 6.8046697125864739 20.058105569952204 0 20.058105569952204 -11.73033685275459 0 0 0 0 -0.54799431204199323 -0.054329396079516812 0 -0.054329396079516812 0.53054324002678044 0 0 0 0 9.5602090716133716 31.369718676568482 0 31.369718676568482 13.737799002572501 0 0 0 0 11.302376446821576 11.039231203204277 0 11.039231203204277 6.8122672646729017 0 0 0 0 0.46384279707459797 2.4058447583922646 0 2.4058447583922646 3.4432375077340875 0 0 0 0 8.050404491566951 15.077320230634996 0 15.077320230634996 -13.408262457880483 0 0 0 0 8.8870241489639739 12.897956074069953 0 12.897956074069953 -15.546844978316585 0 0 0 0 11.763960742085146 21.97401102110598 0 21.97401102110598 11.911818508533543 0 0 0 0 15.576201702962862 20.13659476121029 0 20.13659476121029 -12.161773181112949 0 0 0 0 0.69198585683625424 12.162672409100196 0 12.162672409100196 5.95131943213255 0 0 0 0 4.5097779754486851 34.533186195546534 0 34.533186195546534 2.0049564218224987 0 0 0 0 11.466257454658262 19.101653105271907 0 19.101653105271907 -0.46811761544904584 0 0 0 0 6.7206696359553462 14.288448478421742 0 14.288448478421742 5.5379936221088428 0 0 0 0 7.1757911601754856 13.741019039394605 0 13.741019039394605 3.446659664760432 0 0 0 0 11.149983375235024 14.991704163808208 0 14.991704163808208 -12.761558906686332 0 0 0 0 7.6308871341134221 11.269706120891419 0 11.269706120891419 9.7071747645783724 0 0 0 0 0.3063501276083116 51.487233275350263 0 51.487233275350263 -26.374688144755964 0 0 0 0 -14.311388162379444 26.326875488681253 0 26.326875488681253 -16.012783653752194 0 0 0 0 32.846448938646063 11.119863201217868 0 11.119863201217868 -27.241078614899834 0 0 0 0 15.194150417733908 29.917968209655101 0 29.917968209655101 -36.308071171669553 0 0 0 0 -8.4283346890106259 34.588663479771469 0 34.588663479771469 -8.3426685752888261 0 0 0 0 -31.751963006358437 35.379718121526366 0 35.379718121526366 16.666833935578325 0 0 0 0 -57.391106794073494 20.558646069774113 0 20.558646069774113 30.948315887556419 0 0 0 0 -24.17439381215263 17.254209728292153 0 17.254209728292153 28.351224848246602 0 0 0 0 -63.996809161328201 -13.756668399289538 0 -13.756668399289538 44.661868302346193 0 0 0 0 -38.096933678761161 26.984427084879826 0 26.984427084879826 31.499807948241141 0 0 0 0 -24.301847416845703 31.709899080868126 0 31.709899080868126 21.051545368207371 0 0 0 0 -26.704749695909413 23.166189336385287 0 23.166189336385287 -1.9287274544840329 0 0 0 0 -35.459944796170021 41.339822634663506 0 41.339822634663506 15.300046538157403 0 0 0 0 -20.89797380206528 31.777571061767958 0 31.777571061767958 16.296452697155473 0 0 0 0 -15.845833053746901 37.339337573802368 0 37.339337573802368 1.6445083839798826 0 0 0 0 -41.623179804573738 54.265737284673378 0 54.265737284673378 0.60733160970085009 0 0 0 0 -20.181617920900862 40.379508080395226 0 40.379508080395226 7.1494766166506452 0 0 0 0 -13.115919335745275 49.226685922114029 0 49.226685922114029 -2.0110690624042036 0 0 0 0 -8.5224296320502617 39.92797730428174 0 39.92797730428174 -20.252215130214609 0 0 0 0 -48.010897055208261 37.319785378896995 0 37.319785378896995 -16.99985292283236 0 0 0 0 -60.726841835108644 54.359926881749743 0 54.359926881749743 1.1585484852439549 0 0 0 0 -41.91378242394785 46.418628824304506 0 46.418628824304506 4.3814103480181075 0 0 0 0 -64.553542603360256 40.451551899383048 0 40.451551899383048 15.925111849188397 0 0 0 0 -61.936219721881798 32.208175938065779 0 32.208175938065779 20.894575109661673 0 0 0 0 -76.49757279113328 28.708390206932563 0 28.708390206932563 28.531762213282491 0 0 0 0 -98.115397344923622 47.056410292243527 0 47.056410292243527 21.808549304196163 0 0 0 0 -112.3010761223768 67.082646300897068 0 67.082646300897068 -6.4565718715930416 0 0 0 0 -62.421659937967434 60.693214525110307 0 60.693214525110307 -22.503853179019643 0 0 0 0 -114.58894072740077 25.846197932376526 0 25.846197932376526 33.384596038851669 0 0 0 0 -108.86406473867464 -5.133500263359565 0 -5.133500263359565 56.601164147838062 0 0 0 0 -111.91630431789326 31.187788858406748 0 31.187788858406748 38.788436155394265 0 0 0 0 -117.45872372309032 22.353079558084573 0 22.353079558084573 79.141349288936908 0 0 0 0 -128.87559796956157 1.1946515880817969 0 1.1946515880817969 69.638453419704092 0 0 0 0 -76.91711146344484 3.0506958823475259 0 3.0506958823475259 44.182230791568145 0 0 0 0 -62.627258490911117 -18.134702038280921 0 -18.134702038280921 55.671574913110817 0 0 0 0 -166.52396876527564 -45.919569204125764 0 -45.919569204125764 86.330538662599338 0 0 0 0 -59.495575921729142 49.511676940950565 0 49.511676940950565 -15.354248325218578 0 0 0 0 -183.07892923522007 55.055568478972987 0 55.055568478972987 72.570972481522404 0 0 0 0 -43.387607587738785 21.510576865719486 0 21.510576865719486 65.015034696896691 0 0 0 0 -89.917114414120988 44.102675407539664 0 44.102675407539664 73.324504915557554 0 0 0 0 -85.739788930256509 25.510366338203312 0 25.510366338203312 61.588441242690351 0 0 0 0 -84.123978944137889 41.249750370589936 0 41.249750370589936 93.711504538776353 0 0 0 0 -32.704584586621422 86.678619481226633 0 86.678619481226633 86.234828808107522 0 0 0 0 42.70277783770689 66.07669374512443 0 66.07669374512443 66.582401104297787 0 0 0 0 55.261560812579773 115.32207316953736 0 115.32207316953736 81.824025968078786 0 0 0 0 106.13784906788078 117.66112956100278 0 117.66112956100278 68.845415180716373 0 0 0 0 79.265935546283799 109.91050234021623 0 109.91050234021623 65.42481448908984 0 0 0 0 72.658546006657161 119.27673761521828 0 119.27673761521828 69.186830312090024 0 0 0 0 112.53119809801865 145.19685008757369 0 145.19685008757369 79.401446212829342 0 0 0 0 68.118464214862797 119.83908679598062 0 119.83908679598062 90.357633373554563 0 0 0 0 55.144605403379956 127.82008527717699 0 127.82008527717699 100.71884897667587 0 0 0 0 7.8279450839936544 89.006678422179903 0 89.006678422179903 87.501370826458242 0 0 0 0 49.524364220123061 66.776472072474462 0 66.776472072474462 82.688663289339274 0 0 0 0 -69.759823890517509 61.509760585550794 0 61.509760585550794 74.794031261605596 0 0 0 0 20.034563418266544 79.05354964159028 0 79.05354964159028 48.733605115394312 0 0 0 0 -3.7172218801063082 25.077299692082761 0 25.077299692082761 19.640794684506545 0 0 0 0 -72.94592672287763 49.023495651709254 0 49.023495651709254 23.914609001486497 0 0 0 0 2.9087771111056213 61.892471179913741 0 61.892471179913741 109.52503634790264 0 0 0 0 32.931848164520943 -19.300099540144402 0 -19.300099540144402 38.454519829520905 0 0 0 0 20.610272469279153 -32.494624619427213 0 -32.494624619427213 -54.28145269244942 0 0 0 0 -8.3899182913348795 7.5439369561349849 0 7.5439369561349849 21.042640793060855 0 0 0 0 -17.200027321791822 -14.953682571813488 0 -14.953682571813488 -9.2068397754646867 0 0 0 0 -164.93605343130821 19.627011383355239 0 19.627011383355239 23.951089106132713 0 0 0 0 -95.599973457897249 54.839893794719501 0 54.839893794719501 -47.469870539878855 0 0 0 0 -161.36649395037148 23.176511417870643 0 23.176511417870643 2.6896030873865584 0 0 0 0 -0.26264721231043708 -0.18094301275145552 0 -0.18094301275145552 0.6511439085586872 0 0 0 0 -40.501636109395349 5.0598941774533159 0 5.0598941774533159 5.9434353061624279 0 0 0 0 -1.3999486210881322 -0.20436006201667301 0 -0.20436006201667301 0.2291454750850157 0 0 0 0 -136.69671005293549 107.4026316851141 0 107.4026316851141 -78.648916710635604 0 0 0 0 -35.905529514898262 -79.092398729809702 0 -79.092398729809702 94.585248767660232 0 0 0 0 -221.59452832505258 39.933039371519953 0 39.933039371519953 27.107093187317332 0 0 0 0 -124.37848019219382 -17.209222591857724 0 -17.209222591857724 3.0239382911988741 0 0 0 0 -0.083949607816066418 23.335265434786265 0 23.335265434786265 -9.6290959440998449 0 0 0 0 -50.235911961828606 39.533821647556124 0 39.533821647556124 15.103333933571776 0 0 0 0 -133.84398408007473 15.545948470900157 0 15.545948470900157 9.6851304783624528 0 0 0 0 -0.34600966297803737 1.0781099942584831 0 1.0781099942584831 0.25483105578532772 0 0 0 0 -13.848270601941294 38.123744598584153 0 38.123744598584153 -3.8684513511461773 0 0 0 0 -18.005520391323671 14.225856128666521 0 14.225856128666521 -1.102748462884847 0 0 0 0 -78.423519327512622 3.7750361316752787 0 3.7750361316752787 5.3160265223946794 0 0 0 0 -1.4217358638911115 3.05942373658214 0 3.05942373658214 -2.1142492135148601 0 0 0 0 -20.048572865845927 12.367144135706894 0 12.367144135706894 2.0365405364809703 0 0 0 0 -18.736148534924723 14.212740445387681 0 14.212740445387681 2.1632372266881248 0 0 0 0 77.835466427332904 35.107528033804329 0 35.107528033804329 68.879401960044561 0 0 0 0 150.20431106625438 60.366311458963992 0 60.366311458963992 44.470471756692859 0 0 0 0 94.148245550648426 91.73261607756649 0 91.73261607756649 41.92815877084945 0 0 0 0 104.23812336755145 67.671767736969741 0 67.671767736969741 -0.011731511637663061 0 0 0 0 214.59638753723448 134.04230399652806 0 134.04230399652806 83.476320544310511 0 0 0 0 176.57910980904671 41.704570435416827 0 41.704570435416827 -30.164679373581748 0 0 0 0 209.12952658676249 145.4664133125824 0 145.4664133125824 81.764874412081554 0 0 0 0 275.76828614523311 202.26704757325228 0 202.26704757325228 116.73094420406323 0 0 0 0 322.18680661240796 157.8679400573219 0 157.8679400573219 81.396700192025563 0 0 0 0 224.06303019407278 127.01545739736821 0 127.01545739736821 81.661500906988294 0 0 0 0 -1.003640809665777 2.2257390886149757 0 2.2257390886149757 -0.25715483604479772 0 0 0 0 169.72008996013483 68.86819916926288 0 68.86819916926288 73.714952762779831 0 0 0 0 287.49796036637053 136.08128161936202 0 136.08128161936202 39.866535595243022 0 0 0 0 355.87805465443398 195.56081203288068 0 195.56081203288068 91.32058015454686 0 0 0 0 295.37568836773971 188.50223193472038 0 188.50223193472038 114.8072121761079 0 0 0 0 4.269401030627705 3.4217233526976543 0 3.4217233526976543 -1.1743684801440395 0 0 0 0 389.02634955647227 219.7988654702749 0 219.7988654702749 95.740295195402723 0 0 0 0 313.68722110715498 260.55399876647959 0 260.55399876647959 227.18881908371259 0 0 0 0 2.4926126972541454 6.2241497377715884 0 6.2241497377715884 6.6136307496154565 0 0 0 0 -1.164614465500776 0.23386062178347977 0 0.23386062178347977 1.4658458120749511 0 0 0 0 273.54229530846214 175.0153695997659 0 175.0153695997659 148.12137532745874 0 0 0 0 2.0982419607971678 3.6342423167334346 0 3.6342423167334346 10.563167349959258 0 0 0 0 -6.9532727115883972 8.3661078552763684 0 8.3661078552763684 8.2610838632340347 0 0 0 0 -5.4523642985823244 11.129207752319871 0 11.129207752319871 7.6556759274872093 0 0 0 0 -10.403445827589167 15.924566158948437 0 15.924566158948437 13.366669772956357 0 0 0 0 -7.8007416057384944 2.4446885467825723 0 2.4446885467825723 6.0690984829780064 0 0 0 0 -21.225440270109175 8.1636938680280764 0 8.1636938680280764 20.27534269822263 0 0 0 0 -5.4261574011397897 7.8448002916038604 0 7.8448002916038604 8.4994125718399118 0 0 0 0 -2.1143108274347497 1.4255707298444555 0 1.4255707298444555 5.9283618472886914 0 0 0 0 300.27406525784818 206.15420278013869 0 206.15420278013869 100.57436586334097 0 0 0 0 298.92400020379455 214.95166027669234 0 214.95166027669234 111.29381967517475 0 0 0 0 239.65819551663662 117.44412594437608 0 117.44412594437608 101.12910053300322 0 0 0 0 206.70473132464031 132.2717918282865 0 132.2717918282865 126.99589176298014 0 0 0 0 216.36780703747718 134.34988044952206 0 134.34988044952206 47.470434191974164 0 0 0 0 -1.2765484105197693 1.1792993015534385 0 1.1792993015534385 1.1043076962947183 0 0 0 0 272.14011776245752 122.09385799825714 0 122.09385799825714 54.877039603619778 0 0 0 0 -28.204383675269128 -4.6288274813532553 0 -4.6288274813532553 9.7497630193902296 0 0 0 0 -2.1954319366088342 1.2742202188991811 0 1.2742202188991811 2.9945959592792555 0 0 0 0 -24.916972816385396 6.5499420848487944 0 6.5499420848487944 6.7163557655967452 0 0 0 0 -18.893847917715902 1.3364917607505049 0 1.3364917607505049 11.205468863171518 0 0 0 0 -19.682554065353543 15.941879399435948 0 15.941879399435948 21.252014001736825 0 0 0 0 -21.548321997228413 -6.1629137239510783 0 -6.1629137239510783 -1.8774946663197625 0 0 0 0 -61.613695315017139 -7.5560910098433851 0 -7.5560910098433851 4.7016967553499853 0 0 0 0 -43.408178909831804 12.426111609273448 0 12.426111609273448 13.394087442178716 0 0 0 0 -5.3073564538972278 30.6206855096043 0 30.6206855096043 7.4343712876675454 0 0 0 0 0.83395298300092691 16.332954400392737 0 16.332954400392737 11.322204566912433 0 0 0 0 -9.3788650922742818 22.853324742145105 0 22.853324742145105 14.062151082780474 0 0 0 0 13.677798617231019 26.723992272362921 0 26.723992272362921 14.517650593974054 0 0 0 0 -4.3935686647691909 5.055940033092611 0 5.055940033092611 26.839683936630536 0 0 0 0 0.95009175708537441 17.28118121626494 0 17.28118121626494 23.621260713947777 0 0 0 0 -9.6896480145278474 28.125918497783459 0 28.125918497783459 40.85334020087339 0 0 0 0 3.1734276119314018 6.3038060692015279 0 6.3038060692015279 76.936329424494033 0 0 0 0 -12.288254119561316 18.818900289912108 0 18.818900289912108 9.3472680625218345 0 0 0 0 -2.6755492983029399 20.255371332122195 0 20.255371332122195 9.4516269187984108 0 0 0 0 -3.9033086435738369 20.803617492649209 0 20.803617492649209 -7.4176332361203094 0 0 0 0 22.394740760126297 72.499621515657054 0 72.499621515657054 83.418936588701285 0 0 0 0 9.5197793312181602 33.639552993799953 0 33.639552993799953 -9.4611345993216673 0 0 0 0 2.7363760482667203 24.134487152719885 0 24.134487152719885 -13.333474931672754 0 0 0 0 1.2347636959802344 10.524893252987511 0 10.524893252987511 -3.0491515193807572 0 0 0 0 1.0660070011417702 8.1659937632184665 0 8.1659937632184665 -18.59555865898642 0 0 0 0 0.83781947759234754 7.4400436999364956 0 7.4400436999364956 -0.20852603444973283 0 0 0 0 -0.010624804390317877 6.4232774697659352 0 6.4232774697659352 -4.9573477985409227 0 0 0 0 3.3861467860663943 7.3012187505988031 0 7.3012187505988031 4.4159901152030621 0 0 0 0 2.7756881756574714 3.9856653930459096 0 3.9856653930459096 0.77044420159308835 0 0 0 0 -1.369447544332818 3.2500627437036975 0 3.2500627437036975 -1.3374627840191202 0 0 0 0 0.89292787293379661 13.464309779695213 0 13.464309779695213 1.8314249990326061 0 0 0 0 4.5129208512516925 11.23759671807511 0 11.23759671807511 -0.60026946793914249 0 0 0 0 -0.4801236684070318 9.8251480028484366 0 9.8251480028484366 2.6753827468874078 0 0 0 0 -1.2329395617962291 10.507181037044575 0 10.507181037044575 5.5408128425515315 0 0 0 0 2.3815497214745847 16.089804785375236 0 16.089804785375236 6.4499228166448574 0 0 0 0 1.5380080177565105 19.360912722179819 0 19.360912722179819 -5.1769049146932957 0 0 0 0 5.3005679025286518 4.2746233899274406 0 4.2746233899274406 0.98411422133131765 0 0 0 0 5.6903383972494339 15.24632541725714 0 15.24632541725714 -5.4886213391200727 0 0 0 0 2.1931466229846919 3.1237644948593122 0 3.1237644948593122 1.4998905287071214 0 0 0 0 5.2960921325757226 12.002604145732221 0 12.002604145732221 -9.4536003458433697 0 0 0 0 24.768165787369071 -0.10059081294707539 0 -0.10059081294707539 -18.057714345877912 0 0 0 0 16.027969229400753 3.4386246257354713 0 3.4386246257354713 -14.969727699830401 0 0 0 0 17.301237312938611 -10.479486065459923 0 -10.479486065459923 4.5701584106941482 0 0 0 0 10.264829797259154 -3.0102081951029049 0 -3.0102081951029049 -2.4262119603317842 0 0 0 0 38.871400969452225 -9.2609581846536457 0 -9.2609581846536457 -12.203871258564959 0 0 0 0 26.977850420706091 15.122910505248456 0 15.122910505248456 -15.82596356746717 0 0 0 0 -2.9232982771958973 9.4367184563328053 0 9.4367184563328053 -15.025132510889762 0 0 0 0 11.210267037666199 2.9280720801268671 0 2.9280720801268671 -10.431123010267811 0 0 0 0 0.78141443652357978 0.91201205312339084 0 0.91201205312339084 -0.80121243619711091 0 0 0 0 3.4717695576418919 6.764866262706164 0 6.764866262706164 3.6646779505263112 0 0 0 0 16.239629640214844 2.0633474703145112 0 2.0633474703145112 -13.037253298394489 0 0 0 0 5.1029671272525761 7.1283701943732103 0 7.1283701943732103 2.6012618307553033 0 0 0 0 4.1723419770542023 5.0994296662215675 0 5.0994296662215675 1.275545502667228 0 0 0 0 0.89398480587260565 1.8918494261688465 0 1.8918494261688465 -4.2173820969474036 0 0 0 0 2.9519514163688498 5.088942852419521 0 5.088942852419521 0.260806800606316 0 0 0 0 1.5034897935711982 4.3919743947902639 0 4.3919743947902639 -0.74814696070452946 0 0 0 0 2.9751379485169309 9.4091297287341149 0 9.4091297287341149 1.2477265470224665 0 0 0 0 -0.12473175238665135 2.3453681546488951 0 2.3453681546488951 -0.50096899147683871 0 0 0 0 4.1879886866772722 4.0946286670250629 0 4.0946286670250629 -2.9165082110648655 0 0 0 0 1.4865985116483671 1.0919878813033961 0 1.0919878813033961 -2.3646141910476901 0 0 0 0 1.2410306496021803 2.2214795355580463 0 2.2214795355580463 -0.88619078831129627 0 0 0 0 0.46484205748662077 2.3475942510063383 0 2.3475942510063383 0.93247790138309306 0 0 0 0 4.9020532587055641 3.162963857995237 0 3.162963857995237 1.5185792276312782 0 0 0 0 -1.055137574847322 5.8350142360086465 0 5.8350142360086465 -0.29085948615829693 0 0 0 0 1.6313622436208419 3.0656786004587238 0 3.0656786004587238 -1.3335169023472342 0 0 0 0 -0.25079703253681629 0.40050874807427306 0 0.40050874807427306 0.70014695936648152 0 0 0 0 1.7311944359098561 0.3936951131290698 0 0.3936951131290698 -8.434570091394562 0 0 0 0 -2.972906165045174 8.6457772577836352 0 8.6457772577836352 2.5234727492570528 0 0 0 0 2.2530213597419788 10.078169775681772 0 10.078169775681772 1.0869893780218263 0 0 0 0 2.8477876331453444 -11.742060802801007 0 -11.742060802801007 -6.3778091822827037 0 0 0 0 3.9927369445488239 10.945406197923631 0 10.945406197923631 0.13295357365404925 0 0 0 0 0.84846726290633612 1.7119660631157387 0 1.7119660631157387 -2.5711584373095047 0 0 0 0 1.2552933586664494 2.3743770112068034 0 2.3743770112068034 -1.4851111547322944 0 0 0 0 0.065084394036460935 0.31800498567806912 0 0.31800498567806912 0.23790272957788794 0 0 0 0 6.274287815443131 -5.802621940913582 0 -5.802621940913582 -10.315569806788517 0 0 0 0 -4.5265341872727731 4.594038158071271 0 4.594038158071271 3.5775253025681195 0 0 0 0 1.349356336594262 2.3660400278662372 0 2.3660400278662372 -2.152131702806904 0 0 0 0 0.86049225374517846 -0.51051189113786677 0 -0.51051189113786677 -5.1018541094081229 0 0 0 0 0.94935837806406198 1.7559376234989941 0 1.7559376234989941 -0.14040649288290297 0 0 0 0 1.2664275841650721 1.1024170038235521 0 1.1024170038235521 0.14592642173127235 0 0 0 0 4.7210141220493824 1.3459446404572191 0 1.3459446404572191 2.339315873616215 0 0 0 0 0.75220122500432751 1.3588416223464108 0 1.3588416223464108 -0.73671181544384279 0 0 0 0 0.51352136489367695 2.7362057074751647 0 2.7362057074751647 -0.26354434397717341 0 0 0 0 2.6678449483456532 0.73561594080189252 0 0.73561594080189252 -1.1896368757804883 0 0 0 0 3.6156908464196533 -0.23360051459132158 0 -0.23360051459132158 -5.1328098132052684 0 0 0 0 1.477506740600802 1.081214104542596 0 1.081214104542596 -0.16695818600146595 0 0 0 0 1.1682365296491426 1.2697916787088417 0 1.2697916787088417 -1.2458455410255436 0 0 0 0 1.8201942380692344 1.2229322335647339 0 1.2229322335647339 -2.5416272963402662 0 0 0 0 1.5344415364760167 2.2794959213614305 0 2.2794959213614305 -0.61143489873137291 0 0 0 0 2.5862215307657053 1.7058819341633491 0 1.7058819341633491 -1.5893546136020422 0 0 0 0 1.3198366816141061 1.5375033542779875 0 1.5375033542779875 1.5175905750729726 0 0 0 0 1.6446561409164815 3.0359695013688821 0 3.0359695013688821 0.94161335542230518 0 0 0 0 4.5294098239937739 7.2246490322509089 0 7.2246490322509089 -2.8064827241560124 0 0 0 0 -0.92101174554773024 3.4305827687471719 0 3.4305827687471719 2.8891812575884614 0 0 0 0 0.45731964943479397 4.1635607142561639 0 4.1635607142561639 0.66932826721131278 0 0 0 0 1.9197546233277194 2.4280051098830686 0 2.4280051098830686 0.67270676668720952 0 0 0 0 -1.6102130907784158 4.9836391349908808 0 4.9836391349908808 0.5875579360294978 0 0 0 0 2.0879340629817449 4.2727666293561182 0 4.2727666293561182 3.6563904280459241 0 0 0 0 1.498579453068821 3.3778288627383306 0 3.3778288627383306 2.7870507282369612 0 0 0 0 -1.3539590913314896 7.3888257252610856 0 7.3888257252610856 3.1821850042715596 0 0 0 0 -4.5010647278140823 14.718767150309759 0 14.718767150309759 -4.2525527144016451 0 0 0 0 1.4949466519742955 3.414630120723134 0 3.414630120723134 5.1619194648707136 0 0 0 0 0.73667359409046185 6.3050325444082773 0 6.3050325444082773 -1.4878809838392044 0 0 0 0 2.8434098052555257 3.2491804340193937 0 3.2491804340193937 2.9477267523509916 0 0 0 0 3.2432120622579532 10.8992634507199 0 10.8992634507199 8.1566501686684205 0 0 0 0 -0.70113743387695138 0.41212140526387575 0 0.41212140526387575 0.96375170800959964 0 0 0 0 -0.020148377038708174 122.37805827012754 0 122.37805827012754 80.06370552738872 0 0 0 0 -0.014696307911972184 1.4849345486692407 0 1.4849345486692407 1.3355167439346083 0 0 0 0 2.1145548660635995 3.4310740199225904 0 3.4310740199225904 1.7319636981010262 0 0 0 0 5.5129239469642926 18.224741390676172 0 18.224741390676172 -3.8579356125869708 0 0 0 0 298.72004970220792 205.36109089334141 0 205.36109089334141 106.56800163876051 0 0 0 0 -1.5521945970289046 0.95086894239947384 0 0.95086894239947384 1.5384641120093789 0 0 0 0 25.05756464497972 -6.1394890399069482 0 -6.1394890399069482 39.526598425603879 0 0 0 0 121.29934574613617 219.06158302359779 0 219.06158302359779 122.98099121509676 0 0 0 0 -1.7042560172376398 -0.56726368343379363 0 -0.56726368343379363 36.711570019462215 0 0 0 0 25.548294536554749 -11.536893200165196 0 -11.536893200165196 3.0000041048106141 0 0 0 0 0.26133517054287836 0.07114758933979104 0 0.07114758933979104 -0.046353735084110781 0 0 0 0 -2.5024674169890204 27.190005952971887 0 27.190005952971887 24.524633749955683 0 0 0 0 4.4303463834714023 12.44306495043736 0 12.44306495043736 10.219435445573254 0 0 0 0 1.6430134758657857 3.1699852336439278 0 3.1699852336439278 2.8350178111631976 0 0 0 0 -1.9364010996141587 3.7034375091598122 0 3.7034375091598122 4.5372767886533438 0 0 0 0 1.35516063037403 1.7532343538339319 0 1.7532343538339319 2.8349621572651813 0 0 0 0 1.0520022587127755 0.30959755498372843 0 0.30959755498372843 -0.82755377800493335 0 0 0 0 6.7731377907966817 0.13776219018222946 0 0.13776219018222946 -3.5067613344144775 0 0 0 0 3.5226157293545839 -2.3044830257240392 0 -2.3044830257240392 -2.2957915099341335 0 0 0 0 6.4177766561442695 0.9784391324990338 0 0.9784391324990338 -4.7975898518270697 0 0 0 0 -0.17960931523204238 -1.019316139370229 0 -1.019316139370229 -0.8063929077974703 0 0 0 0 3.5849778762713669 1.5918641474132702 0 1.5918641474132702 -0.731974207348844 0 0 0 0 3.7298298594323569 3.211770938841255 0 3.211770938841255 3.3975717620535306 0 0 0 0 5.3041263125178375 3.9938013826294991 0 3.9938013826294991 -3.3607822066469453 0 0 0 0 6.4450141021807212 1.3773341924643319 0 1.3773341924643319 -6.3025332719284961 0 0 0 0 6.636265641071077 7.947166538606325 0 7.947166538606325 0.1643700662223182 0 0 0 0 4.8217969361685391 0.66270584169978974 0 0.66270584169978974 -9.1987191711791638 0 0 0 0 4.5067064116774418 3.2943896348867838 0 3.2943896348867838 -3.7854082071055473 0 0 0 0 6.2737343624567075 10.864770290174192 0 10.864770290174192 -6.0638469435552906 0 0 0 0 2.6519631925020803 7.5741838798596746 0 7.5741838798596746 3.8857401810228112 0 0 0 0 12.404172801070672 2.1087981303985543 0 2.1087981303985543 -7.980115433840183 0 0 0 0 31.566160291823962 8.1000270720372782 0 8.1000270720372782 -10.137644184651435 0 0 0 0 40.808274914155845 72.784185061399057 0 72.784185061399057 112.10705051496325 0 0 0 0 -1.6652105541530737 1.3612540104416198 0 1.3612540104416198 2.8586376264414408 0 0 0 0 59.859857813369672 75.85446044278433 0 75.85446044278433 94.509586502600996 0 0 0 0 3.5700744252675918 1.6679485928369822 0 1.6679485928369822 -0.96014729830699519 0 0 0 0 0.23468915567170967 0.018583866913971292 0 0.018583866913971292 0.59008689550549365 0 0 0 0 -0.59818536226191554 0.1407940476174403 0 0.1407940476174403 0.13468629138254995 0 0 0 0 0.078764995438177721 43.622719406859915 0 43.622719406859915 45.806782186663725 0 0 0 0 -0.25392262651075725 1.1757081953676902 0 1.1757081953676902 0.49508704817912985 0 0 0 0 -0.11973675824174279 1.5225919227740974 0 1.5225919227740974 1.3873233986159903 0 0 0 0 15.118710656446638 5.5028834060187819 0 5.5028834060187819 0.42725551128296502 0 0 0 0 -0.11912167358241277 40.988783485382555 0 40.988783485382555 1.3454318172287003 0 0 0 0 -6.1720525253476808 15.899129298260959 0 15.899129298260959 36.720709038081395 0 0 0 0 -10.292845877738728 -25.044771365285783 0 -25.044771365285783 -40.430338464052056 0 0 0 0 21.130766601227151 24.598724397855221 0 24.598724397855221 -40.462323347671372 0 0 0 0 -0.44697152490262582 0.26116213427489399 0 0.26116213427489399 0.070372378261474466 0 0 0 0 0.0046344750224841941 2.9556612500545034 0 2.9556612500545034 2.297165262199087 0 0 0 0 3.2221272040042095 3.0178824654960863 0 3.0178824654960863 -1.3605649717283086 0 0 0 0 -0.83687740602181293 -8.7672166294705676 0 -8.7672166294705676 -14.852942064401304 0 0 0 0 0.0096145073192559494 1.0404584654416098 0 1.0404584654416098 0.033606303803889404 0 0 0 0 5.4186212384011014 1.1001487201864393 0 1.1001487201864393 -8.9251786333461496 0 0 0 0 13.18310668745471 1.200698926482346 0 1.200698926482346 -14.550263830180867 0 0 0 0 8.7262539772900709 6.8447801198919365 0 6.8447801198919365 -3.859937818819617 0 0 0 0 9.4326953446452535 3.8633146982972448 0 3.8633146982972448 -1.3768605959118076 0 0 0 0 9.0547487121039012 0.41900249252125832 0 0.41900249252125832 -9.9217353653025384 0 0 0 0 10.957119095230155 4.2531617869603906 0 4.2531617869603906 -11.582599479709643 0 0 0 0 -6.4834900994355849 10.240576361742114 0 10.240576361742114 4.9813075530887545 0 0 0 0 17.551298853744811 -1.7038714523914678 0 -1.7038714523914678 -15.540969215709538 0 0 0 0 6.960030087375344 6.5913177923166586 0 6.5913177923166586 -9.0137487413830968 0 0 0 0 18.267092954605232 17.963710275892481 0 17.963710275892481 0.81487924576595105 0 0 0 0 -4.5676631312089739 13.535991020014308 0 13.535991020014308 -12.558503371255256 0 0 0 0 -0.19013357753475901 0.44438387230514209 0 0.44438387230514209 -0.095296000314161855 0 0 0 0 -2.8870432359043718 2.1898574830623758 0 2.1898574830623758 -0.82781758861368093 0 0 0 0 1.4044079636732931 5.0469198277437499 0 5.0469198277437499 4.4072891275022812 0 0 0 0 5.657903322007769 9.3410771521961351 0 9.3410771521961351 1.2858778056547635 0 0 0 0 -0.022373036430508364 2.8410715573868401 0 2.8410715573868401 1.3894023665429813 0 0 0 0 20.834827483005938 29.963149815822661 0 29.963149815822661 13.372486235635051 0 0 0 0 -1.5490960438609065 1.2256888846720209 0 1.2256888846720209 -0.51788831577062977 0 0 0 0 -2.222483413427689 1.1175162917199408 0 1.1175162917199408 0.52887196606504183 0 0 0 0 3.7368401970057761 0.60509499825076629 0 0.60509499825076629 -0.34104881598166925 0 0 0 0 7.081521536371838 4.8483974450369374 0 4.8483974450369374 -8.7031514767199951 0 0 0 0 -1.1248062198152127 1.7862492964128478 0 1.7862492964128478 -0.23371416460718741 0 0 0 0 -2.7606399311534915 6.3435446443096453 0 6.3435446443096453 4.0036708895891024 0 0 0 0 0.31934991047091899 10.436746403511279 0 10.436746403511279 1.1189387786569114 0 0 0 0 2.7671209756815571 0.34523031026418183 0 0.34523031026418183 -0.018998771340044573 0 0 0 0 -6.0167081039708137 22.460755574052087 0 22.460755574052087 -47.194755994638982 0 0 0 0 -17.659972741677393 -0.80949668722585955 0 -0.80949668722585955 -22.293485827524364 0 0 0 0 -7.7876061050974386 52.473374279806393 0 52.473374279806393 5.5697199682185783 0 0 0 0 -43.888603964549475 15.04088040656552 0 15.04088040656552 34.621532707458869 0 0 0 0 -36.819862031563389 1.1089509006286562 0 1.1089509006286562 7.3628183500643445 0 0 0 0 -26.577019276173814 -48.372894601815688 0 -48.372894601815688 11.993907836770177 0 0 0 0 -56.151528971593507 -17.825460426650125 0 -17.825460426650125 6.400421773855669 0 0 0 0 -2.448323288150867 2.4514017183016321 0 2.4514017183016321 -1.6768031871167599 0 0 0 0 -17.334040146462939 -12.38226459940347 0 -12.38226459940347 5.6310423993531913 0 0 0 0 12.28057609571988 7.2963377767259772 0 7.2963377767259772 -6.8411690656653263 0 0 0 0 12.670364063097622 18.648014105365064 0 18.648014105365064 -71.988768682494083 0 0 0 0 -0.63606880612628203 -0.13329495038206041 0 -0.13329495038206041 -0.99593288197332441 0 0 0 0 -14.715050526882806 -17.866270322348953 0 -17.866270322348953 -13.874321855502785 0 0 0 0 0.19906221101973642 -30.9132445399228 0 -30.9132445399228 21.544990996307206 0 0 0 0 71.239479832540383 -83.169900693342697 0 -83.169900693342697 57.351091898211507 0 0 0 0 -18.30796317267226 4.3238548019299241 0 4.3238548019299241 148.26259439385422 0 0 0 0 2.3085978287926991 -36.567413228328178 0 -36.567413228328178 -6.1038870466776416 0 0 0 0 -18.102758155800984 15.652728021082112 0 15.652728021082112 8.7297364032287987 0 0 0 0 224.93511226205919 73.286218449109242 0 73.286218449109242 45.173908788857716 0 0 0 0 -75.524697425771592 -15.291908671390502 0 -15.291908671390502 28.307300080478626 0 0 0 0 98.745726285251294 -50.0949876893294 0 -50.0949876893294 -66.880476436136178 0 0 0 0 -6.3204550980244676 -0.43758058610751505 0 -0.43758058610751505 -85.206975875799799 0 0 0 0 3.0165105311098159 -20.678475666808026 0 -20.678475666808026 -46.79618034230316 0 0 0 0 -12.043913004517492 103.97986900063529 0 103.97986900063529 100.43290009869816 0 0 0 0 0.0024071702188521726 0.039041723517868832 0 0.039041723517868832 0.37914474542275567 0 0 0 0 117.99256785205944 -8.6138457392039527 0 -8.6138457392039527 7.2599354807448435 0 0 0 0 77.935317723877233 6.0417879169431217 0 6.0417879169431217 -14.750177166577771 0 0 0 0 39.377504191335902 -22.692929273152231 0 -22.692929273152231 9.869797249942394 0 0 0 0 2.7805675351626036 -0.0069696054537544683 0 -0.0069696054537544683 0.045383953544177305 0 0 0 0 -8.6232408182477229 41.093445979246098 0 41.093445979246098 243.60991468260181 0 0 0 0 29.267854471285318 187.59208783903478 0 187.59208783903478 143.64093290682376 0 0 0 0 88.65203878882312 -10.63755134606447 0 -10.63755134606447 -81.846194321608209 0 0 0 0 106.44033115431739 97.973264750150975 0 97.973264750150975 47.829853383689624 0 0 0 0 110.91263697774048 4.107149992773202 0 4.107149992773202 -72.927341976463367 0 0 0 0 101.6860776013782 -13.135763533897602 0 -13.135763533897602 -116.87280849118929 0 0 0 0 1.1215412352167036 -0.028863833842769804 0 -0.028863833842769804 -0.014847388625226388 0 0 0 0 98.617651336902782 9.2904297446470991 0 9.2904297446470991 -74.415172121706917 0 0 0 0 93.873179496239231 61.637891621366407 0 61.637891621366407 4.4323409988135154 0 0 0 0 88.732292857389439 24.177941979669981 0 24.177941979669981 -7.6550887299091528 0 0 0 0 8.1424798546304373 13.63623821896536 0 13.63623821896536 7.4266722234108329 0 0 0 0 30.43593943801352 73.19384616525258 0 73.19384616525258 99.789062861407075 0 0 0 0 22.32372665553703 22.92721914270362 0 22.92721914270362 0.21954863671906821 0 0 0 0 -1.7201715653941463 5.8201790147294545 0 5.8201790147294545 -6.2658734521634916 0 0 0 0 6.3687411413766313 21.313316581960905 0 21.313316581960905 -23.512632889790723 0 0 0 0 1.1229155938920172 1.5443817860861504 0 1.5443817860861504 0.011902225467114169 0 0 0 0 24.752655873577169 26.160558716383662 0 26.160558716383662 16.822103723250166 0 0 0 0 10.888512686861304 67.983372067633994 0 67.983372067633994 16.201954579405196 0 0 0 0 9.0618148721932812 66.568074595467863 0 66.568074595467863 16.458632674655746 0 0 0 0 9.434161055702134 67.433460375862921 0 67.433460375862921 18.097193426479066 0 0 0 0 -33.759162055855995 50.077274041223802 0 50.077274041223802 11.551089612926489 0 0 0 0 10.561305107970838 67.183130580023132 0 67.183130580023132 14.630317876255049 0 0 0 0 -21.715868792129186 81.919537428615726 0 81.919537428615726 38.646936961278811 0 0 0 0 8.6834568367339671 90.106145342025314 0 90.106145342025314 10.623601943695824 0 0 0 0 9.3396591940636426 84.00919111608988 0 84.00919111608988 8.8130132127247407 0 0 0 0 5.9636212789496312 76.647587032157773 0 76.647587032157773 -4.5931110270079216 0 0 0 0 19.62882066682505 55.149763149044645 0 55.149763149044645 3.7905325567081718 0 0 0 0 20.508508407099725 41.824768270421373 0 41.824768270421373 15.394791435162574 0 0 0 0 11.81047019570542 34.950800229648962 0 34.950800229648962 23.183944427042313 0 0 0 0 17.885386839232524 49.658376613836083 0 49.658376613836083 -5.3661899729888773 0 0 0 0 18.272414150967961 45.449618169686687 0 45.449618169686687 -31.410478965377251 0 0 0 0 7.7555249428532989 11.930346319760247 0 11.930346319760247 -47.694068110165517 0 0 0 0 6.2748570541662048 -8.1100602821845769 0 -8.1100602821845769 -73.85037324421387 0 0 0 0 11.025082671458222 12.750060784359448 0 12.750060784359448 -52.254283988193933 0 0 0 0 19.07252024959962 41.804662481684204 0 41.804662481684204 -103.37533100548978 0 0 0 0 -4.0354176896998979 60.391927787860482 0 60.391927787860482 -66.536150766509536 0 0 0 0 18.09637143724467 72.850708229239416 0 72.850708229239416 -72.062268005822148 0 0 0 0 8.9293265069354675 74.69146613982366 0 74.69146613982366 -21.498376455548737 0 0 0 0 20.478716803623684 63.122363666954698 0 63.122363666954698 -43.372719712323772 0 0 0 0 20.330623741048839 83.299546108327718 0 83.299546108327718 -26.756827995351955 0 0 0 0 20.75818148558028 106.00490997163905 0 106.00490997163905 30.985419953486769 0 0 0 0 36.262710711494947 73.805920595627654 0 73.805920595627654 23.60755603549859 0 0 0 0 7.4272081751241785 96.389313829238404 0 96.389313829238404 7.6695335211906581 0 0 0 0 21.836338721856009 75.649891223704884 0 75.649891223704884 -24.297361771262331 0 0 0 0 -23.659309345515794 80.365750940966223 0 80.365750940966223 -24.781977296264756 0 0 0 0 -14.547812798351515 70.875141387247695 0 70.875141387247695 33.490111757568229 0 0 0 0 35.38914737984669 74.83281048086647 0 74.83281048086647 33.188725218180338 0 0 0 0 -0.028931668037330383 71.453662885511818 0 71.453662885511818 18.57549607985851 0 0 0 0 12.143157660301313 28.174354790604838 0 28.174354790604838 61.756044611065526 0 0 0 0 14.979110336045778 57.718775137106462 0 57.718775137106462 -46.467569516550725 0 0 0 0 0.050749388778058346 61.39567429855191 0 61.39567429855191 -117.04581448998249 0 0 0 0 -36.355246576153149 29.39359679118013 0 29.39359679118013 -59.358263977116394 0 0 0 0 3.2506895046535647 60.280693318424369 0 60.280693318424369 -78.207981017501879 0 0 0 0 -11.356035174527278 92.461531859374929 0 92.461531859374929 -154.6348407815367 0 0 0 0 -70.353712252999685 42.819747317519045 0 42.819747317519045 -82.230071928639973 0 0 0 0 -28.295911856731436 68.751092709277032 0 68.751092709277032 -148.08964526289253 0 0 0 0 4.5369961892429274 -32.687883238019026 0 -32.687883238019026 -194.00904090593986 0 0 0 0 0.36769228470060256 0.70413452110161856 0 0.70413452110161856 -0.020604116211523138 0 0 0 0 0.5575634370124618 0.31311631947436203 0 0.31311631947436203 -0.27934594224460713 0 0 0 0 -3.6409083237440427 37.476355197796181 0 37.476355197796181 -182.38486297490772 0 0 0 0 10.396190018995185 30.132233736198941 0 30.132233736198941 -150.66697777068839 0 0 0 0 -47.769150773992806 189.4848351550736 0 189.4848351550736 -204.4376758780254 0 0 0 0 -12.940894025442503 100.88726571613279 0 100.88726571613279 -11.813031658741238 0 0 0 0 0.045850851277918991 84.96176555922284 0 84.96176555922284 -70.473820649825939 0 0 0 0 10.888635678196135 -20.290732170625127 0 -20.290732170625127 1.9449596995327738 0 0 0 0 5.3783183292043759 23.525477897249857 0 23.525477897249857 10.448003527173114 0 0 0 0 11.56212349052883 15.154299732767253 0 15.154299732767253 12.943197815700735 0 0 0 0 -150.89735267837841 102.95128800978364 0 102.95128800978364 11.665961299323499 0 0 0 0 -260.78918566011635 110.93368848141154 0 110.93368848141154 21.307544233363842 0 0 0 0 0.29745425426230021 5.8911607596712816 0 5.8911607596712816 -0.2506152092594931 0 0 0 0 -154.16121470996222 170.06863451919116 0 170.06863451919116 30.628719659157241 0 0 0 0 104.81100102516666 54.396573049742074 0 54.396573049742074 -33.854068924849798 0 0 0 0 32.295116485450308 -29.749761099499551 0 -29.749761099499551 -46.354325438052911 0 0 0 0 -2.4297034794408319 25.505799063894301 0 25.505799063894301 16.337669997020839 0 0 0 0 133.37854492345195 80.499710284042521 0 80.499710284042521 -98.498178575000566 0 0 0 0 -2.5377863824735289 4.9102389275987246 0 4.9102389275987246 -8.8024937638178997 0 0 0 0 78.842156015949513 50.80186183017031 0 50.80186183017031 -20.246627389733476 0 0 0 0 -7.7451836839354655 -39.008715202180611 0 -39.008715202180611 -53.799396485734178 0 0 0 0 78.631832465431216 -47.013392546932664 0 -47.013392546932664 13.596440463590625 0 0 0 0 -38.306300114079932 57.139131958783764 0 57.139131958783764 69.197053336406498 0 0 0 0 -125.94878998071181 263.91720523055801 0 263.91720523055801 -220.41020586897503 0 0 0 0 126.89285310053401 -105.44483406283916 0 -105.44483406283916 20.624681567289372 0 0 0 0 274.19795972494921 -28.081257917522635 0 -28.081257917522635 -314.56873084194285 0 0 0 0 200.64742328126431 187.04209249292853 0 187.04209249292853 192.67845800460782 0 0 0 0 44.423439261816384 -84.641779691032752 0 -84.641779691032752 44.642283666690673 0 0 0 0 1.7125095370859267 -1.3394753486878948 0 -1.3394753486878948 0.98788965213021385 0 0 0 0 43.213277528961498 11.240862611562079 0 11.240862611562079 -32.642938487131687 0 0 0 0 -1.5452174240898788 7.3312627745873868 0 7.3312627745873868 -12.089296776113159 0 0 0 0 -2.8442486777130398 -28.296141546417857 0 -28.296141546417857 40.160882718823814 0 0 0 0 7.1495028210367941 -2.468163924022349 0 -2.468163924022349 -1.5136031041785252 0 0 0 0 97.008492246400237 118.62185158825559 0 118.62185158825559 127.36652612762737 0 0 0 0 112.31429603235893 110.22967376374891 0 110.22967376374891 93.093524906258608 0 0 0 0 72.850978284925532 98.345574154753194 0 98.345574154753194 94.800540130871013 0 0 0 0 71.747344499489373 72.152596842718594 0 72.152596842718594 126.07317247745686 0 0 0 0 37.94046570791776 99.101566864974302 0 99.101566864974302 106.51520109522971 0 0 0 0 38.07368649363891 17.977069435237105 0 17.977069435237105 70.879830927968214 0 0 0 0 -124.3047153530451 86.692219507503808 0 86.692219507503808 69.753359285874467 0 0 0 0 -122.98202277223027 25.02477297326368 0 25.02477297326368 144.03944344192041 0 0 0 0 -382.38826735683097 107.28536770820938 0 107.28536770820938 317.02486798287737 0 0 0 0 66.917415986698416 -27.70034745392536 0 -27.70034745392536 135.65824888733368 0 0 0 0 -197.81946930533786 277.66089416114528 0 277.66089416114528 -54.934320356715034 0 0 0 0 -98.125004869398254 160.77145629740971 0 160.77145629740971 -23.74608653555083 0 0 0 0 -132.5543655818301 174.87920638041805 0 174.87920638041805 98.942458463219737 0 0 0 0 -142.87163995372975 78.484559232138963 0 78.484559232138963 74.294915622950839 0 0 0 0 -66.87426778147119 96.640519159134101 0 96.640519159134101 68.103278359805699 0 0 0 0 -183.90110652447856 117.7009392657269 0 117.7009392657269 55.226331259558719 0 0 0 0 -132.57159944394698 45.827724535491143 0 45.827724535491143 101.34556345361307 0 0 0 0 -123.15770367538778 74.194075528798635 0 74.194075528798635 5.5240468895499362 0 0 0 0 -71.250073565459388 71.395709449556307 0 71.395709449556307 -57.69731310122188 0 0 0 0 -110.42838053398918 150.46781191442096 0 150.46781191442096 -96.086899609023021 0 0 0 0 -2.7007906135788282 0.92076816712764931 0 0.92076816712764931 4.0983838562193959 0 0 0 0 -34.323934833658313 -10.26358854047885 0 -10.26358854047885 113.52231125541675 0 0 0 0 -100.93097066275732 51.939731236059743 0 51.939731236059743 -60.70851176315773 0 0 0 0 -4.5126795696337467 108.60170809932947 0 108.60170809932947 -59.605187540480983 0 0 0 0 0.56019204703205538 2.8684492088085953 0 2.8684492088085953 2.803924225849677 0 0 0 0 -49.579522842495862 42.486229426491263 0 42.486229426491263 -32.799836576256894 0 0 0 0 -22.735241343525558 -1.8992816702439086 0 -1.8992816702439086 44.078803311403362 0 0 0 0 60.409099233398592 71.734263340236112 0 71.734263340236112 4.8485181240960173 0 0 0 0 22.926480472886546 19.711304939026931 0 19.711304939026931 11.69886888800977 0 0 0 0 -6.2183730973180591 12.452860162602455 0 12.452860162602455 18.159587775334863 0 0 0 0 90.010912886165897 -1.5428619933827576 0 -1.5428619933827576 6.7752533045131713 0 0 0 0 -5.795019504936878 0.35378118379346191 0 0.35378118379346191 5.0011892401414118 0 0 0 0 3.0831429652901043 7.6344377999682216 0 7.6344377999682216 6.8724905975765314 0 0 0 0 9.5844506426547014 6.1112511649075714 0 6.1112511649075714 14.290043555834245 0 0 0 0 18.68585455986431 25.131874144757376 0 25.131874144757376 48.570247847180326 0 0 0 0 0.8992344316288694 13.106064109102174 0 13.106064109102174 8.3740172664453461 0 0 0 0 -2.3770217530654918 12.529262377833447 0 12.529262377833447 10.268426298920531 0 0 0 0 4.7049475730276846 14.142589359061166 0 14.142589359061166 12.728203345955723 0 0 0 0 -6.7554083951326902 32.686415981654136 0 32.686415981654136 25.551373088470427 0 0 0 0 7.8188791132051847 49.526417119575854 0 49.526417119575854 -61.063600394442432 0 0 0 0 0.0040389496784438705 3.9453526092900404 0 3.9453526092900404 4.2349024299005684 0 0 0 0 2.8146478434623532 17.60364387025993 0 17.60364387025993 25.535272539922516 0 0 0 0 113.37080342335889 64.995381916092256 0 64.995381916092256 44.701930438564887 0 0 0 0 66.952643215718126 26.181368328940835 0 26.181368328940835 13.165911679056535 0 0 0 0 40.327854394980022 34.099900927951921 0 34.099900927951921 11.441630655015615 0 0 0 0 39.261545658351679 27.374091753329594 0 27.374091753329594 -8.1909895522782534 0 0 0 0 -0.5694577753674821 48.168853990287289 0 48.168853990287289 17.373119562093962 0 0 0 0 32.269257042798927 59.406251308637138 0 59.406251308637138 54.752075455659906 0 0 0 0 16.579658979040687 35.860339236308846 0 35.860339236308846 19.454697680514073 0 0 0 0 35.507215761917905 36.452324446178181 0 36.452324446178181 136.48540334001518 0 0 0 0 -63.6606046388697 40.012457544364679 0 40.012457544364679 34.423904243460584 0 0 0 0 5.2617206141554531 3.4745573774546976 0 3.4745573774546976 -1.0934942854180036 0 0 0 0 -22.338792015580339 66.316421793220712 0 66.316421793220712 44.739776167053606 0 0 0 0 -24.431363501800661 44.130493880112681 0 44.130493880112681 54.677691608773642 0 0 0 0 2.2558356924491818 37.237591375382181 0 37.237591375382181 54.04469449081796 0 0 0 0 107.3528300281605 86.897143390231804 0 86.897143390231804 -127.15437138286325 0 0 0 0 7.9397651333225809 2.4903879880151361 0 2.4903879880151361 0.50585718689710335 0 0 0 0 4.2051374170259805 26.304784716634003 0 26.304784716634003 68.46697483286016 0 0 0 0 -2.2110669131070608 27.227640829516986 0 27.227640829516986 69.866851071220481 0 0 0 0 -2.1506386067339918 48.438335361352983 0 48.438335361352983 41.855232657726447 0 0 0 0 -7.4720442068246484 52.531403966142079 0 52.531403966142079 42.502327774069272 0 0 0 0 -0.11563464868959272 35.376824755018788 0 35.376824755018788 58.753686515708978 0 0 0 0 -14.560229374681512 47.137837890603805 0 47.137837890603805 65.308314645620158 0 0 0 0 -3.2409492650185712 30.655898922360393 0 30.655898922360393 86.182651341053315 0 0 0 0 25.758128079171001 35.681726225427155 0 35.681726225427155 61.669499066246203 0 0 0 0 11.125865385005454 50.22717210040264 0 50.22717210040264 72.495693304562337 0 0 0 0 22.033944277325645 18.112308278098681 0 18.112308278098681 72.221962662908709 0 0 0 0 24.428424704874487 0.18956456651312692 0 0.18956456651312692 148.69169184707835 0 0 0 0 51.625434663794294 73.468975659354555 0 73.468975659354555 116.80170541719417 0 0 0 0 -3.6786034721480974 44.784072609986993 0 44.784072609986993 -6.7153869710784875 0 0 0 0 -7.3664166901962744 -0.17507581785582715 0 -0.17507581785582715 -31.640794093354998 0 0 0 0 -8.7938795474843658 9.0824800160425916 0 9.0824800160425916 2.159489065195908 0 0 0 0 -0.63592576063456363 25.802695454181389 0 25.802695454181389 -13.457505496693784 0 0 0 0 9.5554236616262642 36.006334342200944 0 36.006334342200944 -29.430328189729206 0 0 0 0 -5.2986947175841124 24.523589983632633 0 24.523589983632633 29.004541193776959 0 0 0 0 -14.699867392582746 2.7775366684637675 0 2.7775366684637675 18.674547154315974 0 0 0 0 8.7498197044233166 22.379985609656501 0 22.379985609656501 6.083709009391896 0 0 0 0 15.574759280937542 43.298768332554573 0 43.298768332554573 37.227875047785233 0 0 0 0 14.27208505392349 14.753098937528332 0 14.753098937528332 13.598221477437599 0 0 0 0 4.568952690918195 17.937127838316997 0 17.937127838316997 6.6385203025697592 0 0 0 0 8.4943062731817918 22.627790011561046 0 22.627790011561046 6.8439775724925784 0 0 0 0 13.895462293350647 17.734531567171871 0 17.734531567171871 5.2246422746320604 0 0 0 0 9.1245076972390962 23.734679992557176 0 23.734679992557176 10.00367654475167 0 0 0 0 8.2276038050913485 21.748857188531701 0 21.748857188531701 6.2688753174775229 0 0 0 0 5.6751636302242332 22.693267672392835 0 22.693267672392835 19.882083938301548 0 0 0 0 5.2504027534268971 20.642410781481885 0 20.642410781481885 10.964913210721505 0 0 0 0 21.043711089601857 31.565532624950947 0 31.565532624950947 18.128537553978276 0 0 0 0 9.4491050416891085 21.56548303297086 0 21.56548303297086 10.487119990449628 0 0 0 0 20.198554121166922 13.769030893481883 0 13.769030893481883 15.310366990202056 0 0 0 0 0.44447025088993541 16.959123269316478 0 16.959123269316478 31.598782282739194 0 0 0 0 2.1424714606842237 1.6713512523457403 0 1.6713512523457403 -3.4028996799817737 0 0 0 0 10.403468767623963 10.92225926026174 0 10.92225926026174 15.013780924473394 0 0 0 0 6.1633113585878903 8.5516596363324293 0 8.5516596363324293 -6.4167271683698939 0 0 0 0 27.301381635419602 28.450018599503665 0 28.450018599503665 9.1684531312507715 0 0 0 0 1.8051772293382342 10.611218386354386 0 10.611218386354386 4.0960881276914032 0 0 0 0 7.4433589798827597 17.369271536272436 0 17.369271536272436 9.7916819971597704 0 0 0 0 11.023088872947483 22.100465018432942 0 22.100465018432942 15.899574603659858 0 0 0 0 2.4630337610357635 2.584370792159393 0 2.584370792159393 -1.6224891684573353 0 0 0 0 2.8810611369958679 11.136039031592134 0 11.136039031592134 2.9255796117013233 0 0 0 0 3.8474604445709701 7.345550941568888 0 7.345550941568888 1.6778005818288193 0 0 0 0 1.6657458572677442 5.5846452711899879 0 5.5846452711899879 -2.7804980901321583 0 0 0 0 -3.0871545854955365 6.0478054086869548 0 6.0478054086869548 4.5410533631080874 0 0 0 0 -13.278991392839089 12.190923874383714 0 12.190923874383714 76.066938085251309 0 0 0 0 -8.5336120866303595 6.7246268875779123 0 6.7246268875779123 4.1910449542558226 0 0 0 0 8.0032760487119958 16.776816521619082 0 16.776816521619082 16.175289500727104 0 0 0 0 9.4278983254196191 18.401617344584594 0 18.401617344584594 13.876239120305854 0 0 0 0 10.977705099594459 21.277553268045494 0 21.277553268045494 9.2107040588571181 0 0 0 0 9.5178804614988621 17.524855454971203 0 17.524855454971203 21.399119836008595 0 0 0 0 15.268230112689707 16.027867362597817 0 16.027867362597817 4.5383838148704854 0 0 0 0 11.782023936884798 19.779702239728749 0 19.779702239728749 14.00998354719485 0 0 0 0 15.754311553134357 23.298179918732899 0 23.298179918732899 16.227735841891899 0 0 0 0 -7.2754026550690654 6.5963301321357086 0 6.5963301321357086 7.7199607604471572 0 0 0 0 8.3479093150756043 8.7272591481731308 0 8.7272591481731308 -8.2501999188485211 0 0 0 0 8.8228290807710437 31.849102417826771 0 31.849102417826771 11.733337817976235 0 0 0 0 -11.062511398641163 3.0488722087673636 0 3.0488722087673636 13.816489354907389 0 0 0 0 7.4924278744238109 36.57440562310984 0 36.57440562310984 -2.1863008855393673 0 0 0 0 18.398163218433183 22.658625880200816 0 22.658625880200816 -14.560306555746365 0 0 0 0 19.253667112346193 19.086454158513902 0 19.086454158513902 -0.57021358746987971 0 0 0 0 5.6389504190301523 16.693607209053653 0 16.693607209053653 7.7851702332968671 0 0 0 0 6.3652149370292506 9.72376196323542 0 9.72376196323542 10.938666370881913 0 0 0 0 5.9980968044801557 13.864367568745365 0 13.864367568745365 10.317431368685035 0 0 0 0 2.0252992354791459 2.6862918198715509 0 2.6862918198715509 1.9653540333099109 0 0 0 0 2.6271545651852648 18.523341359623601 0 18.523341359623601 25.949647874952461 0 0 0 0 16.014105336517787 21.527214450544079 0 21.527214450544079 -9.4702767430928816 0 0 0 0 0.57235828902268793 -0.017176206398232807 0 -0.017176206398232807 -0.76531057222567167 0 0 0 0 -0.19703052811019006 15.844416432660523 0 15.844416432660523 3.4904797282381423 0 0 0 0 9.200985579607277 11.459991329925799 0 11.459991329925799 4.9375436355394413 0 0 0 0 3.7617049624682295 7.5373596146670252 0 7.5373596146670252 5.834638145169265 0 0 0 0 -0.42637075743004971 16.4979182031542 0 16.4979182031542 4.2702744755761159 0 0 0 0 7.1539475660450957 8.0141678616468219 0 8.0141678616468219 9.2120540438301699 0 0 0 0 1.2407472129798407 8.9118162635978706 0 8.9118162635978706 8.0580337777013256 0 0 0 0 5.7495073588255536 11.273558443717519 0 11.273558443717519 5.7653127216774465 0 0 0 0 4.0448335395431059 12.429163534037571 0 12.429163534037571 6.1088064633239227 0 0 0 0 1.0529541698060711 10.344859243828296 0 10.344859243828296 5.8805128111845306 0 0 0 0 6.9964240814733785 15.939350248567166 0 15.939350248567166 8.1044431887985411 0 0 0 0 7.5294235161563847 16.162446930281362 0 16.162446930281362 7.7602020378462839 0 0 0 0 7.5412815655927261 15.687364268285705 0 15.687364268285705 7.8396699432441892 0 0 0 0 8.5934573548679509 15.763464989227543 0 15.763464989227543 7.6681024209283351 0 0 0 0 7.0214878975775719 12.879149327283017 0 12.879149327283017 -2.6460103321085171 0 0 0 0 10.009907740217713 10.834469335758113 0 10.834469335758113 6.6175347527156454 0 0 0 0 9.7315435812924989 20.038881417583411 0 20.038881417583411 0.65952101111952288 0 0 0 0 150.25770568162261 -9.992367964139703 0 -9.992367964139703 -42.822437308271219 0 0 0 0 10.149828860681737 22.271385589546298 0 22.271385589546298 4.1615120172805291 0 0 0 0 14.340056336630369 19.304270988602184 0 19.304270988602184 3.9796388275881327 0 0 0 0 -1.7105764310203853 7.9818732950151023 0 7.9818732950151023 -2.0107605147995673 0 0 0 0 54.61864389240759 -22.064622607941828 0 -22.064622607941828 -187.9221485210287 0 0 0 0 59.864279326068754 91.27841558183718 0 91.27841558183718 -269.44459144355164 0 0 0 0 61.236498333944638 67.68062119768959 0 67.68062119768959 -132.43019249053759 0 0 0 0 31.191115984227508 45.253566876123386 0 45.253566876123386 -148.77807879297143 0 0 0 0 -1.4426803464345026 2.2884897676739602 0 2.2884897676739602 -2.9274877774978787 0 0 0 0 -310.96838769243186 205.92118315566836 0 205.92118315566836 37.325286414393759 0 0 0 0 -17.499611557114349 322.01224789431876 0 322.01224789431876 -271.88414309693326 0 0 0 0 -39.862347951205265 170.50534078045985 0 170.50534078045985 -137.94339617214428 0 0 0 0 7.8356900057929977 6.1303771485976659 0 6.1303771485976659 4.777868417755414 0 0 0 0 -216.6800986334938 -211.02389541822811 0 -211.02389541822811 109.52899498143461 0 0 0 0 36.095323201096107 88.224198451427583 0 88.224198451427583 -146.46706914092647 0 0 0 0 -19.436048615203163 114.63867397370598 0 114.63867397370598 -1.2139541698006724 0 0 0 0 0.75395555550977633 13.54683918678143 0 13.54683918678143 -1.0179112846126372 0 0 0 0 -4.4063815458061981 7.8633575211758853 0 7.8633575211758853 45.38283977388619 0 0 0 0 5.3084463716203736 5.2532457593023736 0 5.2532457593023736 3.432962464347832 0 0 0 0 -1.3173359513302785 8.9608762711197869 0 8.9608762711197869 5.8707880192455377 0 0 0 0 1.1889586398228857 7.6302893278448209 0 7.6302893278448209 5.058285988873422 0 0 0 0 1.3975569268907861 9.9532880485686306 0 9.9532880485686306 3.5863585201029764 0 0 0 0 -1.3899229370965429 11.413025099347408 0 11.413025099347408 4.1347387673968115 0 0 0 0 136.42964629393191 -10.354334541229264 0 -10.354334541229264 -5.3684679342454729 0 0 0 0 83.361773748827545 12.764064880213482 0 12.764064880213482 2.0079423801094549 0 0 0 0 0.51673539527888046 1.4917368679284699 0 1.4917368679284699 -0.027642774953018368 0 0 0 0 104.23986905068614 36.209179252479089 0 36.209179252479089 -42.534645598570705 0 0 0 0 -6.7262049844532612 37.30507835114247 0 37.30507835114247 31.118711326321318 0 0 0 0 -9.8436590187052389 126.62284392730362 0 126.62284392730362 -118.94838486814842 0 0 0 0 -8.6496252294864462 147.05754435822223 0 147.05754435822223 27.272835363619038 0 0 0 0 23.746020387117881 44.764665785893186 0 44.764665785893186 -213.51042310621688 0 0 0 0 -0.37341824368972709 0.31925505923705799 0 0.31925505923705799 -0.17103332815946182 0 0 0 0 25.246060987020428 26.0789494205344 0 26.0789494205344 -50.706915649279381 0 0 0 0 -5.9407767688237527 31.015809526521963 0 31.015809526521963 -13.517966336035897 0 0 0 0 14.855636348998814 133.8869610371778 0 133.8869610371778 -114.09018205238635 0 0 0 0 -44.09406634323841 254.18226052047089 0 254.18226052047089 -9.7569854835737715 0 0 0 0 9.2599770818180787 48.032489890846591 0 48.032489890846591 -121.18113427371418 0 0 0 0 -90.92676801163816 74.776534500806292 0 74.776534500806292 40.587525885301716 0 0 0 0 -228.19251474289513 115.70408627653114 0 115.70408627653114 -26.448463218438064 0 0 0 0 -108.3490019034416 199.49369266371741 0 199.49369266371741 -74.160468540367219 0 0 0 0 126.4456489232125 46.598042985113068 0 46.598042985113068 -69.486282895449904 0 0 0 0 79.680864454444418 91.199920394530864 0 91.199920394530864 -87.704085179096637 0 0 0 0 -0.64369940715322693 0.4464425596715671 0 0.4464425596715671 -2.3886864685795484 0 0 0 0 43.479165983695111 28.585658719423918 0 28.585658719423918 -28.100768842162324 0 0 0 0 67.615077129532438 32.204801986159509 0 32.204801986159509 -9.7919818519970363 0 0 0 0 62.831072558476194 19.47099961619368 0 19.47099961619368 -18.630133771429428 0 0 0 0 61.817260163355513 25.817298509218148 0 25.817298509218148 -11.277963241667294 0 0 0 0 -23.535073566492429 -2.1123850115127425 0 -2.1123850115127425 -18.395912952414971 0 0 0 0 -98.937168782276785 40.262448793128669 0 40.262448793128669 -18.369067210805497 0 0 0 0 -74.361549974612899 107.77059136599991 0 107.77059136599991 -124.3822164540461 0 0 0 0 4.6630930887222348 3.0309200648148362 0 3.0309200648148362 -32.255906068825425 0 0 0 0 -51.924276868700417 18.891284047537169 0 18.891284047537169 -13.410943822880654 0 0 0 0 -11.073005151953112 16.311596569352787 0 16.311596569352787 -11.669439635531489 0 0 0 0 -10.209132589585352 28.452480379768531 0 28.452480379768531 -24.803039543440718 0 0 0 0 2.8401123208841148 2.893165029349869 0 2.893165029349869 -6.7099276187252261 0 0 0 0 125.70197724905438 83.292855944743565 0 83.292855944743565 -133.90231142261655 0 0 0 0 5.5457029287599653 4.2316626535182422 0 4.2316626535182422 87.774162233943912 0 0 0 0 10.514356996412062 14.471625879793805 0 14.471625879793805 -18.624366567744801 0 0 0 0 36.661283570663727 85.07837755638343 0 85.07837755638343 -130.46571706764644 0 0 0 0 -47.77717615527763 111.29583431522178 0 111.29583431522178 -100.72408468495769 0 0 0 0 -53.602826157871277 61.881179355583072 0 61.881179355583072 -50.737024818077316 0 0 0 0 3.5220119045989122 68.33403125835639 0 68.33403125835639 -64.780653354599053 0 0 0 0 -39.921844302306909 62.533966517583053 0 62.533966517583053 -54.085436380331885 0 0 0 0 -20.897100138034148 37.430379052547096 0 37.430379052547096 -24.505532057992696 0 0 0 0 -12.205603284648532 40.641509087169652 0 40.641509087169652 -24.573717849548302 0 0 0 0 -20.471948288924068 62.007632023933184 0 62.007632023933184 -58.562711971097542 0 0 0 0 2.1038019946236091 80.594571548291896 0 80.594571548291896 -113.15978364007151 0 0 0 0 30.048278814072546 36.913023491835929 0 36.913023491835929 -66.801818432176333 0 0 0 0 -4.7159288975853997 41.227683131283811 0 41.227683131283811 -52.382946189726681 0 0 0 0 -10.290330528536288 30.809922682990418 0 30.809922682990418 -1.0006402286280718 0 0 0 0 -2.7081303096747433 13.766034694872815 0 13.766034694872815 -18.148600769079621 0 0 0 0 3.4307609673414845 44.112681198490463 0 44.112681198490463 -16.030951147123233 0 0 0 0 3.7035254338716186 14.944778899603989 0 14.944778899603989 -43.517110768547809 0 0 0 0 -1.0259255027771896 -0.015934913539954465 0 -0.015934913539954465 0.41814879632363944 0 0 0 0 -34.615464573490073 6.8076546880685811 0 6.8076546880685811 30.84703144330706 0 0 0 0 7.3631975863154366 4.8089772236514818 0 4.8089772236514818 -1.0739780906337728 0 0 0 0 4.4027146147618623 7.6501451573358281 0 7.6501451573358281 -2.3201797222714049 0 0 0 0 -11.188709762416693 27.225603301333649 0 27.225603301333649 -14.581826146803905 0 0 0 0 -2.2303247681356879 10.828061894607799 0 10.828061894607799 8.9934507820144063 0 0 0 0 -4.6001090693753213 18.638620554710087 0 18.638620554710087 5.6559603915802654 0 0 0 0 5.3122809908418276 16.763582413844233 0 16.763582413844233 -2.0363297018388948 0 0 0 0 -3.9090099041782196 16.688006602496898 0 16.688006602496898 -4.937934831664279 0 0 0 0 -11.279061002800518 35.340327048789277 0 35.340327048789277 -14.606413853852473 0 0 0 0 -3.9555018319183546 32.85435495653465 0 32.85435495653465 -26.008901450342819 0 0 0 0 -4.8577993626718126 21.46881887105917 0 21.46881887105917 -11.836764696190585 0 0 0 0 -0.79484284667159955 9.9466891490783382 0 9.9466891490783382 0.66300819874140871 0 0 0 0 -2.6851407884719265 11.523604598119505 0 11.523604598119505 11.082473189903794 0 0 0 0 6.0506870575336507 20.843437101084419 0 20.843437101084419 -11.345579133864703 0 0 0 0 6.4281704397326394 -1.9081406051794829 0 -1.9081406051794829 16.551251299560136 0 0 0 0 10.315387787116975 7.8017967618048338 0 7.8017967618048338 3.0467394649020516 0 0 0 0 14.510826738664036 2.180178278043968 0 2.180178278043968 18.54055438190062 0 0 0 0 19.750006386459972 17.426539923543714 0 17.426539923543714 2.5672102538665058 0 0 0 0 -3.0552217495642253 28.06821657285218 0 28.06821657285218 1.9000002587072231 0 0 0 0 1.69082889632773 17.364440712262876 0 17.364440712262876 20.109427744615459 0 0 0 0 10.827163941080915 12.060339999118277 0 12.060339999118277 10.486392118222614 0 0 0 0 -9.1245774489345877 37.138010290504099 0 37.138010290504099 9.0373822214944539 0 0 0 0 -26.430337119635055 11.792868284197084 0 11.792868284197084 6.4251751210804287 0 0 0 0 3.3325019840412691 1.0896785813338221 0 1.0896785813338221 0.4979714780926443 0 0 0 0 -16.270798934243231 6.9067365970540777 0 6.9067365970540777 5.6397020069016435 0 0 0 0 33.717503575080741 14.985260475895529 0 14.985260475895529 -6.6074691554713354 0 0 0 0 8.8117410874228881 6.0948322189660757 0 6.0948322189660757 4.7989326968199748 0 0 0 0 7.7654306368749531 2.8145752557838932 0 2.8145752557838932 4.9351247590270191 0 0 0 0 21.57394424055019 -0.042185030852124328 0 -0.042185030852124328 4.3101362158122356 0 0 0 0 -2.1432276556263297 0.74139351477188287 0 0.74139351477188287 1.8950400474343372 0 0 0 0 17.311772762895998 11.592676833437508 0 11.592676833437508 2.9086599863221636 0 0 0 0 1.360777669626259 13.647465455423117 0 13.647465455423117 8.214779297340101 0 0 0 0 11.895357501627586 1.4667791114607098 0 1.4667791114607098 18.140727598913145 0 0 0 0 17.642343187532788 -1.563618200018027 0 -1.563618200018027 7.3396376524251536 0 0 0 0 2.6187650104965652 1.3823134874875738 0 1.3823134874875738 -0.78511129034842142 0 0 0 0 3.3790733599842753 6.2962202398984362 0 6.2962202398984362 2.2872927084466301 0 0 0 0 0.21223734030775177 17.564851981359993 0 17.564851981359993 6.9517043917649062 0 0 0 0 7.168295740148551 3.1593085359636461 0 3.1593085359636461 -8.1601420014981159 0 0 0 0 -0.51765430803322943 17.227728473521665 0 17.227728473521665 17.131906738618454 0 0 0 0 1.1675887719284788 30.3882946946419 0 30.3882946946419 -5.9941653639016295 0 0 0 0 16.007269889711324 13.664774200322427 0 13.664774200322427 -8.358606228469398 0 0 0 0 6.7842433732080281 1.0127480458968421 0 1.0127480458968421 7.7364015461803319 0 0 0 0 -10.026646696701732 11.760621711842987 0 11.760621711842987 -2.7510969279651363 0 0 0 0 -1.2366385935803743 6.1791976052642843 0 6.1791976052642843 -5.6644787665351668 0 0 0 0 0.74718659005966792 6.753666810910361 0 6.753666810910361 -4.9394562634349199 0 0 0 0 5.2823360547631637 14.765616336032508 0 14.765616336032508 3.5121840613537643 0 0 0 0 4.638774331552213 11.565089319835351 0 11.565089319835351 2.0371360256413027 0 0 0 0 36.616193014067903 10.353670213905389 0 10.353670213905389 -5.3615974100530366 0 0 0 0 12.217258292406768 14.3362118192872 0 14.3362118192872 4.3815887880700757 0 0 0 0 6.1271678668795175 16.089497331991765 0 16.089497331991765 10.216762988586197 0 0 0 0 2.8137030523456321 9.5447624406775642 0 9.5447624406775642 5.0816651960234083 0 0 0 0 -39.824526701533614 20.487045295642019 0 20.487045295642019 54.787455799132658 0 0 0 0 4.9260666672181905 5.7890951255514942 0 5.7890951255514942 -5.1691305278514674 0 0 0 0 102.5193151835947 117.48256089674214 0 117.48256089674214 84.17253037811679 0 0 0 0 121.43913595012964 112.74886361400786 0 112.74886361400786 85.356351757900484 0 0 0 0 1.3161409429795752 1.7442111974528558 0 1.7442111974528558 1.3744786309124351 0 0 0 0 33.067665622150344 58.506533569972362 0 58.506533569972362 25.780048264357902 0 0 0 0 6.3374437302118167 16.113464986774034 0 16.113464986774034 17.308729527660944 0 0 0 0 22.624798089114847 19.180533103227845 0 19.180533103227845 5.5452635650899538 0 0 0 0 30.635063733633615 25.520981317639325 0 25.520981317639325 10.117369882523235 0 0 0 0 -32.444263721357856 68.083543390073828 0 68.083543390073828 60.177764880943869 0 0 0 0 14.436967162213932 20.714832152593544 0 20.714832152593544 22.188337090311506 0 0 0 0 14.339750638171608 23.363092324594618 0 23.363092324594618 23.134290224735196 0 0 0 0 3.5465970640825617 7.9492519307968905 0 7.9492519307968905 2.8310127646391265 0 0 0 0 0.57484390798771301 2.4164958214356993 0 2.4164958214356993 0.20472404412788237 0 0 0 0 6.8816622514295887 14.353866827214915 0 14.353866827214915 9.5048747237997304 0 0 0 0 -10.169507658343036 28.108768148443687 0 28.108768148443687 -7.4391771929986135 0 0 0 0 -40.335068301099227 35.042521269378085 0 35.042521269378085 0.10402065717244113 0 0 0 0 -6.4985197495585396 34.434811775039634 0 34.434811775039634 -2.119553457123402 0 0 0 0 -2.4792700842826889 36.838372429764377 0 36.838372429764377 0.6475069440803054 0 0 0 0 -6.5213136539828156 28.963150293508079 0 28.963150293508079 -11.979984038156545 0 0 0 0 -35.008630140873265 33.396331408373044 0 33.396331408373044 -8.0739568147710088 0 0 0 0 0.63037871219571073 5.4754808712926746 0 5.4754808712926746 11.666224027013543 0 0 0 0 -50.056775420613121 49.372967992745544 0 49.372967992745544 -5.9785295655522646 0 0 0 0 -55.120579496541154 32.646948392001718 0 32.646948392001718 1.1110810240425053 0 0 0 0 2.0855532799660068 13.856013382923265 0 13.856013382923265 16.687487522629453 0 0 0 0 -5.2731843705685151 -0.4665437514140649 0 -0.4665437514140649 11.792651643087993 0 0 0 0 -16.087361409551704 3.7848130710190162 0 3.7848130710190162 18.452729117809781 0 0 0 0 -10.188387084746751 18.306315548817224 0 18.306315548817224 -4.9212920875743293 0 0 0 0 1.5672906919518104 5.4567842622130298 0 5.4567842622130298 13.39172283674811 0 0 0 0 -29.039382745127796 44.774457827638344 0 44.774457827638344 -9.4709772416003659 0 0 0 0 5.756049969349192 27.017865921212888 0 27.017865921212888 -8.0060268487150097 0 0 0 0 28.847099230909407 24.441503681893209 0 24.441503681893209 -12.77236826725948 0 0 0 0 -4.7638683429241269 25.216640348153987 0 25.216640348153987 -5.2348234044293349 0 0 0 0 -0.22292234886893192 1.7239859193761373 0 1.7239859193761373 1.7497271339470171 0 0 0 0 14.192676166801334 10.366431586361614 0 10.366431586361614 -2.5642240898487216 0 0 0 0 30.506063237035121 10.317515461457219 0 10.317515461457219 -9.1650041174461876 0 0 0 0 -19.576657042104785 26.173787457861181 0 26.173787457861181 2.487592792283067 0 0 0 0 -31.851402542034975 -3.9240209258055074 0 -3.9240209258055074 5.7295908600517578 0 0 0 0 20.217847906906343 14.720640071967864 0 14.720640071967864 4.1996774962917698 0 0 0 0 57.71752039498017 -8.6366713629408878 0 -8.6366713629408878 5.3934437357871445 0 0 0 0 21.83740852971664 20.128524145291522 0 20.128524145291522 -4.4259077373453692 0 0 0 0 43.290983619392478 36.367934154234604 0 36.367934154234604 0.2633272632756416 0 0 0 0 21.299226922247044 18.684864373171877 0 18.684864373171877 14.806482733259145 0 0 0 0 66.232605075699226 47.299604520771936 0 47.299604520771936 32.433830467105508 0 0 0 0 30.632581646205153 12.916066665386097 0 12.916066665386097 9.4706552773095609 0 0 0 0 28.496926682996275 21.088372473290292 0 21.088372473290292 3.9867455197472736 0 0 0 0 -0.18480899345589372 -0.62336668168732512 0 -0.62336668168732512 1.1965299325599084 0 0 0 0 -50.442387150015897 14.171839228542694 0 14.171839228542694 21.020340764366665 0 0 0 0 115.83065803436166 10.271116027858625 0 10.271116027858625 -12.63340097083892 0 0 0 0 -21.615695017558075 29.748177259153977 0 29.748177259153977 27.925611660151844 0 0 0 0 63.535325364979656 49.905681292873851 0 49.905681292873851 14.649451989424961 0 0 0 0 -16.403624887499404 23.718946677869098 0 23.718946677869098 8.2629211311013933 0 0 0 0 22.456710841206814 13.078668527952686 0 13.078668527952686 18.641098823374705 0 0 0 0 17.643567642393236 6.6095022327535844 0 6.6095022327535844 60.141627825328214 0 0 0 0 53.318125975834704 -22.290530673846945 0 -22.290530673846945 24.530973777460531 0 0 0 0 31.092679740860945 7.7875195581236767 0 7.7875195581236767 0.61684617074570269 0 0 0 0 10.802177159871889 2.9100214643556228 0 2.9100214643556228 6.0737680783404357 0 0 0 0 22.836028477400305 -8.7466389577939481 0 -8.7466389577939481 17.295276233421419 0 0 0 0 7.5058004371016978 -4.8053316243822337 0 -4.8053316243822337 8.346668990274793 0 0 0 0 -22.610115130479699 6.0628124141048829 0 6.0628124141048829 8.88149692938714 0 0 0 0 -5.9700563961878288 0.62768809962926753 0 0.62768809962926753 4.5474739965802655 0 0 0 0 -5.1771138105966088 2.8278232473703611 0 2.8278232473703611 7.3940743807197578 0 0 0 0 -5.8628513322571507 2.8096934651503034 0 2.8096934651503034 0.76568807700641628 0 0 0 0 -20.298985829263074 15.823042801654083 0 15.823042801654083 6.2248139280654868 0 0 0 0 -3.6159592112362589 8.4664566762812683 0 8.4664566762812683 13.909948757441725 0 0 0 0 9.8106559078964892 0.48776510559082453 0 0.48776510559082453 13.161319897973954 0 0 0 0 2.7835974309209632 19.624977489273078 0 19.624977489273078 20.980378531991846 0 0 0 0 -11.916611298943735 27.449627015615079 0 27.449627015615079 4.3953370843862558 0 0 0 0 -1.2157298907137601 10.149172061806439 0 10.149172061806439 -1.0523616110258445 0 0 0 0 -28.840233464644825 39.671168577460776 0 39.671168577460776 -8.084408612920015 0 0 0 0 -17.090399193380563 17.399170522639906 0 17.399170522639906 -15.120546877977176 0 0 0 0 6.9669446391995962 17.408136550262498 0 17.408136550262498 -2.223817122330729 0 0 0 0 15.785705687818336 27.86603290316998 0 27.86603290316998 7.8587080307102042 0 0 0 0 -51.630294977927178 18.384843187848219 0 18.384843187848219 -5.0916058712882659 0 0 0 0 -111.5684923728536 36.062952654252513 0 36.062952654252513 3.3384888417149341 0 0 0 0 0.3398975667805697 1.5289436603862838 0 1.5289436603862838 2.2133287630862739 0 0 0 0 -57.3196652795109 60.690952413596278 0 60.690952413596278 -38.978612982513368 0 0 0 0 -35.559050222145743 17.844912414097962 0 17.844912414097962 -34.925150120967487 0 0 0 0 -33.823115599399898 25.693333361981786 0 25.693333361981786 -3.2964518739099731 0 0 0 0 -21.856213850795484 11.05740974694163 0 11.05740974694163 -8.1091209804008031 0 0 0 0 -40.136798182537632 25.335945915241609 0 25.335945915241609 -5.9260808340750373 0 0 0 0 -20.497986305071208 9.477133688064896 0 9.477133688064896 -11.54224338419408 0 0 0 0 -36.503209945879235 16.4027528438329 0 16.4027528438329 6.8935358691560396 0 0 0 0 -32.074885476070449 2.5735531142463515 0 2.5735531142463515 4.8647461048676632 0 0 0 0 -25.096255536448098 2.8005891640077607 0 2.8005891640077607 14.993739482821184 0 0 0 0 -21.723199159565183 11.178408534304026 0 11.178408534304026 5.1456105920133268 0 0 0 0 -15.942427231370402 11.573055682281847 0 11.573055682281847 22.353414869978224 0 0 0 0 -18.74479891094802 1.3847437978393486 0 1.3847437978393486 10.124141564472666 0 0 0 0 -19.387976610234091 8.3252926489303718 0 8.3252926489303718 6.9666825844224149 0 0 0 0 -4.8272708924005201 5.2991615466353323 0 5.2991615466353323 9.2465448466100497 0 0 0 0 5.9213694137474704 3.5751432026136172 0 3.5751432026136172 3.4658950821358303 0 0 0 0 2.2436911267934647 -1.1149022540284932 0 -1.1149022540284932 6.797675968621661 0 0 0 0 -15.281451739831027 7.4154498299521947 0 7.4154498299521947 9.2366251146477225 0 0 0 0 11.333441570143307 11.023088057088357 0 11.023088057088357 10.604951927874016 0 0 0 0 8.3736873578681852 2.3758782259745885 0 2.3758782259745885 7.1201463407624033 0 0 0 0 10.58291566680191 12.276784947084707 0 12.276784947084707 6.6102559196715447 0 0 0 0 -33.811511209401488 41.943034077550692 0 41.943034077550692 3.4202589302535671 0 0 0 0 -8.7350374098955399 24.54167009145749 0 24.54167009145749 8.7965420290965994 0 0 0 0 -28.470197540313166 28.638392718898103 0 28.638392718898103 29.364021593628422 0 0 0 0 -64.7440926180102 15.786744051724781 0 15.786744051724781 26.975901096946473 0 0 0 0 -27.440946046463296 8.7132626361226357 0 8.7132626361226357 35.319856853293459 0 0 0 0 -30.646594229985794 16.663695737276157 0 16.663695737276157 20.604408252247595 0 0 0 0 1.3376881647994736 0.70337293709709958 0 0.70337293709709958 0.20568192119841155 0 0 0 0 10.733833074058783 12.250826765534923 0 12.250826765534923 12.219962208706795 0 0 0 0 -119.96451653730628 19.708555643626937 0 19.708555643626937 198.59214756614699 0 0 0 0 49.161600522178958 26.770822685081839 0 26.770822685081839 -24.710691171925646 0 0 0 0 88.176646693889779 40.737665070300409 0 40.737665070300409 -71.48305506564293 0 0 0 0 26.933291595491824 33.325842509862923 0 33.325842509862923 -19.938694764281536 0 0 0 0 5.6864173371945981 19.245821378051915 0 19.245821378051915 -3.2069758595680469 0 0 0 0 34.692275599138469 5.0687790986637538 0 5.0687790986637538 -1.9983620726034133 0 0 0 0 16.794335806320987 15.243323310272899 0 15.243323310272899 -7.7553735929886898 0 0 0 0 23.09429825054508 3.9936166911666078 0 3.9936166911666078 -1.556821995840437 0 0 0 0 15.273266135007589 -2.0550073945396434 0 -2.0550073945396434 5.4108834107623807 0 0 0 0 6.2939149384186521 11.585279963319408 0 11.585279963319408 -2.5215312680775241 0 0 0 0 10.486266893512266 6.0817578264886833 0 6.0817578264886833 4.68443950922574 0 0 0 0 -63.830618329046047 19.35542552830384 0 19.35542552830384 100.73472345362734 0 0 0 0 2.6760388143103864 3.5284566812792524 0 3.5284566812792524 5.6257014003454247 0 0 0 0 -11.040200913228546 7.406630138757464 0 7.406630138757464 19.602562783489873 0 0 0 0 -9.5976216799945178 5.8965479375480072 0 5.8965479375480072 5.573208361338402 0 0 0 0 -8.5287863441335503 11.215415941563151 0 11.215415941563151 9.1853802329992504 0 0 0 0 32.649320641419763 4.0019117405299767 0 4.0019117405299767 -1.7756316171112303 0 0 0 0 3.2322108025437046 -0.75924713418407919 0 -0.75924713418407919 -1.105351608597914 0 0 0 0 25.827486499498264 14.058499158106542 0 14.058499158106542 -2.8666266331274528 0 0 0 0 9.6284213956660096 10.082805480164097 0 10.082805480164097 -3.6670188139037236 0 0 0 0 28.268425987256705 36.380026290957403 0 36.380026290957403 -20.913072320297488 0 0 0 0 31.229469179880425 25.265011840047293 0 25.265011840047293 -15.314922468097393 0 0 0 0 47.885098758250024 7.3481384592842005 0 7.3481384592842005 -7.8388489711774127 0 0 0 0 69.615839377616339 26.477609750493684 0 26.477609750493684 -15.783363981185175 0 0 0 0 26.600229133920038 50.226803417646465 0 50.226803417646465 -51.330369985982998 0 0 0 0 1.5381134844928965 20.545347933579819 0 20.545347933579819 -8.5856011530672731 0 0 0 0 -7.1447692420169915 35.269356725597163 0 35.269356725597163 -17.28968026859161 0 0 0 0 -3.5263284592865602 21.759326669045265 0 21.759326669045265 -6.690585036635639 0 0 0 0 -8.005525355761165 19.302427635009508 0 19.302427635009508 16.962121044463572 0 0 0 0 -20.566838197855759 21.561343642630845 0 21.561343642630845 3.0491177645773178 0 0 0 0 -10.076739467349398 34.804297527158724 0 34.804297527158724 -24.520224351429079 0 0 0 0 -6.8212185026795851 15.27605555661512 0 15.27605555661512 -1.3610555571381155 0 0 0 0 -7.3201709002951247 22.020833927655303 0 22.020833927655303 -17.76678241441914 0 0 0 0 -22.885870917762986 45.313420351906871 0 45.313420351906871 -16.545949693836064 0 0 0 0 -27.614261938195341 39.000277278722251 0 39.000277278722251 -24.945356538900342 0 0 0 0 -42.817615690775256 72.588515756638913 0 72.588515756638913 -64.977375491746898 0 0 0 0 -31.937989667018883 35.754523039997139 0 35.754523039997139 -19.993565588818683 0 0 0 0 -146.36054481199835 146.5711747586613 0 146.5711747586613 -70.669290728391388 0 0 0 0 2.4859174279198442 64.9326631172558 0 64.9326631172558 -49.912030594094631 0 0 0 0 -17.191958751353013 84.601662347732372 0 84.601662347732372 -68.235791928567323 0 0 0 0 11.109027343614798 18.660600694624009 0 18.660600694624009 8.7142768759804312 0 0 0 0 3.4780220523206151 4.5535840359742554 0 4.5535840359742554 6.1850287026723905 0 0 0 0 12.334490915283295 12.016024299809299 0 12.016024299809299 11.430070309276235 0 0 0 0 -10.348958778770793 67.913325585897837 0 67.913325585897837 86.262474453469622 0 0 0 0 35.051772603631434 12.302305452731844 0 12.302305452731844 21.257239160368499 0 0 0 0 18.021649787482602 34.312568019658556 0 34.312568019658556 23.180505356629823 0 0 0 0 -13.86438095835183 -4.9246472406066459 0 -4.9246472406066459 22.361468463127039 0 0 0 0 34.045412123658025 -13.023411081106588 0 -13.023411081106588 28.10966613777714 0 0 0 0 -1.0208204619207777 3.2866936533678235 0 3.2866936533678235 4.6956430588056435 0 0 0 0 34.711507054928688 15.842537092355997 0 15.842537092355997 -189.91573763213091 0 0 0 0 -7.4466016233618575 16.07307078913982 0 16.07307078913982 -9.3620483106569736 0 0 0 0 -31.016357667541342 55.915320024425455 0 55.915320024425455 -17.501360019610729 0 0 0 0 15.203489147765019 9.4381059169415913 0 9.4381059169415913 1.8763212609867068 0 0 0 0 4.4972637041343306 3.2551837847614831 0 3.2551837847614831 -3.5304173074051022 0 0 0 0 12.831348130023798 14.91744008009789 0 14.91744008009789 3.3658619264770095 0 0 0 0 12.509278839242143 -0.067396847838494978 0 -0.067396847838494978 24.291755344797366 0 0 0 0 -11.287582716811812 18.361313443425161 0 18.361313443425161 11.535697525172054 0 0 0 0 2.5849008423645614 20.095136911712373 0 20.095136911712373 10.434659839399046 0 0 0 0 1.2198986101361697 32.809664713512745 0 32.809664713512745 -7.7221600441043847 0 0 0 0 -11.923948360390568 28.345833235691316 0 28.345833235691316 -7.4632706043728376 0 0 0 0 -4.8834427968722594 47.247315991998903 0 47.247315991998903 -21.050116436093276 0 0 0 0 -11.418376296333463 34.783066649716432 0 34.783066649716432 -0.62716386336978758 0 0 0 0 13.769076195061643 37.855511884149564 0 37.855511884149564 -3.9066745766926942 0 0 0 0 15.267780999793956 16.374690401254071 0 16.374690401254071 1.4870968822924624 0 0 0 0 3.8219583915906696 25.722931064021623 0 25.722931064021623 -3.9575671225825317 0 0 0 0 28.352426369197929 21.196531275776124 0 21.196531275776124 2.3870360434323175 0 0 0 0 54.755960968257568 10.190784915526137 0 10.190784915526137 6.6524618224184451 0 0 0 0 16.675446681167159 -3.1451096873352071 0 -3.1451096873352071 22.497859622648775 0 0 0 0 9.3628550668085886 8.0590991545628246 0 8.0590991545628246 4.8950040945902709 0 0 0 0 9.4160296749646868 4.5987377639215552 0 4.5987377639215552 2.392075281171266 0 0 0 0 24.593882415876351 6.1780060781977681 0 6.1780060781977681 -4.5774382804243032 0 0 0 0 16.3589870034466 -4.3106144752837281 0 -4.3106144752837281 3.9228793539587059 0 0 0 0 3.0606784310069246 3.473295803134592 0 3.473295803134592 5.5166811034755483 0 0 0 0 14.528347024887807 3.3489696077145936 0 3.3489696077145936 5.0399754984432548 0 0 0 0 114.44417735129991 27.852435354654517 0 27.852435354654517 -59.363852993615637 0 0 0 0 -34.569872752563811 -94.161030887206948 0 -94.161030887206948 41.316034646425578 0 0 0 0 1.495270211158461 1.3106428090191713 0 1.3106428090191713 0.59624299327277264 0 0 0 0 -1.1494631940097069 11.864072428743485 0 11.864072428743485 16.99554032152184 0 0 0 0 4.9339254642159265 11.832245908500932 0 11.832245908500932 9.4047648886169775 0 0 0 0 -35.802927300055671 -28.279356105887928 0 -28.279356105887928 -4.3386690019942762 0 0 0 0 27.965087675705036 11.700694838295021 0 11.700694838295021 -2.1199592973534891 0 0 0 0 164.06000273409882 55.720374590418942 0 55.720374590418942 -43.624335841699576 0 0 0 0 166.75246949086704 76.166138618272271 0 76.166138618272271 -22.377510481121135 0 0 0 0 179.45533441430234 75.557187450977835 0 75.557187450977835 -33.572544377944723 0 0 0 0 186.41892490162172 95.909882325689978 0 95.909882325689978 -17.392251330089948 0 0 0 0 -177.61326310016557 237.39109847946293 0 237.39109847946293 272.43076088521411 0 0 0 0 312.11827620115946 177.74799760372116 0 177.74799760372116 68.945061456166059 0 0 0 0 6.2103108974183669 13.658832413345863 0 13.658832413345863 3.9592242160460955 0 0 0 0 14.25061469006185 6.9976962489844343 0 6.9976962489844343 1.3272800473733222 0 0 0 0 10.807705013900971 1.7564573119614124 0 1.7564573119614124 5.7042822388903005 0 0 0 0 16.850236546170322 8.3876118011694416 0 8.3876118011694416 4.3842624340140901 0 0 0 0 8.060272929872081 4.8547638855901063 0 4.8547638855901063 0.98676770099633737 0 0 0 0 -3.1769149744577589 4.4305777781264624 0 4.4305777781264624 1.5208572014144011 0 0 0 0 -1.4470050092240854 3.4218378934965585 0 3.4218378934965585 1.5259562395467299 0 0 0 0 6.8570356229756726 4.1594757778584608 0 4.1594757778584608 -2.8868635969483876 0 0 0 0 0.58736627679631681 0.41149807806767313 0 0.41149807806767313 -0.18170104140329713 0 0 0 0 0.16178311971260273 1.2223939686610459 0 1.2223939686610459 1.894930623487177 0 0 0 0 6.0429238957535745 -5.4941829475669692 0 -5.4941829475669692 -8.8869717080224291 0 0 0 0 2.7850038345216483 -0.33688852735579822 0 -0.33688852735579822 -2.3380335488535664 0 0 0 0 3.8487635517576564 4.5538180563189599 0 4.5538180563189599 1.427516555868408 0 0 0 0 -11.181406915722619 -36.884021679003126 0 -36.884021679003126 -65.506071397982396 0 0 0 0 -124.78944820773228 -44.299365073970762 0 -44.299365073970762 53.548711356952481 0 0 0 0 0.72300708098282485 24.209037692089623 0 24.209037692089623 31.366254307860345 0 0 0 0 -18.510826142963197 6.3853319062800438 0 6.3853319062800438 14.874669112834454 0 0 0 0 -13.342402357295555 -8.3779624070770069 0 -8.3779624070770069 3.815669461433572 0 0 0 0 -7.3426734992171987 1.7016879210123079 0 1.7016879210123079 5.0893848911800887 0 0 0 0 4.1450337504738854 9.1814410318575028 0 9.1814410318575028 7.4792028067749925 0 0 0 0 -1.9419020242730767 -1.8263687223798115 0 -1.8263687223798115 4.4234126921896859 0 0 0 0 -2.7806300759177702 -0.63520891915118227 0 -0.63520891915118227 0.098345740349031985 0 0 0 0 -0.029559509465830303 -1.44002271217588 0 -1.44002271217588 0.86192361647800553 0 0 0 0 0.43714060718957626 -1.1150791223603846 0 -1.1150791223603846 3.5863899709775069 0 0 0 0 -0.081410525038672965 -0.40299327794886874 0 -0.40299327794886874 -0.15803450328265001 0 0 0 0 -0.1306591739396481 -4.7532927509448655 0 -4.7532927509448655 1.144450102625342 0 0 0 0 -29.8414462589717 33.679356068711058 0 33.679356068711058 -9.8442570789738966 0 0 0 0 -26.260680420375138 11.166225997130823 0 11.166225997130823 10.798799469674123 0 0 0 0 4.2207862415270938 26.943435285229498 0 26.943435285229498 -12.138014126299822 0 0 0 0 -80.427572298707673 26.491528334523537 0 26.491528334523537 8.5297026724092575 0 0 0 0 0.07482878660732073 -0.20503682945547475 0 -0.20503682945547475 0.061637639398380628 0 0 0 0 2.8358747753052285 1.118389014156719 0 1.118389014156719 10.069083226040675 0 0 0 0 1.0755744605643187 -0.64448448018917048 0 -0.64448448018917048 0.2499916297363125 0 0 0 0 3.8753451916682025 -3.5108005521205996 0 -3.5108005521205996 -0.12825399743746857 0 0 0 0 212.10083149133425 132.34973260419974 0 132.34973260419974 24.58582248564926 0 0 0 0 0.79562417159123733 -0.13480360058246887 0 -0.13480360058246887 -0.12991644134797298 0 0 0 0 -1.8959864796361217 1.0684598367697618 0 1.0684598367697618 5.1232974499774855 0 0 0 0 -11.16880022569967 -46.337067895197833 0 -46.337067895197833 -22.145707106337795 0 0 0 0 -109.32284256932166 -0.33009383027615513 0 -0.33009383027615513 175.65304688685137 0 0 0 0 69.356734493676299 173.49123863880186 0 173.49123863880186 162.67084507840991 0 0 0 0 -80.023891696504734 106.94590373726987 0 106.94590373726987 245.45444002611475 0 0 0 0 -47.1493602514347 -58.060760462610688 0 -58.060760462610688 53.629417351832672 0 0 0 0 0.29550759908306645 27.129301288416173 0 27.129301288416173 26.369397173510151 0 0 0 0 36.540552264015787 30.432985641704363 0 30.432985641704363 8.1625907628922505 0 0 0 0 29.992916053201725 49.109664982842105 0 49.109664982842105 55.234332576823363 0 0 0 0 147.53207889200075 45.006550561006406 0 45.006550561006406 9.4805152989001726 0 0 0 0 78.816999461483647 46.326584903998082 0 46.326584903998082 44.617467609001324 0 0 0 0 -47.907729244710936 97.391779683132427 0 97.391779683132427 21.89149436047137 0 0 0 0 0.92791369235714605 1.135211087842519 0 1.135211087842519 1.938802038882919 0 0 0 0 326.25019728832103 81.085037754725818 0 81.085037754725818 -28.818158146581482 0 0 0 0 72.88207059211436 133.67504318587271 0 133.67504318587271 31.859751726189643 0 0 0 0 0.54385029316881628 55.492877837958531 0 55.492877837958531 23.01871496520107 0 0 0 0 -69.472513751818042 23.273894480935724 0 23.273894480935724 13.741523596251227 0 0 0 0 -20.237215702608864 1.8197558185247544 0 1.8197558185247544 21.126001111213554 0 0 0 0 8.981422777901571 48.036496948721833 0 48.036496948721833 21.536085130524043 0 0 0 0 -22.017218073832737 28.146731663215178 0 28.146731663215178 24.4573293986723 0 0 0 0 51.242288502387055 22.377579089306892 0 22.377579089306892 21.130875275393919 0 0 0 0 -6.9719143848737986 3.2236591000837507 0 3.2236591000837507 36.546020305546335 0 0 0 0 -15.158320536656902 17.146288253630701 0 17.146288253630701 30.891279908882098 0 0 0 0 6.5906642587615352 -15.072963929542311 0 -15.072963929542311 -1.5536440639189095 0 0 0 0 54.096363523292439 21.077877924297354 0 21.077877924297354 42.231635820171505 0 0 0 0 50.446279206395729 30.859503013756694 0 30.859503013756694 21.457107822410762 0 0 0 0 154.73016788620316 74.692507862482671 0 74.692507862482671 -28.514811488115811 0 0 0 0 8.2099268138863408 2.0743565963068704 0 2.0743565963068704 -2.5255227667748841 0 0 0 0 1.2476288919936991 0.0029496444636407659 0 0.0029496444636407659 -0.48654830950535732 0 0 0 0 159.10580818051949 62.414511791320365 0 62.414511791320365 5.3731402319644985 0 0 0 0 35.399702294874487 69.539512151575536 0 69.539512151575536 28.618339739354269 0 0 0 0 -71.898749528007102 -4.7707343062356813 0 -4.7707343062356813 79.05610782742815 0 0 0 0 -76.832949982572472 67.385706447224607 0 67.385706447224607 5.5903871107857412 0 0 0 0 -70.479550027843288 35.382924782380542 0 35.382924782380542 99.324390139757725 0 0 0 0 -242.41495382512016 135.57701171087876 0 135.57701171087876 42.090783273313718 0 0 0 0 -2.86458392910572 44.04207528642246 0 44.04207528642246 10.682042575717787 0 0 0 0 -22.330819668355616 102.33077708108613 0 102.33077708108613 -3.6751175668177893 0 0 0 0 12.590469993110673 43.850209506948886 0 43.850209506948886 1.0114981873509805 0 0 0 0 9.936587405048158 45.27524937383896 0 45.27524937383896 14.498640322066422 0 0 0 0 11.693932744552512 47.731314303524414 0 47.731314303524414 10.110718287736745 0 0 0 0 14.724276963238935 32.005910756771527 0 32.005910756771527 31.996567245212646 0 0 0 0 24.181762431727293 21.906049435373006 0 21.906049435373006 -9.9254924158922222 0 0 0 0 -26.862751958757144 12.005051206264852 0 12.005051206264852 21.10188333829592 0 0 0 0 -36.410336472719791 28.301492357837105 0 28.301492357837105 40.253594686874749 0 0 0 0 8.4631988224227825 6.87401779657921 0 6.87401779657921 3.1563235644835004 0 0 0 0 7.1680772036561393 2.55788350421426 0 2.55788350421426 -9.8856584275090427 0 0 0 0 20.102243706895933 12.591495676158047 0 12.591495676158047 -26.907801872584969 0 0 0 0 0.24949049130021095 -0.30643494248963243 0 -0.30643494248963243 -0.10852490235866252 0 0 0 0 -1.001425367570846 18.586477990149433 0 18.586477990149433 7.0336818082842001 0 0 0 0 7.4063890621109749 5.7639770153364225 0 5.7639770153364225 -1.6674959983211011 0 0 0 0 -0.43782471968991032 2.1989167587679042 0 2.1989167587679042 1.513852697479761 0 0 0 0 3.6105105976964911 6.7424099381023366 0 6.7424099381023366 1.0405101795264962 0 0 0 0 -3.021523156530975 2.7674979911948867 0 2.7674979911948867 6.7510851961724256 0 0 0 0 -4.0246643297712392 2.8750116452683994 0 2.8750116452683994 -0.22086063935126354 0 0 0 0 -4.6840978398558946 3.452789393841158 0 3.452789393841158 12.321926225002244 0 0 0 0 -3.4494813710634844 -1.7236622817235911 0 -1.7236622817235911 11.100186151118578 0 0 0 0 -2.1441975851903408 -0.88297020129903103 0 -0.88297020129903103 -0.58249323629752325 0 0 0 0 2.8941855198809208 -4.6717985074883472 0 -4.6717985074883472 -0.94468070964717299 0 0 0 0 -1.6048663614810721 -8.2150702645039928 0 -8.2150702645039928 2.7846994421179261 0 0 0 0 3.4568334555769979 -3.1016771067143054 0 -3.1016771067143054 -0.53696280772055616 0 0 0 0 25.143213210293652 -12.257106487950296 0 -12.257106487950296 -4.488184240013652 0 0 0 0 7.6208789802931278 -5.992553778747606 0 -5.992553778747606 -0.67776454323717417 0 0 0 0 8.1767083266061036 -12.192646261385789 0 -12.192646261385789 3.5276858536271902 0 0 0 0 16.635389460101123 -33.134966515369342 0 -33.134966515369342 -39.145523231111838 0 0 0 0 -7.687095560981561 -6.0929313912124599 0 -6.0929313912124599 6.5988482147513423 0 0 0 0 -6.5323323092849819 2.8208444788170368 0 2.8208444788170368 51.077301766504206 0 0 0 0 -3.5469228084133562 1.3246293741477455 0 1.3246293741477455 -0.41396939067279348 0 0 0 0 -15.048051442735414 -36.836541887530075 0 -36.836541887530075 22.347995479161 0 0 0 0 20.703775701611903 -19.637050643345106 0 -19.637050643345106 -21.644073777199083 0 0 0 0 -74.90831427226658 108.97728960018958 0 108.97728960018958 137.1836638120285 0 0 0 0 -243.29687015403374 -53.962900350955351 0 -53.962900350955351 61.308093820221075 0 0 0 0 -1.1869018776968616 0.6050408149329094 0 0.6050408149329094 -0.23947876266454493 0 0 0 0 -113.3926774359652 -115.92870042661525 0 -115.92870042661525 -37.562666999564499 0 0 0 0 -56.161873285117963 6.0911028731093211 0 6.0911028731093211 36.166106372738795 0 0 0 0 -119.14398331635812 98.521645652994266 0 98.521645652994266 -201.72796767616273 0 0 0 0 -43.875557505533834 -39.338665294523707 0 -39.338665294523707 -205.20462333179512 0 0 0 0 -64.348058733480229 -42.646962669805362 0 -42.646962669805362 -27.671547044360523 0 0 0 0 -22.925472874418119 36.553979602491381 0 36.553979602491381 -134.71373297360606 0 0 0 0 -68.521688450972761 23.595453574750081 0 23.595453574750081 -130.04727655834267 0 0 0 0 -41.639804779671067 102.70811238696706 0 102.70811238696706 -215.45868442851724 0 0 0 0 -30.991344358149036 41.079469036790215 0 41.079469036790215 -119.85243044208892 0 0 0 0 26.44424893364976 76.672869331762286 0 76.672869331762286 -98.30817260276126 0 0 0 0 -4.6596383614290744 -26.729944770673114 0 -26.729944770673114 -35.87468813310079 0 0 0 0 45.20213775105276 2.6541968971305323 0 2.6541968971305323 -32.033927522360614 0 0 0 0 0.564065277824362 -0.10472297619572668 0 -0.10472297619572668 -0.09106731967403725 0 0 0 0 4.7019926038819904 9.2658187279239428 0 9.2658187279239428 -28.672780879190213 0 0 0 0 33.829344936955067 23.037008162581515 0 23.037008162581515 2.0439483813534025 0 0 0 0 10.604025231084051 -3.2753544510187567 0 -3.2753544510187567 -8.438524795754347 0 0 0 0 4.4000309588023754 4.9598084201598454 0 4.9598084201598454 5.5474960413903318 0 0 0 0 32.901330885234842 -2.8064773903979869 0 -2.8064773903979869 -35.388998775601067 0 0 0 0 14.118621490330952 36.836920306890534 0 36.836920306890534 -84.632558161503766 0 0 0 0 19.44545708695432 13.709363204347596 0 13.709363204347596 -29.666146935591314 0 0 0 0 2.2735384018448208 55.093574081974673 0 55.093574081974673 -54.740891801029647 0 0 0 0 2.2495393675944797 71.399069511213384 0 71.399069511213384 -81.597326668198207 0 0 0 0 -26.603704363871657 93.883344247403329 0 93.883344247403329 -19.125525470196408 0 0 0 0 -34.228595989779024 143.2350653155122 0 143.2350653155122 -117.37673565589012 0 0 0 0 -25.315037186086784 135.40536559770067 0 135.40536559770067 -162.61914617985622 0 0 0 0 -57.654497821865334 187.57636780711891 0 187.57636780711891 -150.26855799602913 0 0 0 0 17.945874106026167 68.52545352668767 0 68.52545352668767 -102.81475812225653 0 0 0 0 -16.26582563393913 123.17029987847104 0 123.17029987847104 -168.57255788930888 0 0 0 0 -34.718839057352852 131.75062418328207 0 131.75062418328207 -98.016769062975982 0 0 0 0 -54.646092880640026 131.34211696733655 0 131.34211696733655 -133.18397717972675 0 0 0 0 -155.33077602374851 160.2338413100133 0 160.2338413100133 -179.67017067339748 0 0 0 0 -58.36686883953098 155.18622570582193 0 155.18622570582193 -242.4870635791367 0 0 0 0 -113.12817976492715 117.92915247431665 0 117.92915247431665 -240.33214057684108 0 0 0 0 -265.78912048032998 69.57907154639679 0 69.57907154639679 6.3117204537156795 0 0 0 0 -221.90300781557653 258.13722830127563 0 258.13722830127563 -171.68622981110229 0 0 0 0 -242.4393217529223 232.07313205579976 0 232.07313205579976 -137.95702260521375 0 0 0 0 -222.84606292636727 109.30739798975173 0 109.30739798975173 -190.88193909512756 0 0 0 0 70.531959124724381 -9.5924947380777894 0 -9.5924947380777894 4.2756831671285909 0 0 0 0 2.3355943280307745 4.2482573559933545 0 4.2482573559933545 4.1546913462838191 0 0 0 0 -37.271168669188228 48.955691087313426 0 48.955691087313426 -40.258326167189807 0 0 0 0 53.423749201072042 7.3871363032444606 0 7.3871363032444606 -0.068203890489712649 0 0 0 0 -48.471360853839201 47.91364381499352 0 47.91364381499352 -33.149182275190469 0 0 0 0 -32.045571662217526 5.2261339522369781 0 5.2261339522369781 -32.114174345752872 0 0 0 0 267.61488737357149 -34.778384293506861 0 -34.778384293506861 -12.245948438292544 0 0 0 0 102.54892493001262 -27.506608741573473 0 -27.506608741573473 13.775519201455609 0 0 0 0 58.884264068211451 32.186074243004441 0 32.186074243004441 18.849739306896481 0 0 0 0 35.670236021551318 54.141501581743796 0 54.141501581743796 19.99427544007267 0 0 0 0 62.292531496388619 52.334024629952182 0 52.334024629952182 9.3731134879358251 0 0 0 0 50.381673358365333 28.671287324686091 0 28.671287324686091 -4.240429053454136 0 0 0 0 126.03365438830338 10.882009662976088 0 10.882009662976088 -16.827150252545835 0 0 0 0 0.18108210196260188 4.8193927286338294 0 4.8193927286338294 5.5525829168564087 0 0 0 0 11.731570581865526 16.112120373487414 0 16.112120373487414 10.527231926013712 0 0 0 0 -9.139630145047704 7.5048469452922291 0 7.5048469452922291 10.047327823784144 0 0 0 0 -5.6856034629377064 26.758013979576845 0 26.758013979576845 20.342081754293758 0 0 0 0 6.6147143557864183 22.300997364613067 0 22.300997364613067 13.941551551367411 0 0 0 0 6.648720144861727 26.750451983647508 0 26.750451983647508 16.313788524226766 0 0 0 0 5.5836859442688365 7.0575630248140442 0 7.0575630248140442 -2.7451805467480881 0 0 0 0 23.067064896495367 20.218487869495902 0 20.218487869495902 -5.7745071757071855 0 0 0 0 37.694674713623499 45.367699874618665 0 45.367699874618665 -28.449824491637173 0 0 0 0 21.766221466541538 23.804267784566036 0 23.804267784566036 -14.546916459563818 0 0 0 0 54.076209896251839 19.126900640765143 0 19.126900640765143 -19.843713547957123 0 0 0 0 83.862525188454242 28.773177681085713 0 28.773177681085713 -22.863659727236154 0 0 0 0 62.053149847978602 37.84517903668484 0 37.84517903668484 -31.640523997900345 0 0 0 0 24.136439093080298 33.406615216939372 0 33.406615216939372 -37.296399251573348 0 0 0 0 -4.0783244912868213 81.889242551703774 0 81.889242551703774 -58.022208374961792 0 0 0 0 71.681851969783111 38.457150720083519 0 38.457150720083519 -17.439679025093938 0 0 0 0 17.728624412123509 31.599636105334412 0 31.599636105334412 -0.079241998320867424 0 0 0 0 75.781321914254477 74.605782416675538 0 74.605782416675538 12.640327071050592 0 0 0 0 -2.339668094196413 3.0389700189819422 0 3.0389700189819422 -4.0583049694497717 0 0 0 0 61.785587407515095 28.903373719888577 0 28.903373719888577 3.8848337549206917 0 0 0 0 50.986413274845972 15.866115026314219 0 15.866115026314219 0.65715935959087801 0 0 0 0 -2.2086317679327223 5.0851754853524156 0 5.0851754853524156 -3.3690947950938934 0 0 0 0 -1.5891599909577963 26.480574189594336 0 26.480574189594336 26.25310399269074 0 0 0 0 -18.408130690771031 16.42905563048771 0 16.42905563048771 27.515613335672469 0 0 0 0 -26.149970416193298 37.049977468042016 0 37.049977468042016 -47.601947022832974 0 0 0 0 21.931119645657873 40.576878285977273 0 40.576878285977273 19.057194775628886 0 0 0 0 -43.089753985543894 16.181958683828725 0 16.181958683828725 21.651035523704195 0 0 0 0 -175.92589027306394 161.50022480323742 0 161.50022480323742 28.549277271888855 0 0 0 0 -41.318580254666358 46.389740319885732 0 46.389740319885732 52.136224619515815 0 0 0 0 -99.53559103801058 164.65088414743786 0 164.65088414743786 -66.122905498412365 0 0 0 0 -96.496386030688882 251.76864323800419 0 251.76864323800419 -132.64753625326102 0 0 0 0 69.498856945513353 50.953631609279 0 50.953631609279 -220.38747183397936 0 0 0 0 -0.95983446966438635 1.3710123459457124 0 1.3710123459457124 -1.643728256928167 0 0 0 0 -42.193667257769448 197.52966287221261 0 197.52966287221261 -209.58824554387337 0 0 0 0 -124.63650689170254 193.1837068701625 0 193.1837068701625 -112.3711265980628 0 0 0 0 -107.3129414494897 78.03137854154275 0 78.03137854154275 -46.44946321587031 0 0 0 0 -70.41499308779612 145.08990014636083 0 145.08990014636083 -70.91046300270682 0 0 0 0 -49.84230760996661 105.37704057008341 0 105.37704057008341 -45.281983156401111 0 0 0 0 -130.77244713340519 82.831586760019945 0 82.831586760019945 -60.384378976810694 0 0 0 0 -55.24020257901725 119.53367876080142 0 119.53367876080142 -187.28954084429097 0 0 0 0 -150.55873385592258 122.17168159276116 0 122.17168159276116 -33.731636735110442 0 0 0 0 -104.67106269732335 32.01288442247801 0 32.01288442247801 24.007019092953669 0 0 0 0 -24.764648239000053 173.4368812073667 0 173.4368812073667 -179.89035250517372 0 0 0 0 -57.605119082416422 56.48727636685885 0 56.48727636685885 4.8387622926375116 0 0 0 0 -70.649610211131403 41.001698591083368 0 41.001698591083368 -3.7614127678954219 0 0 0 0 -206.35253598592726 135.75154634628757 0 135.75154634628757 -30.819792516018424 0 0 0 0 -97.234225079753742 152.25301014791057 0 152.25301014791057 -86.260117075363269 0 0 0 0 -113.58869454910086 173.97637794498723 0 173.97637794498723 -88.075364849316429 0 0 0 0 -35.841629147370895 135.54401433806333 0 135.54401433806333 -73.768694176579629 0 0 0 0 -33.464233657982732 74.529730846149505 0 74.529730846149505 -18.10753113188548 0 0 0 0 -98.163917485095453 120.93222281600106 0 120.93222281600106 -47.26574123082446 0 0 0 0 -43.282165178557989 126.34375791458706 0 126.34375791458706 -71.444869859185928 0 0 0 0 -6.323529378958483 130.57802868677709 0 130.57802868677709 -96.238609267329366 0 0 0 0 -53.987672048462628 183.74904513927413 0 183.74904513927413 -96.031481739325727 0 0 0 0 -62.409926377629063 171.88638033508755 0 171.88638033508755 -109.56546260233608 0 0 0 0 -43.795934354793872 158.03306714281416 0 158.03306714281416 -88.068403063007281 0 0 0 0 -46.935508819479764 168.67922143232863 0 168.67922143232863 -77.342962649038782 0 0 0 0 -23.451454745098545 174.45988430544594 0 174.45988430544594 -208.0450150173001 0 0 0 0 -12.145664545700583 72.857950832563802 0 72.857950832563802 -157.04478473207655 0 0 0 0 4.9501312499255619 93.104341020632546 0 93.104341020632546 -44.526893317235817 0 0 0 0 -29.783908696460685 82.353790416087577 0 82.353790416087577 -17.859471508431852 0 0 0 0 38.880544728487621 54.127480192521034 0 54.127480192521034 -14.595119011931047 0 0 0 0 -2.6396385923690104 83.145744950023527 0 83.145744950023527 -64.720243646003496 0 0 0 0 -4.9886524525352343 37.124061307698597 0 37.124061307698597 13.033690059698529 0 0 0 0 27.494010812779379 47.147955099373121 0 47.147955099373121 12.547574694528919 0 0 0 0 0.23084907765951357 12.631845715136933 0 12.631845715136933 -3.955970339079613 0 0 0 0 -12.019122109373257 62.971463995866543 0 62.971463995866543 -28.91321543616823 0 0 0 0 -0.056883624258716736 15.411527012842271 0 15.411527012842271 122.70764259097268 0 0 0 0 10.81601559981209 58.989197122165024 0 58.989197122165024 147.31209780386598 0 0 0 0 12.57611311481196 10.901028210153981 0 10.901028210153981 51.260253445808303 0 0 0 0 -4.4330541655126581 27.554865967922979 0 27.554865967922979 77.900474259775365 0 0 0 0 49.218011438209714 49.426806978318609 0 49.426806978318609 79.321802749258495 0 0 0 0 16.30101452767849 6.851169310302339 0 6.851169310302339 178.92037065974955 0 0 0 0 57.887124391766292 59.477373025712382 0 59.477373025712382 70.618629091982257 0 0 0 0 -17.758529495178664 55.97343435579478 0 55.97343435579478 70.486338410368262 0 0 0 0 -11.572527170204921 55.029072515993448 0 55.029072515993448 209.82874923852341 0 0 0 0 7.2214661137684288 65.522936067413411 0 65.522936067413411 60.789612397503333 0 0 0 0 30.457937680867417 21.8456415812866 0 21.8456415812866 210.95109384986375 0 0 0 0 -18.339187814066463 36.350888946598388 0 36.350888946598388 277.46119491889021 0 0 0 0 -1.0094609754150952 -54.588807418966098 0 -54.588807418966098 346.66644493283047 0 0 0 0 0.71344766702259754 2.6823213956698151 0 2.6823213956698151 1.140662264131632 0 0 0 0 56.119605020886866 68.125478009902054 0 68.125478009902054 -141.6283923998617 0 0 0 0 -66.535146624534264 63.888014922742514 0 63.888014922742514 -3.644709039330337 0 0 0 0 39.284874023775501 20.752123776835788 0 20.752123776835788 -191.56309419301942 0 0 0 0 0.34612991301383822 0.89018117399052343 0 0.89018117399052343 0.52597398128264317 0 0 0 0 -12.898567449217921 -11.806299473197214 0 -11.806299473197214 509.60939825570586 0 0 0 0 65.025822666706517 116.02302173340286 0 116.02302173340286 216.79863204777871 0 0 0 0 12.434472166620594 70.213680195934387 0 70.213680195934387 160.66158777142118 0 0 0 0 18.321610386578868 97.037641223006176 0 97.037641223006176 -14.37220711436612 0 0 0 0 -4.8675033031831845 61.351044283644114 0 61.351044283644114 185.7712740076604 0 0 0 0 27.80347078267971 39.628121101963416 0 39.628121101963416 167.59945471537867 0 0 0 0 -58.216617877518274 118.91121210462097 0 118.91121210462097 17.85722417524903 0 0 0 0 -67.574813602195263 82.633962816770691 0 82.633962816770691 74.289253931860912 0 0 0 0 -70.931761288206758 131.6427094628848 0 131.6427094628848 -1.4629183515662589 0 0 0 0 -82.406565191863365 134.4987942777052 0 134.4987942777052 40.796245978124716 0 0 0 0 -145.04396674818253 163.00747100043043 0 163.00747100043043 -3.0814620467908753 0 0 0 0 -111.7536821279632 126.12522457917794 0 126.12522457917794 23.710256298922104 0 0 0 0 -72.141690815218226 76.797967341810136 0 76.797967341810136 -32.943304251482914 0 0 0 0 -51.679954112591076 114.14973404786861 0 114.14973404786861 16.478322901755746 0 0 0 0 -45.232508442735707 69.860798598221663 0 69.860798598221663 53.409088969996446 0 0 0 0 -43.928503812154304 125.29306819641488 0 125.29306819641488 -22.907316034029463 0 0 0 0 -48.112401150566257 65.809276824993049 0 65.809276824993049 61.878462868196038 0 0 0 0 -32.59621807626263 57.581933782451415 0 57.581933782451415 159.17191845856905 0 0 0 0 -17.226819209994574 84.892295965183393 0 84.892295965183393 61.469664303851459 0 0 0 0 -68.894863752893571 71.551785278368925 0 71.551785278368925 77.153534291923279 0 0 0 0 -35.498873691745757 43.776410708447202 0 43.776410708447202 150.40419009917878 0 0 0 0 -30.455940406636728 84.584652526858918 0 84.584652526858918 80.269104542672721 0 0 0 0 -38.516368885680095 40.600884342185509 0 40.600884342185509 142.68253432468919 0 0 0 0 -12.13662071119245 2.4887871172021505 0 2.4887871172021505 204.17580720373371 0 0 0 0 -26.535801950866812 52.834739677773996 0 52.834739677773996 153.68808772767261 0 0 0 0 21.573215016344875 7.1112813525614911 0 7.1112813525614911 164.7795993515424 0 0 0 0 -20.009320037772341 59.167604571985066 0 59.167604571985066 163.22258319896355 0 0 0 0 -2.5574333396280053 23.660947967980064 0 23.660947967980064 219.80835210221721 0 0 0 0 -75.683064858767352 62.216525592369976 0 62.216525592369976 18.951388348976252 0 0 0 0 -48.832251356958295 -21.751331906951236 0 -21.751331906951236 -27.902635425760309 0 0 0 0 0.66067295350836197 3.6962936508770134 0 3.6962936508770134 1.4594380960545466 0 0 0 0 -32.795376663380011 -17.462532953934897 0 -17.462532953934897 277.48540531817662 0 0 0 0 47.850763355055278 48.622705001231225 0 48.622705001231225 -29.391853634750078 0 0 0 0 17.348224302689687 -23.861785735606645 0 -23.861785735606645 186.77976564139681 0 0 0 0 -32.226897110173894 20.430293693706503 0 20.430293693706503 -21.901768319099574 0 0 0 0 0.61768051898542531 5.1975630544788416 0 5.1975630544788416 2.362004189261353 0 0 0 0 -200.32122765098757 38.145176430078209 0 38.145176430078209 53.829029325946976 0 0 0 0 -27.682762506428389 5.3428619851647454 0 5.3428619851647454 178.99848522843422 0 0 0 0 -11.951173745159849 36.989514592366504 0 36.989514592366504 156.14194677015666 0 0 0 0 -39.427630386787179 90.316830653022294 0 90.316830653022294 73.536715669042678 0 0 0 0 -15.542931025949201 22.234234396732973 0 22.234234396732973 124.50897787425129 0 0 0 0 -43.125589698066506 48.900107527239925 0 48.900107527239925 136.52655133011331 0 0 0 0 -40.977573485037283 74.438331381576063 0 74.438331381576063 57.304381663021559 0 0 0 0 -8.6883990897476906 35.854921233943969 0 35.854921233943969 93.492109071019513 0 0 0 0 -51.719287516544796 79.363871185501125 0 79.363871185501125 102.53749000529933 0 0 0 0 -60.844890153816095 101.71369790829363 0 101.71369790829363 66.442679328532904 0 0 0 0 -21.395264847454882 56.159962069581525 0 56.159962069581525 67.506726103754772 0 0 0 0 -33.82237546810984 55.980210102109595 0 55.980210102109595 108.20571202534848 0 0 0 0 -23.214966910385328 40.627844904655603 0 40.627844904655603 125.53449681899292 0 0 0 0 0.60827213215179654 -5.4166930798583053 0 -5.4166930798583053 146.50550314770317 0 0 0 0 -9.4116901868442255 68.519197089333375 0 68.519197089333375 101.05632574173069 0 0 0 0 -0.35784333917075539 -0.089982849397760134 0 -0.089982849397760134 1.5863376179025277 0 0 0 0 26.244349082817735 26.811819318384551 0 26.811819318384551 98.317170117905789 0 0 0 0 -42.277893272690562 -0.83515855586938414 0 -0.83515855586938414 11.088149503372733 0 0 0 0 -22.271758328370481 36.784748427222667 0 36.784748427222667 -16.346957534033209 0 0 0 0 -151.75230495150458 121.31887252284196 0 121.31887252284196 28.178059500231484 0 0 0 0 -56.904270714129439 73.684444779919204 0 73.684444779919204 39.112416083444259 0 0 0 0 -68.694821183014028 70.188865543566862 0 70.188865543566862 104.45271195307032 0 0 0 0 -259.45263319992682 88.450898079205217 0 88.450898079205217 23.85913093707768 0 0 0 0 -164.75063567231052 65.402282509405666 0 65.402282509405666 29.467744858397054 0 0 0 0 -59.268152617591369 -36.870961834006266 0 -36.870961834006266 -34.300112208608766 0 0 0 0 -125.89019347340331 141.9907725380117 0 141.9907725380117 -118.76556531598544 0 0 0 0 -129.11258844777399 75.94159153665214 0 75.94159153665214 -16.714256906250739 0 0 0 0 -148.41851517888006 72.227116212678084 0 72.227116212678084 32.319691430184321 0 0 0 0 -100.51411332516545 117.49857021099433 0 117.49857021099433 42.112546047222907 0 0 0 0 -54.392929437620865 97.450727176960299 0 97.450727176960299 -3.7549889142464963 0 0 0 0 -93.23671528673367 144.7915228267284 0 144.7915228267284 22.879315054680774 0 0 0 0 -90.104445634836111 149.31505057231971 0 149.31505057231971 -59.680780523141721 0 0 0 0 -135.27529827452588 172.03780289641907 0 172.03780289641907 -5.3148794451271897 0 0 0 0 -79.980638952728896 137.28536851910258 0 137.28536851910258 8.5118889616592242 0 0 0 0 114.79089693170522 139.16857863079485 0 139.16857863079485 83.240146287240577 0 0 0 0 -1.1944065702501541 1.9015988391323475 0 1.9015988391323475 -1.9447461820420955 0 0 0 0 -40.631366414159857 24.769521876617546 0 24.769521876617546 54.13496466008462 0 0 0 0 -162.80734102494017 90.070314107350669 0 90.070314107350669 52.453227411104308 0 0 0 0 95.066741395134045 143.14353037199226 0 143.14353037199226 -63.368289059327253 0 0 0 0 -0.161098242075007 0.85143475429805626 0 0.85143475429805626 -1.2935074781772435 0 0 0 0 108.46129627507966 45.259770498591934 0 45.259770498591934 -43.839580636181381 0 0 0 0 87.167476514061718 68.440629205486857 0 68.440629205486857 64.815934275811856 0 0 0 0 66.362286945203437 89.371828782892408 0 89.371828782892408 -67.799553436264432 0 0 0 0 85.347949874497829 45.560612809012014 0 45.560612809012014 -58.510788738032716 0 0 0 0 0.53450149410372205 67.148005729639181 0 67.148005729639181 -38.083459594120541 0 0 0 0 -99.188686245050548 155.18194708779129 0 155.18194708779129 -28.400458469593787 0 0 0 0 28.348283123158922 72.08284084065599 0 72.08284084065599 -41.448291562780014 0 0 0 0 -17.977974286707308 83.720140217492371 0 83.720140217492371 0.89207949888168514 0 0 0 0 33.630626269512391 58.62082160077864 0 58.62082160077864 -7.2342385692572861 0 0 0 0 54.155182364489519 34.959978567591406 0 34.959978567591406 -50.769034129518332 0 0 0 0 54.611992648741989 31.273875934134139 0 31.273875934134139 -29.092606887658349 0 0 0 0 74.55935745946158 29.29516787815237 0 29.29516787815237 -85.047043272081282 0 0 0 0 22.837582199349072 -2.4182233908463786 0 -2.4182233908463786 -59.516953324960923 0 0 0 0 76.548385250633146 44.011045734071558 0 44.011045734071558 -54.898369466420263 0 0 0 0 -9.8926415341416032 79.110750509852096 0 79.110750509852096 -47.217196148124231 0 0 0 0 2.1018192008209269 -20.302828440291449 0 -20.302828440291449 -0.67306904035012849 0 0 0 0 18.209196785814584 5.6860533137737548 0 5.6860533137737548 -25.118757948569737 0 0 0 0 8.2228090479122784 -43.888232306093641 0 -43.888232306093641 -138.21967374955057 0 0 0 0 0.27624257006091479 0.059670684451152312 0 0.059670684451152312 -1.6856175419448256 0 0 0 0 -35.164062001424554 88.847696568017 0 88.847696568017 -71.070052997325092 0 0 0 0 39.00087060501528 46.70203320935434 0 46.70203320935434 -103.14512067885153 0 0 0 0 25.316464146083035 73.842665225112796 0 73.842665225112796 -153.51484723942565 0 0 0 0 -5.7287151339870661 53.646908029973702 0 53.646908029973702 -100.30552951554455 0 0 0 0 -20.50277841488321 47.143177874311277 0 47.143177874311277 -4.8485169934892838 0 0 0 0 0.37565485385441555 1.4176650667264052 0 1.4176650667264052 -0.19576141116611123 0 0 0 0 99.626195708909677 53.553621713521807 0 53.553621713521807 -65.126534381746751 0 0 0 0 31.415351947830004 38.122940842803473 0 38.122940842803473 -63.724570554110869 0 0 0 0 90.461951337188566 85.366912377691278 0 85.366912377691278 -109.31743180254352 0 0 0 0 0.37764639887264551 1.0803633435619222 0 1.0803633435619222 -0.12779078721258585 0 0 0 0 54.542488791344567 39.140382085764486 0 39.140382085764486 -164.57573404807226 0 0 0 0 81.294570242254622 89.192995756631717 0 89.192995756631717 48.693939581572522 0 0 0 0 113.54724084436771 89.941758971401214 0 89.941758971401214 41.83140116205368 0 0 0 0 81.791344109265196 107.02129678714709 0 107.02129678714709 113.31041549159272 0 0 0 0 61.532594105930457 150.17774185878807 0 150.17774185878807 160.74615247519432 0 0 0 0 44.901928969589335 123.07752219354143 0 123.07752219354143 126.81710281063351 0 0 0 0 59.560825817485238 136.0514591351357 0 136.0514591351357 81.346904037158311 0 0 0 0 25.932602707724527 139.48035579006682 0 139.48035579006682 119.47856752196458 0 0 0 0 16.419924780944712 46.619935401715338 0 46.619935401715338 24.306007711916209 0 0 0 0 57.659387852350484 114.46061401071182 0 114.46061401071182 111.70544091261127 0 0 0 0 -1.0972686681165951 1.7029175191465686 0 1.7029175191465686 -1.6170340294977237 0 0 0 0 20.671870676279013 144.77737942707063 0 144.77737942707063 74.692673102412442 0 0 0 0 84.738184613820522 48.771533809812354 0 48.771533809812354 -38.046034141099199 0 0 0 0 -9.5759179379288071 0.59285099398721286 0 0.59285099398721286 53.737533296605761 0 0 0 0 27.223892328319835 54.682210590962313 0 54.682210590962313 59.036529527547827 0 0 0 0 105.15304685904493 209.45700796682286 0 209.45700796682286 157.31827875620638 0 0 0 0 220.50554827428232 124.44312066509974 0 124.44312066509974 77.043776957325235 0 0 0 0 -36.758297794489408 142.97578029483338 0 142.97578029483338 274.74155843035624 0 0 0 0 67.71578419196976 61.770377284421556 0 61.770377284421556 65.167499093753463 0 0 0 0 107.85676303709988 -10.642218861111814 0 -10.642218861111814 183.74208490757701 0 0 0 0 95.32844717239368 160.40724095706355 0 160.40724095706355 272.31808789758543 0 0 0 0 123.85863265347143 171.58455625075931 0 171.58455625075931 137.41415659890299 0 0 0 0 37.77477378611934 84.415743538226025 0 84.415743538226025 175.64174444666787 0 0 0 0 270.57542252968096 238.39741670347121 0 238.39741670347121 167.28157348942659 0 0 0 0 149.18074393424149 138.73634021905036 0 138.73634021905036 86.468034817764419 0 0 0 0 -17.204161180399751 43.514896032969773 0 43.514896032969773 -33.228395099384215 0 0 0 0 -0.023189946728910282 -0.03925530298465052 0 -0.03925530298465052 2.6123024617783095 0 0 0 0 406.82843868421969 104.37304101366499 0 104.37304101366499 18.127796479535391 0 0 0 0 -147.95356694971815 11.690144880342359 0 11.690144880342359 260.96948785643326 0 0 0 0 -4.9467127352709213 16.903010968408125 0 16.903010968408125 33.11784760961018 0 0 0 0 1.6272021326326467 30.726736627951141 0 30.726736627951141 34.969414507504553 0 0 0 0 1.2865811943607532 4.0922075331435446 0 4.0922075331435446 5.4996403652201664 0 0 0 0 -109.38898802997392 -22.888080068687486 0 -22.888080068687486 19.176698501374631 0 0 0 0 76.924550445387467 32.567108532055499 0 32.567108532055499 8.1258845735683281 0 0 0 0 57.23863379866998 51.419459390634074 0 51.419459390634074 11.272478437942482 0 0 0 0 118.61700090457452 60.248005709924655 0 60.248005709924655 21.0748298795952 0 0 0 0 168.88026421481663 3.9315894908722839 0 3.9315894908722839 -21.347130717407708 0 0 0 0 67.50486244953845 -21.770411056888406 0 -21.770411056888406 2.8271572342055151 0 0 0 0 174.05378191614273 161.11894651298735 0 161.11894651298735 76.128987667158981 0 0 0 0 222.36651820177667 59.939141027374717 0 59.939141027374717 -29.232073487928574 0 0 0 0 111.22199422726499 76.218455702183746 0 76.218455702183746 23.48449736369821 0 0 0 0 91.211617894831306 96.064606614201239 0 96.064606614201239 49.639591645285691 0 0 0 0 133.61177812714322 120.99928587917111 0 120.99928587917111 36.609028033968571 0 0 0 0 15.660142353595575 32.452719922360302 0 32.452719922360302 41.31355436629201 0 0 0 0 0.16357298982960411 -0.014678081617542027 0 -0.014678081617542027 -0.72128098234329485 0 0 0 0 -29.687175135572716 33.662242007635086 0 33.662242007635086 -6.8071084238144977 0 0 0 0 64.440157345994749 -25.08670370580603 0 -25.08670370580603 74.60225126673943 0 0 0 0 0.14105644939767892 0.61250169664669762 0 0.61250169664669762 -1.2112671765102299 0 0 0 0 140.14143888690546 60.905003812383711 0 60.905003812383711 19.070889127968258 0 0 0 0 -89.153273848593017 -69.501278196005842 0 -69.501278196005842 120.87767725557933 0 0 0 0 95.963087413710127 118.027488959111 0 118.027488959111 56.512303169758525 0 0 0 0 38.754427361825947 106.39320184397002 0 106.39320184397002 80.913470920761029 0 0 0 0 60.196525043897054 33.278612992442504 0 33.278612992442504 19.030314968188879 0 0 0 0 39.637846702173647 66.404162645847464 0 66.404162645847464 19.236525548340069 0 0 0 0 1.6935326617642321 9.0520085945728326 0 9.0520085945728326 -5.0354303657890096 0 0 0 0 7.5238080286471813 35.721732068454912 0 35.721732068454912 36.972469703008755 0 0 0 0 -0.45933801551529996 20.953460523446211 0 20.953460523446211 -8.1514392396002222 0 0 0 0 -25.516822364692416 53.364513999513292 0 53.364513999513292 78.240413617878403 0 0 0 0 4.4547240450447134 14.61661540798832 0 14.61661540798832 4.0947653403773074 0 0 0 0 5.2289294152067782 13.006048846842987 0 13.006048846842987 3.7841191495954263 0 0 0 0 44.623042899540337 -4.7956217135783845 0 -4.7956217135783845 -33.828119192427039 0 0 0 0 3.1197617817553063 7.0546825637450983 0 7.0546825637450983 -4.9365355735802989 0 0 0 0 0.88633915638433436 27.541534826974384 0 27.541534826974384 27.85792028562355 0 0 0 0 0.2784118897685261 10.144341271893614 0 10.144341271893614 7.9826861310148125 0 0 0 0 20.194733298371375 -5.2729902642658999 0 -5.2729902642658999 24.862877808154735 0 0 0 0 10.693153099992173 12.568345134025549 0 12.568345134025549 -2.6265041386458989 0 0 0 0 0.81985272281720223 9.9038538836040786 0 9.9038538836040786 -8.558219717033408 0 0 0 0 1.2252777121560143 11.968482575819507 0 11.968482575819507 -68.633330211876455 0 0 0 0 0.13117343183574881 1.394479385174618 0 1.394479385174618 0.32140898816014207 0 0 0 0 13.878077621310126 54.451556160543987 0 54.451556160543987 -34.414840975196057 0 0 0 0 19.841198930721646 21.183257264185158 0 21.183257264185158 -5.6213290700979996 0 0 0 0 -1.7286216365645686 7.5658691232772526 0 7.5658691232772526 17.242154916941217 0 0 0 0 -0.36080284631579074 1.5926078922958204 0 1.5926078922958204 -1.5776095443917981 0 0 0 0 -7.7099773374502263 45.01320541645191 0 45.01320541645191 11.40608557050291 0 0 0 0 37.399428749377989 -50.649636414957058 0 -50.649636414957058 -8.2924855602831897 0 0 0 0 -26.131353463748383 91.287398100916107 0 91.287398100916107 -9.0700615269615099 0 0 0 0 0.14718301823846636 9.9117105604439999 0 9.9117105604439999 -8.8124891340228935 0 0 0 0 -3.6816337249533717 23.060020072454336 0 23.060020072454336 3.2631500037582555 0 0 0 0 10.15740099273475 19.598251996618757 0 19.598251996618757 -7.5414105521185775 0 0 0 0 17.660981839079284 16.009984936854494 0 16.009984936854494 -6.3714485090913513 0 0 0 0 1.3958273292659218 8.1129637270638 0 8.1129637270638 11.805058557771138 0 0 0 0 -6.9969917362229239 30.759940679215106 0 30.759940679215106 -6.6221078535854758 0 0 0 0 -1.6902074399923777 19.053996791377131 0 19.053996791377131 -9.1733944276738839 0 0 0 0 3.0796969362727395 6.3274785812468508 0 6.3274785812468508 6.8921687615093106 0 0 0 0 5.7821503764384943 2.2232238431442966 0 2.2232238431442966 11.192184056610586 0 0 0 0 31.416246819838307 -5.4714749867716819 0 -5.4714749867716819 -16.767608921424653 0 0 0 0 -25.447243473602207 -13.006989846484167 0 -13.006989846484167 4.5944327863599028 0 0 0 0 17.22279887909599 19.287156510762543 0 19.287156510762543 9.0088672233143825 0 0 0 0 -2.2684690766193398 9.4443011548549975 0 9.4443011548549975 11.753907787986464 0 0 0 0 -2.7417977839028129 3.6249197052576996 0 3.6249197052576996 -0.91013266848232632 0 0 0 0 -16.121159332031993 23.184198823545557 0 23.184198823545557 15.986440241491209 0 0 0 0 -5.1294465795585893 77.754448178914572 0 77.754448178914572 -183.77744187739245 0 0 0 0 -1.0522492609775771 1.0932267065195962 0 1.0932267065195962 -1.3259074049192101 0 0 0 0 -96.186605549429714 184.81899253457004 0 184.81899253457004 -84.613111696580745 0 0 0 0 -63.30278228657744 122.53283039976895 0 122.53283039976895 -54.813314588534922 0 0 0 0 -0.093757950795016143 21.719104896714242 0 21.719104896714242 -13.920630060485564 0 0 0 0 43.311514931632956 46.198130744915488 0 46.198130744915488 1.831257440686386 0 0 0 0 46.463571024099998 70.984900302850804 0 70.984900302850804 70.282644872668243 0 0 0 0 33.883441506562519 7.7750521501748153 0 7.7750521501748153 44.741268533737639 0 0 0 0 86.416902202331201 50.813430986285084 0 50.813430986285084 19.553203000785288 0 0 0 0 -6.6241314987050828 59.970821419907224 0 59.970821419907224 20.047282902421102 0 0 0 0 -2.0834172327212741 12.917702574976829 0 12.917702574976829 45.404898502660217 0 0 0 0 31.147698323303416 11.251402439312187 0 11.251402439312187 40.388425149991235 0 0 0 0 -5.6024655125729765 -0.84503462152247266 0 -0.84503462152247266 24.168036173281507 0 0 0 0 31.205968350701539 10.951525678310645 0 10.951525678310645 12.327794821603675 0 0 0 0 
</DataArray>
<DataArray type="Float64" Name="cross_section_updated" format="ascii">
0.0098078740013590963 1 1 1 1 1 1 1 1 1 1 1 1 1 1 1 1 1 0.010005398858946812 1 1 1 0.010040910818683975 1 0.01000538203132487 1 1 1 1 1 0.0095044163221947395 1 1 1 1 1 1 0.0094258840634244521 1 1 0.0099912611640009322 0.0098860093343704214 1 1 1 1 1 1 1 0.0095110979350368427 1 1 1 1 0.0094569645885918055 1 1 1 1 0.0091237351378294137 1 1 1 1 1 1 1 1 1 1 1 1 1 1 1 1 1 0.0094150961644124519 1 1 1 1 1 1 1 1 1 1 1 1 0.010001137894501121 1 1 1 1 1 0.0096570650334010071 1 1 1 1 1 1 1 1 1 0.010022079609954621 1 1 1 1 1 1 1 1 1 1 1 1 1 1 1 0.010119029385796707 1 1 1 1 1 1 1 0.0099651011380317185 1 1 1 1 1 1 1 0.009856905259403281 1 1 1 1 1 0.010020060541353602 1 1 0.0099166699403924682 1 1 1 1 1 1 1 1 1 1 1 1 1 1 1 1 1 1 1 1 1 1 1 1 1 1 0.010011150119903339 1 1 1 0.010029960379438541 1 1 1 1 1 1 1 1 1 0.0094470793492246775 1 1 1 1 1 1 1 1 0.01000804932792527 1 1 1 1 0.010019303626204944 1 1 1 0.0095648714153456493 1 1 0.0099801312791956958 1 1 1 1 1 0.0095508427114507737 1 0.010444054189288251 1 1 1 1 0.0097346457948947092 1 0.010021749836958287 1 1 1 0.010000081828137844 1 1 0.0094407715689586533 0.010030217233422555 1 0.010000529630346035 0.0100006403238299 1 1 0.0099006969276007901 0.0098114665029750813 1 1 1 0.010465994244850113 1 0.0097942260378386867 1 0.0094503071410616708 1 1 1 1 1 0.008726285676391117 0.010000522962677219 1 1 1 1 1 1 1 1 1 1 0.0092182659395395987 1 1 1 1 1 1 1 0.010764925541899964 0.0099623355193170313 1 1 1 1 1 1 1 1 0.0097625836950391374 1 1 1 1 0.010914657675231285 1 1 0.010118608635112859 1 1 1 0.011171599072769267 1 1 1 1 1 1 1 1 0.0099732877134056583 1 0.0089823392173971079 1 1 1 1 1 0.0092577070940020045 1 1 1 1 1 1 1 1 1 1 1 1 1 1 1 0.011007649720428385 1 0.0086911078237461182 0.0091892238250611546 1 0.010066119681633309 1 1 0.010967062886351589 1 1 1 1 1 1 1 1 1 0.009886695773337421 1 1 0.010858714917419757 0.0099347536907798267 1 1 1 1 0.01138074443835433 0.0095172444423590446 1 0.01031738115344898 1 1 1 0.009935439909729905 1 1 1 1 0.0098277087392544173 1 1 1 0.009846673955909201 1 0.0090429845001288485 0.0099564116221751119 1 1 0.0081188217073666306 1 1 0.0078544634957383175 1 1 0.0099884908820367518 1 1 1 1 1 1 1 1 1 1 1 1 1 1 0.010125039324954616 1 1 1 1 0.010049205862650649 1 1 1 1 1 1 0.010048775384057521 1 1 1 1 1 1 1 1 1 1 1 1 1 1 1 1 1 1 1 1 1 1 1 1 1 1 1 1 1 1 1 1 1 1 1 1 1 1 1 1 1 1 1 1 1 1 1 0.010014024209295353 1 1 1 1 1 1 0.0087150948216931593 1 0.010410093939734605 1 1 0.0087193551262755922 1 1 1 0.010127672780466562 1 1 1 1 0.0087570326576311489 1 1 1 1 1 1 1 1 1 1 1 1 1 1 0.010010731700232672 1 1 1 1 1 1 1 0.010013446433182149 1 1 1 0.010002714732949475 1 1 1 1 1 0.010002955237304722 1 1 1 1 1 0.011464419381520183 1 1 1 1 1 1 1 0.0095710296527398969 0.011656932814082793 1 1 1 1 1 1 0.010140020473182697 1 0.0094625116126012265 1 0.010005499999140131 1 1 1 0.011936277522083793 1 1 1 1 0.010026648825880167 1 1 1 1 1 1 1 1 1 0.010078168994278765 1 1 0.011823777692590756 1 1 0.010124988219666693 1 0.010113961509193969 1 1 0.0098648840708015495 1 1 1 1 1 1 1 1 0.0099519776023821328 1 1 1 1 1 1 1 0.010044076813025458 1 1 1 0.010088036845938599 1 1 1 1 1 1 1 1 1 1 1 1 1 1 1 1 1 1 1 1 1 1 1 1 1 1 1 1 1 0.0099783979561819496 1 1 1 1 0.0099320620729472439 1 1 1 1 1 1 1 1 0.0098825187141201639 1 1 0.010066277434805964 1 1 1 1 0.010087646036749612 1 1 1 1 1 0.010028793768470497 1 1 1 1 1 1 1 1 1 1 1 1 1 1 1 1 1 1 1 1 1 1 1 1 1 1 1 1 1 1 1 1 1 1 1 1 1 1 1 1 1 1 1 1 1 1 1 1 1 1 1 1 1 1 1 1 1 1 1 1 1 1 1 1 1 1 1 1 1 1 1 1 1 1 1 1 1 1 1 1 1 1 1 1 1 1 1 1 0.0093086885068241892 1 1 1 0.009519980162632025 1 0.010247588050138491 0.0093244012300825168 1 0.010584939501017078 1 1 1 1 1 1 1 1 1 1 1 1 1 1 1 1 1 1 1 1 1 1 1 1 1 1 1 1 1 1 1 1 1 1 1 1 1 1 0.0099746400468028358 0.0081357576621996028 1 1 1 1 0.010885482095780802 1 1 1 1 1 1 1 1 1 1 1 1 1 1 1 1 0.010628843095582156 1 1 1 1 1 1 1 1 1 1 1 1 1 1 1 1 1 1 1 1 1 1 1 1 1 1 0.010315811174021985 1 1 1 0.010074956395948059 1 1 1 1 0.010035619156880539 1 1 0.010516227149005603 1 1 0.010847135909543712 1 1 1 0.010174231273785753 1 1 1 1 1 1 1 1 1 1 1 1 1 1 1 1 1 0.0098117470283212594 1 1 1 1 1 1 1 1 1 0.0094393404533536993 1 1 1 1 1 1 1 1 1 0.0089885903354175612 1 1 1 1 0.010149651392611734 1 1 1 1 1 1 1 1 1 1 0.0099812303878074569 1 1 1 1 1 1 1 1 1 0.01002467961930798 1 0.011004445871538624 1 1 1 0.0094878803611383369 1 1 0.0098168005759968705 1 0.010643629782542869 1 1 0.010607950131303442 1 0.0097932347840385039 1 1 1 1 1 0.010600797947874652 0.0098212700154096701 1 1 1 1 1 1 1 1 1 1 1 1 1 1 1 1 1 1 1 1 1 1 1 1 1 1 1 1 1 0.0099860636775352014 1 0.0096900956240443242 1 1 1 1 1 1 0.010502810782078488 1 1 1 1 1 1 0.0095350779331858423 0.0095527402263439719 1 1 0.010153456588614013 1 1 0.010343011271476577 1 1 0.010131312548830531 1 1 1 1 0.00907889737130038 1 1 1 1 0.010857057512490952 1 1 0.010912394565866226 1 0.0099921241419827968 1 1 1 1 1 1 1 1 1 1 1 1 1 1 1 1 1 1 1 1 1 1 1 1 1 1 1 1 1 0.0099690310920279857 1 1 1 1 1 1 1 1 1 1 1 0.009852483811597177 1 1 1 0.0092020546989534345 1 1 0.010498042426353446 0.0090956737876633324 1 1 1 0.0093479456265757634 1 1 0.010853469388639602 0.010309435687430379 1 1 1 1 1 1 1 0.0087330864941381828 1 1 1 1 1 0.0094603890706139327 1 0.0099874136972033529 1 0.009232429820231404 1 1 1 1 1 1 0.0108497405075626 1 1 0.01000061286981288 1 1 1 1 1 1 1 0.009647731979911851 1 1 1 1 1 0.009881898720897158 1 1 1 1 1 1 1 1 1 1 1 1 1 1 0.010198260257821182 1 1 1 1 1 1 0.010963553918654197 1 1 1 0.010337444140134558 0.010465206627984633 1 1 1 1 0.0095106372643856529 1 1 1 1 1 0.0099915247602502949 0.0095004761438419807 1 1 1 0.0099789384574536476 1 1 1 1 1 1 0.011361291114954906 1 0.0096710235049650255 1 1 0.010023910487654905 1 0.0096043677109090946 1 1 1 1 1 1 0.0093684637979960204 1 1 1 1 1 1 1 1 1 1 1 1 1 1 1 1 1 0.009431632865901254 1 1 1 1 1 0.010088030953375876 1 1 0.009828684800898678 1 1 1 1 1 1 1 1 1 1 1 1 1 1 1 1 1 1 1 1 1 1 1 1 0.010021243859956241 1 1 1 0.0099550866401166491 1 1 1 0.010136911821959275 0.010256492476639805 1 0.010007659544788643 1 1 0.01016511700547097 1 1 0.010002597950295259 1 1 0.01000847869909291 1 1 1 1 1 1 1 1 1 1 1 1 1 0.010105534986924194 1 1 0.010001967536786852 1 1 0.010630701862762914 1 1 1 1 1 1 1 1 0.010896434411772585 0.010001554378489923 1 1 0.009967585441316611 1 1 1 0.010520049188775749 1 1 1 0.0093566349610206788 1 1 1 1 1 1 1 1 1 1 1 1 1 1 1 1 0.010769593075180267 1 1 0.010036426011135227 1 1 1 1 1 0.01000257377857371 1 0.010593069365350124 1 0.0094845513187201205 0.0096394145055997381 1 0.0093059510996996476 1 1 0.010054731145544313 1 0.0093547172181709035 1 0.0097825230754420463 1 1 1 1 1 1 0.010271820103725871 1 1 1 1 1 1 1 1 1 0.010036376303807649 1 0.010015334169959094 1 1 1 1 1 1 1 1 1 1 1 1 1 1 1 0.010127570020342798 1 1 1 0.010151400644858964 1 1 1 1 1 1 1 1 1 1 1 1 1 1 1 1 0.0097740848869328923 1 1 1 0.010112772081180978 1 0.010316333823595612 1 1 1 1 1 1 1 1 1 1 1 1 0.0093294334818341887 1 1 1 1 1 0.0089277231929705478 1 0.010108847651006142 1 0.0099877926631816109 1 1 0.010678527316206636 1 1 1 0.0099675454142048921 0.0087774086116328559 1 1 0.011417481532251184 1 0.0092550738237183097 0.010186801132675649 0.0093479802063000401 1 0.0097637321989731823 1 0.0093934099440538422 1 0.011517841974134127 0.0099844471604352385 1 1 1 1 1 0.010801640956494572 0.012338199783862922 1 1 1 1 1 0.012690317049044938 1 1 1 0.0079795391944610505 1 0.0083977224990278987 1 0.009938872450152899 0.0099636098813997154 1 1 1 0.010013952942762199 1 0.0096439208985966401 1 1 1 0.009345188541852326 1 1 1 0.0097244895193523296 0.0099818704474936952 1 1 0.009995652504515621 1 1 1 1 0.0096671196779204611 1 0.0088766430329753742 1 1 0.010008956977805933 1 0.011156243162514769 1 1 0.012150799330875147 1 1 1 1 1 0.010914765487159615 1 1 1 0.010100508312546108 1 1 1 0.011552377347234549 1 1 1 0.0099810864309160564 1 0.012176327825466635 1 1 1 1 1 1 1 1 1 1 1 1 0.0099964951861746341 1 1 1 0.010114582040998139 1 1 1 1 1 1 1 0.010395757842684915 1 1 1 1 1 1 1 1 1 1 1 1 1 1 1 1 1 1 1 1 1 1 1 1 1 1 1 1 1 1 1 1 1 1 1 1 1 1 1 0.0098623327790825568 1 1 1 1 0.010042240832790849 1 1 1 1 1 1 1 1 1 0.01015257656703545 1 1 1 1 1 1 1 0.0099745453377599394 1 1 1 0.0099488974524894642 1 1 1 0.0098281458941374637 1 1 0.010076526726784083 1 1 1 0.010259309249648428 1 1 1 1 1 1 0.0098659650661046625 1 0.010021125625660836 1 1 0.0099863399541916358 1 1 1 1 1 1 1 1 0.010005290002323492 1 1 1 0.0095363896930840582 1 1 1 1 1 1 1 1 1 1 0.0099845797319262179 1 1 0.0099905743140077108 1 1 1 1 1 1 1 0.0096173558269037861 1 1 1 1 1 1 1 1 1 1 1 1 0.0094209140720036329 1 1 1 1 0.009509840672850229 1 1 0.010075109042404704 1 1 1 0.010008550262932257 1 1 1 1 1 1 1 1 1 1 1 1 1 1 1 1 1 1 1 1 1 1 0.010015271044328342 1 1 1 1 1 1 1 1 1 1 1 1 1 1 1 1 0.0099151546713405862 1 1 1 1 1 1 1 1 1 0.0097185969914637856 1 1 1 1 1 1 1 1 1 1 1 1 1 1 1 1 1 0.0094703210315975946 0.010641305221230116 0.0097274271279409324 0.010395016604312088 1 1 1 1 0.0095963880553848243 1 0.010563556123358188 1 1 0.011152397679402751 0.010043694706575493 1 0.009986881141902177 1 1 0.0099845119881764813 1 1 0.011035578668662952 1 1 0.0093398963911357664 1 1 0.010022079921770304 1 1 1 1 1 1 1 0.01118738049177604 1 1 1 1 1 1 1 1 1 1 1 0.0099713745710638835 1 1 1 0.0099156940238048098 1 1 1 0.010760251151039185 1 1 1 1 1 0.010583433252864555 1 1 1 0.010881196806439402 0.01008973690897182 1 1 1 0.0099687092168201565 1 0.010045330350468321 1 1 1 1 1 0.01039517708891765 1 1 1 1 1 1 1 1 1 1 1 1 1 1 1 1 1 1 1 0.010158805592141381 1 0.010317173740726288 1 1 1 1 0.01062566363586758 1 1 1 1 0.0092527805016876657 1 1 1 0.0099691272420581734 1 1 1 1 0.010037623313375691 1 1 0.010175120441005511 1 0.0099068563669996289 1 1 1 1 1 0.011261091643880144 0.009534593735630632 1 0.011761144522782187 0.0098421585527396042 1 1 0.0098718885578084319 1 1 1 1 1 1 1 1 1 1 0.0098244165812643551 1 1 1 1 1 1 1 1 0.0096906839303302766 1 1 1 1 1 1 1 1 0.01002101842907209 1 1 1 1 0.01000069482231041 1 1 1 0.0099455505613287379 1 1 1 1 1 1 1 1 1 1 1 1 1 1 1 1 1 1 1 1 1 1 1 1 1 1 1 1 1 1 1 1 1 1 1 0.010184838296530474 1 0.010066071457307015 1 1 1 1 1 1 1 1 1 1 1 1 1 1 1 1 1 1 0.0099524537259043436 1 1 1 1 1 0.010551554422708744 1 1 1 0.010904359216570247 1 1 0.0098212251462871415 1 1 1 1 1 0.010180189369650917 1 0.010028604834255687 1 1 1 1 1 0.0097684225703989665 1 1 1 0.0076091585933819421 1 1 0.011397926790889993 1 0.01009354695150972 1 1 0.011131895143454227 1 1 1 0.01053451911779003 0.011580147630159686 1 1 1 0.010821262812607304 1 1 1 1 1 1 1 1 1 1 0.0091379899773243699 0.0093340232226449757 1 1 0.009015587338050763 1 1 0.011473686853377256 1 1 1 1 1 0.0090973759412702245 1 1 1 0.010760090031160664 0.0094895182778618331 1 1 1 1 0.010216535440069362 0.011439466866260453 0.012228509504274201 1 0.0089148735188465944 1 1 1 1 1 1 1 0.01140699722740377 1 1 1 1 1 1 1 1 1 1 1 1 1 1 0.010689649783604071 1 1 1 1 1 0.009998054773949213 1 1 1 1 0.0099393902213944993 1 1 1 1 1 1 0.011294552452085688 1 1 1 1 1 1 1 1 0.011326010410226066 1 1 1 1 1 1 0.011338946005204466 1 1 1 1 0.0099775007391087311 1 1 1 1 1 1 1 1 1 1 1 0.0091852387343277237 1 1 1 1 1 0.0099593439473781714 1 1 0.0099818432082694371 1 1 1 0.0099944420626146158 1 0.010093532472445181 1 1 0.0096064270347419808 0.0096846930169839189 1 1 1 0.010086103630160336 1 1 1 1 0.0092252849293055616 1 1 1 1 1 1 1 1 1 1 1 1 1 1 0.010398436882075757 0.0093889633049789242 1 1 1 0.0099904763707516549 1 0.011849110784690857 1 0.011918965677507934 1 0.0097813030270843242 1 1 1 0.010171572910960861 1 1 1 0.010756961814614389 1 1 1 0.011732032204113563 0.0092522199011082738 1 0.01062748236944714 1 1 1 1 0.012286835887028875 1 0.0099977416796837443 1 1 1 1 1 1 1 1 1 1 1 0.01004401233167442 1 1 1 1 1 1 0.01002326548874808 1 0.0080754509834435571 1 1 0.0091618566272874177 1 1 0.011533044970614057 1 1 1 1 1 1 1 1 1 0.0098982857749518455 1 1 1 1 1 1 1 1 1 1 1 1 1 1 1 0.0097064579820679356 0.010126408983924863 1 1 1 1 0.0098705330428182428 1 1 1 1 1 1 0.01004543195023766 1 1 1 1 0.0098270616622504348 1 1 1 1 1 1 0.0096827331632881423 1 1 0.0095027842927109807 1 1 1 1 1 0.0092506306505067103 1 1 1 0.011463216920283723 1 1 1 1 1 0.0098922015312232475 1 0.010051211076195112 1 0.010015238966169441 1 1 1 1 1 1 1 1 1 1 1 1 1 0.009896181611770704 1 1 1 0.0099212591267852819 1 1 1 1 1 1 1 0.0099586595703445181 1 1 1 1 1 1 1 1 0.0093554836241722915 1 1 0.01014745886239325 1 1 0.010051112336775367 1 1 1 1 1 1 1 1 0.010016750503440077 1 1 1 1 1 1 0.0092353821937182327 1 1 1 1 1 1 1 1 1 0.010001040775111443 1 1 1 1 1 0.0099898565447208536 1 1 1 1 1 1 1 1 1 0.010100774737679634 1 1 1 1 1 1 0.010026006309224067 1 1 1 1 1 1 1 1 0.010127602788935057 1 1 1 0.0099598545635952631 1 1 1 1 1 1 1 1 1 1 1 1 1 1 1 1 1 1 1 1 1 1 1 1 1 1 1 1 1 1 1 1 1 1 1 1 1 1 1 0.0099988790948692917 1 1 1 0.0098756122522927602 1 1 0.0098916361225755631 1 1 1 1 1 1 1 1 1 1 1 1 1 1 1 1 1 1 1 1 1 1 1 1 1 1 1 0.010197323998287575 1 0.010593974778027287 1 1 1 1 1 1 1 0.01099161689176242 1 1 0.011229095164013332 1 1 1 0.010119553454322442 1 1 1 1 1 0.010996287923818364 1 1 1 1 1 1 1 1 1 1 1 1 0.0099992338404372091 1 1 1 0.010038657217635735 1 1 0.0097375180586766925 1 1 1 1 1 1 1 1 1 1 1 1 0.010025644615118253 1 0.0099959105846938595 1 1 1 1 1 1 1 1 1 0.010004195914626101 1 1 1 1 1 1 1 1 0.010048733598799984 1 1 1 1 1 0.0099322295607265527 1 1 1 1 1 1 1 1 1 1 1 1 1 0.009701017495010943 1 0.010026596729310154 0.009199556603091897 1 1 1 1 1 1 0.0099876704360197729 1 1 1 1 0.010185269567387141 1 1 1 0.009689166691724229 1 1 1 1 1 1 1 1 1 1 0.0099184878973134598 1 1 1 1 0.0098101240198890226 1 1 0.009751981544195246 1 0.010189999347668316 1 1 1 1 0.0098152181807495652 1 1 1 1 1 0.010205701736325451 0.010363117855478152 1 1 1 1 1 1 0.010002100560530865 1 1 0.0098372035764676229 1 1 0.0098031894012605876 1 1 1 1 1 0.0099996277908354567 1 1 1 1 1 1 1 1 1 1 0.0097124798241233212 1 1 1 1 1 1 1 1 1 1 1 1 1 1 1 0.0098996188099203884 1 1 1 0.0098965556194065898 1 1 0.0099673680034239008 1 1 1 1 1 1 0.0099934011445102153 1 0.0099768911728340907 1 1 1 1 1 1 1 1 1 0.0098138609879041896 0.010018806625666406 1 1 0.0099030948338375557 1 0.0099992584651336057 0.0099991108740873202 1 1 1 1 1 1 1 1 1 0.011079677130283268 1 1 1 1 1 1 1 1 1 1 1 1 1 1 1 1 1 0.010010867315673919 1 1 1 1 1 1 1 1 1 1 1 1 1 1 1 1 1 1 0.01001571396690972 1 1 1 0.010004476110940881 1 1 1 0.0099716006526356336 1 0.0100046387169154 1 1 0.010040912601567257 1 1 1 0.01000752385810012 1 1 0.010470711066459906 1 0.0099288410917756087 1 1 0.0098197848934119987 1 0.010099294598924691 1 1 0.0099771121283348477 1 1 1 1 1 1 0.010633665168013257 1 1 0.010168484284992882 1 1 1 1 1 1 1 1 1 1 0.010598156806227126 1 0.010905321759003992 1 1 1 0.009205819591586218 0.010604643049065048 1 1 1 1 0.010282674640237032 1 1 1 1 1 0.012132036393701244 1 1 1 1 1 0.013156360648771575 1 1 1 0.010090265205320081 1 1 0.010202926765459098 1 1 1 1 1 1 1 0.010430437630502755 1 1 1 0.0099542735536110698 1 1 1 0.0098754345868802846 1 1 1 1 1 1 0.010495330130126639 1 1 0.010628912784468883 1 1 1 1 0.010302219539950187 1 0.010610651677653024 1 1 0.010903999683223763 1 1 1 1 0.010738053120835585 1 1 1 1 1 1 1 1 1 1 1 1 1 1 1 1 1 1 1 1 1 1 1 1 1 1 1 1 1 1 1 1 1 1 1 1 0.011261487234299272 1 1 1 0.010881963159280616 1 1 1 1 1 1 1 1 1 1 1 1 1 1 1 0.010340271517855125 1 1 1 1 1 1 1 0.010201471256141169 1 1 1 1 1 1 1 1 1 1 1 1 0.011251214792371612 1 0.011378682439553141 1 1 1 1 1 0.010042009280938569 1 1 0.00996128714221034 1 1 0.011136455206251257 0.010169183992075982 1 1 0.0099966806455256199 1 1 0.010856265689286847 1 1 0.010654962253629566 1 1 1 1 1 0.010484569219889932 1 1 1 1 1 1 1 1 0.012137844684977288 1 1 1 1 1 1 1 1 0.012045758014375218 1 1 1 1 1 0.010030191736310087 1 1 1 1 1 1 1 1 1 1 1 1 1 1 1 1 0.010080096060662153 1 1 0.01004990432435207 1 1 1 1 1 1 1 1 1 1 1 1 1 1 1 0.010260916258596847 1 1 1 1 1 1 1 0.0099809582818616224 1 1 1 1 1 1 1 1 1 1 1 1 1 0.0098813318195155216 1 1 1 1 1 1 1 0.0099072533833185414 0.01004638309391068 1 1 1 1 1 1 0.010254808788879712 1 1 1 1 1 1 1 1 1 1 1 1 1 1 1 0.0098382535443239799 1 1 1 1 1 1 1 1 1 1 0.0097811961005575578 1 1 1 1 1 1 1 1 1 1 0.0094203518121534456 1 1 0.0088795170497498414 1 1 1 1 1 1 1 1 1 1 0.0091789081481675645 0.012274504725767242 1 1 0.0091377989804384777 1 1 1 1 1 1 0.0092808538395423891 1 0.010064868451434051 1 1 1 1 1 0.012623061755700399 1 1 1 1 1 1 1 1 1 1 0.012230993834551585 1 1 1 1 1 0.0096251868766728636 1 1 1 1 1 1 1 1 1 1 1 1 1 1 1 1 1 1 1 1 1 1 1 1 1 1 1 1 1 1 0.010162004060535747 0.010939674951397653 1 1 1 1 0.011012705105961577 1 1 1 1 1 1 1 1 1 1 1 1 1 1 1 1 1 1 1 1 1 1 1 1 1 1 1 1 0.010070549186902828 1 1 1 1 1 1 1 1 1 1 1 1 1 1 1 1 1 1 1 1 1 1 0.008964303723088516 1 0.010024150681596664 1 1 1 1 1 1 1 1 1 1 1 1 1 1 1 1 1 1 0.0084603989834914697 1 1 0.0079167455255518184 1 1 1 1 1 1 1 0.0079299818033829791 0.010947008887850862 0.010930009307651627 1 1 1 1 1 0.010353079227270934 1 1 1 1 1 1 1 1 1 1 1 1 1 1 1 1 1 1 1 1 1 1 1 1 1 1 1 0.0098159468469465171 1 1 1 1 0.011546853589634618 1 1 0.0093604943206692989 1 1 0.011313183881611339 1 1 0.0089866350678599102 1 0.010504406958611089 1 1 1 1 1 1 1 1 1 1 1 1 0.0082287597432846096 1 1 1 0.0096871295780428558 1 1 1 1 1 1 1 1 1 1 0.0090730935185686801 1 1 0.0099998701323328366 0.0093664109546540749 1 1 1 0.010739001116529638 0.01044266181482716 0.010845613955872399 1 1 1 1 1 0.0092192013352320797 1 0.010433919449233518 0.0095288843374708478 1 1 0.010435584777939221 0.01056386735704825 1 0.0092398159754850957 1 1 0.0099690857553106534 1 1 1 0.0099925240352423221 0.0085484250370866845 0.0099898467208736665 0.0097723517218200086 1 1 1 1 1 1 1 1 1 1 1 1 1 1 1 1 1 1 1 1 1 1 0.010220638871878011 1 1 1 0.0106152962389898 1 1 1 1 1 1 1 1 1 1 1 1 1 1 1 1 1 1 1 1 1 1 1 1 1 0.0098718644053359013 1 1 1 0.0097396991978899797 1 1 1 1 0.0098678347925540803 1 1 1 0.010258894471907781 1 1 1 1 1 1 1 1 1 1 1 1 1 0.010461087354794691 1 0.010253574159961209 1 1 1 1 1 1 1 1 1 1 1 1 1 1 1 1 1 1 1 1 1 1 1 1 0.010049579898749873 0.010058757628634825 0.0094893498831054579 1 1 1 1 1 1 0.0099980158797225577 1 1 1 1 1 1 1 1 1 1 1 0.010207513194833486 1 1 1 1 1 1 1 1 1 1 1 1 1 1 1 0.012944358249217454 1 1 0.010680956031075734 0.011762322895803042 1 1 0.011369513816156057 1 1 1 1 1 1 1 1 1 1 1 1 1 1 1 1 1 1 1 1 1 1 0.012024732829217621 1 1 0.012138932821252283 1 1 1 1 1 1 1 1 1 1 1 1 0.010029928955018166 1 1 1 1 1 1 1 1 1 1 0.0098839815850305674 1 1 1 1 1 1 1 1 1 0.009857393309401042 1 1 0.011375279950468605 1 1 1 0.01045942633001652 1 1 1 0.0097179396539049234 1 1 1 1 1 1 0.0095380882801164284 1 1 1 1 1 1 1 1 1 0.010101550698026828 1 1 0.010672883298636662 1 0.010117197531723333 1 1 0.0093519245735207372 1 1 1 1 1 1 1 1 1 1 1 1 1 0.010078553942213232 1 1 1 1 1 1 1 1 1 1 1 0.0088689744013337735 1 1 1 1 1 0.010813790820675597 0.010007682934415587 0.0084061400957707658 1 1 1 1 1 1 1 1 1 1 1 1 1 1 1 1 1 1 1 1 1 1 1 1 1 0.0099404344730495107 1 0.0097777078525566018 1 1 0.009979362333201177 1 1 1 1 1 1 1 0.010240749951600479 1 1 1 1 1 1 1 1 1 0.0098055818374087507 1 1 0.0099039945581307978 1 1 1 1 1 1 1 1 0.010689349959327672 1 1 1 1 0.009943475198233253 1 1 1 1 1 1 1 1 1 1 1 1 1 1 1 1 1 1 1 1 1 1 1 1 1 1 1 1 0.010235250322748694 1 1 0.010348091815355599 1 1 1 1 1 1 1 0.0099116230981921936 1 1 1 1 1 1 0.0099136072184696378 1 1 1 1 1 1 1 1 1 1 0.010283700014362926 1 1 1 1 1 1 1 1 1 1 0.010664379103078591 1 1 1 1 1 0.010793210831478977 1 1 0.0099253201024725925 1 1 1 1 1 1 1 1 1 1 1 1 1 1 1 1 0.0099953211662345831 1 1 1 1 1 1 1 1 1 1 1 1 1 1 1 1 1 1 1 0.010093936954909913 1 1 1 1 0.010161155250113815 1 1 1 0.0098914737744346132 1 1 1 0.010067485446520731 1 1 1 0.0097848583405492455 1 0.009893384566114629 1 1 1 1 1 1 1 1 1 1 1 1 1 1 1 1 1 1 1 1 1 0.009947567423693255 1 1 1 0.0099474497590019712 1 1 1 1 1 0.010170793669051664 1 1 1 0.010084766115302365 1 1 1 1 1 1 1 1 1 1 1 0.010086181389697422 0.0099773549205576656 1 1 1 1 1 0.0099690356930528159 1 1 1 1 0.0099870019387297334 1 1 0.0099015872792779548 1 1 1 1 1 1 1 1 1 1 1 1 1 1 1 1 1 1 1 1 1 1 1 1 1 1 1 1 1 1 1 1 1 1 1 1 1 0.0099053574873258447 1 1 1 1 1 0.0099283788753227777 1 0.0099170670723687862 1 1 1 1 1 1 1 1 1 1 1 1 1 1 1 1 1 1 1 1 1 1 0.010177312119102949 1 1 1 0.01048850674600686 0.0098282698881766665 1 1 0.0099524377118197921 1 1 1 1 1 1 1 1 1 1 1 1 0.0096844349712031253 0.0083484579332274867 1 1 1 1 1 1 0.008364027758540624 1 1 1 1 0.0099130717164422014 1 1 1 1 0.0097953220751176868 1 1 1 1 0.0098107700458366434 1 1 1 1 1 1 0.0098784374535889185 0.010002898310125432 1 1 1 1 0.0097623809887959143 1 1 1 1 1 1 1 1 1 1 0.0094253181885692108 1 1 1 0.010073813587848564 1 1 1 1 0.0090853080715920173 0.010219754239009263 1 1 1 1 1 1 1 1 1 1 1 0.0097998169436194771 1 1 1 0.0099416079725520648 1 1 1 1 1 1 1 1 0.0097950964780041897 1 1 1 1 1 1 1 1 1 1 1 1 1 1 1 1 1 1 1 1 1 1 1 1 1 1 1 1 1 1 1 1 1 1 1 1 1 1 1 1 0.0099362642254445313 1 1 1 1 1 1 1 1 1 1 1 1 1 1 1 1 1 1 1 1 1 1 1 1 1 1 1 1 1 1 1 1 1 0.0097134172532786153 1 1 1 0.010119297871643351 1 1 1 1 1 1 1 0.0099824082281742763 1 0.0098224682469872267 1 1 1 1 1 1 1 1 1 1 0.0098674820529136547 1 1 1 1 0.0099341767362579256 1 0.0097263143054733131 1 1 1 1 1 1 1 1 1 1 1 1 1 1 1 1 1 1 1 1 1 1 1 1 1 1 1 1 1 1 1 1 1 1 1 1 1 1 1 1 1 1 1 1 1 1 1 1 1 1 1 0.0099662129706436058 1 1 1 1 1 1 1 1 1 1 1 1 0.0098522454657756879 1 1 1 0.0099724374829022917 1 0.010013501787424172 0.0098191833262493596 1 1 1 1 1 1 1 1 0.010265294671954264 1 1 0.0096788066219196285 1 1 1 0.0099978029488251713 1 1 1 1 1 1 1 1 0.0099936291215901654 1 1 0.010469904675170724 1 1 1 1 1 1 1 0.010063417960690874 0.010561846430717094 1 1 1 1 1 0.01019054098973699 1 1 1 0.0099976643773836346 1 1 1 1 1 1 1 1 0.010131409946660189 1 1 1 0.010053532054297881 1 1 1 1 1 0.010226413692431761 1 1 1 0.010088144865697308 1 1 1 1 1 1 1 1 1 1 1 1 1 1 1 1 1 1 1 1 1 1 1 1 1 1 1 1 1 1 1 1 1 1 1 1 1 1 1 1 1 1 1 1 1 1 1 1 1 0.010174021232088893 1 1 1 0.0087972409330401933 1 1 1 0.010086979762152453 1 1 1 1 1 1 1 1 0.0089083499046864918 1 1 0.010033991164074375 1 1 1 1 1 1 1 1 1 1 1 0.0099335026838611885 1 1 1 1 1 1 1 1 1 0.0090001184531308589 1 0.0097991073447667668 1 0.0095215501521965871 0.0090972820260114065 1 1 1 1 1 1 1 1 1 1 1 1 1 1 1 1 1 1 1 1 1 1 1 1 1 1 1 1 1 1 1 1 1 1 1 1 1 1 1 1 1 1 1 1 1 1 1 1 1 1 1 1 1 1 1 1 1 1 1 1 1 1 1 1 1 1 1 1 1 1 1 1 1 1 1 1 1 1 1 1 1 1 1 1 1 1 1 1 1 1 1 1 1 1 1 1 1 1 1 1 1 1 0.010095143386986166 1 1 0.010026040493314426 1 1 0.010677299399574125 1 1 0.011298359497505498 1 1 1 1 1 1 1 1 1 1 1 1 1 1 1 1 1 1 1 1 1 1 1 1 1 1 0.010275360469333094 0.01051464529954824 1 1 1 1 1 1 1 1 1 1 1 1 0.01104039687817988 1 1 1 0.0099298226638754213 1 0.0099684226775149584 1 1 1 0.0099000372177180176 1 1 1 1 1 1 0.010078450686001187 1 1 1 1 1 1 1 1 1 0.0099285196871611598 1 1 1 1 1 1 0.0099987704014386468 1 1 0.0099671930789536033 1 1 1 1 1 1 0.0099592677650590967 1 1 1 1 1 1 1 1 1 1 1 1 1 1 1 1 1 1 1 1 1 0.010139248185002864 1 0.010334912154466889 1 1 1 1 1 1 1 1 1 1 1 1 1 1 0.010375256490384153 1 1 1 0.010179592520920124 1 1 1 1 1 1 1 1 1 0.0099069198241451325 1 1 1 1 1 1 1 1 1 0.0099476520590860359 1 1 1 1 1 1 1 1 1 1 1 1 1 1 1 1 1 1 1 1 1 1 1 1 1 0.0088798963895974775 1 1 1 1 1 1 1 1 1 1 0.010010120651649652 1 1 0.0078189364811847659 1 1 1 1 1 1 1 1 1 1 1 1 1 1 1 1 1 1 1 0.010024413491632711 1 1 1 1 1 1 1 1 1 1 1 1 1 1 1 1 1 1 1 1 1 1 1 1 1 1 1 1 1 1 1 1 1 1 1 0.010748268212972419 1 1 0.0085337215033121361 1 1 1 1 0.010569973836230916 1 1 1 0.010214705203711554 1 1 1 1 1 1 1 1 1 1 1 0.0085908108973773 1 1 1 1 1 1 1 1 1 1 1 1 1 1 1 1 1 1 0.0098445017572081975 1 0.0095200772026183007 1 1 1 1 1 1 1 1 1 1 1 1 1 1 1 0.0091744484932616277 1 1 0.011045065131274335 1 1 1 0.0098871742113472716 1 1 1 1 0.010141267430329306 1 1 0.0082008428972180063 1 1 1 1 1 1 1 1 0.010781080950122271 1 1 1 0.0099978743954872943 1 1 0.0099722270396216534 1 1 1 1 1 1 1 1 1 1 1 1 1 1 1 1 0.0088671173230703733 1 1 1 1 0.010072980571386704 1 1 1 1 1 1 1 1 1 1 0.010076751076288916 1 1 0.010149731647675622 1 1 1 1 1 1 0.010152486961971257 1 1 1 1 1 1 1 1 0.010040224833459142 0.01000878006206465 1 1 1 1 1 1 0.0096078882610730557 1 1 1 1 1 1 1 1 1 1 1 1 1 1 0.011764261994033099 1 0.012244667565751894 1 1 1 1 1 1 1 1 1 1 1 1 0.0099929937279550143 1 1 1 1 1 1 1 1 1 1 1 1 0.010042996266008771 1 1 1 1 1 1 1 0.0082399474449313236 1 1 1 1 1 1 1 1 0.0089916177151983714 1 1 0.0083548716200689387 1 1 1 1 1 1 0.0096923145151325864 1 1 1 1 1 1 1 1 1 1 0.0083857574518288822 1 1 1 1 1 1 0.0094132520533830675 1 1 1 1 1 1 0.0092636079661386796 1 1 1 0.0086567674387743043 1 1 1 1 1 1 1 1 1 1 1 0.0098722684651694741 1 1 1 1 1 1 0.0097646563827608699 1 1 1 1 1 0.0085071127903593533 1 1 1 1 1 0.0099987929696329879 1 1 1 1 1 1 1 1 0.010114687697535138 1 1 1 1 1 1 1 0.010253056121215801 1 1 0.0099993230417845247 1 1 1 1 1 1 1 1 1 1 1 1 1 1 1 1 1 1 1 1 1 1 0.0085541092208390353 1 1 0.01000637594990589 1 1 0.0099473149575560992 1 1 1 1 1 1 1 1 1 1 1 1 1 1 1 1 1 1 1 1 1 1 1 1 1 1 1 1 1 1 1 1 1 1 1 1 1 1 1 1 1 1 1 1 1 1 1 1 1 1 1 1 1 1 1 1 1 1 1 1 1 1 1 1 1 1 0.010120851768253752 1 1 1 1 0.010397791818437307 1 1 1 1 1 1 0.010396900041789798 1 1 1 1 1 1 1 1 1 1 1 0.010352883765645141 1 1 1 1 1 0.010119959991606243 1 1 1 1 1 1 1 1 1 1 1 1 1 1 1 1 1 1 1 0.0095561002860181134 1 1 1 1 1 1 0.01087253037347527 1 1 1 1 1 0.0087384324268498653 1 1 1 1 1 1 1 1 1 1 0.0094509567807171107 1 1 1 1 1 1 1 1 1 1 1 0.0098049319980124689 1 1 1 1 1 1 1 1 0.0084893244753829582 1 1 1 0.0094479480804618068 1 1 1 1 0.010160118902212953 1 1 1 1 1 1 1 0.010444381708517142 1 0.010610100463879606 1 0.010020249582675677 1 1 1 1 1 1 1 1 1 1 1 1 1 0.010169041153209595 1 1 1 1 1 1 1 1 1 0.0099546574059517987 1 1 1 1 1 1 1 1 1 1 1 1 1 1 1 1 1 1 1 1 0.010090274149033119 1 1 1 0.01008664116320003 1 1 1 1 1 1 1 1 1 1 1 1 1 0.010288495728860982 1 1 1 0.010000607026305694 1 1 0.0093862870847708085 1 1 1 0.0099746838471471422 0.0094666359817571887 1 1 1 0.0099156867105812119 1 1 1 0.010008248027877207 1 0.0093892032073930667 0.0096184477126910646 1 0.0096906913035429924 0.01000016091683948 0.0081462144795687186 1 1 1 1 1 1 0.0094474161273953843 1 1 0.0098288868015571455 1 1 0.0097187285413747326 1 1 1 1 1 1 1 1 1 0.0097923938353564107 1 0.010052372929832774 1 1 1 1 1 1 1 1 1 1 1 1 1 1 0.0098257725043959 1 1 1 1 0.010020947777876838 1 1 1 1 0.008997663196207777 1 0.0090682746344179829 1 1 1 1 1 0.0088976641181230075 1 1 0.0097131955405458971 1 1 1 0.00949280411300156 1 1 1 1 1 0.0093813182825736655 1 0.0098646834948622111 0.0092091980844946301 1 1 1 0.0091231093747784816 1 1 0.010661874607065424 0.0087334159159248442 1 1 1 1 0.0098687979750560761 1 0.0082076261053584711 1 1 1 1 1 1 0.0081295640900869853 1 1 1 1 1 1 1 1 1 1 1 1 1 1 1 0.0099994073238427149 1 1 1 0.0099504935354962527 1 0.0081609757368506335 0.0088065856997877577 1 0.0091707150797411523 1 0.010476590290048342 1 1 0.0099962986952624698 1 1 1 0.010039218064647009 1 1 1 1 0.0094223707699707237 1 1 1 1 1 1 0.0094673446175857143 0.0097964641310814178 1 1 1 0.010020103877297579 0.0095874739477699138 1 1 0.010701103981296639 1 0.0099832719744568348 1 0.010286303025230035 0.0086892935981535448 1 1 1 1 1 1 1 1 1 1 1 1 1 0.0098268376081122946 1 1 1 1 1 1 1 1 1 1 1 1 1 0.0094398711385582229 1 1 1 0.0092927167487782993 0.0086515758703043649 1 1 1 1 1 1 1 1 1 1 1 1 1 0.0085746750959072703 1 1 1 1 1 0.009969567806953343 1 1 1 1 1 1 1 0.010007335564643635 1 1 0.009278657940459312 1 1 1 1 1 1 1 1 1 1 0.009954556619631752 1 1 1 0.010002790282480878 1 0.010005157172358758 1 1 1 1 1 1 1 1 1 1 1 1 1 1 1 1 1 0.010971739978495588 0.0099665823474801747 1 1 1 1 0.009799067173476058 1 1 1 1 1 1 0.0099625328373049039 1 1 1 1 0.010568504320871037 0.010540677531297978 1 1 1 0.010362199550359457 1 1 0.009904702145631987 1 1 1 1 1 1 1 0.0095702803886149324 1 1 0.010043720374342303 1 0.010185529828896488 0.010105523931818999 1 1 0.010899102357279774 0.0095063231795892017 1 0.010597631322906106 1 1 1 1 1 1 1 1 1 1 0.0097845489959268207 1 1 1 0.0097393560816189766 0.0093968196151705593 1 0.010216183046972659 1 1 1 1 1 1 0.0098436588370095657 1 0.010006799555909208 1 1 1 1 1 1 1 1 1 1 1 0.010114945909173166 1 1 1 1 1 1 1 1 1 1 1 1 1 1 1 1 1 1 0.0098847130311765855 1 1 1 1 0.0093852469837409479 1 1 0.0093897835837850954 0.0099803883447289691 1 1 1 1 0.0099705315097494921 1 1 1 1 1 1 1 0.0094647560603577409 1 1 1 0.010002774599571669 1 1 1 1 1 0.0099950307262075752 1 1 1 1 1 0.00962766105788849 1 1 1 1 1 0.0095492317784799923 1 1 1 1 1 1 1 1 1 0.009928833972916459 1 1 1 1 0.0096061677600760738 1 0.010100609198254479 1 0.010455378924927174 1 1 1 0.0096248651842906416 1 0.010000621321719212 1 1 0.0093068398673783644 1 1 1 1 1 1 0.010130539630657596 1 1 0.0099977455939179154 1 0.0096870055039285623 1 1 1 1 1 1 1 1 0.0099881322180930647 1 1 1 1 1 1 1 1 1 0.0093936052110852562 1 1 1 1 1 0.0099860283293337297 1 0.0099988327894526413 1 1 1 1 1 1 1 1 1 1 1 1 1 1 1 1 1 1 1 1 1 1 1 1 0.010868128668877521 1 1 1 0.010639969916996915 1 1 0.0099507445851438406 1 1 1 1 1 1 0.01011118089839896 1 1 1 1 1 1 1 1 1 1 1 1 0.0097915560423044688 0.010005204881727996 1 1 1 0.0093421936554396665 1 0.010067332116291093 1 1 1 0.010469106340306952 1 1 1 1 0.010039037389406291 1 0.010121511063516721 1 1 1 1 1 1 0.010113520291230825 1 1 1 1 1 1 0.010022116183395239 1 0.01030467379335628 1 1 1 1 0.010122478081376361 1 1 1 1 1 1 1 1 1 0.009903449983491467 1 0.010207671564885662 1 1 1 1 1 1 1 1 1 1 1 1 1 1 1 1 1 1 1 1 1 1 1 1 1 1 0.010851413007590216 1 1 0.010129205055164743 1 1 1 1 1 1 1 1 1 1 1 1 1 1 1 1 1 1 1 1 1 1 1 1 1 1 1 1 1 1 0.010076525948497526 1 1 1 1 1 1 1 1 1 1 1 1 1 1 1 1 0.0099880255463787367 1 1 1 1 1 1 1 1 1 1 1 1 1 1 0.010045586672321832 1 1 1 1 1 1 1 1 1 1 1 1 1 1 1 1 1 1 1 1 1 1 1 1 1 1 0.0099523034040084647 1 1 1 1 1 1 1 1 1 1 1 1 1 1 1 0.010190236471120828 1 1 1 0.0098248105887629791 1 1 1 1 1 1 1 1 1 1 1 1 1 1 1 1 1 0.009945741340965833 1 1 1 0.009769021985793918 1 1 1 1 0.010102522910738952 1 1 0.010004501156073172 1 1 1 1 1 1 1 1 1 1 1 0.0085213969023281225 1 1 1 0.0087757970991161945 1 0.010200620137892684 1 1 1 1 1 1 1 0.0094474706875498724 1 1 1 1 1 0.0090295971796190231 1 1 1 1 1 0.0099950866343832909 1 1 1 1 1 0.0083996199437142323 1 1 1 1 1 1 1 1 1 1 1 1 1 1 0.010736742564118114 1 1 1 1 0.0099461149001083583 1 0.010365599929182784 1 1 1 1 1 0.0099252169336091212 1 1 1 1 0.0087189674959927202 1 1 1 1 1 1 0.0085029569489480979 1 1 0.0086456622488653989 1 1 1 1 1 1 0.0067243622729180642 1 1 1 1 0.01000517021077077 1 1 1 0.0064111437495905426 1 1 1 1 1 1 0.010092871105712459 1 1 1 1 1 1 1 1 1 1 1 1 1 1 1 1 1 1 1 1 1 1 0.0098523455301549739 1 0.0087212333215850191 1 1 1 1 1 1 1 1 1 1 1 1 1 1 1 1 1 1 1 0.010030020723827641 0.008992601986540498 1 1 1 1 1 1 1 1 0.010082830758570343 1 1 1 1 1 1 1 1 1 1 1 0.00984731141700553 1 1 1 0.0098414405991202637 1 1 0.0098360507098380623 1 1 1 1 1 1 1 1 1 1 1 1 1 1 1 0.0099590590260124328 1 1 1 1 0.010369060072577371 1 1 1 0.010168345596367808 1 1 1 1 1 1 1 1 1 0.010488009277328791 1 1 1 1 1 1 1 1 1 1 1 1 1 1 1 1 1 1 1 1 0.01125230296786303 1 1 1 0.0088344898748976344 1 1 1 0.0092113203463520359 1 1 1 1 1 0.0098888493797643813 1 1 0.0099602047192161869 1 1 0.011398514739339057 0.0099605519446151151 1 1 0.010111680975661889 1 1 1 1 1 1 0.01002803931593038 1 1 0.0099351881917009444 1 1 0.010000120504937905 1 1 1 1 1 1 0.0099181407763273624 1 1 1 1 1 1 1 1 1 1 1 1 1 1 1 1 1 1 0.010066412247422185 1 1 1 1 0.0099736020797636417 1 1 1 1 1 1 1 1 1 1 1 1 1 1 1 1 1 1 1 1 1 1 1 1 1 1 1 1 1 1 1 1 1 1 0.010074168670972699 1 1 0.01024251426734051 1 1 1 1 0.010206477293648101 1 1 1 1 1 1 0.010269270101390659 1 1 1 1 1 1 1 1 1 1 1 1 1 1 1 1 1 1 1 0.010017797234667388 1 1 0.010046239064807089 1 0.01114468236550983 1 1 0.010630847167075779 1 1 1 1 1 1 1 1 1 1 1 1 0.010193534591115508 1 1 1 1 1 0.0097187447223661162 1 1 1 1 1 1 1 1 1 1 1 1 1 1 1 1 1 1 1 1 1 0.0098701204808969243 0.009194885246125311 1 1 1 1 1 1 1 1 1 0.008796581915426066 1 0.009569534104765097 1 1 0.0085273318421698382 1 0.0092232198779232805 1 1 1 1 1 1 0.0088955240652807948 0.0087946670822885691 1 1 1 1 0.010514039874589876 1 1 1 1 1 0.010138543106390865 1 0.010475717897054475 1 1 1 1 1 1 1 1 1 1 1 1 1 1 0.010033548970363015 1 1 1 1 1 1 0.0099089611293707702 1 1 1 1 1 0.0094540267566231399 1 1 1 1 1 1 1 1 1 1 1 1 1 1 1 1 1 1 1 1 1 1 1 1 1 0.0085711992152547357 1 1 1 1 1 1 1 1 1 1 1 1 1 1 1 1 1 1 1 1 1 1 1 1 1 1 1 1 1 1 1 1 1 1 1 1 1 1 1 1 1 1 1 1 1 1 1 1 1 1 0.0099781042163769318 1 1 1 1 0.0099914206113398719 1 1 1 1 1 1 1 1 1 1 1 1 1 1 1 1 1 1 1 1 0.0099049797125848917 1 1 0.0097739899278261825 1 1 1 1 0.0099883044677344726 1 1 1 1 1 1 0.0096972112905379 1 1 1 1 1 1 1 1 1 1 1 1 0.009933636317445543 1 0.0088567680686249192 1 1 1 1 1 1 1 1 1 1 1 1 0.0099968838563946009 1 1 1 1 1 0.010015707265528438 1 1 1 0.0089614225226297174 0.011119809897613922 1 1 1 1 0.0099554727988563456 1 1 1 1 1 1 1 0.0095570734970798869 1 1 1 1 1 1 1 1 1 1 0.0097667036367625384 1 1 1 1 1 1 1 1 1 1 1 1 0.0092862952173119184 0.011511474280672299 1 1 1 1 0.0092518352174173809 0.010876830469574175 1 1 1 1 1 1 1 0.0093587768899292857 1 1 0.010811780465973562 1 1 1 1 0.0097782274054784048 1 1 1 1 1 1 1 0.01043572497553571 1 1 0.011272359539422842 0.0089793704804690573 1 1 1 1 1 1 1 1 0.009335222587814827 0.0094965154912133049 1 0.010206300396654332 0.0099997632814499277 1 1 1 0.009491189406001627 1 0.0092509138549004694 1 1 1 1 1 1 1 1 1 1 1 1 1 1 1 1 1 1 1 1 1 1 1 1 1 1 1 1 1 1 1 1 1 1 0.0099491416243260265 0.0099813628405147105 1 1 1 1 1 1 1 1 1 1 1 1 0.0099114712744605565 1 1 1 1 1 1 1 0.0099618045193925649 1 1 1 1 1 1 1 0.0097533704625355939 1 1 1 1 1 1 1 1 1 0.0092936415463261441 1 1 1 1 0.0098571565891308732 0.0089279580406441128 1 1 1 1 1 1 1 1 1 1 1 1 1 0.0099433082729881821 1 1 1 1 1 1 1 1 1 1 1 1 1 1 1 1 1 1 1 1 1 1 1 1 1 1 1 1 1 0.0080278370647978853 1 0.0082708462405314334 1 1 1 0.011695900558140184 1 0.0083178904043427135 1 1 1 1 1 1 1 1 1 1 1 1 1 1 1 1 0.0083939331206888453 1 1 1 1 1 1 1 1 1 1 1 1 1 1 1 1 1 1 1 1 1 0.010798738654156811 1 0.010286870999239632 1 1 1 1 1 1 1 1 1 0.0084999807440941915 1 1 0.00915725445092299 1 1 0.010008496524454107 1 1 0.0097113568489177373 1 1 1 1 1 1 1 1 1 1 1 1 1 1 1 1 1 1 1 0.010025678409556536 1 1 1 0.010054146270111492 1 1 1 1 1 1 1 1 1 1 1 1 1 1 1 1 1 1 1 1 1 1 1 1 1 1 1 1 1 1 1 1 1 1 1 1 1 1 1 1 1 1 1 1 1 1 1 1 1 1 1 1 1 1 1 1 1 1 1 0.010185699226879291 1 1 1 1 1 1 1 1 1 1 1 1 1 1 1 1 1 1 1 1 1 1 0.009978953545345056 1 1 1 1 1 1 1 1 1 1 1 1 0.0096729807781406225 1 1 1 1 0.009764636091055592 1 1 1 1 1 1 1 1 1 0.0098115458377841525 1 1 1 1 1 1 1 1 1 1 1 1 1 1 1 1 1 1 1 1 0.0099189295214687744 1 1 1 1 1 1 1 1 1 1 1 1 1 1 1 1 0.00995049958907686 1 0.010364170540493411 1 1 1 1 1 1 1 1 1 1 1 1 1 1 1 1 1 1 1 1 1 1 1 1 1 1 1 1 1 1 1 1 1 1 1 1 1 1 1 1 1 1 1 1 1 1 1 1 1 1 1 1 1 1 1 1 1 1 1 1 1 1 1 1 1 1 1 1 1 0.010119105901753142 1 1 1 1 1 0.010381528124775278 1 1 1 1 1 1 1 1 1 1 1 1 1 0.0098270875297071236 1 1 1 1 1 1 1 1 0.0098002527177064053 1 1 1 1 0.010721887782390685 0.010027586501137584 1 1 0.010479695365684183 1 0.010625682037931097 1 1 1 1 1 1 0.010000601843716615 1 1 0.01006444159878715 1 1 1 1 1 1 0.0099447021938926239 1 1 1 1 1 1 1 1 1 1 1 1 1 1 1 1 1 1 0.0098980772419006505 1 1 1 1 1 1 1 1 0.010335184092203416 1 1 1 1 0.0099288236940294049 1 1 1 1 1 1 1 1 1 1 1 1 1 0.010164027321420502 1 1 1 1 0.010208592543409728 1 1 1 1 1 1 1 0.010143811154197248 1 1 1 1 0.010425402604204591 1 1 1 1 1 1 0.010692744531217473 1 1 1 1 0.01006314026136839 1 1 1 1 1 1 1 1 1 1 1 0.010794560091395393 1 1 1 1 1 1 1 1 1 0.010128351012300311 1 1 1 0.010322501631856261 1 1 1 0.010312255820306978 1 1 1 1 1 1 1 0.010597784192724242 1 1 1 0.0099677787838113145 1 1 1 1 1 1 1 0.010207583066888841 1 1 0.010088188283010153 1 1 1 1 1 1 1 1 0.010071645783999394 1 1 1 1 1 1 1 0.010118105200751031 1 1 0.010069580157018632 1 1 1 1 1 1 1 1 1 0.010016569423312891 1 1 1 1 0.010211320699278888 1 1 0.0098404086388035987 1 1 1 1 0.010014928588943053 1 1 1 1 1 0.01006970421805104 1 1 1 1 1 1 1 1 1 1 1 1 1 1 0.0096739837068502768 1 1 1 1 1 1 1 1 1 0.0099970252146858903 1 1 1 1 1 1 0.0099480576569468161 1 1 1 1 1 1 1 1 1 1 1 1 1 1 1 1 1 1 1 1 1 1 1 1 1 1 1 1 1 1 1 1 1 1 1 1 1 1 1 1 1 1 1 0.0094996908820984393 1 1 1 1 1 0.0089890138263006569 1 1 1 1 1 0.0091334942359716752 1 1 1 1 1 1 1 1 1 1 1 1 1 1 1 1 1 1 1 1 1 0.0099812399164014853 1 0.0099927360028347761 1 1 1 0.0099072700191490757 1 0.010012000006820539 1 1 1 0.0096509897710896873 1 1 1 1 1 1 1 1 1 1 1 0.0099955862922221396 0.0097847013138476734 1 1 1 1 1 1 1 1 1 0.0095307090811500954 0.0099337260084246901 1 1 1 1 1 1 1 1 1 1 0.010402412318205791 1 1 1 1 1 1 1 1 0.0086252558271811899 0.011576417888162611 1 1 1 1 1 0.011245720827610784 1 1 1 1 1 0.0093675871929662594 1 0.010249685795230931 1 1 1 1 1 0.010855531350985659 1 1 1 1 1 1 0.0086195425906660135 1 1 1 1 1 1 1 1 1 1 0.0079563638037263955 1 0.012172504812448647 1 0.01222508911922111 1 1 1 1 1 1 1 1 1 1 1 1 0.010145903458337515 1 1 1 0.010331602685216804 1 1 0.011027943534973687 1 1 1 1 1 0.010341212437299159 1 1 1 1 1 1 1 1 1 1 1 1 1 1 1 1 1 1 1 1 0.011688912611590108 1 1 1 1 1 1 1 1 1 1 1 1 1 1 1 1 1 1 1 1 1 1 1 1 1 1 1 0.0099445244712589257 1 1 1 1 1 1 1 1 1 0.010418590295703224 1 1 1 1 1 0.011208662163908586 1 1 1 1 1 1 1 1 1 1 1 1 1 1 1 1 1 1 1 1 1 1 1 0.0099153940985246478 1 0.0092486186223061581 1 1 1 1 1 1 1 1 0.009341139777908819 1 1 1 0.0097184693199368014 1 1 0.0095744257011527792 1 0.011955288104153021 1 1 1 1 1 1 0.011533119830601358 0.0088993033362286672 0.010011049845369031 1 1 1 0.0088419198204920165 1 1 1 1 1 1 1 1 1 0.0091120541878387182 1 1 1 0.0094464078659090272 1 1 1 1 0.0097754910893872188 1 1 1 1 1 1 1 1 1 1 1 1 1 1 1 1 1 0.009515006863978966 1 1 1 1 1 0.010347764344879939 1 1 0.0093931302479933806 0.0097007163596808232 1 1 0.0096842157025239951 1 1 1 1 1 1 1 1 1 0.010176688419906937 1 0.0099993895460635009 1 0.010034528694499521 1 1 1 1 0.0093090597450011196 1 1 0.0095217201466482361 1 1 1 0.0096505817680728988 1 1 1 1 1 0.010055374616848464 1 1 1 0.010021639262500034 1 1 1 1 1 0.010681944500465619 1 1 1 1 1 1 1 1 1 0.0097965366745307609 1 1 1 0.010182958618992559 1 1 1 1 1 1 1 1 1 1 1 0.0095036471888299296 1 1 1 1 0.0090170324880010019 1 0.011281858875217427 1 1 1 1 1 0.0097187004252558273 0.0097477355907545048 1 1 1 1 1 1 1 1 1 0.009755911598075425 1 1 1 1 1 0.0098914668013538095 1 1 1 1 1 1 1 1 0.0098736486681431715 1 0.009841402222828817 1 1 0.011534300911997796 1 1 1 1 1 1 1 1 0.01109700895829294 1 1 0.010286491333828966 1 1 1 1 0.010423281689911797 1 1 1 1 1 1 1 1 1 1 1 1 1 1 1 1 1 0.0095000903683196986 1 1 1 1 1 1 1 1 1 1 1 1 0.0093644232751351961 1 1 0.0099486775574099129 0.010004988178464807 0.010702319967100945 1 0.009665419081181811 1 1 1 1 1 1 0.010425160211412831 1 0.0098137934509059804 1 1 1 1 1 1 1 1 1 1 0.0081112899566840643 1 1 1 1 1 1 0.010031871010150026 1 1 1 0.0091488195704461754 1 1 0.010007802045518066 0.009769474272577754 1 1 1 1 1 0.0099332894282593981 1 1 1 0.0082066047619959309 1 1 1 1 1 1 1 1 1 1 1 1 0.0099328409420883466 1 1 1 1 1 1 1 0.0085578966545552804 1 1 1 1 1 1 1 1 1 1 0.01231366446297932 1 1 1 1 0.0077881265182824354 1 0.010601334938098526 1 1 1 0.0080633581119793577 1 1 1 0.0096886111177872172 1 1 1 1 1 1 1 1 1 1 1 1 1 0.0099436488831449125 1 1 1 1 0.010193941865023811 1 1 1 1 1 1 1 1 1 1 1 1 0.0094259677749614079 1 1 0.010298653481223805 1 1 1 1 1 1 1 1 1 1 1 0.010216879818511057 0.010086452488277229 1 1 1 1 1 1 1 1 1 1 1 1 1 1 1 1 1 1 1 1 1 1 0.0098975173820014823 1 1 1 1 1 1 1 1 1 1 1 1 1 1 1 1 1 1 1 1 1 1 1 1 1 0.011012572965824434 1 1 1 1 1 1 1 1 1 1 1 1 1 0.010896545263615109 0.010018276043209245 1 1 1 1 1 1 0.010720412608796583 1 1 1 0.010032394340036858 0.011575433880800264 1 1 1 1 1 1 0.0099962313698683698 1 1 1 1 0.0099986888144968419 1 1 1 0.008314258137516713 1 0.010015785169990866 1 1 1 1 1 1 1 1 1 1 1 1 0.010028987461560271 1 1 0.010028024338243095 1 1 1 1 1 1 1 1 1 0.0098753234402982268 1 1 1 0.0097630829170066782 0.0097408889753034262 1 1 1 1 1 1 1 1 1 1 1 0.0099785438131093883 1 0.011017590964407072 1 1 1 1 1 1 0.0063307211631510579 1 1 0.0070333398777803618 1 1 1 1 1 1 1 0.011421138468720397 1 1 1 1 1 1 1 1 0.010483886122476227 1 1 1 1 1 1 1 1 1 1 1 1 0.010061890176177016 0.010100062443455491 1 1 1 1 0.010015466432875056 1 1 0.010053638700153529 1 1 1 1 1 1 1 1 1 0.0082783275557420499 1 1 1 1 0.0077039894962955529 1 1 1 1 1 1 1 1 1 1 0.0099474965858051267 1 1 1 0.009903637613196804 1 1 1 1 1 0.0099561410273916757 1 1 1 1 1 1 1 1 1 0.0099579626441333707 1 1 1 1 1 1 1 1 1 1 1 1 1 1 1 1 1 1 1 1 1 1 1 1 1 1 1 1 1 0.010073877648752573 0.010269649093589971 1 1 1 1 1 1 1 1 1 1 1 1 0.008808718517275195 1 1 1 1 1 1 1 1 1 1 1 1 1 1 1 1 1 1 1 1 0.0091365511332496957 1 1 1 1 1 1 1 1 1 1 1 1 1 1 1 0.0094061921261769082 1 1 1 1 1 1 1 1 1 1 1 1 1 0.0099632271023358566 0.009450194205760383 1 1 1 1 1 1 1 1 1 1 1 1 1 1 1 1 1 1 1 1 1 1 1 1 1 1 1 1 1 1 1 1 1 1 1 1 1 1 1 0.010212831611110935 1 1 1 1 0.010078538517915757 1 1 1 1 1 1 1 1 1 1 1 1 1 1 1 1 1 1 0.0099646312494880099 1 0.011660974495686292 1 0.0099458462754232896 1 1 1 1 1 1 1 1 1 1 1 1 1 1 0.010058356598562421 1 1 1 1 1 1 1 1 1 1 1 0.010093184200231836 0.01005310364487866 1 1 1 1 1 1 1 1 1 1 1 1 1 1 1 1 1 1 1 1 1 1 1 0.0097244328703528036 1 1 1 1 1 1 0.0093144252281749836 1 1 1 1 1 1 1 1 0.0092209345937252461 1 1 1 1 0.0091752602680039742 1 1 1 1 1 1 1 1 1 1 1 1 1 0.0099500110877707194 1 1 0.0099544165164768342 1 1 1 1 1 1 0.0096874254894780739 1 1 1 1 1 1 1 1 1 1 0.010527226990174388 1 1 1 1 0.010171218265400125 1 1 1 1 1 1 1 1 1 1 1 1 1 1 0.0088860583979454393 1 1 0.0099993054343778462 1 1 1 1 1 1 1 0.010137564096067335 1 1 1 0.0091664432800105528 1 0.0089000646135043524 1 1 1 1 0.010106595435648706 1 1 1 0.0096940487953785081 1 1 1 0.0095300506819257051 1 1 1 1 1 1 1 1 1 1 0.0098608816383917337 0.010207747458900792 1 1 0.010028353199928498 0.010365902595829257 1 1 1 1 1 0.0099989470525268659 1 0.011962674861714533 0.010006797793816243 1 1 1 1 1 1 1 1 0.010515853653346806 1 0.011770738532419535 1 1 1 1 1 1 1 1 1 1 1 1 1 1 1 1 1 1 1 1 1 1 1 1 1 1 1 1 1 1 1 1 1 1 1 1 1 1 1 1 1 1 1 1 1 1 1 1 1 1 1 1 1 1 1 1 1 1 1 1 1 1 1 1 1 0.010025979242316452 1 0.009888353300760884 1 1 1 1 1 1 1 0.0099678562102480661 1 1 1 0.0096409366847599928 1 1 1 1 1 1 1 1 1 1 1 1 0.0098585890928000811 1 1 1 1 1 1 1 0.011018977902414604 0.010009666099791675 1 1 1 1 1 1 1 1 0.010249890592464176 1 1 1 1 1 0.0099417329098207587 1 1 0.010046725789668282 1 1 1 1 1 1 1 1 1 1 1 1 1 1 1 1 1 1 1 1 1 1 1 1 0.009658334446004814 0.0097895702196334027 0.0095408619931781173 1 1 1 1 1 1 0.01076688472387786 1 0.010468550039688315 1 1 1 1 1 1 1 1 1 0.010047699415382749 1 1 0.010384364501803696 1 1 0.01056337978666414 0.0096144333728392824 1 1 1 0.010126723731287778 1 0.009834002293787867 1 1 0.010107536364340678 0.0099992234336673952 1 1 1 1 1 0.0096979198458772235 1 0.009982692275135225 1 1 0.010224477235193184 1 1 0.010061019952660458 1 0.0099935445197428911 1 0.010251044004025427 0.0099811225618532083 1 0.010092889937409368 1 0.0098289595456655977 0.010255715362199651 1 1 1 1 1 0.010322565203137277 1 0.010687693735132892 0.010467663841964622 1 1 0.010626981910174978 1 0.010585603259017654 1 0.010004390439023195 1 0.0099654844001437117 1 1 1 0.0099863056343687841 1 1 1 1 0.010020555704096427 1 1 1 1 1 0.010058836388755165 1 1 1 0.0099992958613236149 0.010243987706695268 1 1 1 1 1 1 1 1 1 1 1 0.010043341408454514 1 0.01023697348793901 0.010025101881382469 0.0099464078555410174 1 1 1 1 1 1 1 1 0.0099699449314656977 1 1 1 0.0099104197017491555 1 1 1 1 1 1 1 1 1 1 1 0.0099461126199714613 0.0096382481757028293 1 1 1 1 0.0097660539041333379 0.0098519893455143188 0.010368870371028271 1 0.0097762204818888504 1 1 0.010273907674925573 1 1 1 1 1 1 1 0.0095728228192278192 1 1 1 0.0099085834210125828 1 1 1 1 1 1 1 1 1 1 1 1 0.010030649967538482 1 1 1 0.010278058317351863 1 1 1 1 1 1 0.010112215617483662 1 1 1 1 1 1 0.0089929363833366679 1 0.0099853237252731809 1 1 1 1 1 1 1 1 1 1 1 1 1 1 1 1 1 1 1 1 1 1 1 1 1 1 1 1 1 1 1 1 1 1 1 1 1 1 1 1 1 0.0099443967720127795 0.010053426283546153 1 1 1 1 1 1 1 0.012736079450319876 1 1 0.0094210803408951351 1 1 1 1 1 0.0088614890292526109 1 1 1 1 1 1 1 1 1 0.010258708336056844 1 0.008423907725627313 1 0.010755295085210394 1 1 1 1 1 1 1 1 1 1 1 1 1 1 1 1 1 1 1 1 0.00996935675802154 1 1 1 0.009996472964917593 1 1 1 0.013702945644016251 0.01026868605541555 1 0.01006849333838996 0.0099785110136821897 1 1 0.01008555460853955 1 0.012327226430540295 1 1 0.0099990892840631351 1 1 1 1 1 1 1 1 1 1 0.0099360102065975901 1 1 1 1 0.01079314389412149 1 1 1 1 1 1 1 1 1 1 1 1 1 1 0.0092342147349590668 1 1 1 1 1 1 0.012850658495916543 1 1 1 1 1 1 1 1 1 1 1 0.010010679289180006 1 0.0098168368491450397 1 0.01133994182811607 1 1 0.010000433638332151 1 1 0.0097010139101765744 0.0095639058081517792 1 0.0095930180739618731 1 1 1 1 1 1 1 0.0099076327150011446 0.0099624729232504136 1 1 1 1 1 1 0.011860753843502863 1 0.0099365242967582139 1 1 0.0099776701885220462 1 1 1 1 0.011612494089862316 1 1 1 1 1 1 1 1 1 0.01188185018825135 1 1 1 1 0.0090311367723697536 1 1 1 1 0.0095646627698833166 1 1 1 0.011217350060857056 1 1 1 1 1 0.010944847226060874 1 1 1 1 1 1 0.0098768906215206832 1 1 1 1 1 0.0099403707277877975 1 1 1 1 1 1 1 1 1 1 0.0097555850997605564 1 1 1 1 1 1 1 1 1 1 1 0.0092921377417625826 1 1 1 1 1 1 1 1 1 1 1 1 1 1 1 1 1 1 0.0099410738404079393 1 1 1 1 1 1 1 1 1 1 1 1 1 1 1 0.011519629924620143 1 1 1 1 0.012226232967910641 1 1 0.010035508692580505 1 1 1 1 1 0.010000902007024097 1 1 1 1 0.010003836739733275 0.010523560572408403 1 1 1 1 1 1 1 0.0091847810018044658 0.0092941047007061225 1 1 1 1 1 0.010933272199863606 1 0.0098965650397928977 1 1 0.010010343079848097 1 1 1 1 1 1 1 1 0.0098268402837317186 1 1 1 1 1 1 1 0.011335904058277326 1 1 1 1 1 1 0.01148289350935486 1 1 1 1 0.010241288611633403 1 1 1 1 1 1 1 1 1 1 1 1 0.010084774025031122 1 1 1 1 1 1 1 1 1 1 1 1 1 1 1 1 1 1 1 1 1 1 1 1 1 1 1 1 0.0099855434494856583 1 1 1 1 1 1 1 1 1 1 1 1 1 1 1 1 1 0.01216362303544264 1 1 1 1 1 1 1 1 0.010167180322855138 0.012300380221377685 1 1 1 1 1 1 1 1 1 1 1 1 0.010570966777459887 1 1 1 1 1 1 1 1 1 1 1 1 1 1 1 1 1 1 1 1 1 1 1 1 1 1 1 1 0.01072200050829503 0.012352594822808451 1 1 1 1 1 0.010012875788839878 1 1 1 0.011048217964748053 0.0099938121677276663 1 1 1 1 1 1 1 1 1 1 1 1 1 1 0.01117335450183812 0.011131497099360821 1 1 0.010761025998130731 1 1 1 0.010230827570154189 0.010293984166699173 0.011786843782898564 1 1 1 1 1 1 1 1 1 0.011608983122775994 1 1 0.01093821322763899 1 1 1 0.0099997340413632962 0.010228089768615747 1 0.0097978528633435522 1 1 1 1 1 1 1 1 1 1 0.010030632997829362 1 0.0099996887416769487 1 1 1 1 1 0.0099987350471052918 1 0.010141715874082911 1 1 0.010063727845628355 1 1 1 1 1 1 1 1 1 1 1 1 0.010267591039181203 1 1 1 1 1 1 1 1 1 1 1 1 1 1 1 0.01007155928494685 1 1 1 1 1 1 1 1 1 1 1 1 1 1 1 1 1 1 0.010014655099642819 1 1 0.010028588215077967 0.010358670109870511 1 0.0094463163807319613 1 1 1 1 1 1 1 1 1 1 1 1 0.0096148976180803758 1 1 1 1 0.0098536651695819762 1 1 1 1 1 1 1 1 1 1 1 1 0.010046055116292699 1 1 1 1 1 1 1 1 1 1 1 1 1 1 1 1 1 1 1 1 1 1 1 1 1 0.010750693584328175 1 1 1 1 1 1 1 1 1 1 1 1 1 1 1 1 1 1 1 1 1 1 1 1 1 1 1 1 1 0.0093688145401594307 1 1 0.0092093110836431388 1 1 1 1 1 1 1 1 1 1 0.0097298709096215099 1 1 1 1 1 1 1 1 1 1 1 1 1 1 1 1 1 1 1 1 1 1 1 1 1 1 1 1 1 1 1 1 1 1 1 1 1 1 1 1 1 1 1 1 1 1 1 0.01016309435231191 1 1 1 0.010065173489309491 1 1 1 1 1 1 1 1 1 1 1 1 1 1 1 1 1 1 1 1 1 1 1 1 1 1 1 1 1 1 0.010193115902181134 1 1 1 1 0.010242239074594681 1 1 1 1 1 1 1 1 1 1 1 1 1 1 1 0.01001554198865574 1 1 1 1 1 1 1 1 1 1 1 1 1 1 1 1 1 1 1 0.0096503145033356302 1 1 1 0.0098374639671026942 1 1 1 1 1 1 1 1 1 1 1 1 1 1 1 1 1 1 0.0098594245952488245 1 1 1 1 1 0.010019773289970529 1 1 1 0.010024178718676642 1 1 1 1 1 1 1 1 1 1 0.0096923645738022368 1 1 1 1 1 1 1 1 1 1 1 1 1 1 1 0.010244755097689143 1 1 1 1 0.010714178497096473 1 1 1 1 1 1 1 1 1 1 1 1 0.0099318245677115797 1 1 0.0098795140375693025 1 1 1 1 1 1 0.0093866640260715627 1 1 1 1 1 1 0.0096556275765910717 1 0.011208799203856911 1 1 0.0089068878645036081 1 0.0099127682471046741 1 1 1 0.010025318929881856 1 1 1 0.0088511379205505093 1 1 1 0.011611000176861466 1 1 1 1 1 1 1 1 0.0094496163253945907 1 1 0.0097873261445972429 1 1 1 1 1 1 1 1 1 1 1 1 
</DataArray>
</CellData>
</Piece>
</UnstructuredGrid>
</VTKFile>
